# vtk DataFile Version 2.0
Simplicial Mesh Example
ASCII
DATASET UNSTRUCTURED_GRID
POINTS 9288 double
3.000000e+05 -9.891990e+04 0.000000e+00
3.328749e+05 -8.356390e+04 0.000000e+00
3.236712e+05 -1.028000e+05 -2.481669e+04
3.234412e+05 -7.797130e+04 -2.292780e+04
3.000000e+05 -8.047108e+04 -2.500930e+04
3.330442e+05 -8.129153e+04 -5.000000e+04
3.500484e+05 -6.067306e+04 -2.480784e+04
3.216408e+05 -5.436978e+04 -2.411338e+04
3.000000e+05 -6.175270e+04 -5.000000e+04
3.000000e+05 -9.578803e+04 -5.000000e+04
3.500876e+05 -9.335705e+04 -2.490082e+04
-2.434777e+05 4.000000e+05 -2.599219e+04
-2.260870e+05 4.000000e+05 0.000000e+00
-2.608696e+05 4.000000e+05 0.000000e+00
-2.490625e+05 3.760838e+05 -2.473779e+04
-2.608696e+05 4.000000e+05 -5.000000e+04
-2.774387e+05 3.778182e+05 -2.091093e+04
-2.260870e+05 4.000000e+05 -5.000000e+04
-2.212397e+05 3.763711e+05 -2.515780e+04
-2.403655e+05 3.668276e+05 -5.000000e+04
-2.291712e+05 3.501689e+05 -2.503383e+04
3.000000e+05 -1.333400e+04 -2.594210e+04
3.000000e+05 1.620150e+03 0.000000e+00
3.223155e+05 -2.465755e+04 -2.313145e+04
3.208476e+05 4.362999e+03 -2.503082e+04
3.328345e+05 -1.263243e+04 -5.000000e+04
3.000000e+05 6.317960e+03 -5.000000e+04
3.329349e+05 -1.580352e+04 0.000000e+00
3.461572e+05 8.854694e+03 -2.503927e+04
3.333333e+04 -3.000000e+05 0.000000e+00
4.999999e+04 -3.000000e+05 -2.423892e+04
5.063514e+04 -3.328415e+05 0.000000e+00
3.468405e+04 -3.243713e+05 -2.478056e+04
-4.000000e+05 5.217391e+04 -5.000000e+04
-3.761490e+05 4.671498e+04 -2.533271e+04
-3.670913e+05 6.486035e+04 -5.000000e+04
-3.763451e+05 7.152968e+04 -2.659205e+04
-3.494435e+05 5.906246e+04 -2.495554e+04
-4.000000e+05 5.217391e+04 0.000000e+00
-3.672143e+05 6.907536e+04 0.000000e+00
-4.000000e+05 6.956522e+04 -2.479812e+04
-4.000000e+05 8.695652e+04 0.000000e+00
-3.773092e+05 9.370598e+04 -2.310057e+04
-1.029831e+05 3.668976e+05 -5.000000e+04
-1.285999e+05 3.481523e+05 -2.500799e+04
-9.430320e+04 3.496698e+05 -2.496278e+04
-1.196698e+05 3.754179e+05 -2.520742e+04
-4.000000e+05 1.043478e+05 -2.585127e+04
-4.000000e+05 1.217391e+05 0.000000e+00
-3.670445e+05 1.033589e+05 0.000000e+00
-3.784472e+05 1.216223e+05 -2.525066e+04
-3.671504e+05 9.984722e+04 -5.000000e+04
-4.000000e+05 1.217391e+05 -5.000000e+04
-3.518150e+05 1.239039e+05 -2.498195e+04
-1.854909e+05 3.326000e+05 -5.000000e+04
-1.715782e+05 3.667876e+05 -5.000000e+04
-2.059594e+05 3.668651e+05 -5.000000e+04
-1.949159e+05 3.518119e+05 -2.501748e+04
-3.685344e+05 -4.001205e+04 -5.000000e+04
-3.777980e+05 -4.402723e+04 -2.479253e+04
-3.513514e+05 -1.505841e+04 -2.514033e+04
-3.785245e+05 -1.648428e+04 -2.451245e+04
-4.000000e+05 -1.739130e+04 -5.000000e+04
-4.000000e+05 -3.478260e+04 -2.395986e+04
-3.670480e+05 -3.383533e+04 0.000000e+00
3.000000e+05 -1.143902e+05 -2.548291e+04
-4.000000e+05 -1.739130e+04 0.000000e+00
3.000000e+05 2.345935e+05 0.000000e+00
3.000000e+05 2.185827e+05 -2.423034e+04
3.237695e+05 2.403593e+05 -2.538032e+04
3.234880e+05 2.159433e+05 -2.715449e+04
3.328230e+05 2.204181e+05 0.000000e+00
3.000000e+05 2.018902e+05 0.000000e+00
3.222234e+05 1.912696e+05 -2.760593e+04
3.000000e+05 2.033094e+05 -5.000000e+04
3.329554e+05 1.883818e+05 -5.000000e+04
3.330197e+05 2.213769e+05 -5.000000e+04
3.000000e+05 2.355396e+05 -5.000000e+04
5.217391e+04 -4.000000e+05 -5.000000e+04
4.822279e+04 -3.761835e+05 -2.489046e+04
6.956522e+04 -4.000000e+05 -2.442176e+04
7.467376e+04 -3.751436e+05 -2.486351e+04
6.867436e+04 -3.670376e+05 -5.000000e+04
-3.680676e+05 -3.102454e+05 -5.000000e+04
-4.000000e+05 -2.956522e+05 -5.000000e+04
-4.000000e+05 -3.129450e+05 -2.471081e+04
-3.754651e+05 -2.988011e+05 -2.507448e+04
8.695652e+04 -4.000000e+05 -5.000000e+04
9.729544e+04 -3.774926e+05 -2.509494e+04
5.217391e+04 -4.000000e+05 0.000000e+00
6.874576e+04 -3.672032e+05 0.000000e+00
8.695652e+04 -4.000000e+05 0.000000e+00
5.891567e+04 -3.495321e+05 -2.495272e+04
3.672741e+05 -3.117788e+05 -5.000000e+04
4.000000e+05 -3.304348e+05 -5.000000e+04
4.000000e+05 -3.129826e+05 -2.495879e+04
3.738516e+05 -3.384516e+05 -2.239978e+04
-2.404610e+05 3.670426e+05 0.000000e+00
-1.333333e+05 3.000000e+05 0.000000e+00
-1.499994e+05 3.000000e+05 -2.403026e+04
-1.666667e+05 3.000000e+05 0.000000e+00
-1.519264e+05 3.329197e+05 0.000000e+00
-2.165723e+05 3.000000e+05 -2.560660e+04
-2.333333e+05 3.000000e+05 0.000000e+00
-2.000000e+05 3.000000e+05 0.000000e+00
-2.194203e+05 3.328736e+05 0.000000e+00
-4.000000e+05 -2.956522e+05 0.000000e+00
-3.670276e+05 -3.094409e+05 0.000000e+00
-1.517754e+05 3.326262e+05 -5.000000e+04
-1.180619e+05 3.326449e+05 -5.000000e+04
-1.340593e+05 3.221917e+05 -2.469176e+04
3.509225e+05 -3.669935e+05 0.000000e+00
3.319809e+05 -3.696896e+05 -2.602382e+04
3.448278e+05 -3.336564e+05 -2.377938e+04
4.000000e+05 -3.652174e+05 0.000000e+00
3.682669e+05 -3.723090e+05 -1.961320e+04
3.739662e+05 -2.951367e+05 -2.511275e+04
3.510512e+05 -3.693023e+05 -5.000000e+04
4.000000e+05 -3.470156e+05 -2.573153e+04
3.700520e+05 -3.432737e+05 -5.000000e+04
-3.000000e+05 1.341874e+05 0.000000e+00
-3.240811e+05 1.346462e+05 -2.508813e+04
-3.000000e+05 1.119133e+05 -2.512501e+04
-3.236189e+05 1.094018e+05 -2.287729e+04
-2.752133e+05 -3.666945e+05 0.000000e+00
-2.782548e+05 -4.000000e+05 -2.529878e+04
-2.956522e+05 -4.000000e+05 0.000000e+00
-2.961803e+05 -3.756864e+05 -2.338151e+04
-3.330014e+05 1.110677e+05 -5.000000e+04
-3.499452e+05 9.076670e+04 -2.474735e+04
-3.220639e+05 8.379236e+04 -2.241387e+04
3.328626e+05 1.553867e+05 -5.000000e+04
3.272780e+05 1.280625e+05 -1.788009e+04
3.492109e+05 1.657230e+05 -2.503498e+04
3.244617e+05 1.678413e+05 -2.496162e+04
-3.000000e+05 8.882203e+04 -5.000000e+04
-3.000000e+05 1.240184e+05 -5.000000e+04
3.327422e+05 1.535051e+05 0.000000e+00
3.670646e+05 1.380831e+05 0.000000e+00
3.327972e+05 1.197111e+05 0.000000e+00
3.516785e+05 1.309250e+05 -2.350011e+04
-3.328711e+05 1.188120e+05 0.000000e+00
-2.774301e+05 -3.000000e+05 -2.400592e+04
-2.666667e+05 -3.000000e+05 0.000000e+00
-3.000000e+05 -3.000000e+05 0.000000e+00
-2.887527e+05 -3.313076e+05 0.000000e+00
1.000000e+05 3.000000e+05 -5.000000e+04
1.166667e+05 3.000000e+05 -2.575187e+04
1.180714e+05 3.327255e+05 -5.000000e+04
9.951220e+04 3.220112e+05 -2.500087e+04
1.314601e+05 3.241679e+05 -2.354016e+04
9.364581e+04 3.501202e+05 -2.499158e+04
1.180711e+05 3.327220e+05 0.000000e+00
1.000000e+05 3.000000e+05 0.000000e+00
8.333333e+04 3.000000e+05 -2.488230e+04
6.666667e+04 3.000000e+05 0.000000e+00
8.437333e+04 3.328426e+05 0.000000e+00
-2.193729e+05 -3.327614e+05 0.000000e+00
-1.984489e+05 -3.487084e+05 -2.498389e+04
-2.255637e+05 -3.220916e+05 -2.480774e+04
-1.997150e+05 -3.216678e+05 -2.494973e+04
-2.166083e+05 -3.000000e+05 -2.432669e+04
-2.000000e+05 -3.000000e+05 0.000000e+00
1.181012e+05 -3.327393e+05 -5.000000e+04
1.181198e+05 -3.328215e+05 0.000000e+00
1.267692e+05 -3.500325e+05 -2.501203e+04
1.378469e+05 -3.238640e+05 -2.479444e+04
-2.194361e+05 -3.328434e+05 -5.000000e+04
3.000000e+05 -6.540655e+04 0.000000e+00
3.000000e+05 -4.704409e+04 -2.587389e+04
-2.000000e+05 -3.000000e+05 -5.000000e+04
-1.181761e+05 -3.329602e+05 -5.000000e+04
-1.256518e+05 -3.487565e+05 -2.501145e+04
-1.021642e+05 -3.239975e+05 -2.515764e+04
-1.357323e+05 -3.240118e+05 -2.507957e+04
8.695652e+04 4.000000e+05 -5.000000e+04
6.956522e+04 4.000000e+05 -2.479812e+04
6.873608e+04 3.672727e+05 -5.000000e+04
8.852908e+04 3.783599e+05 -2.511466e+04
-3.000000e+05 -3.000000e+05 -5.000000e+04
-3.334151e+05 -3.298278e+05 -5.000000e+04
-2.898053e+05 -3.326046e+05 -5.000000e+04
-3.144439e+05 -3.130012e+05 -2.491379e+04
6.182965e+04 3.779997e+05 -2.496700e+04
4.000000e+05 1.913043e+05 0.000000e+00
3.671396e+05 2.066670e+05 0.000000e+00
4.000000e+05 2.086957e+05 -2.620830e+04
3.759771e+05 1.891692e+05 -2.534471e+04
8.695652e+04 4.000000e+05 0.000000e+00
6.873267e+04 3.672065e+05 0.000000e+00
-3.435887e+04 -3.670248e+05 0.000000e+00
-3.478260e+04 -4.000000e+05 -2.451623e+04
-5.217391e+04 -4.000000e+05 0.000000e+00
-5.048147e+04 -3.761822e+05 -2.485406e+04
3.436651e+04 3.672768e+05 -5.000000e+04
1.739130e+04 4.000000e+05 -5.000000e+04
1.393202e+04 3.758346e+05 -2.491244e+04
4.003765e+04 3.757249e+05 -2.497885e+04
3.478260e+04 4.000000e+05 -2.504496e+04
5.217391e+04 4.000000e+05 0.000000e+00
3.435410e+04 3.670437e+05 0.000000e+00
2.755712e+04 3.505303e+05 -2.500575e+04
1.739130e+04 4.000000e+05 0.000000e+00
3.670891e+05 1.862933e+03 -5.000000e+04
3.742761e+05 1.677027e+04 -2.493456e+04
3.512355e+05 -2.497308e+04 -2.483192e+04
3.781086e+05 -1.765023e+04 -2.493225e+04
4.000000e+05 -1.739130e+04 -5.000000e+04
4.000000e+05 -1.192804e-02 -2.530346e+04
-3.328715e+05 -1.848068e+05 0.000000e+00
-3.671287e+05 -2.058668e+05 0.000000e+00
-3.671292e+05 -1.714095e+05 0.000000e+00
-3.501225e+05 -1.946877e+05 -2.524820e+04
3.672778e+05 4.586450e+02 0.000000e+00
-4.000000e+05 -2.260870e+05 -5.000000e+04
-4.000000e+05 -2.608696e+05 -5.000000e+04
-3.668871e+05 -2.388668e+05 -5.000000e+04
-4.000000e+05 -2.434777e+05 -2.599219e+04
4.000000e+05 -1.739130e+04 0.000000e+00
-3.000000e+05 1.842938e+04 -5.000000e+04
-3.329296e+05 5.601896e+03 -5.000000e+04
-3.225187e+05 -4.403791e+03 -2.678657e+04
-3.199464e+05 2.467194e+04 -2.281215e+04
-3.480737e+05 2.395723e+04 -2.492980e+04
-3.000000e+05 3.469979e+04 0.000000e+00
-3.328742e+05 5.154336e+04 0.000000e+00
-3.216158e+05 5.471200e+04 -2.444254e+04
-4.000000e+05 3.478260e+04 -2.504496e+04
-3.670456e+05 3.476383e+04 0.000000e+00
-4.000000e+05 1.739130e+04 0.000000e+00
-3.756042e+05 1.458470e+04 -2.490399e+04
-1.000000e+05 3.000000e+05 -5.000000e+04
-8.333335e+04 3.000000e+05 -2.367065e+04
-6.666667e+04 3.000000e+05 -5.000000e+04
-7.584987e+04 3.234585e+05 -2.456040e+04
-5.058931e+04 3.327252e+05 0.000000e+00
-6.107262e+04 3.493397e+05 -2.491598e+04
-4.618311e+04 3.199143e+05 -2.473589e+04
-8.432500e+04 3.326142e+05 -5.000000e+04
-1.035769e+05 3.235841e+05 -2.475576e+04
-6.666667e+04 3.000000e+05 0.000000e+00
-1.000000e+05 3.000000e+05 0.000000e+00
-8.439335e+04 3.328531e+05 0.000000e+00
-2.333333e+05 -3.000000e+05 0.000000e+00
-2.470395e+05 -3.242065e+05 -2.469221e+04
-2.534095e+05 -3.327230e+05 -5.000000e+04
-2.666667e+05 -3.000000e+05 -5.000000e+04
-2.726537e+05 -3.236221e+05 -2.475858e+04
-2.323564e+05 -3.500322e+05 -2.495207e+04
-2.492233e+05 -3.000000e+05 -2.405479e+04
-2.532232e+05 -3.324896e+05 0.000000e+00
-2.532445e+05 3.323685e+05 -5.000000e+04
-2.333333e+05 3.000000e+05 -5.000000e+04
-2.192620e+05 3.325812e+05 -5.000000e+04
-2.364934e+05 3.241019e+05 -2.518488e+04
-2.629405e+05 3.500053e+05 -2.493571e+04
-2.699876e+05 3.240961e+05 -2.509066e+04
-2.532897e+05 3.328415e+05 0.000000e+00
-3.000000e+05 -2.105115e+05 -2.644145e+04
-3.328701e+05 -2.188027e+05 0.000000e+00
-3.000000e+05 -1.989752e+05 0.000000e+00
-3.219544e+05 -1.972263e+05 -2.613925e+04
-3.238842e+05 -2.337582e+05 -2.518064e+04
-3.500929e+05 -2.273081e+05 -2.497154e+04
-3.325192e+05 -2.148069e+05 -5.000000e+04
-3.755995e+05 -2.540174e+05 -2.526931e+04
-4.000000e+05 -2.608696e+05 0.000000e+00
-3.671247e+05 -2.403228e+05 0.000000e+00
-3.670725e+05 -2.747880e+05 0.000000e+00
-3.773457e+05 -2.166100e+05 -2.320286e+04
-3.483676e+05 -2.607002e+05 -2.508128e+04
-3.520283e+05 -3.680530e+05 -5.000000e+04
-3.329646e+05 -3.673398e+05 -2.499955e+04
-3.479512e+05 -3.310377e+05 -2.503432e+04
-3.753519e+05 -3.404486e+05 -2.532318e+04
-1.031030e+05 -3.671959e+05 0.000000e+00
-8.695652e+04 -4.000000e+05 0.000000e+00
-1.217391e+05 -4.000000e+05 0.000000e+00
-1.043478e+05 -4.000000e+05 -2.528072e+04
-4.000000e+05 -3.470156e+05 -2.553754e+04
-4.000000e+05 -3.304348e+05 0.000000e+00
-3.508884e+05 -3.669673e+05 0.000000e+00
-3.748178e+05 -3.721387e+05 -2.039183e+04
-3.697599e+05 -3.404129e+05 0.000000e+00
-4.000000e+05 -3.652174e+05 0.000000e+00
3.000000e+05 -1.298234e+05 -5.000000e+04
3.329844e+05 -1.497579e+05 -5.000000e+04
3.329417e+05 -1.154679e+05 -5.000000e+04
3.240832e+05 -1.345014e+05 -2.507433e+04
3.240609e+05 -1.682390e+05 -2.510967e+04
3.500474e+05 -1.608838e+05 -2.501178e+04
3.500641e+05 -1.267943e+05 -2.500876e+04
3.000000e+05 -1.480083e+05 -2.499471e+04
3.328711e+05 -1.513286e+05 0.000000e+00
3.328730e+05 -1.174440e+05 0.000000e+00
3.000000e+05 -1.324332e+05 0.000000e+00
-1.374946e+05 -3.672664e+05 -5.000000e+04
-1.391304e+05 -4.000000e+05 -2.436406e+04
-1.374821e+05 -3.672340e+05 0.000000e+00
-1.615082e+05 -3.541231e+05 -2.497561e+04
3.652174e+05 4.000000e+05 0.000000e+00
3.678847e+05 3.496334e+05 0.000000e+00
3.419933e+05 3.684151e+05 0.000000e+00
3.365049e+05 3.749821e+05 -2.227444e+04
3.105531e+05 3.659338e+05 0.000000e+00
3.392787e+05 3.454250e+05 -2.494178e+04
3.020023e+05 3.472970e+05 -2.514552e+04
2.933367e+05 3.751805e+05 -2.517719e+04
3.520537e+05 3.680986e+05 -5.000000e+04
3.470156e+05 4.000000e+05 -2.423581e+04
3.304348e+05 4.000000e+05 -5.000000e+04
3.129450e+05 4.000000e+05 -2.456488e+04
3.304348e+05 4.000000e+05 0.000000e+00
-3.670265e+05 -2.040124e+05 -5.000000e+04
-3.703177e+05 -1.770983e+05 -2.528625e+04
3.759357e+05 1.548377e+05 -2.527491e+04
3.759008e+05 1.200973e+05 -2.508650e+04
4.000000e+05 1.391304e+05 -2.598887e+04
4.000000e+05 1.217391e+05 0.000000e+00
3.670551e+05 1.390500e+05 -5.000000e+04
3.671523e+05 1.049899e+05 -5.000000e+04
3.341467e+05 1.000860e+05 -2.010406e+04
3.756816e+05 8.810903e+04 -2.499250e+04
4.000000e+05 1.217391e+05 -5.000000e+04
4.000000e+05 1.043478e+05 -2.563966e+04
3.327662e+05 2.164933e+04 -5.000000e+04
3.497878e+05 4.380454e+04 -2.491289e+04
3.242010e+05 3.463896e+04 -2.491264e+04
3.000000e+05 1.985721e+04 -2.527405e+04
3.000000e+05 4.035329e+04 -5.000000e+04
3.000000e+05 3.513350e+04 0.000000e+00
3.328480e+05 5.196342e+04 0.000000e+00
3.330000e+05 1.806128e+04 0.000000e+00
-2.658911e+05 -3.495762e+05 -2.493997e+04
-2.578532e+05 -3.758230e+05 -2.502559e+04
-1.499998e+05 -3.000000e+05 -2.497236e+04
-1.666667e+05 -3.000000e+05 0.000000e+00
-1.833275e+05 -3.000000e+05 -2.537288e+04
-1.691935e+05 -3.249143e+05 -2.504825e+04
-2.755517e+05 -3.670745e+05 -5.000000e+04
-2.956522e+05 -4.000000e+05 -5.000000e+04
-3.304348e+05 -4.000000e+05 0.000000e+00
-3.129826e+05 -4.000000e+05 -2.495879e+04
-3.117485e+05 -3.655247e+05 0.000000e+00
-3.130930e+05 -3.668925e+05 -5.000000e+04
-3.328368e+05 -2.528083e+05 0.000000e+00
-3.304348e+05 -4.000000e+05 -5.000000e+04
-3.672145e+05 4.299700e+02 0.000000e+00
-4.000000e+05 -1.192804e-02 -2.425370e+04
-3.673687e+05 -4.829246e+03 -5.000000e+04
-4.000000e+05 1.739130e+04 -5.000000e+04
-3.670415e+05 2.984354e+04 -5.000000e+04
3.670491e+05 3.487383e+04 0.000000e+00
4.000000e+05 3.478260e+04 -2.437429e+04
3.760607e+05 5.355496e+04 -2.482710e+04
4.000000e+05 -3.304348e+05 0.000000e+00
3.670684e+05 6.928796e+04 0.000000e+00
3.508508e+05 7.514102e+04 -2.403857e+04
-3.327911e+05 -2.506705e+05 -5.000000e+04
3.671667e+05 7.078715e+04 -5.000000e+04
4.000000e+05 6.956522e+04 -2.442176e+04
4.000000e+05 5.217391e+04 -5.000000e+04
-3.328730e+05 8.517471e+04 0.000000e+00
-3.000000e+05 1.010248e+05 0.000000e+00
-3.000000e+05 7.771880e+04 -2.491237e+04
-3.327697e+05 7.566446e+04 -5.000000e+04
-3.000000e+05 6.786232e+04 0.000000e+00
1.374019e+05 -3.670628e+05 0.000000e+00
1.043478e+05 -4.000000e+05 -2.563966e+04
1.030249e+05 -3.670155e+05 0.000000e+00
1.397930e+05 -3.718608e+05 -2.522743e+04
3.671294e+05 -3.095808e+05 0.000000e+00
3.449280e+05 -2.984526e+05 -2.495716e+04
3.669521e+05 -2.747914e+05 0.000000e+00
1.565217e+05 -4.000000e+05 0.000000e+00
1.716883e+05 -3.669668e+05 0.000000e+00
1.391304e+05 -4.000000e+05 -2.598887e+04
1.374741e+05 -3.671811e+05 -5.000000e+04
1.716911e+05 -3.669862e+05 -5.000000e+04
1.030114e+05 -3.669854e+05 -5.000000e+04
1.602409e+05 -3.492223e+05 -2.498497e+04
3.672064e+05 -1.716388e+05 0.000000e+00
4.000000e+05 -1.565217e+05 0.000000e+00
4.000000e+05 -1.739130e+05 -2.434919e+04
3.760089e+05 -1.533158e+05 -2.483500e+04
4.000000e+05 -1.565217e+05 -5.000000e+04
4.000000e+05 -1.391304e+05 -2.436406e+04
3.671820e+05 -1.364594e+05 -5.000000e+04
3.670445e+05 -1.371306e+05 0.000000e+00
3.760554e+05 -1.188209e+05 -2.496166e+04
2.666667e+05 -3.000000e+05 -5.000000e+04
2.764576e+05 -3.000000e+05 -2.458208e+04
2.489823e+05 -3.000000e+05 -2.399896e+04
2.699790e+05 -3.240490e+05 -2.475701e+04
2.887210e+05 -3.313936e+05 0.000000e+00
2.666667e+05 -3.000000e+05 0.000000e+00
2.887970e+05 -3.334032e+05 -5.000000e+04
3.138674e+05 -3.133503e+05 -2.500191e+04
3.023561e+05 -3.461235e+05 -2.514138e+04
2.646310e+05 -3.496252e+05 -2.495861e+04
-1.717520e+05 -3.670508e+05 -5.000000e+04
-1.565217e+05 -4.000000e+05 -5.000000e+04
-1.739130e+05 -4.000000e+05 -2.434919e+04
2.533126e+05 -3.328200e+05 -5.000000e+04
2.366047e+05 -3.240764e+05 -2.473556e+04
2.534041e+05 -3.325633e+05 0.000000e+00
2.298439e+05 -3.499144e+05 -2.498704e+04
2.333333e+05 -3.000000e+05 0.000000e+00
2.165322e+05 -3.000000e+05 -2.395577e+04
1.374092e+05 3.670663e+05 -5.000000e+04
1.290186e+05 3.519747e+05 -2.484885e+04
1.538111e+05 3.761384e+05 -2.529945e+04
1.196511e+05 3.764156e+05 -2.523118e+04
1.030281e+05 3.669960e+05 0.000000e+00
1.391304e+05 4.000000e+05 -2.602244e+04
1.374090e+05 3.670656e+05 0.000000e+00
1.217391e+05 4.000000e+05 0.000000e+00
-3.671573e+05 2.045656e+05 -5.000000e+04
-4.000000e+05 2.086956e+05 -2.618848e+04
-3.757601e+05 1.876570e+05 -2.533832e+04
-3.743513e+05 2.226787e+05 -2.528505e+04
-4.000000e+05 2.434770e+05 -2.599777e+04
-3.672580e+05 2.586018e+05 -2.513632e+04
-3.669051e+05 2.405341e+05 0.000000e+00
-4.000000e+05 2.260870e+05 0.000000e+00
-4.000000e+05 2.260870e+05 -5.000000e+04
-3.671552e+05 2.394739e+05 -5.000000e+04
-3.431997e+05 2.299532e+05 -2.515042e+04
1.333333e+05 3.000000e+05 -5.000000e+04
1.518781e+05 3.328238e+05 -5.000000e+04
1.500000e+05 3.000000e+05 -2.616341e+04
1.333333e+05 3.000000e+05 0.000000e+00
1.518766e+05 3.328223e+05 0.000000e+00
-2.062189e+05 -3.672070e+05 -5.000000e+04
-2.260870e+05 -4.000000e+05 -5.000000e+04
-2.086956e+05 -4.000000e+05 -2.519477e+04
-2.232565e+05 -3.759193e+05 -2.498701e+04
-2.061074e+05 -3.670548e+05 0.000000e+00
-1.910119e+05 -3.764625e+05 -2.497892e+04
-2.260870e+05 -4.000000e+05 0.000000e+00
-2.434777e+05 -4.000000e+05 -2.473683e+04
1.134357e+01 3.670240e+05 -5.000000e+04
-1.192804e-02 4.000000e+05 -2.425370e+04
-1.739130e+04 4.000000e+05 -5.000000e+04
-1.658163e+04 3.749987e+05 -2.479674e+04
-3.432872e+04 3.669981e+05 0.000000e+00
-2.839476e+04 3.471364e+05 -2.494646e+04
-5.057069e+04 3.757032e+05 -2.477693e+04
-3.478260e+04 4.000000e+05 -2.395986e+04
-1.739130e+04 4.000000e+05 0.000000e+00
1.431124e+03 3.361404e+05 -2.501868e+04
-3.590340e+00 3.672078e+05 0.000000e+00
2.666667e+05 3.000000e+05 -5.000000e+04
2.774301e+05 3.000000e+05 -2.522062e+04
2.898985e+05 3.327293e+05 -5.000000e+04
2.704683e+05 3.240180e+05 -2.493538e+04
3.143221e+05 3.141255e+05 -2.498746e+04
2.884798e+05 3.314621e+05 0.000000e+00
2.648082e+05 3.497170e+05 -2.502981e+04
2.492233e+05 3.000000e+05 -2.433407e+04
2.531877e+05 3.324795e+05 0.000000e+00
2.666667e+05 3.000000e+05 0.000000e+00
1.666667e+05 -3.000000e+05 0.000000e+00
1.499990e+05 -3.000000e+05 -2.400535e+04
1.833231e+05 -3.000000e+05 -2.371452e+04
1.695297e+05 -3.238868e+05 -2.470139e+04
1.855948e+05 -3.327894e+05 -5.000000e+04
1.666667e+05 -3.000000e+05 -5.000000e+04
1.856049e+05 -3.327889e+05 0.000000e+00
1.954949e+05 -3.499295e+05 -2.498969e+04
2.030790e+05 -3.240293e+05 -2.470434e+04
3.000000e+05 -2.664866e+05 0.000000e+00
3.327702e+05 -2.529933e+05 0.000000e+00
3.325352e+05 -2.874344e+05 0.000000e+00
3.239646e+05 -2.693299e+05 -2.518433e+04
3.327516e+05 -2.893294e+05 -5.000000e+04
3.495240e+05 -2.639110e+05 -2.507965e+04
3.000000e+05 -2.761628e+05 -2.522420e+04
3.000000e+05 -2.659647e+05 -5.000000e+04
3.000000e+05 -2.483905e+05 -2.586120e+04
3.328857e+05 -4.967812e+04 0.000000e+00
3.000000e+05 -3.189320e+04 0.000000e+00
3.328939e+05 -4.692430e+04 -5.000000e+04
-4.000000e+05 1.565217e+05 0.000000e+00
-3.669945e+05 1.719199e+05 0.000000e+00
-3.672065e+05 1.377150e+05 0.000000e+00
-3.760611e+05 1.531866e+05 -2.533659e+04
-3.672782e+05 1.349245e+05 -5.000000e+04
-3.671829e+05 1.696982e+05 -5.000000e+04
-4.000000e+05 1.565217e+05 -5.000000e+04
-4.000000e+05 1.391304e+05 -2.602244e+04
-2.333333e+05 -3.000000e+05 -5.000000e+04
-3.501515e+05 1.598496e+05 -2.510314e+04
3.336546e+05 2.891001e+05 -5.000000e+04
3.000000e+05 2.677698e+05 -5.000000e+04
3.331343e+05 2.545205e+05 -5.000000e+04
3.242067e+05 2.710109e+05 -2.488228e+04
3.324227e+05 2.879511e+05 0.000000e+00
3.468013e+05 3.017841e+05 -2.500205e+04
3.498412e+05 2.651767e+05 -2.500176e+04
3.000000e+05 2.780183e+05 -2.446027e+04
3.000000e+05 2.506980e+05 -2.515658e+04
3.000000e+05 2.672967e+05 0.000000e+00
3.327533e+05 2.537014e+05 0.000000e+00
2.956522e+05 -4.000000e+05 0.000000e+00
2.752640e+05 -3.667277e+05 0.000000e+00
3.119520e+05 -3.656352e+05 0.000000e+00
2.931814e+05 -3.749004e+05 -2.505139e+04
3.129104e+05 -4.000000e+05 -2.466106e+04
3.120582e+05 -3.679558e+05 -5.000000e+04
2.752725e+05 -3.673223e+05 -5.000000e+04
2.956522e+05 -4.000000e+05 -5.000000e+04
-1.913043e+05 -4.000000e+05 -5.000000e+04
-1.333333e+05 3.000000e+05 -5.000000e+04
-1.166667e+05 3.000000e+05 -2.381225e+04
-1.677176e+05 3.319500e+05 -2.489581e+04
-1.182350e+05 3.330168e+05 0.000000e+00
-1.913043e+05 4.000000e+05 -5.000000e+04
-2.086957e+05 4.000000e+05 -2.629013e+04
-1.901200e+05 3.778120e+05 -2.533648e+04
-1.556047e+05 3.680174e+05 -2.515973e+04
-1.913043e+05 4.000000e+05 0.000000e+00
-2.062347e+05 3.672173e+05 0.000000e+00
-1.739130e+05 4.000000e+05 -2.608580e+04
-1.717544e+05 3.670745e+05 0.000000e+00
3.670080e+05 1.723656e+05 0.000000e+00
4.000000e+05 1.739130e+05 -2.630756e+04
4.000000e+05 1.913043e+05 -5.000000e+04
3.671068e+05 2.070918e+05 -5.000000e+04
3.760677e+05 2.233393e+05 -2.531369e+04
3.499916e+05 1.996029e+05 -2.533290e+04
3.673055e+05 -1.019945e+05 -5.000000e+04
4.000000e+05 -1.217391e+05 -5.000000e+04
4.000000e+05 -1.043478e+05 -2.528072e+04
3.672145e+05 -1.028017e+05 0.000000e+00
4.000000e+05 -1.217391e+05 0.000000e+00
3.760834e+05 -8.443004e+04 -2.493883e+04
3.670560e+05 -2.403570e+05 0.000000e+00
4.000000e+05 -2.260870e+05 0.000000e+00
4.000000e+05 -2.434777e+05 -2.473683e+04
3.759515e+05 -2.224433e+05 -2.500287e+04
3.671274e+05 -2.055520e+05 -5.000000e+04
4.000000e+05 -2.260870e+05 -5.000000e+04
4.000000e+05 -2.086956e+05 -2.519477e+04
3.669945e+05 -2.058917e+05 0.000000e+00
3.759890e+05 -1.878579e+05 -2.495378e+04
3.500042e+05 -1.950909e+05 -2.505165e+04
3.499738e+05 -2.293971e+05 -2.505201e+04
-1.518804e+05 -3.328503e+05 0.000000e+00
-1.855416e+05 -3.327175e+05 0.000000e+00
-1.666667e+05 -3.000000e+05 -5.000000e+04
-1.519063e+05 -3.328887e+05 -5.000000e+04
-1.856605e+05 -3.328720e+05 -5.000000e+04
-5.060164e+04 3.326537e+05 -5.000000e+04
1.913043e+05 4.000000e+05 -5.000000e+04
2.062418e+05 3.672192e+05 -5.000000e+04
2.086956e+05 4.000000e+05 -2.618848e+04
1.882071e+05 3.759982e+05 -2.532197e+04
1.913043e+05 4.000000e+05 0.000000e+00
2.062117e+05 3.671955e+05 0.000000e+00
1.717360e+05 3.670148e+05 0.000000e+00
1.739130e+05 4.000000e+05 -2.630978e+04
1.717402e+05 3.670181e+05 -5.000000e+04
1.617937e+05 3.501547e+05 -2.504278e+04
1.958488e+05 3.500570e+05 -2.503764e+04
1.043478e+05 4.000000e+05 -2.585127e+04
3.697864e+05 -3.404567e+05 0.000000e+00
3.312024e+05 -3.274634e+05 0.000000e+00
5.217391e+04 4.000000e+05 -5.000000e+04
5.796634e+04 3.498934e+05 -2.500514e+04
-4.000000e+05 2.956522e+05 -5.000000e+04
-4.000000e+05 3.129450e+05 -2.456488e+04
-4.000000e+05 2.782496e+05 -2.580883e+04
-3.770077e+05 2.947057e+05 -2.505978e+04
-3.667113e+05 2.751633e+05 0.000000e+00
-3.493363e+05 3.003864e+05 -2.502346e+04
-3.672319e+05 2.745560e+05 -5.000000e+04
-4.000000e+05 2.956522e+05 0.000000e+00
-1.333333e+05 -3.000000e+05 -5.000000e+04
-1.166667e+05 -3.000000e+05 -2.567125e+04
-1.333333e+05 -3.000000e+05 0.000000e+00
-1.181629e+05 -3.329166e+05 0.000000e+00
-2.956522e+05 4.000000e+05 0.000000e+00
-2.751595e+05 3.671921e+05 0.000000e+00
-3.106869e+05 3.669419e+05 0.000000e+00
-3.108278e+05 3.658074e+05 -5.000000e+04
-2.750767e+05 3.665332e+05 -5.000000e+04
-2.956522e+05 4.000000e+05 -5.000000e+04
-2.782548e+05 4.000000e+05 -2.568673e+04
-3.129450e+05 4.000000e+05 -2.471081e+04
-1.030751e+05 3.670669e+05 0.000000e+00
-1.375643e+05 3.673619e+05 0.000000e+00
-3.009058e+05 3.490585e+05 -2.460596e+04
9.234744e+04 -3.456057e+05 -2.494823e+04
3.478260e+04 -4.000000e+05 -2.437429e+04
3.438402e+04 -3.673164e+05 -5.000000e+04
2.809024e+04 -3.505470e+05 -2.495500e+04
3.434189e+04 -3.669957e+05 0.000000e+00
1.594460e+04 -3.757169e+05 -2.495856e+04
-3.439967e+04 -3.673710e+05 -5.000000e+04
-1.739130e+04 -4.000000e+05 -5.000000e+04
-3.876613e+00 -3.674801e+05 -5.000000e+04
-1.619981e+04 -3.757494e+05 -2.497519e+04
-2.842344e+04 -3.506832e+05 -2.496325e+04
-2.564528e+00 -3.670661e+05 0.000000e+00
-1.739130e+04 -4.000000e+05 0.000000e+00
-1.192804e-02 -4.000000e+05 -2.530346e+04
1.913043e+05 -4.000000e+05 -5.000000e+04
2.059922e+05 -3.669355e+05 -5.000000e+04
1.874538e+05 -3.759638e+05 -2.529563e+04
1.913043e+05 -4.000000e+05 0.000000e+00
2.061032e+05 -3.670526e+05 0.000000e+00
3.000000e+05 -2.771737e+04 -5.000000e+04
2.404356e+05 -3.669112e+05 0.000000e+00
2.260870e+05 -4.000000e+05 0.000000e+00
2.225752e+05 -3.759140e+05 -2.529198e+04
2.260870e+05 -4.000000e+05 -5.000000e+04
2.086957e+05 -4.000000e+05 -2.620830e+04
-5.000001e+04 3.000000e+05 -2.388537e+04
-3.000000e+05 -1.676695e+04 -5.000000e+04
-3.337295e+05 -3.010705e+04 -5.000000e+04
-3.238029e+05 -4.177206e+04 -2.663310e+04
-3.328745e+05 -1.572825e+04 0.000000e+00
-3.490782e+05 -5.141921e+04 -2.266875e+04
4.000000e+05 3.652174e+05 -5.000000e+04
4.000000e+05 3.468072e+05 -2.535446e+04
4.000000e+05 3.755280e+05 -2.512463e+04
3.697722e+05 3.660479e+05 -3.176825e+04
-3.328929e+05 -8.305011e+04 0.000000e+00
-3.213179e+05 -9.561535e+04 -2.513737e+04
-3.000000e+05 -5.990937e+04 -2.503703e+04
-3.000000e+05 -3.162526e+04 0.000000e+00
-3.000000e+05 -2.568339e+04 -2.495305e+04
-3.328779e+05 -4.937584e+04 0.000000e+00
-3.000000e+05 4.342769e+04 -2.478601e+04
-3.328394e+05 4.067219e+04 -5.000000e+04
-3.000000e+05 5.362570e+04 -5.000000e+04
3.669682e+05 2.750075e+05 0.000000e+00
4.000000e+05 2.782510e+05 -2.556022e+04
4.000000e+05 2.608696e+05 0.000000e+00
3.759828e+05 2.576557e+05 -2.521728e+04
-3.000000e+05 -6.478778e+04 0.000000e+00
3.673211e+05 2.412377e+05 -5.000000e+04
4.000000e+05 2.434779e+05 -2.609815e+04
4.000000e+05 2.608696e+05 -5.000000e+04
3.671154e+05 2.408341e+05 0.000000e+00
3.500725e+05 2.318172e+05 -2.515374e+04
2.956522e+05 4.000000e+05 0.000000e+00
2.750320e+05 3.665971e+05 0.000000e+00
-2.492233e+05 3.000000e+05 -2.578977e+04
-2.774301e+05 3.000000e+05 -2.480518e+04
-2.666667e+05 3.000000e+05 0.000000e+00
-2.884729e+05 3.312359e+05 -5.000000e+04
-3.142492e+05 3.139336e+05 -2.502831e+04
-2.666667e+05 3.000000e+05 -5.000000e+04
-3.000000e+05 1.537267e+03 0.000000e+00
-3.328734e+05 1.790426e+04 0.000000e+00
-3.036709e+05 -3.457218e+05 -2.485761e+04
-8.333335e+04 -3.000000e+05 -2.556273e+04
-8.444588e+04 -3.330216e+05 0.000000e+00
-6.866245e+04 -3.241577e+05 -2.497919e+04
-1.000000e+05 -3.000000e+05 0.000000e+00
-8.448226e+04 -3.331634e+05 -5.000000e+04
-1.000000e+05 -3.000000e+05 -5.000000e+04
-9.337879e+04 -3.499918e+05 -2.500843e+04
3.669694e+05 1.036703e+05 0.000000e+00
4.000000e+05 8.695652e+04 0.000000e+00
4.000000e+05 8.695652e+04 -5.000000e+04
3.000000e+05 -1.819152e+05 -2.577826e+04
3.328420e+05 -1.851831e+05 0.000000e+00
3.000000e+05 -1.994599e+05 0.000000e+00
3.240642e+05 -2.021832e+05 -2.528595e+04
3.000000e+05 -1.978940e+05 -5.000000e+04
3.000000e+05 -2.156344e+05 -2.621791e+04
3.329529e+05 -2.182880e+05 -5.000000e+04
3.327172e+05 -2.189571e+05 0.000000e+00
3.241030e+05 -2.359595e+05 -2.527660e+04
-5.000001e+04 -3.000000e+05 -2.421120e+04
-3.499584e+04 -3.244597e+05 -2.480349e+04
-5.064585e+04 -3.328913e+05 0.000000e+00
-3.671215e+05 -2.741993e+05 -5.000000e+04
-4.000000e+05 -2.782548e+05 -2.568673e+04
-3.462895e+05 -2.972928e+05 -2.508283e+04
-3.657865e+05 3.104953e+05 0.000000e+00
-3.749898e+05 3.300624e+05 -2.521014e+04
-3.669011e+05 3.105131e+05 -5.000000e+04
-3.477539e+05 3.392292e+05 -2.498082e+04
-4.000000e+05 3.304348e+05 -5.000000e+04
-3.680262e+05 3.495768e+05 -5.000000e+04
-4.000000e+05 3.470156e+05 -2.423581e+04
-4.000000e+05 -5.217391e+04 -5.000000e+04
-4.000000e+05 -6.956522e+04 -2.435755e+04
-3.696767e+05 -6.277924e+04 -3.060622e+04
-3.742558e+05 -6.964521e+04 -5.000000e+04
-4.000000e+05 -5.217391e+04 0.000000e+00
-3.672341e+05 -6.823904e+04 0.000000e+00
2.000000e+05 3.000000e+05 0.000000e+00
1.833314e+05 3.000000e+05 -2.550543e+04
1.856552e+05 3.328617e+05 0.000000e+00
2.031722e+05 3.241051e+05 -2.497113e+04
2.000000e+05 3.000000e+05 -5.000000e+04
2.166083e+05 3.000000e+05 -2.425239e+04
2.195232e+05 3.329018e+05 -5.000000e+04
2.194018e+05 3.328033e+05 0.000000e+00
2.367935e+05 3.241133e+05 -2.484265e+04
2.300227e+05 3.499946e+05 -2.502161e+04
4.000000e+05 1.565217e+05 -5.000000e+04
4.000000e+05 1.565217e+05 0.000000e+00
-6.666667e+04 -3.000000e+05 0.000000e+00
-6.666667e+04 -3.000000e+05 -5.000000e+04
-5.999878e+04 -3.501830e+05 -2.497764e+04
2.956522e+05 4.000000e+05 -5.000000e+04
2.782496e+05 4.000000e+05 -2.580883e+04
2.760022e+05 3.673582e+05 -5.000000e+04
2.574954e+05 3.758413e+05 -2.526318e+04
1.666666e+04 3.000000e+05 -2.560066e+04
1.687733e+04 3.328695e+05 0.000000e+00
3.333333e+04 3.000000e+05 0.000000e+00
3.488428e+04 3.243679e+05 -2.514328e+04
5.064480e+04 3.330345e+05 -5.000000e+04
3.333333e+04 3.000000e+05 -5.000000e+04
4.999999e+04 3.000000e+05 -2.565536e+04
5.063456e+04 3.328710e+05 0.000000e+00
6.821747e+04 3.240760e+05 -2.506325e+04
-3.684255e+05 -9.949243e+04 -5.000000e+04
-4.000000e+05 -1.217391e+05 -5.000000e+04
-3.673545e+05 -1.342546e+05 -5.000000e+04
-4.000000e+05 -1.043478e+05 -2.567807e+04
-4.000000e+05 -8.695652e+04 0.000000e+00
-3.782348e+05 -8.730773e+04 -2.495482e+04
-3.521442e+05 -8.707114e+04 -2.534338e+04
-4.000000e+05 -8.695652e+04 -5.000000e+04
-3.540938e+05 -1.190751e+05 -2.515232e+04
3.671210e+05 -2.752852e+05 -5.000000e+04
4.000000e+05 -2.956522e+05 -5.000000e+04
4.000000e+05 -2.782548e+05 -2.529878e+04
4.000000e+05 -2.956522e+05 0.000000e+00
3.000000e+05 -1.659466e+05 0.000000e+00
2.000000e+05 -3.000000e+05 -5.000000e+04
2.000000e+05 -3.000000e+05 0.000000e+00
2.193067e+05 -3.326910e+05 0.000000e+00
4.000000e+05 2.260870e+05 -5.000000e+04
4.000000e+05 2.260870e+05 0.000000e+00
6.605563e+04 -3.231774e+05 -2.487780e+04
8.333333e+04 -3.000000e+05 -2.511094e+04
6.666667e+04 -3.000000e+05 0.000000e+00
5.063754e+04 -3.330073e+05 -5.000000e+04
8.436627e+04 -3.328343e+05 -5.000000e+04
6.666667e+04 -3.000000e+05 -5.000000e+04
1.739130e+04 -4.000000e+05 -5.000000e+04
1.739130e+04 -4.000000e+05 0.000000e+00
-2.404411e+05 -3.669029e+05 0.000000e+00
-2.608696e+05 -4.000000e+05 -5.000000e+04
-2.405188e+05 -3.669980e+05 -5.000000e+04
-3.000000e+05 1.460844e+05 -2.530935e+04
-3.328420e+05 1.524231e+05 0.000000e+00
-3.329368e+05 1.460523e+05 -5.000000e+04
-3.240774e+05 1.668638e+05 -2.517035e+04
2.404328e+05 3.669052e+05 0.000000e+00
2.434770e+05 4.000000e+05 -2.599777e+04
2.227307e+05 3.759881e+05 -2.528810e+04
2.608696e+05 4.000000e+05 -5.000000e+04
2.406655e+05 3.670943e+05 -5.000000e+04
2.333333e+05 3.000000e+05 0.000000e+00
-3.000000e+05 2.143070e+05 -2.544532e+04
-3.327623e+05 2.196748e+05 0.000000e+00
-3.229325e+05 1.987626e+05 -2.531795e+04
-3.328991e+05 2.161463e+05 -5.000000e+04
-3.492358e+05 1.943425e+05 -2.515717e+04
-3.000000e+05 1.944110e+05 -5.000000e+04
-3.330049e+05 1.812156e+05 -5.000000e+04
-3.000000e+05 1.802259e+05 -2.545836e+04
4.000000e+05 -2.608696e+05 -5.000000e+04
3.671241e+05 -2.401469e+05 -5.000000e+04
3.757981e+05 -2.573526e+05 -2.503711e+04
-3.327171e+05 1.859721e+05 0.000000e+00
-2.000000e+05 3.000000e+05 -5.000000e+04
-1.833275e+05 3.000000e+05 -2.436541e+04
-2.026943e+05 3.246104e+05 -2.501462e+04
-3.000000e+05 1.592147e+05 -5.000000e+04
3.683064e+05 3.108037e+05 -5.000000e+04
3.697619e+05 3.279826e+05 -2.453870e+04
3.751994e+05 2.926920e+05 -2.502279e+04
4.000000e+05 2.956522e+05 -5.000000e+04
4.000000e+05 3.129104e+05 -2.466106e+04
3.667841e+05 3.105226e+05 0.000000e+00
4.000000e+05 2.956522e+05 0.000000e+00
2.403968e+05 -3.669732e+05 -5.000000e+04
2.608696e+05 -4.000000e+05 -5.000000e+04
2.573901e+05 -3.758055e+05 -2.520647e+04
-1.217391e+05 -4.000000e+05 -5.000000e+04
-1.031395e+05 -3.673314e+05 -5.000000e+04
-1.170420e+05 -3.758951e+05 -2.500027e+04
-8.461415e+04 -3.760803e+05 -2.495482e+04
-3.380813e+05 -6.962321e+04 -5.000000e+04
-3.000000e+05 -9.420904e+04 -2.410731e+04
-3.328769e+05 -1.168548e+05 0.000000e+00
-3.000000e+05 -8.715961e+04 -5.000000e+04
-3.334309e+05 -1.092952e+05 -5.000000e+04
-3.434253e+04 3.670339e+05 -5.000000e+04
-6.870638e+04 3.670734e+05 0.000000e+00
-8.493225e+04 3.758524e+05 -2.499209e+04
-5.217391e+04 4.000000e+05 0.000000e+00
-6.956522e+04 4.000000e+05 -2.435755e+04
2.260870e+05 4.000000e+05 -5.000000e+04
3.672770e+05 -6.739374e+04 -5.000000e+04
3.670511e+05 -6.832630e+04 0.000000e+00
3.760867e+05 -5.016389e+04 -2.484968e+04
4.000000e+05 -6.956522e+04 -2.439311e+04
4.000000e+05 -8.695652e+04 -5.000000e+04
3.328741e+05 1.871163e+05 0.000000e+00
3.000000e+05 1.710792e+05 -5.000000e+04
3.000000e+05 1.841058e+05 -2.283810e+04
-3.000000e+05 -2.763304e+05 -2.429098e+04
-3.325388e+05 -2.873491e+05 0.000000e+00
-3.000000e+05 -2.663251e+05 0.000000e+00
-3.237578e+05 -2.683069e+05 -2.485060e+04
-3.000000e+05 -2.468426e+05 -2.444042e+04
-3.000000e+05 -2.642495e+05 -5.000000e+04
-3.332918e+05 -2.873579e+05 -5.000000e+04
6.666667e+04 3.000000e+05 -5.000000e+04
-6.863269e+04 3.667969e+05 -5.000000e+04
-8.695652e+04 4.000000e+05 0.000000e+00
-1.043478e+05 4.000000e+05 -2.567807e+04
1.565217e+05 4.000000e+05 0.000000e+00
1.565217e+05 4.000000e+05 -5.000000e+04
1.666667e+05 3.000000e+05 -5.000000e+04
1.692452e+05 3.241311e+05 -2.522464e+04
1.666667e+05 3.000000e+05 0.000000e+00
-5.065887e+04 -3.329969e+05 -5.000000e+04
-1.666668e+04 -3.000000e+05 -2.399388e+04
-6.264596e+01 -3.358669e+05 -2.485836e+04
-1.687948e+04 -3.328265e+05 0.000000e+00
-3.333333e+04 -3.000000e+05 0.000000e+00
-3.671469e+05 -1.691778e+05 -5.000000e+04
-4.000000e+05 -1.565217e+05 -5.000000e+04
-4.000000e+05 -1.391304e+05 -2.624082e+04
-3.671322e+05 -1.369625e+05 0.000000e+00
-4.000000e+05 -1.565217e+05 0.000000e+00
-4.000000e+05 -1.739130e+05 -2.608580e+04
-3.395056e+05 -1.619104e+05 -2.649461e+04
-4.000000e+05 1.739130e+05 -2.630978e+04
-4.000000e+05 1.913043e+05 0.000000e+00
-3.670547e+05 2.062598e+05 0.000000e+00
1.687487e+04 -3.327221e+05 0.000000e+00
1.666666e+04 -3.000000e+05 -2.375905e+04
1.688072e+04 -3.330074e+05 -5.000000e+04
3.333333e+04 -3.000000e+05 -5.000000e+04
1.333333e+05 -3.000000e+05 0.000000e+00
1.518147e+05 -3.327143e+05 0.000000e+00
3.652174e+05 -4.000000e+05 -5.000000e+04
3.755280e+05 -4.000000e+05 -2.512463e+04
3.468072e+05 -4.000000e+05 -2.535446e+04
1.518838e+05 -3.328394e+05 -5.000000e+04
3.671337e+05 -1.709835e+05 -5.000000e+04
4.000000e+05 -1.913043e+05 -5.000000e+04
3.671300e+05 3.637049e+04 -5.000000e+04
4.000000e+05 1.739130e+04 -5.000000e+04
4.000000e+05 1.739130e+04 0.000000e+00
-6.875361e+04 -3.672578e+05 0.000000e+00
-6.956522e+04 -4.000000e+05 -2.439311e+04
-6.875178e+04 -3.672525e+05 -5.000000e+04
4.000000e+05 -3.652174e+05 -5.000000e+04
-8.695652e+04 -4.000000e+05 -5.000000e+04
3.672599e+05 -3.396107e+04 0.000000e+00
4.000000e+05 -5.217391e+04 -5.000000e+04
3.670298e+05 -3.266578e+04 -5.000000e+04
3.000000e+05 -2.319293e+05 -5.000000e+04
3.327685e+05 -2.526447e+05 -5.000000e+04
-1.666667e+05 3.000000e+05 -5.000000e+04
-4.000000e+05 8.695652e+04 -5.000000e+04
-1.856666e+05 3.328823e+05 0.000000e+00
-1.391304e+05 4.000000e+05 -2.624082e+04
-1.217391e+05 4.000000e+05 0.000000e+00
-1.217391e+05 4.000000e+05 -5.000000e+04
-1.373737e+05 3.670031e+05 -5.000000e+04
-3.000000e+05 -2.284991e+05 -5.000000e+04
-3.000000e+05 -2.326501e+05 0.000000e+00
3.000000e+05 1.388490e+05 -5.000000e+04
3.329227e+05 1.224267e+05 -5.000000e+04
3.000000e+05 1.356736e+05 0.000000e+00
3.000000e+05 1.021602e+05 0.000000e+00
-3.000000e+05 -5.196328e+04 -5.000000e+04
1.030288e+05 3.670070e+05 -5.000000e+04
2.608696e+05 -4.000000e+05 0.000000e+00
2.192906e+05 -3.326862e+05 -5.000000e+04
4.000000e+05 -3.764488e+05 -2.594791e+04
-3.000000e+05 2.479297e+05 -2.487673e+04
-3.328895e+05 2.512391e+05 -5.000000e+04
-3.313469e+05 2.697625e+05 -2.502109e+04
-3.000000e+05 2.648037e+05 -5.000000e+04
-3.326378e+05 2.869711e+05 -5.000000e+04
3.671575e+05 1.730755e+05 -5.000000e+04
3.764488e+05 4.000000e+05 -2.519640e+04
3.763432e+05 3.768957e+05 -1.369609e+04
3.329770e+05 5.567270e+04 -5.000000e+04
3.256881e+05 7.011145e+04 -2.293559e+04
-2.878179e+05 3.325967e+05 0.000000e+00
3.328667e+05 8.936896e+04 -5.000000e+04
3.000000e+05 6.864685e+04 0.000000e+00
3.000000e+05 4.819058e+04 -2.422118e+04
3.710930e+05 3.421603e+05 -5.000000e+04
4.000000e+05 3.652174e+05 0.000000e+00
3.314505e+05 -3.321039e+05 -5.000000e+04
1.166666e+05 -3.000000e+05 -2.428629e+04
-1.686962e+04 3.328141e+05 -5.000000e+04
-1.666668e+04 3.000000e+05 -2.448125e+04
2.538063e+05 3.330094e+05 -5.000000e+04
-1.565217e+05 4.000000e+05 -5.000000e+04
3.000000e+05 -3.000000e+05 -5.000000e+04
3.000000e+05 -3.000000e+05 0.000000e+00
3.327180e+05 8.583740e+04 0.000000e+00
4.000000e+05 5.217391e+04 0.000000e+00
3.335273e+05 3.301478e+05 -5.000000e+04
3.297820e+05 3.288430e+05 0.000000e+00
3.000000e+05 3.000000e+05 -5.000000e+04
3.131890e+05 3.669841e+05 -5.000000e+04
-3.311653e+05 -3.273909e+05 0.000000e+00
3.673923e+05 2.754895e+05 -5.000000e+04
1.856664e+05 3.328700e+05 -5.000000e+04
1.217391e+05 4.000000e+05 -5.000000e+04
-3.299679e+05 3.284968e+05 -5.000000e+04
-3.496269e+05 3.679218e+05 0.000000e+00
-3.287755e+05 3.298471e+05 0.000000e+00
-3.319718e+05 3.690942e+05 -2.445116e+04
-4.000000e+05 2.608696e+05 0.000000e+00
-3.324968e+05 2.533854e+05 0.000000e+00
8.437538e+04 3.328764e+05 -5.000000e+04
-3.000000e+05 8.731003e+03 -2.479332e+04
-3.333333e+04 3.000000e+05 0.000000e+00
-1.686834e+04 3.328483e+05 0.000000e+00
-1.455192e-10 3.000000e+05 -5.000000e+04
1.688215e+04 3.328938e+05 -5.000000e+04
-3.333333e+04 3.000000e+05 -5.000000e+04
3.304348e+05 -4.000000e+05 -5.000000e+04
3.304348e+05 -4.000000e+05 0.000000e+00
-3.671497e+05 -1.025569e+05 0.000000e+00
-4.000000e+05 -1.217391e+05 0.000000e+00
-3.328725e+05 -1.508153e+05 0.000000e+00
-3.330505e+05 -1.449316e+05 -5.000000e+04
-3.681551e+05 3.678766e+05 -3.452972e+04
-4.000000e+05 3.764488e+05 -2.519640e+04
-3.695234e+05 3.667114e+05 -1.539360e+04
-3.764488e+05 4.000000e+05 -2.590922e+04
-3.652174e+05 4.000000e+05 0.000000e+00
-4.000000e+05 4.000000e+05 0.000000e+00
-4.000000e+05 3.652174e+05 0.000000e+00
-3.470156e+05 4.000000e+05 -2.553754e+04
-8.695652e+04 4.000000e+05 -5.000000e+04
-4.000000e+05 -3.652174e+05 -5.000000e+04
-3.710400e+05 -3.420563e+05 -5.000000e+04
-4.000000e+05 -3.304348e+05 -5.000000e+04
4.000000e+05 -5.217391e+04 0.000000e+00
4.000000e+05 -3.478260e+04 -2.451623e+04
-3.683563e+05 3.419964e+05 0.000000e+00
-3.314403e+05 2.885669e+05 0.000000e+00
3.000000e+05 -1.638587e+05 -5.000000e+04
3.327890e+05 -1.838439e+05 -5.000000e+04
-3.304348e+05 4.000000e+05 -5.000000e+04
-3.420145e+05 3.681392e+05 -5.000000e+04
4.000000e+05 3.304348e+05 -5.000000e+04
-3.304348e+05 4.000000e+05 0.000000e+00
-4.000000e+05 3.652174e+05 -5.000000e+04
-3.652174e+05 4.000000e+05 -5.000000e+04
-4.000000e+05 -2.086957e+05 -2.629013e+04
-4.000000e+05 -1.913043e+05 0.000000e+00
-3.328272e+05 -1.798669e+05 -5.000000e+04
-1.690138e+04 -3.332071e+05 -5.000000e+04
2.910383e-11 -3.000000e+05 -5.000000e+04
8.438526e+04 -3.328636e+05 0.000000e+00
3.000000e+05 -2.329733e+05 0.000000e+00
-5.093170e-11 3.000000e+05 0.000000e+00
3.000000e+05 3.000000e+05 0.000000e+00
4.000000e+05 -2.608696e+05 0.000000e+00
4.000000e+05 3.304348e+05 0.000000e+00
-1.717135e+05 -3.669978e+05 0.000000e+00
1.739130e+05 -4.000000e+05 -2.630756e+04
4.000000e+05 -8.695652e+04 0.000000e+00
2.260870e+05 4.000000e+05 0.000000e+00
-4.000000e+05 1.913043e+05 -5.000000e+04
-2.608696e+05 -4.000000e+05 0.000000e+00
4.000000e+05 -1.913043e+05 0.000000e+00
-3.000000e+05 3.000000e+05 0.000000e+00
-3.000000e+05 2.768580e+05 -2.549762e+04
-3.000000e+05 3.000000e+05 -5.000000e+04
2.608696e+05 4.000000e+05 0.000000e+00
3.652174e+05 4.000000e+05 -5.000000e+04
2.333333e+05 3.000000e+05 -5.000000e+04
-3.333333e+04 -3.000000e+05 -5.000000e+04
-4.000000e+05 3.304348e+05 0.000000e+00
5.093170e-11 -3.000000e+05 0.000000e+00
-1.913043e+05 -4.000000e+05 0.000000e+00
1.000000e+05 -3.000000e+05 -5.000000e+04
1.000000e+05 -3.000000e+05 0.000000e+00
1.565217e+05 -4.000000e+05 -5.000000e+04
1.217391e+05 -4.000000e+05 -5.000000e+04
-4.000000e+05 -2.260870e+05 0.000000e+00
1.333333e+05 -3.000000e+05 -5.000000e+04
-5.217391e+04 -4.000000e+05 -5.000000e+04
4.000000e+05 4.000000e+05 -5.000000e+04
4.000000e+05 4.000000e+05 0.000000e+00
-4.000000e+05 4.000000e+05 -5.000000e+04
-4.000000e+05 2.608696e+05 -5.000000e+04
-3.470156e+05 -4.000000e+05 -2.573153e+04
-4.000000e+05 -3.764488e+05 -2.590922e+04
-3.000000e+05 2.668375e+05 0.000000e+00
2.434779e+05 -4.000000e+05 -2.609815e+04
-3.652174e+05 -4.000000e+05 0.000000e+00
-5.217391e+04 4.000000e+05 -5.000000e+04
-3.000000e+05 -1.223559e+05 -5.000000e+04
1.217391e+05 -4.000000e+05 0.000000e+00
2.782510e+05 -4.000000e+05 -2.556022e+04
3.652174e+05 -4.000000e+05 0.000000e+00
4.000000e+05 -4.000000e+05 0.000000e+00
-3.000000e+05 2.336749e+05 0.000000e+00
-3.000000e+05 2.005124e+05 0.000000e+00
4.000000e+05 -4.000000e+05 -5.000000e+04
-1.565217e+05 4.000000e+05 0.000000e+00
2.333333e+05 -3.000000e+05 -5.000000e+04
-1.565217e+05 -4.000000e+05 0.000000e+00
-4.000000e+05 -1.913043e+05 -5.000000e+04
-3.764488e+05 -4.000000e+05 -2.594791e+04
-3.000000e+05 1.673499e+05 0.000000e+00
-4.000000e+05 -4.000000e+05 -5.000000e+04
-3.000000e+05 2.296073e+05 -5.000000e+04
-4.000000e+05 -4.000000e+05 0.000000e+00
-3.652174e+05 -4.000000e+05 -5.000000e+04
-3.000000e+05 -2.016300e+05 -3.822073e+04
-3.000000e+05 -1.858303e+05 -2.988739e+04
-3.107090e+05 -1.938634e+05 -3.787560e+04
-3.116756e+05 -1.789680e+05 -3.193263e+04
-3.162596e+05 -2.037777e+05 -5.000000e+04
-3.164136e+05 -1.863078e+05 -5.000000e+04
-3.140256e+05 -1.686037e+05 -4.131560e+04
-3.000000e+05 -1.751504e+05 -5.000000e+04
-3.000000e+05 -1.575523e+05 -5.000000e+04
-3.000000e+05 -1.593507e+05 -4.166667e+04
-3.000000e+05 -2.106238e+05 -5.000000e+04
-3.128744e+05 -1.157380e+05 -1.846317e+04
-3.099898e+05 -9.969692e+04 -1.268739e+04
-3.000000e+05 -1.118794e+05 -2.038699e+04
-3.000000e+05 -9.607967e+04 -1.205365e+04
-3.000000e+05 -8.136905e+04 0.000000e+00
-3.164385e+05 -1.074026e+05 0.000000e+00
-3.103863e+05 -1.239995e+05 -7.544511e+03
-3.000000e+05 -1.147878e+05 0.000000e+00
-3.000000e+05 -1.316253e+05 0.000000e+00
-3.000000e+05 -1.305875e+05 -8.333333e+03
-3.164465e+05 -9.050021e+04 0.000000e+00
3.137852e+05 1.440981e+05 -1.228903e+04
3.163711e+05 1.613460e+05 0.000000e+00
3.000000e+05 1.366305e+05 -8.333333e+03
3.000000e+05 1.524302e+05 0.000000e+00
3.119853e+05 1.696736e+05 -8.480007e+03
3.164371e+05 1.781516e+05 0.000000e+00
3.000000e+05 1.608466e+05 -1.975239e+04
3.000000e+05 1.766464e+05 -1.141905e+04
3.134171e+05 1.516754e+05 -2.355124e+04
3.000000e+05 1.855385e+05 0.000000e+00
3.164333e+05 8.187879e+04 -5.000000e+04
3.166570e+05 9.660264e+04 -3.757011e+04
3.144041e+05 7.496596e+04 -3.744731e+04
3.125419e+05 8.824011e+04 -2.365343e+04
3.000000e+05 7.151773e+04 -2.500000e+04
3.000000e+05 6.128960e+04 -3.711059e+04
3.164885e+05 6.503066e+04 -5.000000e+04
3.000000e+05 5.737095e+04 -5.000000e+04
3.000000e+05 9.050372e+04 -5.000000e+04
3.000000e+05 1.063034e+05 -4.166667e+04
3.000000e+05 1.066188e+05 -5.000000e+04
3.000000e+05 8.731745e+04 -1.666667e+04
-3.000000e+05 -1.800622e+05 -1.666667e+04
-3.195815e+05 -1.730638e+05 -1.771905e+04
-3.140268e+05 -1.609482e+05 -2.926636e+04
-3.115685e+05 -1.556334e+05 -1.810096e+04
-3.144401e+05 -1.504230e+05 -3.392401e+04
-3.108514e+05 -1.348511e+05 -3.169298e+04
-3.000000e+05 -1.417526e+05 -4.166667e+04
-3.000000e+05 -1.259528e+05 -3.333333e+04
-3.000000e+05 -1.632247e+05 -1.666667e+04
-3.000000e+05 -1.653002e+05 0.000000e+00
-3.139936e+05 -1.374459e+05 -1.618868e+04
-3.000000e+05 -1.474250e+05 -8.333333e+03
-3.286766e+05 -1.255103e+05 -2.202920e+04
-3.178474e+05 -1.215380e+05 -3.405490e+04
-3.182704e+05 -1.321624e+05 -4.720775e+03
3.133288e+05 1.332771e+05 -1.819896e+04
3.000000e+05 1.382182e+05 -3.333333e+04
3.000000e+05 1.543333e+05 -3.333333e+04
3.000000e+05 1.198738e+05 -8.333333e+03
3.000000e+05 1.040741e+05 -1.666667e+04
3.124193e+05 1.188945e+05 -2.610476e+04
3.000000e+05 1.224185e+05 -4.166667e+04
3.158565e+05 1.054947e+05 -2.659196e+04
3.203160e+05 1.150511e+05 -4.127624e+04
3.168995e+05 1.101194e+05 -1.636259e+04
-3.000000e+05 -1.848487e+05 -4.583333e+04
-3.063325e+05 -1.852394e+05 -3.963633e+04
-3.000000e+05 -1.892895e+05 -3.994370e+04
-3.000000e+05 -1.769489e+05 -4.166667e+04
-3.000000e+05 -1.971893e+05 -4.411036e+04
-3.050091e+05 -1.925143e+05 -4.388491e+04
-3.000000e+05 -1.927486e+05 -5.000000e+04
-3.081298e+05 -1.982632e+05 -5.000000e+04
-3.082068e+05 -1.895282e+05 -5.000000e+04
-3.000000e+05 -1.760497e+05 -4.583333e+04
-3.076415e+05 -1.798990e+05 -4.402253e+04
-3.000000e+05 -1.839495e+05 -5.000000e+04
-3.000000e+05 -2.016862e+05 -5.000000e+04
-3.000000e+05 -1.058502e+05 -4.166667e+03
-3.057245e+05 -1.067575e+05 -8.026302e+03
-3.000000e+05 -1.049148e+05 -1.019349e+04
-3.000000e+05 -1.137500e+05 -8.333333e+03
-3.000000e+05 -9.701499e+04 -6.026827e+03
-3.046901e+05 -9.952623e+04 -5.567467e+03
-3.000000e+05 -9.795031e+04 0.000000e+00
-3.000000e+05 -8.965968e+04 0.000000e+00
-3.074390e+05 -1.125152e+05 -5.497052e+03
-3.082192e+05 -1.026764e+05 0.000000e+00
-3.000000e+05 -1.142689e+05 -4.166667e+03
-3.000000e+05 -1.063690e+05 0.000000e+00
-3.082232e+05 -9.422526e+04 0.000000e+00
3.000000e+05 1.612870e+05 -4.166667e+03
3.062783e+05 1.566594e+05 -6.446020e+03
3.000000e+05 1.529087e+05 -4.166667e+03
3.000000e+05 1.533872e+05 -8.333333e+03
3.000000e+05 1.608086e+05 0.000000e+00
3.081855e+05 1.652664e+05 0.000000e+00
3.000000e+05 1.691869e+05 0.000000e+00
3.082185e+05 1.736692e+05 0.000000e+00
3.050015e+05 1.684998e+05 -3.461087e+03
3.000000e+05 1.650168e+05 -9.876193e+03
3.060324e+05 1.639994e+05 -7.741506e+03
3.000000e+05 1.729166e+05 -5.709526e+03
3.000000e+05 1.773627e+05 0.000000e+00
3.000000e+05 8.228847e+04 -4.583333e+04
3.076214e+05 8.331727e+04 -3.636169e+04
3.087095e+05 8.866368e+04 -4.329562e+04
3.000000e+05 9.018833e+04 -4.166667e+04
3.082167e+05 7.813370e+04 -5.000000e+04
3.070122e+05 7.696056e+04 -4.344686e+04
3.000000e+05 7.438862e+04 -5.000000e+04
3.000000e+05 7.295318e+04 -3.750000e+04
3.000000e+05 6.783911e+04 -4.355529e+04
3.082443e+05 6.970964e+04 -5.000000e+04
3.000000e+05 6.587979e+04 -5.000000e+04
3.000000e+05 9.034602e+04 -4.583333e+04
3.000000e+05 8.244617e+04 -5.000000e+04
3.000000e+05 8.085303e+04 -3.333333e+04
-3.000000e+05 -1.690490e+05 -3.750000e+04
-3.000000e+05 -1.813896e+05 -3.577703e+04
-3.047023e+05 -1.775286e+05 -3.594630e+04
-3.060774e+05 -1.702064e+05 -3.302782e+04
-3.000000e+05 -1.734897e+05 -3.161036e+04
-3.000000e+05 -1.611492e+05 -3.333333e+04
-3.063022e+05 -1.726667e+05 -3.951565e+04
-3.000000e+05 -1.681498e+05 -4.166667e+04
-3.000000e+05 -1.602499e+05 -3.750000e+04
-3.073246e+05 -1.637354e+05 -3.622639e+04
-3.000000e+05 -1.706057e+05 -2.500000e+04
-3.085526e+05 -1.673940e+05 -2.594492e+04
-3.049028e+05 -1.588437e+05 -2.487045e+04
-3.066564e+05 -1.614711e+05 -3.026120e+04
-3.060413e+05 -1.555000e+05 -3.145753e+04
-3.000000e+05 -1.532493e+05 -2.916667e+04
-3.000000e+05 -1.435510e+05 -3.333333e+04
-3.056187e+05 -1.463975e+05 -3.110922e+04
-3.000000e+05 -1.453495e+05 -2.500000e+04
-3.000000e+05 -1.514509e+05 -3.750000e+04
-3.000000e+05 -1.621869e+05 -2.500000e+04
-3.050465e+05 -1.508134e+05 -2.450231e+04
-3.000000e+05 -1.542871e+05 -2.083333e+04
-3.000000e+05 -1.216499e+05 -1.250000e+04
-3.000000e+05 -1.128147e+05 -1.436016e+04
-3.053738e+05 -1.140849e+05 -1.409574e+04
-3.060327e+05 -1.227457e+05 -1.612389e+04
-3.000000e+05 -1.207146e+05 -1.852683e+04
-3.000000e+05 -1.295497e+05 -1.666667e+04
-3.053775e+05 -1.190768e+05 -1.000404e+04
-3.028105e+05 -1.257177e+05 -1.171446e+04
-3.000000e+05 -1.221688e+05 -8.333333e+03
-3.000000e+05 -1.300686e+05 -1.250000e+04
-3.000000e+05 -1.374496e+05 -2.083333e+04
-3.046089e+05 -1.388295e+05 -2.512605e+04
-3.000000e+05 -1.356511e+05 -2.916667e+04
-3.000000e+05 -1.277513e+05 -2.500000e+04
-3.038401e+05 -1.310709e+05 -2.546274e+04
-3.000000e+05 -1.463872e+05 -1.666667e+04
-3.073096e+05 -1.439036e+05 -2.026449e+04
-3.058615e+05 -1.315674e+05 -1.783281e+04
-3.000000e+05 -1.384874e+05 -1.250000e+04
-3.122532e+05 -1.279420e+05 -1.902556e+04
-3.087058e+05 -1.261403e+05 -2.526913e+04
-3.056308e+05 -1.280722e+05 -1.072973e+04
3.000000e+05 1.454873e+05 -1.250000e+04
3.000000e+05 1.450088e+05 -8.333333e+03
3.070684e+05 1.475657e+05 -1.044106e+04
3.067905e+05 1.438948e+05 -1.492926e+04
3.000000e+05 1.371090e+05 -1.250000e+04
3.000000e+05 1.375875e+05 -1.666667e+04
3.082945e+05 1.559194e+05 -1.373494e+04
3.000000e+05 1.571169e+05 -1.404286e+04
3.000000e+05 1.492171e+05 -1.820953e+04
3.049616e+05 1.473539e+05 -1.931997e+04
3.057893e+05 1.367319e+05 -1.839771e+04
3.000000e+05 1.379029e+05 -2.500000e+04
3.000000e+05 1.459604e+05 -2.500000e+04
3.000000e+05 1.287307e+05 -1.250000e+04
3.000000e+05 1.296876e+05 -2.083333e+04
3.060943e+05 1.279169e+05 -2.143236e+04
3.000000e+05 1.208308e+05 -1.666667e+04
3.000000e+05 1.217878e+05 -2.500000e+04
3.000000e+05 1.300030e+05 -2.916667e+04
3.000000e+05 9.808819e+04 -3.750000e+04
3.062084e+05 9.570750e+04 -3.823985e+04
3.059384e+05 9.143165e+04 -3.280129e+04
3.061090e+05 9.786587e+04 -2.657423e+04
3.083571e+05 1.005126e+05 -3.312740e+04
3.000000e+05 1.059880e+05 -3.333333e+04
3.000000e+05 9.824588e+04 -4.166667e+04
3.000000e+05 1.061457e+05 -3.750000e+04
3.000000e+05 8.875289e+04 -2.916667e+04
3.000000e+05 9.665275e+04 -2.500000e+04
3.000000e+05 1.138879e+05 -2.916667e+04
3.000000e+05 1.129309e+05 -2.083333e+04
3.050242e+05 1.177371e+05 -2.517681e+04
3.050912e+05 1.138908e+05 -3.199561e+04
3.000000e+05 1.050311e+05 -2.500000e+04
3.000000e+05 1.221031e+05 -3.333333e+04
3.000000e+05 1.142033e+05 -3.750000e+04
3.074820e+05 1.068769e+05 -2.993520e+04
3.099164e+05 1.107217e+05 -3.647062e+04
-3.105037e+05 -1.088279e+05 -1.012780e+04
-3.100024e+05 -1.416793e+05 -2.693895e+04
-2.698385e+05 5.096055e+04 0.000000e+00
-2.774114e+05 5.893413e+04 -2.514195e+04
-2.517726e+05 3.457474e+04 -2.461423e+04
-2.784359e+05 2.273817e+04 -2.293744e+04
-2.696827e+05 3.918807e+02 -5.000000e+04
-2.780532e+05 -1.423493e+04 -2.211430e+04
-2.518068e+05 1.912511e+02 -2.468765e+04
-1.519779e+05 -5.811054e+04 -5.000000e+04
-1.426259e+05 -4.025644e+04 -3.992867e+04
-1.689934e+05 -2.863986e+04 -5.000000e+04
-1.677502e+05 -5.257508e+04 -4.012402e+04
4.997817e+04 2.114393e+05 -5.000000e+04
3.283471e+04 1.812640e+05 -5.000000e+04
5.303565e+04 1.808812e+05 -2.439139e+04
2.934182e+04 2.018067e+05 -2.473703e+04
1.661797e+04 2.114356e+05 -5.000000e+04
8.965352e+03 2.271405e+05 -2.454804e+04
-3.881101e+03 1.984003e+05 -2.319259e+04
1.561144e+04 1.760565e+05 -2.465939e+04
1.632483e+04 2.089927e+05 0.000000e+00
3.481443e+04 1.801836e+05 0.000000e+00
4.938676e+04 2.112398e+05 0.000000e+00
4.481805e+04 2.304341e+05 -2.392316e+04
2.415947e+05 1.357745e+05 -5.000000e+04
2.043600e+05 1.494587e+05 -5.000000e+04
2.157758e+05 1.367124e+05 -3.337692e+04
2.230443e+05 1.657220e+05 -2.677081e+04
2.404461e+05 1.703394e+05 -5.000000e+04
2.272949e+05 1.916705e+05 -2.462887e+04
2.107425e+05 1.883183e+05 -5.000000e+04
-2.100988e+05 1.417485e+05 -5.000000e+04
-2.401956e+05 1.240175e+05 -5.000000e+04
-2.099010e+05 1.060251e+05 -5.000000e+04
-2.226786e+05 1.142428e+05 -2.520952e+04
1.926883e+05 1.784552e+05 -2.659313e+04
-2.706209e+05 1.508059e+05 0.000000e+00
-2.705513e+05 1.175945e+05 0.000000e+00
-2.775137e+05 1.301388e+05 -2.506876e+04
2.096777e+05 1.619538e+05 0.000000e+00
1.848580e+05 1.428044e+05 -2.516588e+04
2.414027e+05 1.753068e+05 0.000000e+00
-1.500849e+05 2.114885e+05 -5.000000e+04
-1.688301e+05 1.988699e+05 -2.473968e+04
-1.394952e+05 1.954987e+05 -2.481460e+04
-1.529017e+05 2.258143e+05 -2.486894e+04
-1.247933e+05 2.276229e+05 -2.494335e+04
-1.333372e+05 2.410712e+05 -5.000000e+04
-1.511263e+05 2.108182e+05 0.000000e+00
-1.575342e+05 2.530633e+05 -2.478829e+04
-1.334246e+05 2.410391e+05 0.000000e+00
1.976293e+05 1.239055e+05 -4.082388e+04
1.191035e+05 1.869703e+05 0.000000e+00
1.054754e+05 2.133413e+05 -2.604671e+04
1.378805e+05 2.091585e+05 -2.347149e+04
1.272536e+05 1.733326e+05 -2.494042e+04
2.148753e+05 1.058504e+05 -5.000000e+04
-1.149455e+05 1.254182e+05 -5.000000e+04
-1.157069e+05 8.827206e+04 -5.000000e+04
-8.519663e+04 1.064232e+05 -5.000000e+04
-1.018023e+05 1.073409e+05 -2.332955e+04
-2.057871e+05 1.796976e+05 -5.000000e+04
-2.227358e+05 1.724173e+05 -2.490355e+04
-1.971353e+05 1.386036e+05 -2.686712e+04
-1.883232e+05 1.697369e+05 -2.362456e+04
-2.105827e+05 1.872900e+05 0.000000e+00
-1.975670e+05 1.987324e+05 -2.483780e+04
-1.736304e+05 1.764792e+05 0.000000e+00
-1.556985e+05 1.719616e+05 -2.564724e+04
-1.792056e+05 1.360068e+05 0.000000e+00
-1.682677e+05 1.504012e+05 -2.701476e+04
-2.039514e+05 -2.141557e+04 0.000000e+00
-1.933349e+05 -3.849651e+04 -3.044915e+04
-1.846146e+05 6.615971e+03 -2.510858e+04
-1.727034e+05 -2.770251e+04 -2.832040e+04
-1.557450e+05 -1.035333e+04 -1.968776e+04
-1.630850e+05 4.873419e+03 -5.000000e+04
-1.500037e+05 2.705866e+05 -5.000000e+04
-1.667401e+05 2.409742e+05 -5.000000e+04
-2.029572e+05 -5.733698e+03 -5.000000e+04
-2.261777e+04 1.297171e+05 -5.000000e+04
-5.497918e+04 1.210181e+05 -5.000000e+04
-2.993435e+04 9.602964e+04 -5.000000e+04
-4.653140e+04 1.052544e+05 -2.460107e+04
-2.696532e+05 3.562355e+04 -5.000000e+04
-2.699172e+05 7.104488e+04 -5.000000e+04
-2.521730e+05 6.692616e+04 -2.536471e+04
-2.697259e+05 9.441409e+04 -2.528523e+04
-2.702520e+05 8.430947e+04 0.000000e+00
8.226126e+04 1.518574e+05 -5.000000e+04
1.162460e+05 1.496213e+05 -5.000000e+04
1.009912e+05 1.546250e+05 -2.547224e+04
1.015539e+05 1.289732e+05 -2.566141e+04
1.178567e+05 1.531060e+05 0.000000e+00
8.646968e+04 1.389719e+05 0.000000e+00
8.296321e+04 1.049956e+05 0.000000e+00
1.145881e+05 1.190832e+05 0.000000e+00
1.014506e+05 9.471685e+04 -3.169795e+04
6.740820e+04 1.476234e+05 -2.507851e+04
7.477296e+04 1.166762e+05 -2.531103e+04
5.000001e+04 2.706090e+05 -5.000000e+04
3.333374e+04 2.410682e+05 -5.000000e+04
7.136040e+04 2.608062e+05 -2.582371e+04
4.523313e+04 2.772003e+05 -2.732932e+04
-8.333329e+04 2.706036e+05 -5.000000e+04
-7.574978e+04 2.536420e+05 -2.493839e+04
-6.547760e+04 2.781190e+05 -2.467178e+04
-9.875210e+04 2.780827e+05 -2.468251e+04
-1.166688e+05 2.706034e+05 0.000000e+00
-1.070757e+05 2.537620e+05 -2.492367e+04
-1.329628e+05 2.703469e+05 -2.479922e+04
-1.166664e+05 2.706090e+05 -5.000000e+04
-3.352876e+04 1.840063e+05 0.000000e+00
-2.391851e+04 1.694805e+05 -2.604035e+04
-3.069497e+04 1.993258e+05 -2.699865e+04
-1.668951e+04 2.114859e+05 -5.000000e+04
-1.692184e+04 2.094810e+05 0.000000e+00
-2.375462e+04 2.262993e+05 -2.502529e+04
-1.544147e+03 1.720442e+05 0.000000e+00
-9.007624e+04 1.533003e+05 0.000000e+00
-1.019781e+05 1.378815e+05 -2.507849e+04
-8.408647e+04 1.710979e+05 -2.498784e+04
-6.278539e+04 1.529994e+05 -2.523208e+04
-1.839529e+05 2.112090e+05 -5.000000e+04
-1.830971e+05 2.263057e+05 -2.476536e+04
-1.670936e+05 1.818749e+05 -5.000000e+04
-1.820662e+05 1.559884e+05 -5.000000e+04
-2.681300e+05 -5.024767e+04 0.000000e+00
-2.787216e+05 -6.902198e+04 -3.289139e+04
-2.696360e+05 1.756507e+04 0.000000e+00
-2.700349e+05 -3.461252e+04 -5.000000e+04
-2.528674e+05 -3.484544e+04 -2.583661e+04
-1.435922e+03 2.790921e+05 -2.490363e+04
1.666668e+04 2.705986e+05 -5.000000e+04
-9.859978e+03 2.544202e+05 -2.475396e+04
2.225272e+04 2.591759e+05 -2.298678e+04
-1.667065e+04 2.705742e+05 0.000000e+00
-3.240656e+04 2.781554e+05 -2.477286e+04
1.665489e+04 2.705682e+05 0.000000e+00
2.461175e+05 2.717347e+05 0.000000e+00
2.282927e+05 2.790271e+05 -2.479337e+04
2.173193e+05 2.696264e+05 0.000000e+00
2.125552e+05 2.490257e+05 -2.592701e+04
1.840785e+05 2.737965e+05 -2.514128e+04
2.451914e+05 2.726784e+05 -5.000000e+04
2.455282e+05 2.586966e+05 -2.500364e+04
2.742302e+05 2.752982e+05 -3.447995e+04
2.165689e+05 2.706314e+05 -5.000000e+04
-6.552352e+04 1.766752e+05 0.000000e+00
-5.144578e+04 1.833141e+05 -2.513614e+04
-3.408261e+04 1.527403e+05 0.000000e+00
-3.607514e+04 1.364378e+05 -2.476890e+04
-8.320808e+04 1.472530e+05 -5.000000e+04
-6.633466e+04 1.814973e+05 -5.000000e+04
-4.699216e+04 1.530497e+05 -5.000000e+04
-2.517150e+05 1.197315e+05 -2.469659e+04
-2.700776e+05 1.064006e+05 -5.000000e+04
-2.700669e+05 1.416483e+05 -5.000000e+04
-2.533573e+05 1.544072e+05 -2.504626e+04
-2.779049e+05 1.646472e+05 -2.521545e+04
2.707870e+05 1.546874e+05 -5.000000e+04
2.486162e+05 1.512056e+05 -3.277706e+04
2.606417e+05 1.751074e+05 -2.295765e+04
2.715507e+05 1.879976e+05 0.000000e+00
2.564705e+05 1.967006e+05 -2.491016e+04
-1.460381e+05 6.849310e+04 -5.000000e+04
-1.369053e+05 9.648222e+04 -2.350520e+04
-1.468731e+05 1.065598e+05 -5.000000e+04
-1.617802e+05 8.092123e+04 -2.635623e+04
-1.727756e+05 4.658077e+04 -5.000000e+04
-1.897441e+05 6.941822e+04 -2.324734e+04
-1.542123e+05 4.546483e+04 -2.571797e+04
-1.311555e+05 6.665525e+04 -2.469792e+04
-2.023768e+05 1.293411e+04 0.000000e+00
-2.201321e+05 1.628347e+04 -2.492611e+04
-1.908322e+05 3.908573e+04 -2.342363e+04
-2.024253e+05 4.734363e+04 0.000000e+00
-2.215314e+05 5.062696e+04 -2.483826e+04
-1.700563e+05 6.276598e+04 0.000000e+00
1.747671e+05 1.803018e+05 -5.000000e+04
-2.077826e+05 6.867578e+04 -5.000000e+04
8.336317e+04 2.705794e+05 0.000000e+00
1.167618e+05 2.704482e+05 0.000000e+00
1.008436e+05 2.779862e+05 -2.499895e+04
1.166775e+05 2.705950e+05 -5.000000e+04
1.082608e+05 2.503347e+05 -2.420907e+04
1.315242e+05 2.707750e+05 -2.503316e+04
8.333335e+04 2.706038e+05 -5.000000e+04
-2.705057e+05 1.841095e+05 0.000000e+00
-2.526751e+05 1.880372e+05 -2.538834e+04
-2.774636e+05 1.990546e+05 -2.527546e+04
-2.696988e+05 2.184032e+05 0.000000e+00
-2.737542e+05 2.349708e+05 -2.346414e+04
-2.502564e+05 2.204680e+05 -2.708052e+04
-2.694589e+05 2.129522e+05 -5.000000e+04
-2.364726e+05 2.389905e+05 0.000000e+00
-2.157327e+05 2.336481e+05 -2.344060e+04
-2.260912e+05 2.052869e+05 -2.522790e+04
-2.370244e+05 2.359991e+05 -5.000000e+04
-2.394641e+05 1.961035e+05 -5.000000e+04
-2.712437e+05 2.436015e+05 -5.000000e+04
-2.430299e+05 2.491547e+05 -2.868282e+04
-1.652588e+05 2.785497e+05 -2.475938e+04
-1.833713e+05 2.705230e+05 -5.000000e+04
-1.908073e+05 2.583600e+05 -2.345534e+04
-1.500098e+05 2.706049e+05 0.000000e+00
-2.402372e+05 1.007649e+05 0.000000e+00
-2.068494e+05 8.267284e+04 0.000000e+00
-2.261071e+05 8.353544e+04 -2.631394e+04
-2.275744e+05 1.422611e+05 -2.321175e+04
-2.406845e+05 1.344317e+05 0.000000e+00
-2.398933e+05 8.839421e+04 -5.000000e+04
2.698487e+05 2.204228e+05 -5.000000e+04
2.709298e+05 2.394330e+05 -2.494478e+04
2.391176e+05 2.216905e+05 -2.418094e+04
2.783764e+05 2.080675e+05 -2.477962e+04
2.714024e+05 2.197984e+05 0.000000e+00
2.705910e+05 1.872602e+05 -5.000000e+04
-7.349814e+04 1.218822e+05 -2.521518e+04
-1.329054e+05 1.819841e+05 -5.000000e+04
-1.342788e+05 1.542334e+05 -2.635535e+04
-1.480897e+05 1.480871e+05 -5.000000e+04
-1.514969e+05 1.515331e+05 0.000000e+00
-8.532005e+04 6.689037e+04 -5.000000e+04
-7.841121e+04 8.756295e+04 -2.508487e+04
-1.060728e+05 7.705472e+04 -2.387747e+04
-1.182330e+05 5.582649e+04 -5.000000e+04
-1.186058e+05 4.055158e+04 -2.499843e+04
-8.947880e+04 4.804188e+04 -2.527090e+04
-1.036925e+05 5.527398e+04 0.000000e+00
-1.362337e+05 8.127193e+04 0.000000e+00
-7.153482e+04 6.879743e+04 0.000000e+00
-9.938209e+04 8.959047e+04 0.000000e+00
-2.697558e+05 2.544651e+05 0.000000e+00
-2.585565e+05 2.716639e+05 -2.468205e+04
-2.534511e+05 2.696623e+05 -5.000000e+04
-2.808935e+05 2.691318e+05 -3.112051e+04
-2.451408e+05 2.723832e+05 0.000000e+00
-2.246795e+05 2.669660e+05 -2.496913e+04
-2.172721e+05 2.700705e+05 -5.000000e+04
-8.333363e+04 2.706016e+05 0.000000e+00
-5.000105e+04 2.705816e+05 0.000000e+00
-4.275078e+04 2.535774e+05 -2.492711e+04
-4.999999e+04 2.705981e+05 -5.000000e+04
-1.375309e+05 -2.999243e+04 -5.000000e+04
-1.666666e+04 2.706083e+05 -5.000000e+04
-2.694833e+05 -7.007667e+04 -5.000000e+04
-2.685510e+05 -1.063642e+05 -5.000000e+04
-2.504994e+05 -6.521107e+04 -3.109660e+04
-1.200000e+05 -6.974937e+04 -5.000000e+04
-1.025810e+05 -3.003447e+04 -5.000000e+04
-2.699247e+05 1.771114e+05 -5.000000e+04
-1.869043e+05 -6.261846e+04 -5.000000e+04
-2.165269e+05 2.705352e+05 0.000000e+00
-1.833397e+05 2.706013e+05 0.000000e+00
-2.003137e+05 2.412074e+05 0.000000e+00
-2.000351e+05 2.405691e+05 -5.000000e+04
1.673188e+05 2.398500e+05 0.000000e+00
1.595871e+05 2.608500e+05 -2.504372e+04
1.672443e+05 2.154952e+05 -2.643475e+04
1.349233e+05 2.370931e+05 -2.403886e+04
-2.381445e+05 6.676347e+04 0.000000e+00
1.835965e+05 2.701279e+05 0.000000e+00
1.842353e+05 2.412053e+05 -2.515867e+04
1.335768e+05 2.409978e+05 -5.000000e+04
1.339048e+05 2.402560e+05 0.000000e+00
1.501493e+05 2.703540e+05 0.000000e+00
1.500346e+05 2.706022e+05 -5.000000e+04
1.833926e+05 2.705977e+05 -5.000000e+04
1.530048e+05 1.059548e+05 -5.000000e+04
1.279844e+05 1.219983e+05 -5.000000e+04
1.217993e+05 9.226061e+04 -5.000000e+04
1.287204e+05 1.117844e+05 -2.632817e+04
1.521389e+05 2.109519e+05 -5.000000e+04
-1.795340e+05 1.245728e+05 -5.000000e+04
-1.625732e+05 1.210999e+05 -2.553845e+04
-1.930760e+05 1.023853e+05 -2.532107e+04
-1.210759e+05 1.452117e+05 0.000000e+00
-1.115803e+05 1.679045e+05 -2.494927e+04
-1.352560e+05 1.799086e+05 0.000000e+00
-9.978236e+04 1.818306e+05 -5.000000e+04
-1.070577e+05 1.969480e+05 -2.493411e+04
-8.330486e+04 2.114574e+05 -5.000000e+04
-7.623069e+04 1.973825e+05 -2.476843e+04
-1.170627e+05 2.111315e+05 0.000000e+00
-9.152184e+04 2.257642e+05 -2.494376e+04
-8.344782e+04 2.107531e+05 0.000000e+00
-1.166238e+05 2.114939e+05 -5.000000e+04
-1.361562e+05 4.140705e+04 0.000000e+00
-1.686495e+05 2.690614e+04 0.000000e+00
-1.375268e+05 1.486621e+04 -2.718818e+04
-1.069565e+05 2.053988e+04 0.000000e+00
-1.028641e+05 9.241933e+03 -2.952420e+04
-1.243556e+05 -1.203178e+04 -3.065299e+04
-1.029870e+05 2.674995e+04 -5.000000e+04
-1.370171e+05 2.674844e+04 -5.000000e+04
-1.200189e+05 2.533647e+02 -5.000000e+04
-1.709431e+05 -7.549403e+03 0.000000e+00
1.004961e+05 2.409950e+05 0.000000e+00
7.802410e+04 2.285580e+05 -2.484361e+04
6.681316e+04 2.407371e+05 0.000000e+00
8.339765e+04 2.113970e+05 -5.000000e+04
7.342433e+04 2.007426e+05 -2.505203e+04
1.000304e+05 2.410559e+05 -5.000000e+04
2.743927e+05 2.750450e+05 -1.542038e+04
-6.484947e+04 1.380268e+05 0.000000e+00
-6.779182e+04 1.030338e+05 0.000000e+00
-5.985725e+04 9.039874e+04 -5.000000e+04
1.778915e+05 1.474138e+05 0.000000e+00
1.589908e+05 1.758532e+05 -2.461520e+04
1.564843e+05 1.434501e+05 -5.000000e+04
-5.770148e+04 6.501252e+04 -2.448134e+04
-4.261780e+04 6.027998e+04 -5.000000e+04
-2.379732e+04 7.779456e+04 -2.648440e+04
-4.359324e+04 4.865782e+04 0.000000e+00
-2.548972e+04 3.960276e+04 -3.246356e+04
-7.002242e+04 3.708726e+04 -5.000000e+04
-6.080884e+04 2.452524e+04 -3.194073e+04
-7.525528e+04 3.459196e+04 0.000000e+00
-2.132258e+05 2.128121e+05 -5.000000e+04
3.317963e+04 2.407797e+05 0.000000e+00
-8.098841e+01 2.405464e+05 0.000000e+00
2.698509e+05 2.554602e+05 -5.000000e+04
-2.148828e+05 2.153262e+05 0.000000e+00
-1.778231e+05 8.687318e+04 -5.000000e+04
-1.312302e+05 1.236426e+05 -2.553947e+04
-1.763040e+05 9.979896e+04 0.000000e+00
5.869138e+04 1.581736e+05 0.000000e+00
3.650146e+04 1.500389e+05 -2.527751e+04
-1.495946e+05 1.193468e+05 0.000000e+00
-2.406829e+05 2.013875e+05 0.000000e+00
-2.037058e+05 3.010390e+04 -5.000000e+04
-4.125629e+04 2.261546e+04 -5.000000e+04
1.260638e+05 1.403212e+05 -2.506937e+04
8.597230e+04 2.082746e+05 0.000000e+00
9.341499e+04 1.790738e+05 -2.377118e+04
6.650893e+04 1.817093e+05 -5.000000e+04
1.002114e+05 1.812614e+05 -5.000000e+04
6.258827e+04 1.862466e+05 0.000000e+00
2.708679e+05 2.542421e+05 0.000000e+00
2.386545e+05 2.365981e+05 0.000000e+00
2.365583e+05 2.397820e+05 -5.000000e+04
1.494306e+05 1.677293e+05 0.000000e+00
1.509056e+05 2.059013e+05 0.000000e+00
1.462168e+05 1.332056e+05 0.000000e+00
6.520087e+04 1.282434e+05 -5.000000e+04
4.471090e+04 1.067106e+05 -2.543357e+04
5.133236e+04 9.091224e+04 0.000000e+00
1.969391e+04 7.682824e+04 0.000000e+00
3.841273e+04 6.693743e+04 -3.258507e+04
3.071311e+04 8.473306e+04 -5.000000e+04
1.156443e+04 9.040244e+04 -2.558233e+04
6.240397e+04 9.849753e+04 -5.000000e+04
7.008761e+04 8.430224e+04 -3.049459e+04
-2.397660e+05 1.596991e+05 -5.000000e+04
-2.407562e+05 1.679454e+05 0.000000e+00
-2.369738e+05 3.280835e+04 0.000000e+00
-2.389341e+05 -1.865622e+04 -5.000000e+04
-2.214939e+05 -1.833252e+04 -2.589362e+04
-2.385431e+05 5.196753e+04 -5.000000e+04
-2.376264e+05 1.600995e+04 -5.000000e+04
-6.240840e+02 1.817571e+05 -5.000000e+04
-7.691725e+04 4.877240e+03 -5.000000e+04
-3.325145e+04 1.823987e+05 -5.000000e+04
-6.666838e+04 2.409952e+05 0.000000e+00
-5.757474e+04 2.241328e+05 -2.494867e+04
-1.000260e+05 2.410214e+05 0.000000e+00
6.134187e+03 5.114510e+04 -3.341148e+04
3.700216e+04 1.194505e+05 -5.000000e+04
5.833669e+04 6.424238e+04 -5.000000e+04
-2.365688e+05 -3.559422e+04 0.000000e+00
-9.999871e+04 2.410707e+05 -5.000000e+04
-2.405835e+05 -5.271307e+04 -5.000000e+04
-2.248947e+05 -4.922323e+04 -2.851345e+04
1.672711e+05 2.410706e+05 -5.000000e+04
2.006080e+05 2.413557e+05 -5.000000e+04
2.152137e+05 2.161829e+05 -5.000000e+04
2.012329e+05 2.138689e+05 -2.487617e+04
2.007945e+05 2.386475e+05 0.000000e+00
-1.019803e+05 1.800960e+05 0.000000e+00
-1.155595e+05 1.566420e+05 -5.000000e+04
4.999720e+04 2.705700e+05 0.000000e+00
8.946030e-03 2.410706e+05 -5.000000e+04
8.852600e+04 1.724024e+05 0.000000e+00
9.492402e+04 1.169898e+05 -5.000000e+04
1.813642e+05 1.824228e+05 0.000000e+00
-1.409470e+04 1.114299e+05 -2.239624e+04
-3.984863e+04 8.281040e+04 0.000000e+00
-4.669926e+03 1.318341e+05 0.000000e+00
-2.886197e+03 1.466009e+05 -2.559792e+04
-2.371541e+05 -1.091587e+03 0.000000e+00
3.856302e+03 1.071177e+05 -5.000000e+04
1.886395e+04 1.245714e+05 -2.335329e+04
5.502800e+04 1.249482e+05 0.000000e+00
1.222959e+04 1.470200e+05 -5.000000e+04
1.823261e+05 1.183533e+05 -5.000000e+04
6.667164e+04 2.410686e+05 -5.000000e+04
4.953188e+04 1.518217e+05 -5.000000e+04
2.344390e+04 1.109939e+05 0.000000e+00
-8.204377e+03 9.690675e+04 0.000000e+00
2.742093e+04 1.456912e+05 0.000000e+00
2.473085e+05 2.043619e+05 0.000000e+00
2.408368e+05 2.033944e+05 -5.000000e+04
2.146145e+05 2.010335e+05 0.000000e+00
-1.669289e+05 2.410941e+05 0.000000e+00
-8.862708e+04 -2.264984e+04 -4.182283e+04
-2.096816e+05 -3.890395e+04 -5.000000e+04
-2.898862e+03 7.186987e+04 -5.000000e+04
-3.635596e+04 1.172807e+05 0.000000e+00
-6.666654e+04 2.410725e+05 -5.000000e+04
-3.333334e+04 2.410710e+05 -5.000000e+04
-4.998541e+04 2.114782e+05 -5.000000e+04
-3.335515e+04 2.407539e+05 0.000000e+00
-4.992998e+04 2.108540e+05 0.000000e+00
-8.801871e+04 -5.810771e+04 -5.000000e+04
-7.100584e+04 -2.863551e+04 -5.000000e+04
-2.094356e+05 1.529549e+05 0.000000e+00
-2.097565e+05 1.176856e+05 0.000000e+00
-1.810538e+04 1.577088e+05 -5.000000e+04
-1.194765e+04 6.274188e+04 0.000000e+00
1.864784e+05 2.123665e+05 -5.000000e+04
1.180964e+05 2.157599e+05 0.000000e+00
2.711810e+05 1.227501e+05 -5.000000e+04
9.002108e+04 7.866214e+04 -5.000000e+04
1.358197e+05 1.797897e+05 -5.000000e+04
1.559193e+05 1.183492e+05 -2.905091e+04
-9.481960e+04 1.231905e+05 0.000000e+00
-1.214526e+05 1.108625e+05 0.000000e+00
1.171446e+05 2.111686e+05 -5.000000e+04
5.451831e+04 3.010553e+04 -5.000000e+04
2.620669e+04 5.045247e+04 -5.000000e+04
1.834849e+05 2.134574e+05 0.000000e+00
-2.155756e+05 -6.654704e+04 -5.000000e+04
-1.387700e+05 6.469061e+03 0.000000e+00
-1.854816e+05 2.119064e+05 0.000000e+00
-2.691015e+05 -1.617033e+04 0.000000e+00
-2.347507e+05 -8.934120e+04 -5.000000e+04
-7.544052e+03 3.719683e+04 -5.000000e+04
-1.711585e+05 -9.714067e+04 -5.000000e+04
8.616013e+04 4.409490e+04 -5.000000e+04
2.245751e+04 1.630916e+04 -5.000000e+04
-1.035939e+04 2.770791e+03 -5.000000e+04
-4.314728e+04 -1.160482e+04 -5.000000e+04
1.176961e+05 5.812589e+04 -5.000000e+04
-2.839033e+05 -1.679837e+05 -5.000000e+04
-2.840420e+05 -1.072828e+05 -2.651549e+04
-2.861302e+05 -8.405802e+04 -1.461160e+04
-2.844252e+05 -7.443471e+04 0.000000e+00
2.857754e+05 1.785922e+05 0.000000e+00
2.820658e+05 1.703324e+05 -1.323340e+04
2.703081e+05 1.717058e+05 0.000000e+00
2.852075e+05 8.306000e+04 -5.000000e+04
2.704151e+05 9.173138e+04 -5.000000e+04
2.691109e+05 7.589333e+04 -5.000000e+04
2.708241e+05 9.548072e+04 -4.511384e+04
2.888983e+05 9.837458e+04 -4.611333e+04
-2.823506e+05 -1.373702e+05 -4.303115e+04
-2.781931e+05 -1.531108e+05 -4.638687e+04
-2.800419e+05 -1.202991e+05 -3.519191e+04
2.858206e+05 1.505145e+05 -3.794984e+04
2.569807e+05 1.352248e+05 -2.623506e+04
2.587223e+05 1.543121e+05 -1.718093e+04
2.761282e+05 1.428196e+05 -2.935690e+04
2.784676e+05 1.581215e+05 -2.410703e+04
2.722751e+05 1.243846e+05 -3.605203e+04
2.865364e+05 1.137020e+05 -4.277098e+04
2.872647e+05 1.322456e+05 -3.548078e+04
2.671521e+05 1.649569e+05 -1.276517e+04
2.699443e+05 1.085984e+05 -4.034748e+04
2.918914e+05 1.187906e+05 -4.733385e+04
-1.758066e+05 -6.299874e+04 -2.941573e+04
-1.607276e+05 -7.036682e+04 -3.579069e+04
-1.741712e+05 -8.450152e+04 -3.775978e+04
-1.556876e+05 -8.875962e+04 -4.364724e+04
-1.482878e+05 -7.223649e+04 -4.137364e+04
-1.299129e+05 -8.404665e+04 -4.409795e+04
-1.414922e+05 -8.639094e+04 -4.393734e+04
-1.340604e+05 -7.375776e+04 -4.336249e+04
-1.393490e+05 -9.204240e+04 -5.000000e+04
-1.248111e+05 -1.001596e+05 -5.000000e+04
-1.673015e+05 -5.055943e+04 -2.155376e+04
-1.558743e+05 -4.921870e+04 -2.510804e+04
-1.740782e+05 -1.009627e+05 -4.489675e+04
-1.564693e+05 -1.097226e+05 -5.000000e+04
-1.474647e+05 -5.990051e+04 -3.375924e+04
-1.405645e+05 -1.071734e+05 -5.000000e+04
-1.323944e+05 -5.702731e+04 -3.600787e+04
-1.425881e+05 -4.084215e+04 -2.468782e+04
-1.517131e+05 -8.266765e+04 -4.765623e+04
-8.009611e+04 -4.064102e+04 -3.738288e+04
-7.280209e+04 -2.105748e+04 -2.989316e+04
-6.971459e+04 -3.893909e+04 -4.150422e+04
-6.124044e+04 -2.601045e+04 -3.825420e+04
-4.609061e+04 -4.579590e+04 -5.000000e+04
-5.751636e+04 -4.734615e+04 -4.444230e+04
-4.667528e+04 -6.300868e+04 -5.000000e+04
-4.363018e+04 -4.727134e+04 -4.554472e+04
-8.897141e+04 -1.694900e+04 -2.487690e+04
-9.333425e+04 -3.859762e+04 -3.558895e+04
-8.979558e+04 -5.839012e+04 -4.392342e+04
-7.304295e+04 -5.462340e+04 -4.578284e+04
-8.339266e+04 -7.617842e+04 -5.000000e+04
-5.065193e+04 -3.198329e+04 -3.815901e+04
-6.763932e+04 -6.916459e+04 -5.000000e+04
-7.922955e+04 -4.031592e+04 -4.475116e+04
-1.597696e+05 -3.884981e+04 -1.891935e+04
-1.681965e+05 -4.304183e+04 -1.503971e+04
-1.798578e+05 -4.669143e+04 -1.801352e+04
-1.889903e+05 -5.937309e+04 -2.518132e+04
-1.723232e+05 -3.209856e+04 -1.331503e+04
-1.844224e+05 -3.999146e+04 -1.136841e+04
-1.972291e+05 -4.677748e+04 -1.604568e+04
-1.041021e+05 -2.037378e+04 -2.254926e+04
-1.127406e+05 -9.499243e+03 -1.236587e+04
-9.844179e+04 -6.649557e+03 -1.592163e+04
-1.057237e+05 -3.653819e+03 -8.995964e+03
-8.898191e+04 6.132935e+03 -1.648035e+04
-7.868996e+04 -6.421064e+03 -2.267364e+04
-1.047724e+05 -4.038808e+04 -3.344923e+04
-1.026135e+05 -1.048663e+04 -2.877499e+04
-1.217569e+05 -2.211197e+04 -1.927619e+04
-1.232498e+05 -7.207425e+04 -4.505099e+04
-1.279570e+05 -3.985042e+04 -2.668806e+04
-1.184698e+05 -4.728412e+04 -3.788497e+04
-1.151366e+05 -8.901310e+04 -5.000000e+04
-1.055064e+05 -7.064306e+04 -4.574823e+04
-9.938331e+04 -8.199926e+04 -5.000000e+04
-1.035969e+05 -4.575157e+04 -4.389595e+04
-1.408906e+05 -2.989122e+04 -1.679367e+04
-1.374493e+05 -1.811087e+04 -1.193116e+04
-1.546366e+05 -2.828840e+04 -1.511179e+04
-1.495222e+05 -2.010340e+04 -7.800217e+03
-1.642208e+05 -2.596178e+04 -7.371537e+03
2.539991e+05 6.972900e+04 -5.000000e+04
2.563997e+05 8.676860e+04 -4.607376e+04
2.401915e+05 7.940271e+04 -5.000000e+04
2.418505e+05 7.758341e+04 -4.576572e+04
2.382458e+05 6.271516e+04 -5.000000e+04
2.264753e+05 6.994402e+04 -4.640576e+04
2.087392e+05 6.659624e+04 -5.000000e+04
2.225197e+05 5.631193e+04 -5.000000e+04
2.067663e+05 4.929809e+04 -5.000000e+04
2.087484e+05 6.824161e+04 -4.518909e+04
1.908969e+05 4.205096e+04 -5.000000e+04
1.770003e+05 5.210199e+04 -5.000000e+04
1.751436e+05 3.503713e+04 -5.000000e+04
1.760259e+05 4.968440e+04 -4.563113e+04
1.935463e+05 5.821824e+04 -4.636732e+04
1.638157e+05 4.278810e+04 -4.641994e+04
1.454805e+05 3.803869e+04 -5.000000e+04
1.593836e+05 2.800548e+04 -5.000000e+04
1.476099e+05 3.916820e+04 -4.532935e+04
1.436303e+05 2.099164e+04 -5.000000e+04
1.139708e+05 2.400705e+04 -5.000000e+04
1.121221e+05 6.961983e+03 -5.000000e+04
1.278754e+05 1.397582e+04 -5.000000e+04
1.125796e+05 2.400195e+04 -4.524974e+04
1.340652e+05 2.955546e+04 -4.614904e+04
9.636256e+04 -4.981639e+01 -5.000000e+04
8.245168e+04 9.983456e+03 -5.000000e+04
8.060922e+04 -7.063654e+03 -5.000000e+04
8.138205e+04 7.677040e+03 -4.556587e+04
9.867682e+04 1.554998e+04 -4.634884e+04
6.480059e+04 -1.405442e+04 -5.000000e+04
6.898009e+04 9.556922e+02 -4.636385e+04
5.083441e+04 -3.998079e+03 -5.000000e+04
5.235158e+04 -2.512822e+03 -4.506472e+04
4.904725e+04 -2.106826e+04 -5.000000e+04
1.892945e+04 -1.785256e+04 -5.000000e+04
1.734143e+04 -3.500934e+04 -5.000000e+04
3.309477e+04 -2.799550e+04 -5.000000e+04
2.064781e+04 -1.696179e+04 -4.514231e+04
3.868292e+04 -1.322297e+04 -4.623091e+04
1.271778e+03 -4.187112e+04 -5.000000e+04
-1.320986e+04 -3.157613e+04 -5.000000e+04
-1.448156e+04 -4.888496e+04 -5.000000e+04
-1.264297e+04 -2.813336e+04 -4.437757e+04
5.449605e+03 -2.691551e+04 -4.636933e+04
-3.092194e+04 -5.599484e+04 -5.000000e+04
-3.156784e+04 -3.637151e+04 -4.546628e+04
-1.722226e+05 -1.167364e+05 -5.000000e+04
-1.884429e+05 -1.257990e+05 -5.000000e+04
-2.035991e+05 -1.152658e+05 -5.000000e+04
-2.031353e+05 -1.138130e+05 -4.446535e+04
-1.837738e+05 -1.114914e+05 -4.609902e+04
-2.041962e+05 -1.328128e+05 -5.000000e+04
-2.202495e+05 -1.241356e+05 -4.383921e+04
-2.328588e+05 -1.299477e+05 -4.589525e+04
-2.358326e+05 -1.283093e+05 -5.000000e+04
-2.203130e+05 -1.393346e+05 -5.000000e+04
-2.360663e+05 -1.463484e+05 -5.000000e+04
-2.680127e+05 -1.430048e+05 -5.000000e+04
-2.679097e+05 -1.607100e+05 -5.000000e+04
-2.521564e+05 -1.536962e+05 -5.000000e+04
-2.640484e+05 -1.414165e+05 -4.469218e+04
-2.467446e+05 -1.390767e+05 -4.617045e+04
-2.576454e+05 -7.486922e+04 -1.483657e+04
-2.634277e+05 -9.164245e+04 -2.405180e+04
-2.714839e+05 -7.647988e+04 -1.835622e+04
-2.747638e+05 -9.545302e+04 -2.486469e+04
-2.833674e+05 -6.717003e+04 -1.243750e+04
-2.684902e+05 -6.716466e+04 0.000000e+00
-2.408742e+05 -6.759439e+04 -1.633535e+04
-2.526692e+05 -6.012067e+04 0.000000e+00
-2.448427e+05 -8.770712e+04 -2.790922e+04
-2.304560e+05 -6.073267e+04 -1.285979e+04
-2.209197e+05 -6.863990e+04 -2.069480e+04
-2.285328e+05 -7.959110e+04 -2.282198e+04
-2.368886e+05 -5.279395e+04 0.000000e+00
-2.167003e+05 -5.154348e+04 -1.287370e+04
-2.210675e+05 -4.574996e+04 0.000000e+00
-2.047588e+05 -3.866063e+04 0.000000e+00
-2.047635e+05 -6.386147e+04 -2.535066e+04
-1.889378e+05 -3.161664e+04 0.000000e+00
-1.724336e+05 -2.468356e+04 0.000000e+00
-1.566126e+05 -1.763957e+04 0.000000e+00
-1.405260e+05 -1.063034e+04 0.000000e+00
-1.247049e+05 -3.586347e+03 0.000000e+00
-1.087982e+05 3.449061e+03 0.000000e+00
-9.297715e+04 1.049305e+04 0.000000e+00
-7.712652e+04 1.751909e+04 0.000000e+00
-6.937558e+04 8.856503e+03 -1.496128e+04
-7.210530e+04 1.875448e+03 -2.078727e+04
-6.556231e+04 -9.327465e+03 -3.299486e+04
-6.130546e+04 2.456308e+04 0.000000e+00
-5.417659e+04 1.929761e+04 -1.668530e+04
-5.445883e+04 1.155671e+03 -2.567590e+04
-3.566295e+04 2.405573e+04 -1.650932e+04
-2.197673e+04 1.305978e+04 -2.873252e+04
-3.554455e+04 2.221885e+03 -3.017730e+04
-2.029973e+04 3.276468e+04 -1.691021e+04
-4.547444e+04 3.159601e+04 0.000000e+00
-2.965339e+04 3.864000e+04 0.000000e+00
7.855968e+03 2.942473e+04 -2.508097e+04
-3.708305e+03 3.815282e+04 -1.540208e+04
1.118603e+04 4.887145e+04 -1.675871e+04
-1.383059e+04 4.568203e+04 0.000000e+00
-4.077591e+03 2.041094e+04 -2.540478e+04
1.990471e+03 5.272602e+04 0.000000e+00
2.735514e+04 3.160725e+04 -3.079400e+04
2.445748e+04 5.757867e+04 -1.228327e+04
4.235824e+04 6.131511e+04 -1.691244e+04
3.870938e+04 4.584555e+04 -2.442827e+04
3.363231e+04 6.681319e+04 0.000000e+00
1.781125e+04 5.976920e+04 0.000000e+00
5.844150e+04 4.557979e+04 -2.791253e+04
5.678878e+04 7.151129e+04 -1.337074e+04
7.016329e+04 5.854885e+04 -2.539302e+04
7.614541e+04 7.620384e+04 -1.613961e+04
4.945153e+04 7.385519e+04 0.000000e+00
6.527259e+04 8.089918e+04 0.000000e+00
9.212133e+04 8.388537e+04 -1.347402e+04
1.044800e+05 7.258087e+04 -2.430483e+04
9.257640e+04 6.262864e+04 -2.571903e+04
1.064716e+05 9.058465e+04 -1.547630e+04
8.108802e+04 8.794086e+04 0.000000e+00
9.690908e+04 9.498485e+04 0.000000e+00
8.428387e+04 9.037879e+04 -1.665117e+04
1.208728e+05 9.931410e+04 -1.077168e+04
1.295494e+05 8.816987e+04 -2.217455e+04
1.226692e+05 7.400569e+04 -2.884997e+04
1.354062e+05 1.035964e+05 -1.356995e+04
1.127215e+05 1.020287e+05 0.000000e+00
1.285426e+05 1.090726e+05 0.000000e+00
1.489882e+05 1.055624e+05 -1.456646e+04
1.440914e+05 9.286073e+04 -2.102644e+04
1.443569e+05 1.161338e+05 0.000000e+00
1.626618e+05 9.847130e+04 -2.457656e+04
1.640028e+05 1.172955e+05 -1.495255e+04
1.601780e+05 1.231778e+05 0.000000e+00
1.804058e+05 1.285064e+05 -1.191382e+04
1.808732e+05 1.073981e+05 -2.359520e+04
1.924478e+05 1.191579e+05 -2.194693e+04
1.760153e+05 1.302819e+05 0.000000e+00
1.964993e+05 1.322081e+05 -1.147039e+04
1.918364e+05 1.373259e+05 0.000000e+00
2.077295e+05 1.445959e+05 0.000000e+00
2.098839e+05 1.341522e+05 -1.632944e+04
2.274034e+05 1.378092e+05 -1.764901e+04
2.235506e+05 1.516399e+05 0.000000e+00
2.250258e+05 1.201549e+05 -2.766299e+04
2.100643e+05 1.171757e+05 -2.467237e+04
2.422636e+05 1.443235e+05 -1.634519e+04
2.393285e+05 1.307244e+05 -2.349875e+04
2.311614e+05 1.527240e+05 -1.441139e+04
2.394131e+05 1.583164e+05 0.000000e+00
2.552341e+05 1.653604e+05 0.000000e+00
3.490855e+04 2.131572e+03 -4.333505e+04
4.902755e+04 1.185066e+04 -4.021046e+04
6.583729e+04 1.666779e+04 -4.347578e+04
5.086969e+04 2.835036e+04 -3.552974e+04
3.603433e+04 2.022292e+04 -3.599621e+04
1.682278e+04 1.303064e+04 -3.706429e+04
2.019944e+04 -4.417606e+03 -4.105602e+04
4.304481e+04 1.019002e+04 -4.688669e+04
8.201900e+04 4.107604e+04 -3.516819e+04
8.367431e+04 2.470101e+04 -4.256587e+04
9.648988e+04 3.257739e+04 -4.074898e+04
6.832041e+04 3.373537e+04 -3.606149e+04
-4.410701e+04 -1.484750e+04 -3.923871e+04
-2.532670e+04 -2.190960e+04 -4.075723e+04
-2.641950e+04 -9.148572e+03 -3.497006e+04
-2.650207e+05 -1.070551e+05 -3.606488e+04
-2.450469e+05 -1.052490e+05 -3.581126e+04
-2.674153e+05 -1.279067e+05 -3.918684e+04
-2.488565e+05 -1.224247e+05 -4.142551e+04
-2.830655e+05 -1.098963e+05 -3.949954e+04
2.085794e+05 9.896080e+04 -3.833065e+04
2.104990e+05 8.050784e+04 -4.057168e+04
2.249597e+05 8.716453e+04 -4.372412e+04
2.445789e+05 1.089866e+05 -3.531640e+04
2.424078e+05 9.463851e+04 -4.177921e+04
2.286182e+05 1.054705e+05 -3.632968e+04
2.465270e+05 1.071622e+05 -5.000000e+04
2.565939e+05 1.022175e+05 -4.051538e+04
1.870741e+05 1.037937e+05 -3.498579e+04
1.996835e+05 1.116792e+05 -3.220790e+04
1.726765e+05 9.288801e+04 -3.171868e+04
1.927519e+05 8.920062e+04 -3.495019e+04
1.776436e+05 8.380743e+04 -3.603317e+04
1.808050e+05 8.657798e+04 -5.000000e+04
1.954087e+05 7.845845e+04 -4.141676e+04
2.431226e+05 1.231625e+05 -3.467983e+04
2.576450e+05 1.253623e+05 -3.110898e+04
2.576734e+05 1.157933e+05 -3.594624e+04
1.613492e+05 5.718209e+04 -4.430474e+04
1.492139e+05 7.216196e+04 -5.000000e+04
1.781049e+05 6.743447e+04 -4.254027e+04
1.473571e+05 5.238017e+04 -4.078557e+04
1.647407e+05 7.459507e+04 -3.630431e+04
1.466104e+05 6.756697e+04 -3.788431e+04
9.653447e+04 4.961059e+04 -3.592555e+04
1.303648e+05 4.709769e+04 -4.354533e+04
1.143425e+05 5.854659e+04 -3.490458e+04
1.141358e+05 4.166083e+04 -4.125626e+04
1.301987e+05 6.354034e+04 -3.409378e+04
1.297842e+05 8.298746e+04 -3.976420e+04
1.449325e+05 8.789374e+04 -3.304749e+04
1.623898e+05 8.569884e+04 -3.211550e+04
3.393832e+04 3.766960e+04 -4.056562e+04
9.935594e+04 6.682845e+04 -3.692137e+04
1.632164e+05 8.541318e+04 -4.428931e+04
-1.400186e+04 -2.022859e+03 -3.420237e+04
-1.399456e+04 -1.593643e+04 -3.941851e+04
1.781763e+03 -7.559365e+03 -4.336447e+04
-2.297092e+03 7.603868e+03 -3.500507e+04
-2.287106e+05 -1.119874e+05 -4.261992e+04
-2.331517e+05 -9.865608e+04 -3.369019e+04
-2.173401e+05 -1.035173e+05 -3.920306e+04
-2.530628e+05 -1.286028e+05 -4.749468e+04
-2.758918e+05 -1.285464e+05 -4.663219e+04
6.520731e+04 5.057925e+04 -4.012142e+04
2.717867e+03 2.459679e+04 -3.667754e+04
3.114782e+03 1.712577e+04 -4.498213e+04
-2.088656e+04 -1.715117e+04 -4.719521e+04
-2.911627e+04 4.754104e+03 -4.107396e+04
-2.204392e+05 -8.660206e+04 -3.272017e+04
-2.028199e+05 -8.677356e+04 -5.000000e+04
-1.908026e+05 -8.776398e+04 -3.718853e+04
-2.028870e+05 -9.783963e+04 -3.973831e+04
-1.868334e+05 -9.938898e+04 -4.131584e+04
-2.044982e+05 -8.630241e+04 -3.295141e+04
-1.964085e+05 -7.507679e+04 -3.360223e+04
-2.095740e+05 -7.588084e+04 -2.939395e+04
-1.896416e+05 -1.018996e+05 -4.736741e+04
-1.876498e+05 -7.004871e+04 -4.126840e+04
-2.839033e+05 -1.855819e+05 -5.000000e+04
-2.919517e+05 -1.803662e+05 -5.000000e+04
-2.919517e+05 -1.891652e+05 -5.000000e+04
-2.919517e+05 -1.812654e+05 -4.583333e+04
-2.920814e+05 -1.100677e+05 -8.250660e+03
-2.920814e+05 -1.021678e+05 -4.083994e+03
-2.841627e+05 -1.063853e+05 -8.167988e+03
-2.921816e+05 -1.027514e+05 -1.087329e+04
-2.842940e+05 -9.870065e+04 -4.083994e+03
-2.922126e+05 -9.448314e+04 -3.637979e-12
-2.844252e+05 -9.101598e+04 -3.637979e-12
-2.918813e+05 -9.260014e+04 -6.537441e+03
-2.922126e+05 -8.619251e+04 0.000000e+00
2.928877e+05 1.738896e+05 0.000000e+00
2.922664e+05 1.657437e+05 -3.637979e-12
2.851541e+05 1.704463e+05 0.000000e+00
2.921617e+05 1.684199e+05 -4.653319e+03
2.845328e+05 1.623004e+05 -3.637979e-12
2.922664e+05 1.578438e+05 -4.166667e+03
2.926038e+05 7.872431e+04 -5.000000e+04
2.919517e+05 7.080529e+04 -5.000000e+04
2.922804e+05 7.867718e+04 -4.592528e+04
2.845555e+05 7.514098e+04 -5.000000e+04
2.867994e+05 8.393504e+04 -4.558590e+04
2.839034e+05 6.722195e+04 -5.000000e+04
2.842321e+05 7.509384e+04 -4.592528e+04
2.845609e+05 8.296573e+04 -4.185056e+04
2.945823e+05 8.568362e+04 -4.644775e+04
2.922804e+05 8.657703e+04 -4.175861e+04
-2.839033e+05 -1.697822e+05 -4.166667e+04
-2.908407e+05 -1.664674e+05 -4.345153e+04
-2.919517e+05 -1.733655e+05 -4.166667e+04
-2.919517e+05 -1.654657e+05 -3.750000e+04
-2.914024e+05 -1.504347e+05 -3.598099e+04
-2.918091e+05 -1.575901e+05 -3.337965e+04
-2.836181e+05 -1.540311e+05 -3.342596e+04
-2.918091e+05 -1.496903e+05 -2.921298e+04
-2.837607e+05 -1.619066e+05 -3.754631e+04
-2.878623e+05 -1.574606e+05 -3.862332e+04
-2.920814e+05 -1.258674e+05 -1.658399e+04
-2.920814e+05 -1.179675e+05 -1.241733e+04
-2.841627e+05 -1.221850e+05 -1.650132e+04
-2.916206e+05 -1.166287e+05 -1.995022e+04
-2.910380e+05 -1.342352e+05 -2.998898e+04
-2.918091e+05 -1.417904e+05 -2.504631e+04
-2.836181e+05 -1.382314e+05 -2.509263e+04
-2.918091e+05 -1.338906e+05 -2.087965e+04
-2.888756e+05 -1.235457e+05 -2.475684e+04
-2.838904e+05 -1.302082e+05 -2.079697e+04
2.922664e+05 1.420441e+05 -1.250000e+04
2.845328e+05 1.465007e+05 -8.333333e+03
2.922664e+05 1.499440e+05 -8.333333e+03
2.915636e+05 1.518357e+05 -1.555539e+04
2.927061e+05 1.439154e+05 -2.767347e+04
2.845460e+05 1.302540e+05 -1.690556e+04
2.845394e+05 1.383774e+05 -1.261945e+04
2.922730e+05 1.339207e+05 -1.678611e+04
2.783662e+05 1.365828e+05 -2.098053e+04
2.807274e+05 1.437595e+05 -1.758625e+04
2.877319e+05 1.396196e+05 -2.221921e+04
2.885656e+05 1.484568e+05 -2.234977e+04
2.864387e+05 1.310804e+05 -2.487543e+04
2.929858e+05 1.252205e+05 -3.044851e+04
2.937993e+05 1.339064e+05 -2.550604e+04
2.922730e+05 1.260209e+05 -2.095278e+04
2.831819e+05 1.503611e+05 -1.595169e+04
2.935100e+05 9.241209e+04 -4.387032e+04
2.922804e+05 9.447689e+04 -3.759195e+04
2.864176e+05 9.858467e+04 -4.034102e+04
2.944775e+05 1.010836e+05 -3.912181e+04
2.845609e+05 9.876545e+04 -3.351723e+04
2.922804e+05 1.023767e+05 -3.342528e+04
2.859201e+05 1.161390e+05 -3.306380e+04
2.927568e+05 1.083543e+05 -3.688963e+04
2.942716e+05 1.171562e+05 -3.326275e+04
2.845460e+05 1.144543e+05 -2.523889e+04
2.922730e+05 1.102212e+05 -2.928611e+04
2.922730e+05 1.181210e+05 -2.511945e+04
2.837443e+05 1.061020e+05 -3.752692e+04
2.845534e+05 1.066099e+05 -2.937806e+04
2.956767e+05 1.114998e+05 -4.039482e+04
-1.581166e+05 -8.661783e+04 -2.734125e+04
-1.625345e+05 -7.848071e+04 -2.844246e+04
-1.602490e+05 -8.576939e+04 -3.319745e+04
-1.668957e+05 -8.548564e+04 -2.468250e+04
-1.517151e+05 -8.896123e+04 -3.651757e+04
-1.554738e+05 -7.880553e+04 -3.103741e+04
-1.493375e+05 -8.775002e+04 -3.000000e+04
-1.500755e+05 -7.900024e+04 -3.554259e+04
-1.427082e+05 -8.479848e+04 -3.000000e+04
-1.382076e+05 -8.526699e+04 -3.652972e+04
-1.418184e+05 -7.885497e+04 -3.551495e+04
-1.360790e+05 -8.184694e+04 -3.000000e+04
-1.443235e+05 -8.648468e+04 -3.654913e+04
-1.298054e+05 -9.801342e+04 -4.000000e+04
-1.329422e+05 -8.993018e+04 -3.500000e+04
-1.357793e+05 -9.325336e+04 -4.253034e+04
-1.395715e+05 -9.288172e+04 -3.500000e+04
-1.547800e+05 -7.832338e+04 -2.375000e+04
-1.635591e+05 -7.719119e+04 -2.109125e+04
-1.602225e+05 -6.889674e+04 -1.750000e+04
-1.612896e+05 -6.713993e+04 -2.543774e+04
-1.481507e+05 -7.537184e+04 -2.375000e+04
-1.535932e+05 -6.594520e+04 -1.750000e+04
-1.469639e+05 -6.299366e+04 -1.750000e+04
-1.529088e+05 -6.793223e+04 -2.610886e+04
-1.605835e+05 -9.301970e+04 -3.813445e+04
-1.544011e+05 -9.290288e+04 -3.152872e+04
-1.631802e+05 -9.177069e+04 -2.886997e+04
-1.594647e+05 -9.805574e+04 -3.305745e+04
-1.455587e+05 -1.050273e+05 -4.000000e+04
-1.474481e+05 -9.638864e+04 -3.500000e+04
-1.511604e+05 -9.846169e+04 -4.204370e+04
-1.525117e+05 -1.015415e+05 -3.652872e+04
-1.487767e+05 -7.313425e+04 -2.995098e+04
-1.445887e+05 -9.445986e+04 -3.962006e+04
-1.415215e+05 -7.242030e+04 -2.375000e+04
-1.421990e+05 -7.181022e+04 -3.095288e+04
-1.452801e+05 -6.162125e+04 -2.485171e+04
-1.376821e+05 -1.015203e+05 -4.000000e+04
-1.486687e+05 -8.365772e+04 -4.037216e+04
-6.629945e+04 -4.451938e+04 -2.669841e+04
-6.632711e+04 -3.665043e+04 -3.377702e+04
-7.225285e+04 -3.716149e+04 -2.953690e+04
-6.281254e+04 -3.670720e+04 -2.339681e+04
-7.506891e+04 -4.722054e+04 -3.268083e+04
-6.984092e+04 -4.401804e+04 -3.420863e+04
-6.978636e+04 -5.233156e+04 -3.000000e+04
-6.399508e+04 -4.911006e+04 -3.646893e+04
-6.008001e+04 -5.737809e+04 -4.046356e+04
-5.568142e+04 -5.048755e+04 -3.882130e+04
-6.415475e+04 -5.930404e+04 -3.500000e+04
-6.258664e+04 -5.198232e+04 -3.150650e+04
-5.852315e+04 -6.627651e+04 -4.000000e+04
-5.695504e+04 -5.895479e+04 -3.650650e+04
-5.538693e+04 -5.163307e+04 -3.301300e+04
-7.174192e+04 -3.509274e+04 -2.044841e+04
-7.522883e+04 -4.290492e+04 -2.375000e+04
-8.067130e+04 -3.347828e+04 -1.750000e+04
-7.875919e+04 -3.833683e+04 -2.695029e+04
-7.641562e+04 -5.528310e+04 -3.000000e+04
-8.152235e+04 -4.743393e+04 -3.168256e+04
-7.731300e+04 -5.557244e+04 -3.672563e+04
-8.304488e+04 -5.823464e+04 -3.000000e+04
-6.922045e+04 -5.344215e+04 -3.835640e+04
-7.561632e+04 -6.421329e+04 -4.146323e+04
-7.866068e+04 -6.576250e+04 -3.500000e+04
-7.427648e+04 -7.329035e+04 -4.000000e+04
-7.203142e+04 -6.281096e+04 -3.500000e+04
-6.025794e+04 -4.038428e+04 -3.415559e+04
-5.909974e+04 -4.417014e+04 -2.820491e+04
-6.487477e+04 -6.307710e+04 -4.367156e+04
-6.639982e+04 -6.978343e+04 -4.000000e+04
-8.185809e+04 -4.585646e+04 -2.375000e+04
-7.316154e+04 -4.580795e+04 -3.879099e+04
-1.690016e+05 -6.776455e+04 -1.484125e+04
-1.656649e+05 -5.947010e+04 -1.125000e+04
-1.655469e+05 -6.011244e+04 -1.862916e+04
-1.777807e+05 -6.663236e+04 -1.218250e+04
-1.744440e+05 -5.833791e+04 -8.591249e+03
-1.722815e+05 -5.750184e+04 -1.521284e+04
-1.711074e+05 -5.004346e+04 -5.000000e+03
-1.679284e+05 -5.202811e+04 -1.218122e+04
-1.590357e+05 -5.651856e+04 -1.125000e+04
-1.644781e+05 -4.709192e+04 -5.000000e+03
-1.578489e+05 -4.414038e+04 -5.000000e+03
-1.614860e+05 -5.146781e+04 -1.418964e+04
-1.638499e+05 -4.533066e+04 -9.906766e+03
-1.686258e+05 -4.722851e+04 -8.823178e+03
-1.796227e+05 -5.745085e+04 -1.515197e+04
-1.741791e+05 -5.023747e+04 -1.115336e+04
-1.718116e+05 -4.798702e+04 -3.750000e+03
-1.699062e+05 -4.343240e+04 -8.800919e+03
-1.763584e+05 -4.709022e+04 -8.143251e+03
-1.725158e+05 -4.593058e+04 -2.500000e+03
-1.830588e+05 -5.980347e+04 -7.341249e+03
-1.883368e+05 -5.297457e+04 -2.500000e+03
-1.797221e+05 -5.150901e+04 -3.750000e+03
-1.825845e+05 -5.033916e+04 -9.507077e+03
-1.804263e+05 -4.945258e+04 -2.500000e+03
-1.651823e+05 -4.503548e+04 -3.750000e+03
-7.369749e+04 -1.785392e+04 -1.089681e+04
-7.718440e+04 -2.566610e+04 -1.419841e+04
-8.262687e+04 -1.623946e+04 -7.948406e+03
-8.131055e+04 -1.943609e+04 -1.688958e+04
-8.611378e+04 -2.405164e+04 -1.125000e+04
-8.476237e+04 -2.896233e+04 -2.287397e+04
-9.155625e+04 -1.462500e+04 -5.000000e+03
-8.935239e+04 -1.653350e+04 -1.368885e+04
-9.392983e+04 -3.938136e+04 -1.750000e+04
-9.274304e+04 -2.700318e+04 -1.125000e+04
-8.730057e+04 -3.642982e+04 -1.750000e+04
-9.221134e+04 -2.687882e+04 -1.908056e+04
-9.632716e+04 -1.437919e+04 -3.750000e+03
-9.974022e+04 -1.024108e+04 -8.131016e+03
-1.019886e+05 -1.508849e+04 -1.077858e+04
-1.010981e+05 -1.413338e+04 -2.500000e+03
-9.644776e+04 -2.016407e+04 -1.340290e+04
-9.540891e+04 -1.277656e+04 -1.051802e+04
-8.841663e+04 -1.085720e+04 -3.750000e+03
-8.544089e+04 -1.017202e+04 -1.298787e+04
-9.147295e+04 -7.184180e+03 -9.826671e+03
-8.527701e+04 -7.089390e+03 -2.500000e+03
-9.926093e+04 -3.257801e+04 -2.055386e+04
-9.547792e+04 -1.530672e+04 -1.788015e+04
-7.948725e+04 -1.247166e+04 -6.698406e+03
-1.048148e+05 -2.052808e+04 -5.000000e+03
-1.029564e+05 -1.733073e+04 -3.750000e+03
-9.818551e+04 -1.757654e+04 -5.000000e+03
-1.043394e+05 -2.261103e+04 -1.339268e+04
-9.937230e+04 -2.995472e+04 -1.125000e+04
-9.318754e+04 -1.061138e+04 -2.500000e+03
-1.294497e+05 -7.889540e+04 -3.000000e+04
-1.360070e+05 -7.613676e+04 -3.724126e+04
-1.324366e+05 -8.376971e+04 -3.824136e+04
-1.261718e+05 -8.131761e+04 -3.662976e+04
-1.293098e+05 -7.672933e+04 -3.682289e+04
-1.228205e+05 -7.594386e+04 -3.000000e+04
-1.165469e+05 -9.211034e+04 -4.000000e+04
-1.196837e+05 -8.402710e+04 -3.500000e+04
-1.240852e+05 -8.720147e+04 -4.118862e+04
-1.263129e+05 -8.697864e+04 -3.500000e+04
-1.282629e+05 -6.651722e+04 -2.375000e+04
-1.276120e+05 -6.847527e+04 -3.230050e+04
-1.348922e+05 -6.946876e+04 -2.375000e+04
-1.358277e+05 -6.869498e+04 -3.211935e+04
-1.337054e+05 -5.709058e+04 -1.750000e+04
-1.311784e+05 -5.650618e+04 -2.549274e+04
-1.234155e+05 -7.533197e+04 -3.835444e+04
-1.216337e+05 -6.356569e+04 -2.375000e+04
-1.161912e+05 -7.299233e+04 -3.000000e+04
-1.204469e+05 -5.118751e+04 -1.750000e+04
-1.150044e+05 -6.061415e+04 -2.375000e+04
-1.232383e+05 -5.692478e+04 -2.775486e+04
-1.095619e+05 -7.004079e+04 -3.000000e+04
-1.201296e+05 -6.544795e+04 -3.287415e+04
-1.180061e+05 -8.166925e+04 -4.312546e+04
-1.130544e+05 -8.107557e+04 -3.500000e+04
-1.163585e+05 -7.326070e+04 -3.713969e+04
-1.270761e+05 -5.413905e+04 -1.750000e+04
-8.967414e+04 -6.118618e+04 -3.000000e+04
-8.379399e+04 -5.831343e+04 -3.767680e+04
-8.826086e+04 -5.044073e+04 -3.149915e+04
-9.500246e+04 -4.982632e+04 -3.091821e+04
-9.232753e+04 -6.019826e+04 -3.631049e+04
-9.630341e+04 -6.413771e+04 -3.000000e+04
-9.011021e+04 -6.907520e+04 -3.994196e+04
-9.191921e+04 -7.166557e+04 -3.500000e+04
-8.753501e+04 -7.919343e+04 -4.000000e+04
-8.528995e+04 -6.871403e+04 -3.500000e+04
-9.511662e+04 -5.175954e+04 -2.375000e+04
-8.848736e+04 -4.880800e+04 -2.375000e+04
-9.188941e+04 -3.841723e+04 -2.520929e+04
-9.880727e+04 -4.328212e+04 -2.580211e+04
-1.009511e+05 -5.112957e+04 -3.003152e+04
-1.071884e+05 -4.528443e+04 -1.750000e+04
-1.005591e+05 -4.233290e+04 -1.750000e+04
-1.017459e+05 -5.471107e+04 -2.375000e+04
-1.061706e+05 -4.268328e+04 -2.566573e+04
-1.083751e+05 -5.766261e+04 -2.375000e+04
-1.029327e+05 -6.708925e+04 -3.000000e+04
-1.148211e+05 -5.973782e+04 -3.337098e+04
-1.113301e+05 -4.925158e+04 -2.690618e+04
-1.067257e+05 -5.595880e+04 -3.408373e+04
-1.032883e+05 -8.620727e+04 -4.000000e+04
-1.043465e+05 -8.053123e+04 -4.228681e+04
-1.064251e+05 -7.812403e+04 -3.500000e+04
-9.979588e+04 -7.517249e+04 -3.500000e+04
-1.100602e+05 -7.086441e+04 -3.899020e+04
-1.001847e+05 -6.800658e+04 -3.813856e+04
-9.517692e+04 -7.661905e+04 -4.292266e+04
-9.940979e+04 -5.417106e+04 -3.830007e+04
-9.541168e+04 -8.270035e+04 -4.000000e+04
-1.180733e+05 -2.643115e+04 -5.000000e+03
-1.162149e+05 -2.323380e+04 -3.750000e+03
-1.114440e+05 -2.347962e+04 -5.000000e+03
-1.195055e+05 -2.566916e+04 -1.040012e+04
-1.143566e+05 -2.003645e+04 -2.500000e+03
-1.095857e+05 -2.028227e+04 -3.750000e+03
-1.172282e+05 -2.000928e+04 -8.545815e+03
-1.114921e+05 -2.398393e+04 -1.133802e+04
-1.126308e+05 -3.585779e+04 -1.125000e+04
-1.060016e+05 -3.290626e+04 -1.125000e+04
-1.135573e+05 -3.333834e+04 -2.060731e+04
-1.192601e+05 -3.880933e+04 -1.125000e+04
-1.138176e+05 -4.823597e+04 -1.750000e+04
-1.241090e+05 -4.627013e+04 -2.132449e+04
-1.218590e+05 -3.388665e+04 -1.556048e+04
-1.171296e+05 -4.142647e+04 -2.149134e+04
-1.258894e+05 -4.176087e+04 -1.125000e+04
-1.313318e+05 -3.233423e+04 -5.000000e+03
-1.247026e+05 -2.938269e+04 -5.000000e+03
-1.287319e+05 -3.772663e+04 -1.507626e+04
-1.297716e+05 -2.953953e+04 -1.327643e+04
-1.241255e+05 -2.675580e+04 -3.750000e+03
-1.307547e+05 -2.970734e+04 -3.750000e+03
-1.301777e+05 -2.708044e+04 -2.500000e+03
-1.265023e+05 -2.513221e+04 -7.963318e+03
-1.222671e+05 -2.355845e+04 -2.500000e+03
-1.524064e+05 -5.356702e+04 -1.125000e+04
-1.457771e+05 -5.061548e+04 -1.125000e+04
-1.520429e+05 -5.728096e+04 -2.151416e+04
-1.512196e+05 -4.118884e+04 -5.000000e+03
-1.550675e+05 -4.804867e+04 -1.474891e+04
-1.445903e+05 -3.823730e+04 -5.000000e+03
-1.490419e+05 -4.659692e+04 -1.541475e+04
-1.403347e+05 -6.004212e+04 -1.750000e+04
-1.391479e+05 -4.766394e+04 -1.125000e+04
-1.382569e+05 -5.133261e+04 -2.203119e+04
-1.451148e+05 -5.134109e+04 -1.919315e+04
-1.424372e+05 -4.127479e+04 -1.398710e+04
-1.586600e+05 -4.287459e+04 -1.181340e+04
-1.514768e+05 -4.035399e+04 -1.352542e+04
-1.585531e+05 -4.208394e+04 -3.750000e+03
-1.592572e+05 -4.002751e+04 -2.500000e+03
-1.519238e+05 -3.913241e+04 -3.750000e+03
-1.571535e+05 -3.829679e+04 -9.970893e+03
-1.325186e+05 -4.471241e+04 -1.125000e+04
-1.379611e+05 -3.528577e+04 -5.000000e+03
-1.353463e+05 -4.001437e+04 -1.533737e+04
-1.368553e+05 -3.358663e+04 -1.145125e+04
-1.424358e+05 -3.546915e+04 -1.027741e+04
-1.373840e+05 -3.265887e+04 -3.750000e+03
-1.440133e+05 -3.561041e+04 -3.750000e+03
-1.434362e+05 -3.298352e+04 -2.500000e+03
-1.420312e+05 -3.094026e+04 -9.578462e+03
-1.489603e+05 -3.490362e+04 -1.114611e+04
-1.491191e+05 -3.050750e+04 -8.117780e+03
-1.513467e+05 -3.650551e+04 -2.500000e+03
-1.583517e+05 -3.372260e+04 -8.416353e+03
2.765072e+05 7.155764e+04 -5.000000e+04
2.758551e+05 6.363862e+04 -5.000000e+04
2.761838e+05 7.151051e+04 -4.592528e+04
2.684589e+05 6.797431e+04 -5.000000e+04
2.710598e+05 7.733233e+04 -4.544057e+04
2.678068e+05 6.005529e+04 -5.000000e+04
2.681355e+05 6.792718e+04 -4.592528e+04
2.684643e+05 7.579907e+04 -4.185056e+04
2.609030e+05 6.489215e+04 -5.000000e+04
2.601899e+05 6.443039e+04 -4.590373e+04
2.631558e+05 7.191321e+04 -4.636780e+04
2.605186e+05 7.230228e+04 -4.182901e+04
2.543076e+05 7.050979e+04 -4.576132e+04
2.525729e+05 6.880549e+04 -4.180746e+04
2.520535e+05 5.304145e+04 -5.000000e+04
2.599301e+05 5.654837e+04 -5.000000e+04
2.530263e+05 6.138523e+04 -5.000000e+04
2.523132e+05 6.092347e+04 -4.590373e+04
2.363001e+05 4.602761e+04 -5.000000e+04
2.441768e+05 4.953453e+04 -5.000000e+04
2.372730e+05 5.437139e+04 -5.000000e+04
2.365598e+05 5.390963e+04 -4.590373e+04
2.451496e+05 5.787831e+04 -5.000000e+04
2.444365e+05 5.741655e+04 -4.590373e+04
2.392056e+05 6.123856e+04 -4.624285e+04
2.368196e+05 6.179165e+04 -4.180746e+04
2.319256e+05 5.768129e+04 -4.653215e+04
2.294099e+05 5.116977e+04 -5.000000e+04
2.284235e+05 4.252070e+04 -5.000000e+04
2.286550e+05 5.040997e+04 -4.589328e+04
2.215332e+05 4.766285e+04 -5.000000e+04
2.239166e+05 5.609129e+04 -4.571298e+04
2.205468e+05 3.901378e+04 -5.000000e+04
2.207783e+05 4.690305e+04 -4.589328e+04
2.210098e+05 5.479232e+04 -4.178655e+04
2.289147e+05 5.829199e+04 -4.179700e+04
2.136566e+05 4.415593e+04 -5.000000e+04
2.126701e+05 3.550686e+04 -5.000000e+04
2.129016e+05 4.339613e+04 -4.589328e+04
2.057799e+05 4.064901e+04 -5.000000e+04
2.081716e+05 4.962247e+04 -4.548440e+04
2.047935e+05 3.199994e+04 -5.000000e+04
2.050250e+05 3.988921e+04 -4.589328e+04
2.052564e+05 4.777849e+04 -4.178655e+04
1.978452e+05 3.702545e+04 -5.000000e+04
1.969168e+05 2.849302e+04 -5.000000e+04
1.971321e+05 3.638125e+04 -4.589004e+04
1.899685e+05 3.351853e+04 -5.000000e+04
1.921642e+05 4.202923e+04 -4.570702e+04
1.890401e+05 2.498610e+04 -5.000000e+04
1.892555e+05 3.287433e+04 -4.589004e+04
1.894708e+05 4.076255e+04 -4.178007e+04
2.002969e+05 4.402157e+04 -4.645903e+04
1.973636e+05 4.427052e+04 -4.178331e+04
1.820918e+05 3.001161e+04 -5.000000e+04
1.811635e+05 2.147918e+04 -5.000000e+04
1.813788e+05 2.936741e+04 -4.589004e+04
1.742152e+05 2.650469e+04 -5.000000e+04
1.765915e+05 3.533924e+04 -4.551383e+04
1.732868e+05 1.797226e+04 -5.000000e+04
1.735021e+05 2.586049e+04 -4.589004e+04
1.737175e+05 3.374871e+04 -4.178007e+04
1.687139e+05 2.994870e+04 -4.639255e+04
1.663352e+05 2.298887e+04 -5.000000e+04
1.656003e+05 2.235271e+04 -4.588458e+04
1.658156e+05 3.024094e+04 -4.177461e+04
1.597344e+05 2.868642e+04 -4.552040e+04
1.579138e+05 2.673316e+04 -4.176916e+04
1.654101e+05 1.446534e+04 -5.000000e+04
1.584585e+05 1.948195e+04 -5.000000e+04
1.575335e+05 1.095843e+04 -5.000000e+04
1.577236e+05 1.884579e+04 -4.588458e+04
1.505819e+05 1.597503e+04 -5.000000e+04
1.496568e+05 7.451506e+03 -5.000000e+04
1.498470e+05 1.533887e+04 -4.588458e+04
1.427052e+05 1.246811e+04 -5.000000e+04
1.439705e+05 2.170045e+04 -4.562694e+04
1.417801e+05 3.944587e+03 -5.000000e+04
1.419703e+05 1.183195e+04 -4.588458e+04
1.421605e+05 1.971932e+04 -4.176916e+04
1.269511e+05 5.453285e+03 -5.000000e+04
1.348278e+05 8.960204e+03 -5.000000e+04
1.287583e+05 1.241730e+04 -4.618396e+04
1.260268e+05 -3.069251e+03 -5.000000e+04
1.339034e+05 4.376683e+02 -5.000000e+04
1.261671e+05 4.822630e+03 -4.587050e+04
1.340438e+05 8.329549e+03 -4.587050e+04
1.263075e+05 1.271451e+04 -4.174100e+04
1.360953e+05 1.713987e+04 -4.632871e+04
1.342340e+05 1.621692e+04 -4.175508e+04
1.111978e+05 -1.560553e+03 -5.000000e+04
1.190744e+05 1.946366e+03 -5.000000e+04
1.133926e+05 7.277259e+03 -4.549767e+04
1.102734e+05 -1.008309e+04 -5.000000e+04
1.181501e+05 -6.576170e+03 -5.000000e+04
1.104138e+05 -2.191208e+03 -4.587050e+04
1.182905e+05 1.315711e+03 -4.587050e+04
1.105542e+05 5.700672e+03 -4.174100e+04
1.033180e+05 -5.066452e+03 -5.000000e+04
1.023968e+05 -1.359001e+04 -5.000000e+04
1.025129e+05 -5.699716e+03 -4.586564e+04
9.544133e+04 -8.573371e+03 -5.000000e+04
9.753389e+04 -9.979772e+01 -4.569594e+04
9.452010e+04 -1.709693e+04 -5.000000e+04
9.463619e+04 -9.206635e+03 -4.586564e+04
9.475227e+04 -1.316343e+03 -4.173128e+04
1.056471e+05 1.840921e+03 -4.644258e+04
1.026532e+05 2.192164e+03 -4.173614e+04
8.756466e+04 -1.208029e+04 -5.000000e+04
8.664343e+04 -2.060385e+04 -5.000000e+04
8.675952e+04 -1.271355e+04 -4.586564e+04
7.968799e+04 -1.558721e+04 -5.000000e+04
8.194777e+04 -6.734962e+03 -4.548072e+04
7.876677e+04 -2.411076e+04 -5.000000e+04
7.888285e+04 -1.622047e+04 -4.586564e+04
7.899894e+04 -8.330181e+03 -4.173128e+04
7.178368e+04 -1.908259e+04 -5.000000e+04
7.102475e+04 -1.974096e+04 -4.587716e+04
7.408333e+04 -1.212381e+04 -4.637910e+04
7.114084e+04 -1.185067e+04 -4.174279e+04
6.510911e+04 -1.338604e+04 -4.550938e+04
6.328273e+04 -1.537115e+04 -4.175431e+04
7.089010e+04 -2.761768e+04 -5.000000e+04
6.390701e+04 -2.258951e+04 -5.000000e+04
6.301343e+04 -3.112460e+04 -5.000000e+04
6.314808e+04 -2.324788e+04 -4.587716e+04
5.603034e+04 -2.609643e+04 -5.000000e+04
5.513676e+04 -3.463152e+04 -5.000000e+04
5.527141e+04 -2.675480e+04 -4.587716e+04
4.815367e+04 -2.960335e+04 -5.000000e+04
4.931344e+04 -2.047366e+04 -4.566226e+04
4.726009e+04 -3.813844e+04 -5.000000e+04
4.739474e+04 -3.026172e+04 -4.587716e+04
4.752940e+04 -2.238499e+04 -4.175431e+04
3.230076e+04 -3.657389e+04 -5.000000e+04
4.017743e+04 -3.306697e+04 -5.000000e+04
3.415855e+04 -2.971047e+04 -4.620225e+04
3.150675e+04 -4.515228e+04 -5.000000e+04
3.938342e+04 -4.164536e+04 -5.000000e+04
3.156862e+04 -3.731186e+04 -4.587921e+04
3.944529e+04 -3.380494e+04 -4.587921e+04
3.163049e+04 -2.947144e+04 -4.175842e+04
4.141027e+04 -2.501257e+04 -4.633504e+04
3.957994e+04 -2.592822e+04 -4.175637e+04
1.654742e+04 -4.358773e+04 -5.000000e+04
2.442409e+04 -4.008081e+04 -5.000000e+04
1.886475e+04 -3.485538e+04 -4.547479e+04
1.575341e+04 -5.216612e+04 -5.000000e+04
2.363008e+04 -4.865920e+04 -5.000000e+04
1.581528e+04 -4.432570e+04 -4.587921e+04
2.369195e+04 -4.081878e+04 -4.587921e+04
1.587715e+04 -3.648528e+04 -4.175842e+04
8.512596e+03 -4.701862e+04 -5.000000e+04
7.876746e+03 -5.567303e+04 -5.000000e+04
7.853749e+03 -4.803936e+04 -4.596833e+04
6.359275e+02 -5.052554e+04 -5.000000e+04
2.786253e+03 -4.216152e+04 -4.570390e+04
7.718536e-02 -5.917995e+04 -5.000000e+04
-2.291968e+01 -5.154628e+04 -4.596833e+04
-4.591655e+01 -4.391260e+04 -4.193665e+04
1.101935e+04 -4.027245e+04 -4.645937e+04
7.915617e+03 -4.019894e+04 -4.184754e+04
-7.240741e+03 -5.403246e+04 -5.000000e+04
-7.876592e+03 -6.268687e+04 -5.000000e+04
-7.899589e+03 -5.505319e+04 -4.596833e+04
-1.511741e+04 -5.753938e+04 -5.000000e+04
-1.397401e+04 -4.829092e+04 -4.585288e+04
-1.575326e+04 -6.619379e+04 -5.000000e+04
-1.577626e+04 -5.856011e+04 -4.596833e+04
-1.579925e+04 -5.092644e+04 -4.193665e+04
-2.201739e+04 -5.329039e+04 -4.681769e+04
-2.333760e+04 -6.109432e+04 -5.000000e+04
-2.891068e+04 -5.822133e+04 -4.664463e+04
-2.206182e+04 -6.237899e+04 -4.650650e+04
-2.208482e+04 -5.474531e+04 -4.247483e+04
-2.837038e+04 -5.856419e+04 -4.301300e+04
-3.121427e+04 -6.460124e+04 -5.000000e+04
-3.150660e+04 -7.320763e+04 -5.000000e+04
-2.362993e+04 -6.970071e+04 -5.000000e+04
-2.993849e+04 -6.588591e+04 -4.650650e+04
-5.337966e+04 -6.446393e+04 -4.457381e+04
-4.696761e+04 -7.161507e+04 -5.000000e+04
-4.360830e+04 -6.426846e+04 -4.670636e+04
-5.289154e+04 -7.324899e+04 -4.500000e+04
-5.132343e+04 -6.592727e+04 -4.150650e+04
-4.725994e+04 -8.022147e+04 -5.000000e+04
-4.569183e+04 -7.289975e+04 -4.650650e+04
-4.412372e+04 -6.557802e+04 -4.301300e+04
-6.532630e+04 -7.819995e+04 -5.000000e+04
-5.744963e+04 -7.469303e+04 -5.000000e+04
-6.013660e+04 -6.978806e+04 -4.591487e+04
-6.301327e+04 -8.723530e+04 -5.000000e+04
-5.513660e+04 -8.372839e+04 -5.000000e+04
-6.076821e+04 -7.675591e+04 -4.500000e+04
-3.909094e+04 -6.810816e+04 -5.000000e+04
-3.938327e+04 -7.671455e+04 -5.000000e+04
-3.781516e+04 -6.939283e+04 -4.650650e+04
-8.482020e+04 -7.644982e+04 -4.431185e+04
-8.107964e+04 -8.521378e+04 -5.000000e+04
-7.571534e+04 -7.542894e+04 -4.539173e+04
-8.315081e+04 -8.672129e+04 -4.500000e+04
-8.090575e+04 -7.624189e+04 -4.000000e+04
-7.876661e+04 -9.424914e+04 -5.000000e+04
-7.652155e+04 -8.376975e+04 -4.500000e+04
-7.320297e+04 -8.170686e+04 -5.000000e+04
-7.088994e+04 -9.074222e+04 -5.000000e+04
-6.864488e+04 -8.026283e+04 -4.500000e+04
-9.100816e+04 -8.289592e+04 -4.577194e+04
-8.907496e+04 -8.812420e+04 -5.000000e+04
-9.451995e+04 -1.012630e+05 -5.000000e+04
-8.664328e+04 -9.775606e+04 -5.000000e+04
-9.695163e+04 -9.163112e+04 -5.000000e+04
-9.102748e+04 -9.022820e+04 -4.500000e+04
-1.102733e+05 -1.082768e+05 -5.000000e+04
-1.134101e+05 -1.001936e+05 -4.500000e+04
-1.175422e+05 -1.042182e+05 -5.000000e+04
-1.200393e+05 -1.031451e+05 -4.500000e+04
-1.186306e+05 -9.505220e+04 -4.548671e+04
-1.231761e+05 -9.506188e+04 -4.000000e+04
-1.263241e+05 -9.802500e+04 -4.464474e+04
-1.181500e+05 -1.117837e+05 -5.000000e+04
-1.254189e+05 -1.077251e+05 -5.000000e+04
-1.260266e+05 -1.152907e+05 -5.000000e+04
-1.279160e+05 -1.066520e+05 -4.500000e+04
-1.127050e+05 -9.864496e+04 -5.000000e+04
-1.067808e+05 -9.724204e+04 -4.500000e+04
-1.134017e+05 -8.837372e+04 -4.434780e+04
-1.075997e+05 -9.087995e+04 -4.577203e+04
-1.099176e+05 -8.915880e+04 -4.000000e+04
-1.023966e+05 -1.047699e+05 -5.000000e+04
-1.048283e+05 -9.513804e+04 -5.000000e+04
-9.890415e+04 -9.373512e+04 -4.500000e+04
-1.417800e+05 -1.223045e+05 -5.000000e+04
-1.436693e+05 -1.136659e+05 -4.500000e+04
-1.491246e+05 -1.160135e+05 -5.000000e+04
-1.487329e+05 -1.188187e+05 -4.652872e+04
-1.500748e+05 -1.070931e+05 -4.475229e+04
-1.506223e+05 -1.101801e+05 -4.152872e+04
-1.554235e+05 -1.125064e+05 -4.610799e+04
-1.556859e+05 -1.153330e+05 -4.305745e+04
-1.412814e+05 -1.035868e+05 -4.398053e+04
-1.411722e+05 -1.147390e+05 -5.000000e+04
-1.332955e+05 -1.112321e+05 -5.000000e+04
-1.339033e+05 -1.187976e+05 -5.000000e+04
-1.357927e+05 -1.101590e+05 -4.500000e+04
-1.496566e+05 -1.258114e+05 -5.000000e+04
-1.570013e+05 -1.195205e+05 -5.000000e+04
-1.575333e+05 -1.293183e+05 -5.000000e+04
-1.566096e+05 -1.223257e+05 -4.652872e+04
-1.648779e+05 -1.230274e+05 -5.000000e+04
-1.654100e+05 -1.328253e+05 -5.000000e+04
-1.644863e+05 -1.258326e+05 -4.652872e+04
-1.727546e+05 -1.265343e+05 -5.000000e+04
-1.698185e+05 -1.187653e+05 -4.624412e+04
-1.732866e+05 -1.363322e+05 -5.000000e+04
-1.723629e+05 -1.293395e+05 -4.652872e+04
-1.714393e+05 -1.223468e+05 -4.305745e+04
-1.808648e+05 -1.310656e+05 -5.000000e+04
-1.804234e+05 -1.308448e+05 -4.542986e+04
-1.864999e+05 -1.255392e+05 -4.543439e+04
-1.777542e+05 -1.242220e+05 -4.666220e+04
-1.875602e+05 -1.253575e+05 -4.085972e+04
-1.794997e+05 -1.238522e+05 -4.195858e+04
-1.811633e+05 -1.398391e+05 -5.000000e+04
-1.887414e+05 -1.345725e+05 -5.000000e+04
-1.890400e+05 -1.433460e+05 -5.000000e+04
-1.883001e+05 -1.343518e+05 -4.542986e+04
-1.966181e+05 -1.380794e+05 -5.000000e+04
-1.969166e+05 -1.468529e+05 -5.000000e+04
-1.961768e+05 -1.378587e+05 -4.542986e+04
-2.044948e+05 -1.415863e+05 -5.000000e+04
-2.023801e+05 -1.324375e+05 -4.609734e+04
-2.047933e+05 -1.503598e+05 -5.000000e+04
-2.040534e+05 -1.413656e+05 -4.542986e+04
-2.033135e+05 -1.323714e+05 -4.085972e+04
-2.124122e+05 -1.458782e+05 -4.584712e+04
-2.129625e+05 -1.362016e+05 -4.433002e+04
-2.170880e+05 -1.421983e+05 -4.658413e+04
-2.200310e+05 -1.413967e+05 -4.169423e+04
-2.125531e+05 -1.448472e+05 -5.000000e+04
-2.116723e+05 -1.368840e+05 -4.127698e+04
-2.126700e+05 -1.538668e+05 -5.000000e+04
-2.204298e+05 -1.483541e+05 -5.000000e+04
-2.205467e+05 -1.573737e+05 -5.000000e+04
-2.202888e+05 -1.493852e+05 -4.584712e+04
-2.283065e+05 -1.518610e+05 -5.000000e+04
-2.284233e+05 -1.608806e+05 -5.000000e+04
-2.281655e+05 -1.528921e+05 -4.584712e+04
-2.361832e+05 -1.553680e+05 -5.000000e+04
-2.346066e+05 -1.465177e+05 -4.568233e+04
-2.363000e+05 -1.643875e+05 -5.000000e+04
-2.360422e+05 -1.563990e+05 -4.584712e+04
-2.357843e+05 -1.484105e+05 -4.169423e+04
-2.521048e+05 -1.625488e+05 -5.000000e+04
-2.442282e+05 -1.590419e+05 -5.000000e+04
-2.498825e+05 -1.535849e+05 -4.523424e+04
-2.520533e+05 -1.714014e+05 -5.000000e+04
-2.441767e+05 -1.678944e+05 -5.000000e+04
-2.519107e+05 -1.635258e+05 -4.587965e+04
-2.440340e+05 -1.600189e+05 -4.587965e+04
-2.517681e+05 -1.556503e+05 -4.175930e+04
-2.413143e+05 -1.522930e+05 -4.621986e+04
-2.437762e+05 -1.520304e+05 -4.172676e+04
-2.678067e+05 -1.784152e+05 -5.000000e+04
-2.758550e+05 -1.731995e+05 -5.000000e+04
-2.758550e+05 -1.819985e+05 -5.000000e+04
-2.758550e+05 -1.740987e+05 -4.583333e+04
-2.839033e+05 -1.767828e+05 -5.000000e+04
-2.818859e+05 -1.699180e+05 -4.619322e+04
-2.839033e+05 -1.776820e+05 -4.583333e+04
-2.676641e+05 -1.705397e+05 -4.587965e+04
-2.675214e+05 -1.626641e+05 -4.175930e+04
-2.744140e+05 -1.651405e+05 -4.629106e+04
-2.757124e+05 -1.662231e+05 -4.171298e+04
-2.678582e+05 -1.695626e+05 -5.000000e+04
-2.599815e+05 -1.660557e+05 -5.000000e+04
-2.662525e+05 -1.605417e+05 -4.568072e+04
-2.599300e+05 -1.749083e+05 -5.000000e+04
-2.597874e+05 -1.670327e+05 -4.587965e+04
-2.685879e+05 -9.945098e+04 -8.167988e+03
-2.765066e+05 -9.523348e+04 -4.083994e+03
-2.687192e+05 -9.176631e+04 -4.083994e+03
-2.773313e+05 -9.478543e+04 -1.330110e+04
-2.766378e+05 -8.754881e+04 -3.637979e-12
-2.832128e+05 -8.786136e+04 -6.319152e+03
-2.688505e+05 -8.408164e+04 -3.637979e-12
-2.753744e+05 -8.576750e+04 -8.115551e+03
-2.844252e+05 -8.272535e+04 0.000000e+00
-2.766378e+05 -7.925818e+04 0.000000e+00
-2.710381e+05 -8.975520e+04 -1.513142e+04
-2.637729e+05 -8.787704e+04 -1.257303e+04
-2.623508e+05 -8.048452e+04 -6.426993e+03
-2.687144e+05 -8.017386e+04 -9.176066e+03
-2.759197e+05 -7.612736e+04 -7.572451e+03
-2.686703e+05 -7.562315e+04 0.000000e+00
-2.609399e+05 -8.055965e+04 -3.637979e-12
-2.544614e+05 -7.759035e+04 -6.449852e+03
-2.607598e+05 -7.210116e+04 0.000000e+00
-2.530294e+05 -7.703766e+04 -3.637979e-12
-2.532996e+05 -9.227789e+04 -7.974785e+03
-2.610751e+05 -8.817977e+04 -3.987393e+03
-2.531645e+05 -8.465777e+04 -3.987393e+03
-2.557655e+05 -8.576537e+04 -1.033635e+04
-2.609438e+05 -9.586444e+04 -8.071386e+03
-2.451189e+05 -7.351566e+04 -3.637979e-12
-2.528493e+05 -6.857916e+04 0.000000e+00
-2.469147e+05 -7.272051e+04 -7.328914e+03
-2.380139e+05 -7.000217e+04 -7.105693e+03
-2.449388e+05 -6.505717e+04 0.000000e+00
-2.372084e+05 -6.999367e+04 -3.637979e-12
-2.374786e+05 -8.523390e+04 -7.974785e+03
-2.452540e+05 -8.113578e+04 -3.987393e+03
-2.373435e+05 -7.761379e+04 -3.987393e+03
-2.395776e+05 -7.798662e+04 -1.158885e+04
-2.311202e+05 -7.373119e+04 -3.400984e+03
-2.314213e+05 -7.464284e+04 -1.208026e+04
-2.284033e+05 -6.903469e+04 -9.149054e+03
-2.250320e+05 -7.746872e+04 -6.801967e+03
-2.330203e+05 -6.668841e+04 -4.731750e+03
-2.370485e+05 -6.139381e+04 0.000000e+00
-2.312553e+05 -8.135131e+04 -7.388376e+03
-2.232097e+05 -7.020920e+04 -3.400984e+03
-2.292978e+05 -6.647168e+04 -3.637979e-12
-2.213873e+05 -6.294968e+04 -3.637979e-12
-2.280161e+05 -6.283178e+04 -5.097485e+03
-2.291379e+05 -5.787181e+04 0.000000e+00
-1.950101e+05 -6.956348e+04 -9.682497e+03
-2.002882e+05 -6.273459e+04 -4.841249e+03
-1.916735e+05 -6.126903e+04 -6.091249e+03
-1.967616e+05 -5.866854e+04 -1.012642e+04
-2.055662e+05 -5.590569e+04 -3.637979e-12
-1.969515e+05 -5.444013e+04 -1.250000e+03
-2.014397e+05 -5.128662e+04 -7.077485e+03
-1.913726e+05 -5.250202e+04 -1.003038e+04
-1.890410e+05 -5.091814e+04 -1.250000e+03
-1.976557e+05 -5.238370e+04 -3.637979e-12
-1.897452e+05 -4.886170e+04 -3.637979e-12
-1.931278e+05 -4.654055e+04 -5.995498e+03
-2.092110e+05 -7.042473e+04 -6.801967e+03
-2.152991e+05 -6.668720e+04 -3.400984e+03
-2.073886e+05 -6.316521e+04 -3.400984e+03
-2.123789e+05 -6.297663e+04 -9.017043e+03
-2.134768e+05 -5.942769e+04 -3.637979e-12
-2.193254e+05 -5.854084e+04 -5.932783e+03
-2.091468e+05 -5.600104e+04 -5.823476e+03
-2.212274e+05 -5.434982e+04 0.000000e+00
-2.133169e+05 -5.082782e+04 0.000000e+00
-2.051625e+05 -4.728316e+04 0.000000e+00
-2.039336e+05 -6.007377e+04 -1.192445e+04
-1.972520e+05 -4.376117e+04 0.000000e+00
-2.021105e+05 -6.999410e+04 -8.242232e+03
-1.732199e+05 -4.387415e+04 -1.250000e+03
-1.798008e+05 -4.462231e+04 -6.925352e+03
-1.733773e+05 -4.071906e+04 -7.622227e+03
-1.724500e+05 -3.554130e+04 -5.431388e+03
-1.790506e+05 -4.064162e+04 -4.511293e+03
-1.739241e+05 -4.181771e+04 -3.637979e-12
-1.811305e+05 -4.739614e+04 -1.250000e+03
-1.818346e+05 -4.533971e+04 -3.637979e-12
-1.856648e+05 -4.316520e+04 -4.393371e+03
-1.658865e+05 -4.297905e+04 -2.500000e+03
-1.665907e+05 -4.092261e+04 -1.250000e+03
-1.658361e+05 -3.789138e+04 -7.569866e+03
-1.581031e+05 -3.477372e+04 -3.637979e-12
-1.586801e+05 -3.740062e+04 -1.250000e+03
-1.660136e+05 -3.829572e+04 -3.637979e-12
-1.607983e+05 -3.118805e+04 -3.630997e+03
-1.645354e+05 -3.465377e+04 -5.851702e+03
-1.683975e+05 -3.330656e+04 -2.886501e+03
-1.893415e+05 -4.023917e+04 0.000000e+00
-1.814309e+05 -3.671718e+04 0.000000e+00
-1.652683e+05 -2.972864e+04 0.000000e+00
-1.731789e+05 -3.325064e+04 0.000000e+00
-1.368069e+05 -3.003198e+04 -2.500000e+03
-1.362298e+05 -2.740509e+04 -1.250000e+03
-1.331028e+05 -2.450285e+04 -6.603974e+03
-1.428591e+05 -3.035663e+04 -1.250000e+03
-1.412820e+05 -2.754119e+04 -6.296483e+03
-1.422820e+05 -2.772973e+04 -3.637979e-12
-1.382857e+05 -2.287335e+04 -4.095542e+03
-1.283193e+05 -2.388309e+04 -1.250000e+03
-1.343715e+05 -2.420774e+04 -3.637979e-12
-1.264609e+05 -2.068574e+04 -3.637979e-12
-1.310965e+05 -1.944265e+04 -4.015103e+03
-1.474494e+05 -2.875156e+04 -4.625352e+03
-1.451941e+05 -2.433308e+04 -3.367192e+03
-1.501925e+05 -3.125173e+04 -3.637979e-12
-1.507696e+05 -3.387862e+04 -1.250000e+03
-1.538202e+05 -2.705792e+04 -4.100536e+03
-1.573578e+05 -2.620665e+04 0.000000e+00
-1.494473e+05 -2.268465e+04 0.000000e+00
-1.414040e+05 -1.918004e+04 0.000000e+00
-1.334935e+05 -1.565804e+04 0.000000e+00
-1.419622e+05 -1.852583e+04 -5.374292e+03
-1.058690e+05 -1.388757e+04 -1.250000e+03
-1.064763e+05 -1.393169e+04 -6.786379e+03
-1.042280e+05 -1.003418e+04 -5.206389e+03
-1.069537e+05 -8.583968e+03 -2.767615e+03
-1.114496e+05 -1.169670e+04 -4.425021e+03
-1.106399e+05 -1.364176e+04 -3.637979e-12
-1.124982e+05 -1.683910e+04 -1.250000e+03
-1.077273e+05 -1.708492e+04 -2.500000e+03
-1.139080e+05 -1.609380e+04 -6.067136e+03
-1.027294e+05 -1.011976e+04 -3.637979e-12
-9.481882e+04 -6.597766e+03 -3.637979e-12
-9.795845e+04 -1.036557e+04 -1.250000e+03
-1.014845e+05 -5.008028e+03 -4.370692e+03
-1.204088e+05 -2.036110e+04 -1.250000e+03
-1.185504e+05 -1.716375e+04 -3.637979e-12
-1.220102e+05 -1.421350e+04 -6.237695e+03
-1.255829e+05 -1.213605e+04 0.000000e+00
-1.176724e+05 -8.614051e+03 0.000000e+00
-1.097190e+05 -5.096347e+03 0.000000e+00
-1.018085e+05 -1.574352e+03 0.000000e+00
-8.213739e+04 -3.321583e+03 -1.250000e+03
-8.703982e+04 -2.908896e+03 -7.388146e+03
-8.144606e+04 -6.109011e+03 -1.065040e+04
-7.709673e+04 -3.256286e+03 -1.042247e+04
-8.176539e+04 2.905871e+03 -8.356105e+03
-7.899777e+04 4.462235e+02 -3.637979e-12
-6.741824e+04 -1.031831e+04 -8.396812e+03
-7.634763e+04 -8.703849e+03 -5.448406e+03
-7.320800e+04 -4.936042e+03 -4.198406e+03
-7.331823e+04 -9.656941e+03 -1.455307e+04
-8.690830e+04 -3.075771e+03 -3.637979e-12
-9.004792e+04 -6.843578e+03 -1.250000e+03
-9.413386e+04 3.619452e+02 -6.149206e+03
-9.389799e+04 1.947642e+03 0.000000e+00
-8.598746e+04 5.469637e+03 0.000000e+00
-7.806214e+04 8.982658e+03 0.000000e+00
-7.365140e+04 7.038401e+02 -1.010187e+04
-7.255228e+04 3.590988e+03 -5.781881e+03
-7.066569e+04 -4.379226e+03 -1.403276e+04
-7.108724e+04 3.968218e+03 -3.637979e-12
-6.598497e+04 7.455068e+03 -7.346565e+03
-7.015161e+04 1.250465e+04 0.000000e+00
-6.317671e+04 7.490213e+03 -3.637979e-12
-6.529748e+04 -1.414048e+03 -4.198406e+03
-6.718781e+04 -6.241449e+02 -1.044211e+04
-5.526618e+04 1.101221e+04 -3.637979e-12
-6.224108e+04 1.602665e+04 0.000000e+00
-5.808756e+04 1.264953e+04 -6.320145e+03
-4.813895e+04 1.486626e+04 -7.868418e+03
-5.433056e+04 1.954864e+04 0.000000e+00
-4.735565e+04 1.453420e+04 -3.637979e-12
-5.159719e+04 -3.274319e+03 -8.396812e+03
-5.738695e+04 2.107947e+03 -4.198406e+03
-4.947642e+04 5.629942e+03 -4.198406e+03
-5.187241e+04 6.625727e+03 -1.224348e+04
-3.995649e+04 9.998042e+03 -4.130073e+03
-3.965949e+04 9.490466e+03 -1.559845e+04
-3.394141e+04 1.415987e+04 -1.293484e+04
-3.255734e+04 5.461881e+03 -8.260145e+03
-4.020294e+04 1.719219e+04 -6.419269e+03
-4.207726e+04 1.093781e+03 -8.328479e+03
-3.153459e+04 2.157819e+04 -3.637979e-12
-3.204596e+04 1.352004e+04 -4.130073e+03
-3.944512e+04 1.805620e+04 -3.637979e-12
-3.351690e+04 2.176645e+04 -7.703401e+03
-4.641505e+04 2.306511e+04 0.000000e+00
-3.850452e+04 2.658710e+04 0.000000e+00
-1.571353e+04 2.862218e+04 -3.637979e-12
-1.622491e+04 2.056403e+04 -4.130073e+03
-2.362406e+04 2.510019e+04 -3.637979e-12
-1.572052e+04 2.899049e+04 -7.648419e+03
-1.673628e+04 1.250587e+04 -8.260145e+03
-2.413543e+04 1.704203e+04 -4.130073e+03
-1.966810e+04 2.127967e+04 -1.130095e+04
-2.577522e+04 2.676220e+04 -6.204597e+03
-3.059399e+04 3.010910e+04 0.000000e+00
-2.268346e+04 3.363109e+04 0.000000e+00
-4.865775e+02 1.990299e+04 -8.174550e+03
-8.100053e+03 2.426259e+04 -4.087275e+03
-1.895238e+02 2.778458e+04 -4.087275e+03
-2.678668e+03 2.845745e+04 -1.004687e+04
-7.803000e+03 3.214418e+04 -3.637979e-12
-8.489794e+03 3.149664e+04 -5.777762e+03
1.075299e+02 3.566617e+04 -3.637979e-12
-1.756554e+03 3.617762e+04 -7.417944e+03
-1.477206e+04 3.715210e+04 0.000000e+00
-7.809347e+03 2.332226e+04 -1.364345e+04
-6.861529e+03 4.067410e+04 0.000000e+00
-8.611429e+03 1.620443e+04 -8.217348e+03
1.533448e+04 2.694698e+04 -8.174550e+03
7.721006e+03 3.130658e+04 -4.087275e+03
1.563154e+04 3.482857e+04 -4.087275e+03
1.283291e+04 3.611178e+04 -1.190119e+04
8.018059e+03 3.918816e+04 -3.637979e-12
5.805452e+03 4.130663e+04 -6.192560e+03
1.592859e+04 4.271016e+04 -3.637979e-12
1.492489e+04 4.550118e+04 -7.299413e+03
1.049001e+03 4.419609e+04 0.000000e+00
8.959530e+03 4.771809e+04 0.000000e+00
2.323018e+04 3.049424e+04 -8.157740e+03
2.352723e+04 3.837583e+04 -4.070466e+03
3.112588e+04 3.404150e+04 -8.140931e+03
2.223885e+04 3.846429e+04 -1.186276e+04
2.383912e+04 4.623215e+04 -3.637979e-12
2.130671e+04 4.950488e+04 -4.981116e+03
3.174965e+04 4.975415e+04 -3.637979e-12
3.143776e+04 4.189783e+04 -4.070466e+03
3.038984e+04 5.133932e+04 -8.089995e+03
2.534983e+04 4.481305e+04 -9.179024e+03
2.478045e+04 5.476167e+04 0.000000e+00
1.686992e+04 5.123968e+04 0.000000e+00
3.966018e+04 5.327614e+04 -3.637979e-12
3.934829e+04 4.541982e+04 -4.070466e+03
3.807420e+04 5.533936e+04 -6.129629e+03
4.757071e+04 5.679814e+04 -3.637979e-12
4.725882e+04 4.894181e+04 -4.070466e+03
4.686851e+04 5.934343e+04 -7.709452e+03
4.694693e+04 4.108549e+04 -8.140931e+03
4.484404e+04 4.979409e+04 -1.093703e+04
3.269098e+04 5.828367e+04 0.000000e+00
4.060151e+04 6.180566e+04 0.000000e+00
6.289328e+04 4.809082e+04 -8.190740e+03
5.492011e+04 4.458816e+04 -8.165836e+03
5.523199e+04 5.244448e+04 -4.095370e+03
5.470537e+04 5.273351e+04 -1.395321e+04
5.840542e+04 5.944535e+04 -1.107350e+04
5.318945e+04 6.355168e+04 -5.468934e+03
6.339177e+04 6.384213e+04 -3.637979e-12
6.314252e+04 5.596648e+04 -4.095370e+03
5.548124e+04 6.032013e+04 -3.637979e-12
6.114198e+04 6.754989e+04 -6.921847e+03
5.642165e+04 6.884866e+04 0.000000e+00
4.851112e+04 6.532666e+04 0.000000e+00
7.921283e+04 7.088612e+04 -3.637979e-12
7.896358e+04 6.301047e+04 -4.095370e+03
7.130230e+04 6.736412e+04 -3.637979e-12
8.051450e+04 7.175096e+04 -7.948482e+03
7.871434e+04 5.513481e+04 -8.190740e+03
7.105305e+04 5.948847e+04 -4.095370e+03
7.672333e+04 6.387042e+04 -1.128935e+04
6.961088e+04 6.956802e+04 -6.397016e+03
6.433218e+04 7.237065e+04 0.000000e+00
7.224271e+04 7.589265e+04 0.000000e+00
8.688172e+04 6.652412e+04 -4.101554e+03
8.762969e+04 6.654231e+04 -1.371338e+04
9.424410e+04 7.189259e+04 -1.136258e+04
9.455062e+04 6.216213e+04 -8.203108e+03
8.723903e+04 7.650631e+04 -5.517012e+03
8.663248e+04 5.864847e+04 -8.196924e+03
9.479225e+04 7.004612e+04 -4.101554e+03
8.712335e+04 7.440811e+04 -3.637979e-12
9.503388e+04 7.793011e+04 -3.637979e-12
9.608858e+04 7.934645e+04 -6.565751e+03
8.015042e+04 7.941349e+04 0.000000e+00
8.806095e+04 8.293548e+04 0.000000e+00
8.295894e+04 8.010599e+04 -7.864589e+03
1.103717e+05 6.920612e+04 -8.203108e+03
1.027028e+05 7.356811e+04 -4.101554e+03
1.106133e+05 7.709011e+04 -4.101554e+03
1.082852e+05 7.905784e+04 -1.038349e+04
1.029444e+05 8.145210e+04 -3.637979e-12
1.026788e+05 8.369345e+04 -5.335479e+03
1.108549e+05 8.497410e+04 -3.637979e-12
1.103772e+05 8.782112e+04 -7.139602e+03
9.597148e+04 8.645748e+04 0.000000e+00
1.038820e+05 8.997947e+04 0.000000e+00
1.184967e+05 8.061242e+04 -4.095017e+03
1.169876e+05 8.104609e+04 -1.493214e+04
1.211190e+05 8.727869e+04 -1.036468e+04
1.261385e+05 7.625074e+04 -8.190034e+03
1.164739e+05 9.157958e+04 -4.850005e+03
1.264072e+05 8.413441e+04 -4.095017e+03
1.187655e+05 8.849609e+04 -3.637979e-12
1.266760e+05 9.201808e+04 -3.637979e-12
1.234012e+05 9.307600e+04 -5.253428e+03
1.196988e+05 9.702337e+04 0.000000e+00
1.117882e+05 9.350138e+04 0.000000e+00
1.182551e+05 7.272843e+04 -8.196571e+03
1.419595e+05 8.329473e+04 -8.190034e+03
1.343178e+05 8.765641e+04 -4.095017e+03
1.422283e+05 9.117840e+04 -4.095017e+03
1.375330e+05 9.238629e+04 -1.076223e+04
1.345865e+05 9.554008e+04 -3.637979e-12
1.310048e+05 9.776448e+04 -6.202335e+03
1.424971e+05 9.906207e+04 -3.637979e-12
1.395354e+05 9.954665e+04 -6.440990e+03
1.276093e+05 1.005454e+05 0.000000e+00
1.355198e+05 1.040674e+05 0.000000e+00
1.452153e+05 9.423035e+04 -1.111267e+04
1.464296e+05 1.000910e+05 -6.079504e+03
1.434270e+05 1.075980e+05 0.000000e+00
1.578955e+05 9.029454e+04 -8.240309e+03
1.499275e+05 8.679464e+04 -8.215171e+03
1.501963e+05 9.467831e+04 -4.120155e+03
1.531031e+05 9.764307e+04 -9.920960e+03
1.581068e+05 9.820030e+04 -4.120155e+03
1.504076e+05 1.025841e+05 -3.637979e-12
1.583181e+05 1.061061e+05 -3.637979e-12
1.521109e+05 1.053658e+05 -5.817528e+03
1.513375e+05 1.111200e+05 0.000000e+00
1.737165e+05 9.733853e+04 -8.240309e+03
1.660173e+05 1.017223e+05 -4.120155e+03
1.739279e+05 1.052443e+05 -4.120155e+03
1.692343e+05 1.059290e+05 -1.022806e+04
1.662287e+05 1.096281e+05 -3.637979e-12
1.612090e+05 1.102539e+05 -6.800069e+03
1.741392e+05 1.131501e+05 -3.637979e-12
1.711480e+05 1.128322e+05 -6.588764e+03
1.592480e+05 1.146419e+05 0.000000e+00
1.671586e+05 1.181639e+05 0.000000e+00
1.759026e+05 1.198776e+05 -6.392621e+03
1.817860e+05 1.087629e+05 -4.109618e+03
1.792532e+05 1.113668e+05 -1.255344e+04
1.839897e+05 1.148641e+05 -8.066642e+03
1.894328e+05 1.043758e+05 -8.219236e+03
1.750773e+05 1.217160e+05 0.000000e+00
1.815746e+05 1.008572e+05 -8.229773e+03
1.820497e+05 1.166720e+05 -3.637979e-12
1.899602e+05 1.201940e+05 -3.637979e-12
1.896965e+05 1.122849e+05 -4.109618e+03
1.878075e+05 1.223615e+05 -7.221899e+03
1.829878e+05 1.252380e+05 0.000000e+00
1.978708e+05 1.237160e+05 -3.637979e-12
1.976070e+05 1.158069e+05 -4.109618e+03
1.951379e+05 1.262288e+05 -4.932316e+03
2.057813e+05 1.272380e+05 -3.637979e-12
2.055176e+05 1.193289e+05 -4.109618e+03
2.018342e+05 1.281139e+05 -4.711434e+03
2.052538e+05 1.114198e+05 -8.219236e+03
2.009632e+05 1.229031e+05 -9.594779e+03
1.908983e+05 1.287600e+05 0.000000e+00
1.988088e+05 1.322820e+05 0.000000e+00
2.067554e+05 1.359170e+05 0.000000e+00
2.086977e+05 1.301603e+05 -7.162527e+03
2.136918e+05 1.307600e+05 -3.637979e-12
2.166886e+05 1.322422e+05 -6.435914e+03
2.146659e+05 1.394390e+05 0.000000e+00
2.216024e+05 1.342820e+05 -3.637979e-12
2.135525e+05 1.227559e+05 -4.188970e+03
2.214630e+05 1.262778e+05 -4.188970e+03
2.213237e+05 1.182737e+05 -8.377940e+03
2.164137e+05 1.251477e+05 -1.319567e+04
2.132888e+05 1.148467e+05 -8.298588e+03
2.085364e+05 1.211626e+05 -1.038141e+04
2.295129e+05 1.378040e+05 -3.637979e-12
2.225765e+05 1.429610e+05 0.000000e+00
2.245180e+05 1.359170e+05 -8.290617e+03
2.333689e+05 1.377792e+05 -8.036732e+03
2.304870e+05 1.464829e+05 0.000000e+00
2.374234e+05 1.413260e+05 -3.637979e-12
2.293736e+05 1.297998e+05 -4.188970e+03
2.372841e+05 1.333218e+05 -4.188970e+03
2.371448e+05 1.253177e+05 -8.377940e+03
2.318711e+05 1.296687e+05 -1.324822e+04
2.398177e+05 1.341216e+05 -1.234926e+04
2.409736e+05 1.411872e+05 -7.047229e+03
2.348262e+05 1.451747e+05 -8.541569e+03
2.384182e+05 1.498212e+05 0.000000e+00
2.532577e+05 1.321233e+05 -8.572227e+03
2.452012e+05 1.287205e+05 -8.475083e+03
2.453406e+05 1.367246e+05 -4.286113e+03
2.481791e+05 1.377681e+05 -1.178519e+04
2.532511e+05 1.402466e+05 -4.286113e+03
2.453339e+05 1.448480e+05 -3.637979e-12
2.532445e+05 1.483700e+05 -3.637979e-12
2.476079e+05 1.464844e+05 -7.712457e+03
2.463288e+05 1.533432e+05 0.000000e+00
2.767991e+05 1.588572e+05 -3.637979e-12
2.859183e+05 1.642013e+05 -6.771163e+03
2.774204e+05 1.670031e+05 0.000000e+00
2.696868e+05 1.635599e+05 0.000000e+00
2.771994e+05 1.615886e+05 -5.319649e+03
2.690655e+05 1.554140e+05 -3.637979e-12
2.767991e+05 1.509574e+05 -4.166667e+03
2.845328e+05 1.544006e+05 -4.166667e+03
2.839523e+05 1.574774e+05 -1.237988e+04
2.690788e+05 1.391672e+05 -8.572227e+03
2.690721e+05 1.472906e+05 -4.286113e+03
2.768058e+05 1.428340e+05 -8.452780e+03
2.650748e+05 1.451823e+05 -1.115037e+04
2.660965e+05 1.532525e+05 -7.775575e+03
2.734719e+05 1.489372e+05 -1.429223e+04
2.745356e+05 1.553472e+05 -1.331842e+04
2.719375e+05 1.590864e+05 -7.682360e+03
2.611616e+05 1.437686e+05 -4.286113e+03
2.611550e+05 1.518920e+05 -3.637979e-12
2.566688e+05 1.513044e+05 -6.921298e+03
2.542393e+05 1.568652e+05 0.000000e+00
2.621498e+05 1.603872e+05 0.000000e+00
2.726545e+05 1.659598e+05 -6.907897e+03
6.339882e+04 -7.480864e+03 -3.761995e+04
5.687379e+04 -1.153580e+04 -4.274101e+04
5.554072e+04 -1.100135e+04 -3.763147e+04
6.351490e+04 4.094279e+02 -3.348559e+04
5.970947e+04 -2.228785e+03 -3.936044e+04
5.565680e+04 -3.111059e+03 -3.349710e+04
5.126775e+04 -4.223702e+03 -3.863274e+04
4.779870e+04 -6.631546e+03 -3.350862e+04
5.540606e+04 -1.887807e+04 -4.175431e+04
4.915658e+04 -1.315406e+04 -4.214604e+04
4.766405e+04 -1.450827e+04 -3.763147e+04
4.214539e+04 -1.763843e+04 -4.253740e+04
4.357795e+04 -1.035000e+04 -3.966395e+04
3.642736e+04 -1.259611e+04 -3.921525e+04
3.971459e+04 -1.805149e+04 -3.763352e+04
3.984925e+04 -1.017477e+04 -3.351068e+04
3.189979e+04 -1.371799e+04 -3.351273e+04
4.151958e+04 -3.528082e+03 -3.760968e+04
4.816038e+04 2.725288e+03 -3.494370e+04
5.601882e+04 4.404403e+03 -3.589845e+04
5.018324e+04 1.126713e+04 -3.159771e+04
4.742982e+04 1.369552e+03 -2.920193e+04
5.528792e+04 4.890039e+03 -2.919041e+04
4.706093e+04 9.370649e+03 -2.489524e+04
4.245201e+04 5.427058e+03 -3.259798e+04
3.451236e+04 3.575075e+03 -3.248507e+04
3.170273e+04 -6.426357e+03 -3.681854e+04
3.953412e+04 -2.177709e+03 -2.921874e+04
3.126954e+04 2.276127e+03 -2.492886e+04
3.158467e+04 -5.720934e+03 -2.922080e+04
3.916523e+04 5.823388e+03 -2.491205e+04
4.596973e+04 1.607518e+03 -4.063753e+04
8.913489e+04 3.476301e+03 -4.402235e+04
8.687561e+04 -4.823262e+03 -4.173128e+04
8.699169e+04 3.067029e+03 -3.759692e+04
8.021851e+04 3.095845e+02 -4.194966e+04
8.168517e+04 6.979626e+03 -3.915143e+04
7.911502e+04 -4.398898e+02 -3.759692e+04
7.923111e+04 7.450402e+03 -3.346256e+04
9.489264e+04 6.575537e+03 -3.760178e+04
8.809634e+04 1.157696e+04 -3.910363e+04
8.713205e+04 1.095891e+04 -3.346742e+04
9.503300e+04 1.446742e+04 -3.347228e+04
7.334011e+04 -5.102862e+03 -4.382709e+04
7.125692e+04 -3.960377e+03 -3.760843e+04
7.467303e+04 3.177748e+03 -3.975640e+04
7.137301e+04 3.929915e+03 -3.347407e+04
6.753931e+04 1.562274e+03 -3.922684e+04
6.288731e+04 8.091638e+03 -3.714765e+04
7.297257e+04 1.054964e+04 -3.787149e+04
6.602940e+04 1.774457e+04 -3.235606e+04
6.314602e+04 8.410525e+03 -2.917890e+04
7.100412e+04 1.193101e+04 -2.916738e+04
6.277714e+04 1.641162e+04 -2.487221e+04
8.139209e+04 2.550982e+04 -3.278729e+04
8.111114e+04 1.550453e+04 -3.732390e+04
8.890934e+04 1.918708e+04 -3.576420e+04
7.872348e+04 2.341696e+04 -2.492202e+04
7.897729e+04 1.543368e+04 -2.919229e+04
8.687824e+04 1.894219e+04 -2.919715e+04
7.453758e+04 1.901489e+04 -3.343399e+04
7.075031e+04 1.991429e+04 -2.489711e+04
-5.932563e+04 -2.889502e+04 -2.009522e+04
-6.848300e+04 -2.901919e+04 -2.473025e+04
-6.303829e+04 -2.979710e+04 -2.905967e+04
-5.791331e+04 -2.453735e+04 -2.831900e+04
-6.431478e+04 -2.196402e+04 -2.277878e+04
-5.583872e+04 -2.108284e+04 -1.679362e+04
-6.476810e+04 -1.946838e+04 -1.384522e+04
-6.825501e+04 -2.728056e+04 -1.714681e+04
-7.314957e+04 -1.926567e+04 -1.868430e+04
-5.283566e+04 -2.654496e+04 -2.723032e+04
-5.692244e+04 -3.422964e+04 -3.038621e+04
-4.979465e+04 -3.376831e+04 -3.106129e+04
-5.212592e+04 -2.854578e+04 -2.160172e+04
-5.561283e+04 -3.635796e+04 -2.490331e+04
-4.841311e+04 -3.600871e+04 -2.640981e+04
-6.162848e+04 -1.570057e+04 -1.259522e+04
-7.055787e+04 -1.408611e+04 -9.646812e+03
-6.722129e+04 -1.480004e+04 -1.945797e+04
-6.582270e+04 -7.542614e+03 -2.064687e+04
-6.076189e+04 -1.595588e+04 -2.546136e+04
-5.371795e+04 -1.217858e+04 -1.259522e+04
-5.472615e+04 -1.050479e+04 -2.056010e+04
-5.950771e+04 -6.796313e+03 -8.396812e+03
-6.164489e+04 -4.379491e+03 -1.593062e+04
-5.204274e+04 -2.887096e+03 -1.547553e+04
-4.631880e+04 -1.671474e+04 -1.672529e+04
-4.419803e+04 -7.810479e+03 -1.252688e+04
-3.679888e+04 -1.234664e+04 -1.665696e+04
-4.523922e+04 -7.472724e+03 -2.066933e+04
-5.069096e+04 -1.753607e+04 -2.895561e+04
-3.981838e+04 -2.255638e+04 -3.099693e+04
-3.922833e+04 -1.309624e+04 -2.657455e+04
-4.584035e+04 -2.472690e+04 -2.106354e+04
-3.584199e+04 -2.837096e+04 -2.533346e+04
-3.632043e+04 -2.035880e+04 -2.099521e+04
-4.458929e+04 -2.775020e+04 -3.162506e+04
-4.212755e+04 -3.218984e+04 -2.587164e+04
-2.841627e+05 -1.142852e+05 -1.233465e+04
-2.762441e+05 -1.185027e+05 -1.641865e+04
-2.830161e+05 -1.147403e+05 -1.929638e+04
-2.762441e+05 -1.106028e+05 -1.225198e+04
-2.852682e+05 -1.052365e+05 -1.696745e+04
-2.683254e+05 -1.148203e+05 -1.633598e+04
-2.763854e+05 -1.122460e+05 -2.069898e+04
-2.684567e+05 -1.071357e+05 -1.225198e+04
-2.763753e+05 -1.029182e+05 -8.167988e+03
-2.759385e+05 -1.034170e+05 -1.600574e+04
-2.804829e+05 -1.209832e+05 -2.419920e+04
-2.740125e+05 -1.270846e+05 -2.990931e+04
-2.725671e+05 -1.186834e+05 -2.555901e+04
-2.759718e+05 -1.265259e+05 -2.071430e+04
-2.677808e+05 -1.308667e+05 -2.492728e+04
-2.680531e+05 -1.228435e+05 -2.063163e+04
-2.633934e+05 -9.724193e+04 -1.503193e+04
-2.703627e+05 -9.847816e+04 -1.671751e+04
-2.720803e+05 -1.056532e+05 -2.053873e+04
-2.656138e+05 -1.037040e+05 -1.906962e+04
-2.530371e+05 -1.076472e+05 -1.614277e+04
-2.606813e+05 -1.112338e+05 -1.623937e+04
-2.608125e+05 -1.035491e+05 -1.215538e+04
-2.589410e+05 -1.021169e+05 -2.011669e+04
-2.666034e+05 -1.099471e+05 -2.515584e+04
-2.558625e+05 -1.076071e+05 -2.551594e+04
-2.660162e+05 -1.217155e+05 -2.963865e+04
-2.576686e+05 -1.179304e+05 -2.886209e+04
-2.597889e+05 -1.272468e+05 -2.489475e+04
-2.517971e+05 -1.236269e+05 -2.486222e+04
-2.600612e+05 -1.192236e+05 -2.059910e+04
-2.524171e+05 -1.156371e+05 -2.050250e+04
-2.746931e+05 -1.124880e+05 -2.924925e+04
2.529016e+05 7.667738e+04 -3.773274e+04
2.467872e+05 7.334918e+04 -4.241682e+04
2.449559e+05 7.318059e+04 -3.771118e+04
2.532303e+05 8.454927e+04 -3.365801e+04
2.473155e+05 8.196823e+04 -3.998522e+04
2.452847e+05 8.105248e+04 -3.363646e+04
2.403037e+05 7.693254e+04 -3.947274e+04
2.373390e+05 7.755569e+04 -3.361491e+04
2.446962e+05 6.529857e+04 -4.180746e+04
2.391487e+05 6.932683e+04 -4.375550e+04
2.370793e+05 6.967367e+04 -3.771118e+04
2.313881e+05 6.457865e+04 -4.435035e+04
2.328346e+05 7.287019e+04 -4.036207e+04
2.291744e+05 6.617401e+04 -3.770073e+04
2.238928e+05 7.045736e+04 -4.057347e+04
2.215292e+05 7.055636e+04 -3.359401e+04
2.294341e+05 7.405603e+04 -3.360446e+04
2.247886e+05 8.804545e+04 -3.285703e+04
2.217562e+05 7.793071e+04 -3.775480e+04
2.313425e+05 8.063701e+04 -3.844840e+04
2.210326e+05 8.657862e+04 -2.502669e+04
2.212809e+05 7.856749e+04 -2.931035e+04
2.291858e+05 8.206716e+04 -2.932080e+04
2.372208e+05 8.549410e+04 -2.940015e+04
2.406841e+05 9.300054e+04 -3.247838e+04
2.330448e+05 8.930577e+04 -3.370572e+04
2.371025e+05 9.343250e+04 -2.518540e+04
2.397744e+05 8.543189e+04 -3.751930e+04
2.290676e+05 9.000556e+04 -2.510604e+04
2.474818e+05 8.926667e+04 -3.576905e+04
2.451664e+05 8.899089e+04 -2.942171e+04
1.970795e+05 9.998868e+04 -1.232885e+04
1.904689e+05 1.124794e+05 -1.290327e+04
1.867826e+05 1.050914e+05 -1.522707e+04
1.925331e+05 1.004261e+05 -1.835415e+04
1.968465e+05 1.069301e+05 -1.777578e+04
2.047263e+05 9.560155e+04 -1.643847e+04
1.890101e+05 8.856428e+04 -1.645955e+04
1.892214e+05 9.647004e+04 -1.233939e+04
1.968682e+05 9.208292e+04 -1.644901e+04
1.834865e+05 9.826698e+04 -1.942432e+04
1.973433e+05 1.078978e+05 -8.219236e+03
2.049901e+05 1.035107e+05 -1.232885e+04
2.008058e+05 1.150608e+05 -1.471493e+04
2.127613e+05 9.902849e+04 -1.651782e+04
2.064248e+05 1.075923e+05 -1.934107e+04
2.130250e+05 1.069376e+05 -1.240821e+04
2.093167e+05 1.146685e+05 -1.541649e+04
2.207962e+05 1.024554e+05 -1.659718e+04
2.151357e+05 1.094392e+05 -2.089517e+04
2.056724e+05 9.831925e+04 -2.723444e+04
2.060881e+05 8.721170e+04 -2.914133e+04
2.151430e+05 9.049393e+04 -3.094723e+04
2.049746e+05 8.759042e+04 -2.072213e+04
2.128795e+05 9.109009e+04 -2.073258e+04
2.052229e+05 7.957929e+04 -2.500579e+04
2.131278e+05 8.307896e+04 -2.501624e+04
2.171209e+05 1.016579e+05 -2.617674e+04
2.209144e+05 9.451703e+04 -2.081193e+04
1.939147e+05 1.003692e+05 -2.561389e+04
2.005734e+05 1.068784e+05 -2.440190e+04
1.840027e+05 9.437401e+04 -2.636530e+04
1.904101e+05 8.825469e+04 -2.647707e+04
1.983338e+05 9.192455e+04 -2.443312e+04
1.987102e+05 8.494068e+04 -2.904634e+04
1.971165e+05 8.407179e+04 -2.073267e+04
2.292342e+05 1.217957e+05 -8.377940e+03
2.290949e+05 1.137915e+05 -1.256691e+04
2.235539e+05 1.193147e+05 -1.690135e+04
2.370055e+05 1.173135e+05 -1.256691e+04
2.323323e+05 1.217771e+05 -1.644727e+04
2.368661e+05 1.093093e+05 -1.675588e+04
2.308213e+05 1.135695e+05 -2.118232e+04
2.210600e+05 1.103646e+05 -1.248756e+04
2.288312e+05 1.058824e+05 -1.667653e+04
2.234809e+05 1.105464e+05 -1.986667e+04
2.398375e+05 1.259522e+05 -1.521231e+04
2.382279e+05 1.192685e+05 -1.967916e+04
2.529791e+05 1.161149e+05 -1.695017e+04
2.449226e+05 1.127121e+05 -1.685302e+04
2.450619e+05 1.207163e+05 -1.266405e+04
2.452775e+05 1.224381e+05 -2.006367e+04
2.369843e+05 1.013709e+05 -2.097064e+04
2.322313e+05 9.737139e+04 -3.078560e+04
2.404510e+05 1.012092e+05 -2.994261e+04
2.414647e+05 1.082889e+05 -2.522219e+04
2.338776e+05 1.061171e+05 -2.590824e+04
2.257364e+05 1.041769e+05 -2.495343e+04
2.289494e+05 9.794397e+04 -2.089129e+04
2.484976e+05 1.042494e+05 -2.910806e+04
2.450482e+05 9.692929e+04 -2.520695e+04
2.529939e+05 1.004261e+05 -2.522850e+04
2.449300e+05 1.048677e+05 -2.099219e+04
2.390912e+05 1.157188e+05 -2.666247e+04
2.501034e+05 1.210485e+05 -2.498953e+04
2.481155e+05 1.126305e+05 -2.645827e+04
2.529865e+05 1.082705e+05 -2.108933e+04
1.838274e+05 4.557303e+04 -4.407844e+04
1.815941e+05 3.725563e+04 -4.178007e+04
1.818095e+05 4.514386e+04 -3.767011e+04
1.749938e+05 4.234323e+04 -4.200291e+04
1.765068e+05 4.903410e+04 -3.924107e+04
1.739328e+05 4.163694e+04 -3.767011e+04
1.741481e+05 4.952517e+04 -3.356014e+04
1.897023e+05 4.865183e+04 -3.767335e+04
1.829343e+05 5.371944e+04 -3.922531e+04
1.820410e+05 5.303313e+04 -3.356338e+04
1.899338e+05 5.654110e+04 -3.356662e+04
1.680887e+05 3.692604e+04 -4.384206e+04
1.695510e+05 4.515265e+04 -3.980902e+04
1.660310e+05 3.812916e+04 -3.766465e+04
1.662463e+05 4.601739e+04 -3.355469e+04
1.624902e+05 4.347866e+04 -3.923501e+04
1.583445e+05 4.250961e+04 -3.354923e+04
1.678938e+05 5.237895e+04 -3.798934e+04
1.779336e+05 6.729075e+04 -3.253087e+04
1.759895e+05 5.760378e+04 -3.741982e+04
1.839895e+05 6.153575e+04 -3.586117e+04
1.737210e+05 6.552609e+04 -2.502038e+04
1.739346e+05 5.752563e+04 -2.929026e+04
1.818274e+05 6.103359e+04 -2.929350e+04
1.581778e+05 4.968907e+04 -3.707981e+04
1.696166e+05 6.105627e+04 -3.361497e+04
1.604575e+05 6.008888e+04 -3.341480e+04
1.657530e+05 6.202618e+04 -2.499524e+04
1.577851e+05 5.852628e+04 -2.497010e+04
1.659666e+05 5.402572e+04 -2.926512e+04
1.580648e+05 5.051794e+04 -2.925967e+04
1.115114e+05 1.465893e+04 -4.186740e+04
1.201109e+05 1.635355e+04 -4.411338e+04
1.132895e+05 2.173530e+04 -3.922966e+04
1.184308e+05 9.207591e+03 -4.174100e+04
1.106945e+05 1.359255e+04 -3.761151e+04
1.185712e+05 1.709947e+04 -3.761151e+04
1.108349e+05 2.148443e+04 -3.348201e+04
1.214031e+05 2.792603e+04 -4.000835e+04
1.264977e+05 2.060188e+04 -3.762558e+04
1.266879e+05 2.848924e+04 -3.351016e+04
1.187614e+05 2.498684e+04 -3.349608e+04
1.046182e+05 8.903699e+03 -4.393881e+04
1.027936e+05 1.008404e+04 -3.760664e+04
9.594828e+04 1.565316e+04 -4.028496e+04
1.055574e+05 1.755357e+04 -3.968486e+04
1.029339e+05 1.797593e+04 -3.347714e+04
9.733694e+04 3.036008e+04 -3.206329e+04
9.608057e+04 2.325406e+04 -3.580384e+04
1.041675e+05 2.532179e+04 -3.750218e+04
9.452537e+04 3.043397e+04 -2.493174e+04
9.477919e+04 2.245069e+04 -2.920201e+04
1.026801e+05 2.595920e+04 -2.920688e+04
1.042887e+05 3.520625e+04 -3.329249e+04
1.103617e+05 3.746129e+04 -2.494411e+04
1.024435e+05 3.394763e+04 -2.493793e+04
1.105983e+05 2.947286e+04 -2.921306e+04
1.201852e+05 3.408867e+04 -3.544479e+04
1.126257e+05 4.035037e+04 -3.272045e+04
1.123508e+05 3.057840e+04 -3.712793e+04
1.185248e+05 3.297527e+04 -2.922714e+04
1.337802e+05 7.188907e+04 -1.228505e+04
1.282581e+05 8.159388e+04 -1.367295e+04
1.247318e+05 7.488459e+04 -1.853499e+04
1.318648e+05 6.994288e+04 -2.238739e+04
1.342296e+05 7.737397e+04 -1.873570e+04
1.414220e+05 6.752739e+04 -1.638007e+04
1.416908e+05 7.541106e+04 -1.228505e+04
1.340490e+05 7.977274e+04 -8.190034e+03
1.363521e+05 8.469089e+04 -1.385641e+04
1.256552e+05 6.048277e+04 -1.639314e+04
1.258968e+05 6.836675e+04 -1.229159e+04
1.335386e+05 6.400508e+04 -1.638660e+04
1.262432e+05 6.722879e+04 -1.988760e+04
1.445066e+05 8.603618e+04 -1.399287e+04
1.423367e+05 8.040556e+04 -1.806640e+04
1.573579e+05 7.452720e+04 -1.643034e+04
1.493900e+05 7.102729e+04 -1.640520e+04
1.496587e+05 7.891097e+04 -1.231019e+04
1.499116e+05 8.295866e+04 -1.871461e+04
1.542589e+05 7.218237e+04 -2.678294e+04
1.440210e+05 6.841331e+04 -2.709356e+04
1.514970e+05 6.156005e+04 -2.972631e+04
1.575715e+05 6.652674e+04 -2.070022e+04
1.496035e+05 6.302683e+04 -2.067509e+04
1.443226e+05 5.912381e+04 -2.818004e+04
1.498832e+05 5.501850e+04 -2.496465e+04
1.417017e+05 5.951906e+04 -2.066963e+04
1.419814e+05 5.151072e+04 -2.495919e+04
1.291856e+05 6.160871e+04 -2.408517e+04
1.362120e+05 6.426292e+04 -2.419120e+04
1.355358e+05 7.479098e+04 -2.911333e+04
1.524191e+05 8.083410e+04 -2.656233e+04
1.424693e+05 7.893981e+04 -2.443106e+04
1.360508e+05 5.756626e+04 -2.928052e+04
1.338183e+05 5.599674e+04 -2.067617e+04
2.690920e+05 1.229205e+05 -1.714445e+04
2.690854e+05 1.310439e+05 -1.285834e+04
2.768190e+05 1.265872e+05 -1.702501e+04
2.632071e+05 1.280510e+05 -2.037420e+04
2.768124e+05 1.347106e+05 -1.273889e+04
2.650455e+05 1.375118e+05 -1.707559e+04
2.716622e+05 1.308132e+05 -2.156833e+04
2.694569e+05 1.226557e+05 -2.678039e+04
2.785740e+05 1.190786e+05 -2.817418e+04
2.789322e+05 1.279131e+05 -2.602741e+04
2.768190e+05 1.186874e+05 -2.119167e+04
2.845460e+05 1.223541e+05 -2.107223e+04
2.719570e+05 1.146870e+05 -2.938059e+04
2.691069e+05 1.072317e+05 -2.542279e+04
2.768265e+05 1.108430e+05 -2.533084e+04
2.690995e+05 1.150761e+05 -2.128362e+04
2.610356e+05 1.195177e+05 -1.704731e+04
2.611749e+05 1.275219e+05 -1.285834e+04
2.531184e+05 1.241191e+05 -1.276120e+04
2.535427e+05 1.265357e+05 -1.913110e+04
2.563144e+05 1.329678e+05 -1.562614e+04
2.611683e+05 1.356452e+05 -8.572227e+03
2.567861e+05 1.232008e+05 -2.297766e+04
2.618709e+05 1.219452e+05 -2.479389e+04
2.560843e+05 1.163154e+05 -2.584024e+04
2.637025e+05 1.171112e+05 -2.449603e+04
2.639346e+05 1.112877e+05 -3.043705e+04
2.610430e+05 1.116733e+05 -2.118648e+04
2.788968e+05 8.823593e+04 -4.420638e+04
2.765126e+05 7.938240e+04 -4.185056e+04
2.768413e+05 8.725429e+04 -3.777584e+04
2.696152e+05 8.541479e+04 -4.183050e+04
2.716374e+05 9.387066e+04 -3.868925e+04
2.687930e+05 8.367096e+04 -3.777584e+04
2.691217e+05 9.154285e+04 -3.370112e+04
2.845609e+05 9.086559e+04 -3.768389e+04
2.792229e+05 9.552013e+04 -3.890044e+04
2.768413e+05 9.515415e+04 -3.360917e+04
2.696652e+05 1.005067e+05 -3.499422e+04
2.767877e+05 1.025039e+05 -3.600933e+04
2.714755e+05 1.069909e+05 -3.193925e+04
2.691143e+05 9.938726e+04 -2.956195e+04
2.768339e+05 1.029986e+05 -2.947001e+04
2.622145e+05 7.937318e+04 -4.382482e+04
2.608473e+05 8.017417e+04 -3.775429e+04
2.638040e+05 8.812965e+04 -3.958837e+04
2.611760e+05 8.804606e+04 -3.367957e+04
2.553431e+05 8.680055e+04 -3.945572e+04
2.547413e+05 9.375525e+04 -3.557656e+04
2.627579e+05 9.516497e+04 -3.701582e+04
2.569476e+05 1.020941e+05 -3.179834e+04
2.531121e+05 9.248768e+04 -2.944326e+04
2.610578e+05 9.598447e+04 -2.946481e+04
2.643256e+05 1.034331e+05 -3.239349e+04
2.610504e+05 1.038289e+05 -2.532564e+04
2.666154e+05 9.972049e+04 -3.984521e+04
3.053177e+04 1.827832e+04 -1.631548e+04
3.082882e+04 2.615991e+04 -1.222821e+04
3.842747e+04 2.182558e+04 -1.629867e+04
2.863575e+04 2.618327e+04 -2.134622e+04
3.872452e+04 2.970717e+04 -1.221140e+04
2.993562e+04 3.526696e+04 -1.923406e+04
4.632316e+04 2.537284e+04 -1.628186e+04
3.645959e+04 2.733644e+04 -2.278686e+04
3.903641e+04 3.756350e+04 -8.140931e+03
3.209946e+04 4.177241e+04 -1.464982e+04
4.663505e+04 3.322917e+04 -1.221140e+04
4.347271e+04 4.134472e+04 -1.446133e+04
4.118968e+04 3.460231e+04 -1.916200e+04
6.226951e+04 3.237818e+04 -1.633167e+04
5.429633e+04 2.887551e+04 -1.630677e+04
5.460822e+04 3.673183e+04 -1.223630e+04
5.131610e+04 3.705327e+04 -2.099520e+04
4.820351e+04 1.886137e+04 -2.774865e+04
5.669939e+04 2.027046e+04 -3.019261e+04
4.929362e+04 2.752448e+04 -2.453136e+04
5.491903e+04 1.289114e+04 -2.488372e+04
4.669205e+04 1.737175e+04 -2.058855e+04
5.455015e+04 2.089223e+04 -2.057704e+04
4.106954e+04 1.302496e+04 -3.008667e+04
4.172684e+04 2.182363e+04 -2.548542e+04
3.392186e+04 1.919461e+04 -2.479036e+04
3.879635e+04 1.382449e+04 -2.060536e+04
5.754651e+04 3.082462e+04 -2.530467e+04
6.252332e+04 2.439490e+04 -2.060194e+04
4.033261e+04 3.047413e+04 -2.912059e+04
1.022195e+05 5.780014e+04 -1.230466e+04
1.006718e+05 6.568509e+04 -1.435148e+04
9.487167e+04 6.112973e+04 -1.660612e+04
1.004567e+05 5.658692e+04 -1.928638e+04
1.071341e+05 6.251048e+04 -1.884511e+04
1.098884e+05 5.343814e+04 -1.640622e+04
1.019703e+05 4.992448e+04 -1.640003e+04
9.405213e+04 4.641083e+04 -1.639385e+04
9.430137e+04 5.428648e+04 -1.229848e+04
9.276480e+04 5.407703e+04 -2.000752e+04
1.101300e+05 6.132213e+04 -1.230466e+04
1.024611e+05 6.568412e+04 -8.203108e+03
1.078024e+05 7.150453e+04 -1.537603e+04
1.177718e+05 5.696045e+04 -1.639968e+04
1.180134e+05 6.484444e+04 -1.229813e+04
1.173730e+05 6.591114e+04 -2.074041e+04
1.030534e+05 5.189394e+04 -2.587006e+04
9.635109e+04 4.648347e+04 -2.438335e+04
1.039674e+05 4.274804e+04 -2.793185e+04
1.101250e+05 4.544972e+04 -2.067516e+04
1.022069e+05 4.193606e+04 -2.066898e+04
1.200931e+05 4.909047e+04 -3.014946e+04
1.130550e+05 5.644058e+04 -2.431235e+04
1.114948e+05 4.764130e+04 -2.807018e+04
1.262146e+05 4.446610e+04 -2.497227e+04
1.180515e+05 4.895212e+04 -2.068924e+04
1.182881e+05 4.096369e+04 -2.495819e+04
1.214029e+05 5.923899e+04 -2.490828e+04
1.259349e+05 5.247443e+04 -2.068270e+04
1.044600e+05 6.031270e+04 -2.610161e+04
1.581291e+05 3.462139e+04 -3.765919e+04
1.516386e+05 3.054011e+04 -4.279340e+04
1.502273e+05 3.111361e+04 -3.765374e+04
1.544741e+05 3.979797e+04 -3.896171e+04
1.504426e+05 3.900183e+04 -3.354377e+04
1.461464e+05 3.780225e+04 -3.863147e+04
1.425408e+05 3.549406e+04 -3.353832e+04
1.500371e+05 2.322624e+04 -4.176916e+04
1.439501e+05 2.899652e+04 -4.214119e+04
1.423506e+05 2.760669e+04 -3.765374e+04
1.368858e+05 2.463083e+04 -4.247149e+04
1.383744e+05 3.201292e+04 -3.969468e+04
1.308413e+05 3.000552e+04 -3.957016e+04
1.344242e+05 2.410428e+04 -3.763966e+04
1.346143e+05 3.199165e+04 -3.352424e+04
1.515520e+05 4.590100e+04 -3.611111e+04
1.438593e+05 4.498882e+04 -3.534124e+04
1.462772e+05 5.236191e+04 -3.209969e+04
1.501629e+05 4.701017e+04 -2.925421e+04
1.422611e+05 4.350239e+04 -2.924875e+04
1.366706e+05 3.939036e+04 -3.782072e+04
1.300097e+05 4.693694e+04 -3.243330e+04
1.278554e+05 3.744842e+04 -3.670767e+04
1.343777e+05 3.998008e+04 -2.925529e+04
1.264512e+05 3.647767e+04 -2.924121e+04
1.384438e+05 5.002983e+04 -3.333746e+04
1.340980e+05 4.798841e+04 -2.496573e+04
1.420741e+05 4.391868e+04 -4.068831e+04
1.732939e+05 8.152701e+04 -1.648062e+04
1.653259e+05 7.802711e+04 -1.645548e+04
1.655947e+05 8.591078e+04 -1.236046e+04
1.675231e+05 8.869057e+04 -1.849549e+04
1.576267e+05 8.241087e+04 -1.233533e+04
1.580639e+05 8.645385e+04 -1.865442e+04
1.607508e+05 9.329388e+04 -1.401832e+04
1.735052e+05 8.943277e+04 -1.236046e+04
1.658060e+05 9.381654e+04 -8.240309e+03
1.706933e+05 9.753372e+04 -1.523718e+04
1.811520e+05 8.504565e+04 -1.647008e+04
1.813633e+05 9.295141e+04 -1.234993e+04
1.764342e+05 9.244091e+04 -1.964259e+04
1.791197e+05 8.867437e+04 -2.469291e+04
1.716690e+05 8.786400e+04 -2.390267e+04
1.837166e+05 8.418670e+04 -2.472612e+04
1.753282e+05 8.235081e+04 -2.582986e+04
1.845970e+05 7.797490e+04 -3.045450e+04
1.814003e+05 7.703452e+04 -2.075374e+04
1.895067e+05 7.254202e+04 -2.502686e+04
1.892584e+05 8.055315e+04 -2.074320e+04
1.757586e+05 7.428329e+04 -2.841624e+04
1.735074e+05 7.352655e+04 -2.075050e+04
1.816138e+05 6.903406e+04 -2.502362e+04
1.685930e+05 6.843807e+04 -3.072617e+04
1.698120e+05 7.593104e+04 -2.612882e+04
1.621484e+05 7.449003e+04 -2.538193e+04
1.655395e+05 7.002664e+04 -2.072536e+04
1.605155e+05 8.194869e+04 -2.323701e+04
1.666707e+05 8.119111e+04 -2.449146e+04
1.691113e+05 8.078615e+04 -3.122219e+04
2.160407e+05 6.036466e+04 -4.416551e+04
2.131331e+05 5.128540e+04 -4.178655e+04
2.133646e+05 5.917468e+04 -3.767983e+04
2.066251e+05 5.747323e+04 -4.178483e+04
2.087016e+05 6.614043e+04 -3.858321e+04
2.054879e+05 5.566776e+04 -3.767983e+04
2.057194e+05 6.355703e+04 -3.357311e+04
2.212695e+05 6.267434e+04 -3.769028e+04
2.164191e+05 6.752998e+04 -3.900539e+04
2.136243e+05 6.705670e+04 -3.358356e+04
1.994448e+05 5.130365e+04 -4.397601e+04
2.005415e+05 6.016841e+04 -3.967548e+04
1.975951e+05 5.215979e+04 -3.767659e+04
1.908148e+05 5.808956e+04 -4.040221e+04
1.978266e+05 6.004907e+04 -3.356986e+04
2.097780e+05 8.086423e+04 -3.211248e+04
2.072274e+05 7.316344e+04 -3.510682e+04
2.146528e+05 7.439926e+04 -3.595483e+04
2.054712e+05 7.156816e+04 -2.928945e+04
2.133760e+05 7.506783e+04 -2.929990e+04
1.936590e+05 7.479265e+04 -3.214037e+04
1.998649e+05 6.815344e+04 -3.744708e+04
2.018758e+05 7.714793e+04 -3.248480e+04
1.976130e+05 6.804953e+04 -2.929998e+04
1.973648e+05 7.606066e+04 -2.501633e+04
1.914518e+05 6.612187e+04 -3.612704e+04
1.897202e+05 6.454156e+04 -2.929674e+04
2.049343e+05 7.281097e+04 -3.996885e+04
1.735490e+04 -2.728804e+04 -4.181370e+04
2.614385e+04 -2.566133e+04 -4.421188e+04
1.956570e+04 -1.875934e+04 -3.890179e+04
2.375382e+04 -3.297836e+04 -4.175842e+04
1.593902e+04 -2.864486e+04 -3.763764e+04
2.381569e+04 -2.513794e+04 -3.763764e+04
1.600089e+04 -2.080444e+04 -3.351685e+04
2.825272e+04 -1.659740e+04 -3.916302e+04
3.176514e+04 -2.159472e+04 -3.763558e+04
2.395034e+04 -1.726122e+04 -3.351479e+04
1.037029e+04 -3.323722e+04 -4.398547e+04
7.977484e+03 -3.235852e+04 -3.772675e+04
2.422626e+03 -2.724951e+04 -4.062026e+04
1.132961e+04 -2.426398e+04 -3.984759e+04
7.781862e+01 -2.823176e+04 -3.369507e+04
8.039352e+03 -2.451810e+04 -3.360596e+04
2.505655e+04 -1.058230e+04 -3.605740e+04
1.826047e+04 -4.369704e+03 -3.346056e+04
1.862387e+04 -1.269967e+04 -3.503848e+04
2.363521e+04 -9.264158e+03 -2.922285e+04
1.537063e+04 -4.810321e+03 -2.493297e+04
1.568576e+04 -1.280738e+04 -2.922491e+04
2.379733e+03 -9.524573e+03 -3.253371e+04
-3.776001e+02 -1.960295e+04 -3.749673e+04
1.041832e+04 -1.497732e+04 -3.800804e+04
-8.790737e+02 -1.220744e+04 -2.501857e+04
-4.006275e+02 -2.021960e+04 -2.935682e+04
7.560906e+03 -1.650594e+04 -2.926771e+04
1.062327e+04 -6.078801e+03 -3.247572e+04
7.245778e+03 -8.508882e+03 -2.497577e+04
-2.276499e+05 -1.369151e+05 -3.754135e+04
-2.252345e+05 -1.383453e+05 -4.515442e+04
-2.216854e+05 -1.326494e+05 -4.098913e+04
-2.267189e+05 -1.292094e+05 -3.774798e+04
-2.328985e+05 -1.315377e+05 -3.987700e+04
-2.352687e+05 -1.324335e+05 -3.338846e+04
-2.192911e+05 -1.324024e+05 -3.712409e+04
-2.185512e+05 -1.234082e+05 -3.255395e+04
-2.205528e+05 -1.245628e+05 -3.793335e+04
-2.269100e+05 -1.279208e+05 -3.297121e+04
-2.279077e+05 -1.449036e+05 -4.169423e+04
-2.342326e+05 -1.395734e+05 -4.247525e+04
-2.355265e+05 -1.404220e+05 -3.754135e+04
-2.424135e+05 -1.452495e+05 -4.295921e+04
-2.399189e+05 -1.368455e+05 -3.986627e+04
-2.475876e+05 -1.384613e+05 -3.890406e+04
-2.435184e+05 -1.440419e+05 -3.757388e+04
-2.432606e+05 -1.360533e+05 -3.342099e+04
-2.512525e+05 -1.396732e+05 -3.345353e+04
-2.522934e+05 -1.318755e+05 -3.672323e+04
-2.424346e+05 -1.295365e+05 -3.651466e+04
-2.487978e+05 -1.215856e+05 -3.179550e+04
-2.515248e+05 -1.316501e+05 -2.915787e+04
-2.435329e+05 -1.280302e+05 -2.912534e+04
-2.398769e+05 -1.203657e+05 -3.314057e+04
-2.358887e+05 -1.244436e+05 -2.902874e+04
-2.365088e+05 -1.164538e+05 -2.466902e+04
-2.441529e+05 -1.200403e+05 -2.476562e+04
-2.318066e+05 -1.228153e+05 -3.753217e+04
-2.327046e+05 -1.132399e+05 -3.225380e+04
-2.241176e+05 -1.182180e+05 -3.512196e+04
-2.275300e+05 -1.199310e+05 -2.861148e+04
-2.412823e+05 -1.314699e+05 -4.225576e+04
-2.842890e+05 -1.463142e+05 -3.718892e+04
-2.741396e+05 -1.436735e+05 -3.749827e+04
-2.811227e+05 -1.365280e+05 -3.235654e+04
-2.754272e+05 -1.504721e+05 -3.347228e+04
-2.836181e+05 -1.461312e+05 -2.925930e+04
-2.672362e+05 -1.469130e+05 -3.351859e+04
-2.754272e+05 -1.425722e+05 -2.930561e+04
-2.673788e+05 -1.547886e+05 -3.763894e+04
-2.734738e+05 -1.578309e+05 -4.247091e+04
-2.755698e+05 -1.583476e+05 -3.759263e+04
-2.719876e+05 -1.503999e+05 -3.963543e+04
-2.794428e+05 -1.527454e+05 -3.923763e+04
-2.729888e+05 -1.348525e+05 -3.233430e+04
-2.756995e+05 -1.345490e+05 -2.500996e+04
-2.675085e+05 -1.388899e+05 -2.922294e+04
-2.661181e+05 -1.531000e+05 -4.211577e+04
-2.579400e+05 -1.513353e+05 -4.367614e+04
-2.641661e+05 -1.441309e+05 -3.851620e+04
-2.596448e+05 -1.591572e+05 -4.175930e+04
-2.595022e+05 -1.512817e+05 -3.763894e+04
-2.556786e+05 -1.420993e+05 -3.900136e+04
-2.515103e+05 -1.476618e+05 -3.760641e+04
-2.592443e+05 -1.432931e+05 -3.348606e+04
-2.654513e+05 -1.306701e+05 -3.158133e+04
-2.673640e+05 -1.375573e+05 -3.476202e+04
-2.593481e+05 -1.355823e+05 -3.556030e+04
-2.595166e+05 -1.352700e+05 -2.919040e+04
-2.700073e+05 -1.381602e+05 -4.024496e+04
7.821585e+04 3.938351e+04 -1.638148e+04
7.024268e+04 3.588084e+04 -1.635658e+04
7.055456e+04 4.373717e+04 -1.228611e+04
6.768411e+04 4.130955e+04 -2.116899e+04
6.258139e+04 4.023450e+04 -1.226121e+04
5.960488e+04 3.955028e+04 -1.915403e+04
6.214733e+04 4.690783e+04 -1.695213e+04
6.626900e+04 5.321210e+04 -1.397588e+04
7.323811e+04 4.812956e+04 -1.906809e+04
7.846509e+04 4.725916e+04 -1.228611e+04
7.080381e+04 5.161282e+04 -8.190740e+03
7.540628e+04 5.534322e+04 -1.490034e+04
8.613399e+04 4.289717e+04 -1.638766e+04
8.638323e+04 5.077282e+04 -1.229229e+04
8.462801e+04 5.074954e+04 -2.262225e+04
8.098787e+04 4.111327e+04 -2.461584e+04
8.018648e+04 3.232108e+04 -2.808811e+04
8.836141e+04 3.418767e+04 -3.005894e+04
7.846966e+04 3.140023e+04 -2.065175e+04
8.637061e+04 3.490874e+04 -2.065661e+04
8.662443e+04 2.692546e+04 -2.492688e+04
7.228570e+04 2.676687e+04 -2.925859e+04
7.352455e+04 3.565873e+04 -2.531763e+04
6.548206e+04 3.325617e+04 -2.427153e+04
7.049649e+04 2.789757e+04 -2.062684e+04
8.902936e+04 4.265149e+04 -2.535807e+04
9.428875e+04 3.842240e+04 -2.066280e+04
7.151681e+04 4.394334e+04 -2.848858e+04
1.474037e+04 1.118380e+04 -1.634910e+04
7.126898e+03 1.554340e+04 -1.226182e+04
1.503743e+04 1.906539e+04 -1.226182e+04
1.159348e+04 1.981047e+04 -1.883142e+04
7.423952e+03 2.342499e+04 -8.174550e+03
4.535942e+03 2.476063e+04 -1.465425e+04
1.413088e+04 2.709210e+04 -1.503864e+04
-6.133921e+02 1.870115e+04 -1.623992e+04
4.539820e+03 1.409507e+04 -1.930810e+04
6.615522e+03 7.485241e+03 -1.639190e+04
-1.509329e+03 3.786680e+03 -1.643470e+04
-9.979533e+02 1.184484e+04 -1.230462e+04
-4.334328e+03 1.185125e+04 -2.084358e+04
2.263607e+04 1.473106e+04 -1.633229e+04
2.293312e+04 2.261265e+04 -1.224502e+04
2.053293e+04 2.179907e+04 -2.052097e+04
2.443704e+04 5.635999e+03 -3.065440e+04
1.711105e+04 1.312906e+04 -2.476967e+04
1.477819e+04 4.286877e+03 -2.858068e+04
2.300496e+04 6.729964e+03 -2.063898e+04
2.332008e+04 -1.267097e+03 -2.493092e+04
1.505550e+04 3.186740e+03 -2.064104e+04
2.602614e+04 1.654000e+04 -2.592787e+04
3.090065e+04 1.027722e+04 -2.062217e+04
6.414155e+03 9.401310e+03 -2.607082e+04
-1.409422e+03 5.182333e+03 -2.437899e+04
6.242154e+03 -3.775473e+02 -2.862844e+04
6.930650e+03 -5.118205e+02 -2.068383e+04
8.195492e+03 1.729203e+04 -2.612407e+04
-5.196478e+03 -3.771972e+04 -4.414244e+04
-7.922585e+03 -4.741952e+04 -4.193665e+04
-7.945582e+03 -3.978584e+04 -3.790498e+04
-1.470073e+04 -4.023264e+04 -4.212474e+04
-1.270666e+04 -3.167736e+04 -3.850192e+04
-1.582225e+04 -4.329276e+04 -3.790498e+04
-1.584525e+04 -3.565908e+04 -3.387330e+04
1.595103e+01 -3.607218e+04 -3.781586e+04
-5.112658e+03 -3.047204e+04 -3.900857e+04
-7.883715e+03 -3.194542e+04 -3.378419e+04
-2.254451e+04 -4.584789e+04 -4.261201e+04
-2.280757e+04 -3.661003e+04 -3.895576e+04
-3.143798e+04 -4.102473e+04 -3.970906e+04
-2.210781e+04 -4.711163e+04 -3.844315e+04
-2.213081e+04 -3.947796e+04 -3.441148e+04
-2.841637e+04 -4.329683e+04 -3.494965e+04
-2.970244e+04 -2.249943e+04 -3.265949e+04
-2.204331e+04 -2.929811e+04 -3.698936e+04
-2.108222e+04 -2.277296e+04 -3.227475e+04
-2.584362e+04 -3.201502e+04 -2.960338e+04
-2.632206e+04 -2.400286e+04 -2.526513e+04
-1.632369e+04 -2.764692e+04 -2.953505e+04
-1.680214e+04 -1.963476e+04 -2.519680e+04
-3.266889e+04 -3.119300e+04 -3.417695e+04
-3.212918e+04 -3.583390e+04 -3.014156e+04
-1.450381e+04 -1.679027e+04 -3.155507e+04
-1.513091e+04 -2.515915e+04 -3.442071e+04
-7.565825e+03 -2.363619e+04 -3.578394e+04
-8.362161e+03 -2.393326e+04 -2.944594e+04
-1.731561e+04 -2.494901e+04 -3.939208e+04
-2.515819e+04 9.257205e+02 -1.239022e+04
-2.669726e+04 8.038601e+03 -1.583241e+04
-3.214716e+04 3.602753e+03 -1.886921e+04
-2.751040e+04 -2.729683e+03 -2.280964e+04
-2.133640e+04 3.813990e+03 -2.053977e+04
-1.775903e+04 -3.610440e+03 -1.652029e+04
-3.467811e+04 -3.442379e+03 -1.245855e+04
-2.727896e+04 -7.978540e+03 -1.658862e+04
-3.586669e+04 -3.934716e+03 -2.126422e+04
-1.724766e+04 4.447715e+03 -1.239022e+04
-2.464681e+04 8.983876e+03 -8.260145e+03
-1.937850e+04 1.386760e+04 -1.787317e+04
-9.634181e+03 8.812010e+01 -1.647749e+04
-9.122805e+03 8.146275e+03 -1.234742e+04
-1.221765e+04 5.601307e+03 -2.110368e+04
-3.095200e+04 -1.042601e+04 -2.469268e+04
-2.384402e+04 -1.615833e+04 -2.868571e+04
-2.237903e+04 -7.921831e+03 -2.518366e+04
-2.680051e+04 -1.599070e+04 -2.092688e+04
-1.728059e+04 -1.162260e+04 -2.085854e+04
-1.486075e+04 -2.652690e+03 -2.442897e+04
-1.564683e+04 -1.069144e+04 -2.755703e+04
-7.587932e+03 -8.799097e+03 -2.985883e+04
-9.319053e+03 -7.908941e+03 -2.076943e+04
-8.840607e+03 -1.592110e+04 -2.510768e+04
-7.192055e+03 -7.250651e+02 -2.496027e+04
-1.194201e+03 -4.210381e+03 -2.072663e+04
-2.305739e+04 -1.506212e+02 -2.886090e+04
-4.890019e+04 -4.965165e+04 -3.855571e+04
-4.508088e+04 -5.606157e+04 -4.312010e+04
-4.193942e+04 -4.944559e+04 -3.959862e+04
-4.975532e+04 -5.860555e+04 -3.801300e+04
-4.818722e+04 -5.128383e+04 -3.451950e+04
-4.255561e+04 -5.825630e+04 -3.951950e+04
-4.098750e+04 -5.093458e+04 -3.602600e+04
-4.494761e+04 -4.117432e+04 -3.691654e+04
-5.190002e+04 -4.382089e+04 -2.971141e+04
-4.470031e+04 -4.347165e+04 -3.121791e+04
-3.537072e+04 -5.241247e+04 -4.364156e+04
-3.678393e+04 -4.544864e+04 -3.906878e+04
-2.839338e+04 -5.093051e+04 -3.898133e+04
-3.467894e+04 -5.474938e+04 -3.951950e+04
-3.470194e+04 -4.711571e+04 -3.548783e+04
-3.624705e+04 -6.207111e+04 -4.301300e+04
-3.841474e+04 -3.965277e+04 -3.067973e+04
-2.377488e+05 -1.004741e+05 -1.594957e+04
-2.455242e+05 -9.637601e+04 -1.196218e+04
-2.376137e+05 -9.285402e+04 -1.196218e+04
-2.407473e+05 -9.579298e+04 -2.137777e+04
-2.453891e+05 -8.875590e+04 -7.974785e+03
-2.485066e+05 -9.025459e+04 -1.577238e+04
-2.400526e+05 -8.712846e+04 -1.543176e+04
-2.453930e+05 -1.040607e+05 -1.604617e+04
-2.531684e+05 -9.996256e+04 -1.205878e+04
-2.510668e+05 -9.802709e+04 -1.995659e+04
-2.253023e+05 -9.270895e+04 -1.477675e+04
-2.315255e+05 -9.659154e+04 -1.536316e+04
-2.313904e+05 -8.897143e+04 -1.137577e+04
-2.324740e+05 -8.944358e+04 -2.004968e+04
-2.479686e+05 -1.055251e+05 -2.416407e+04
-2.407590e+05 -1.044102e+05 -2.449047e+04
-2.419999e+05 -1.127527e+05 -2.887580e+04
-2.371288e+05 -1.084640e+05 -2.030929e+04
-2.447729e+05 -1.120505e+05 -2.040589e+04
-2.345968e+05 -1.075665e+05 -2.727388e+04
-2.341706e+05 -1.011376e+05 -2.338660e+04
-2.267937e+05 -1.045160e+05 -2.882940e+04
-2.281500e+05 -1.119411e+05 -2.425176e+04
-2.197913e+05 -1.074285e+05 -2.383451e+04
-2.287701e+05 -1.039513e+05 -1.989204e+04
-2.293453e+05 -9.569868e+04 -2.416702e+04
-2.225468e+05 -1.000687e+05 -1.930563e+04
-1.935066e+05 -1.197439e+05 -4.239360e+04
-1.946970e+05 -1.198702e+05 -3.628958e+04
-1.866365e+05 -1.183648e+05 -3.738845e+04
-2.018577e+05 -1.156424e+05 -3.792245e+04
-1.938791e+05 -1.111944e+05 -3.862377e+04
-2.018338e+05 -1.143829e+05 -3.171944e+04
-1.937733e+05 -1.128775e+05 -3.281831e+04
-1.857128e+05 -1.113722e+05 -3.391717e+04
-1.954369e+05 -1.288644e+05 -4.085972e+04
-2.032640e+05 -1.239290e+05 -4.135646e+04
-2.025736e+05 -1.233771e+05 -3.628958e+04
-2.109324e+05 -1.278898e+05 -3.670684e+04
-2.101925e+05 -1.188955e+05 -3.213670e+04
-2.128621e+05 -1.185599e+05 -3.874831e+04
-2.170189e+05 -1.132796e+05 -3.437274e+04
-2.092251e+05 -1.107570e+05 -3.481736e+04
-2.171567e+05 -1.050226e+05 -3.032399e+04
-2.191713e+05 -1.154183e+05 -2.819423e+04
-2.108125e+05 -1.109057e+05 -2.777698e+04
-2.096822e+05 -1.033829e+05 -3.097718e+04
-2.045892e+05 -1.070231e+05 -2.719057e+04
-2.073447e+05 -9.966331e+04 -2.266169e+04
-2.135680e+05 -1.035459e+05 -2.324810e+04
-1.953307e+05 -9.918150e+04 -3.248664e+04
-2.020330e+05 -1.069187e+05 -3.509956e+04
-1.939871e+05 -1.063398e+05 -3.424895e+04
-1.931439e+05 -9.880206e+04 -2.554222e+04
-1.974888e+05 -1.065925e+05 -2.863083e+04
-1.894283e+05 -1.050871e+05 -2.972969e+04
-2.038454e+05 -9.895472e+04 -3.005813e+04
-2.002443e+05 -9.923269e+04 -2.410195e+04
-2.189439e+05 -8.120624e+04 -1.020295e+04
-2.219262e+05 -7.322442e+04 -1.172869e+04
-2.254551e+05 -7.914820e+04 -1.439677e+04
-2.208751e+05 -8.386905e+04 -1.776751e+04
-2.169725e+05 -7.813621e+04 -1.661968e+04
-2.128557e+05 -8.494376e+04 -1.360393e+04
-2.190790e+05 -8.882636e+04 -1.419034e+04
-2.251671e+05 -8.508883e+04 -1.078936e+04
-2.267258e+05 -8.623838e+04 -1.693295e+04
-2.110333e+05 -7.768425e+04 -1.020295e+04
-2.171215e+05 -7.394672e+04 -6.801967e+03
-2.127883e+05 -7.089290e+04 -1.352815e+04
-2.057553e+05 -8.451314e+04 -1.504420e+04
-2.039329e+05 -7.725362e+04 -1.164322e+04
-1.986548e+05 -8.408252e+04 -1.648446e+04
-2.088575e+05 -7.715618e+04 -1.802613e+04
-2.132975e+05 -9.664733e+04 -2.814086e+04
-2.147222e+05 -8.851270e+04 -2.271360e+04
-2.223654e+05 -9.082417e+04 -2.192801e+04
-2.101002e+05 -9.230354e+04 -1.813281e+04
-2.163235e+05 -9.618613e+04 -1.871922e+04
-2.078128e+05 -8.610506e+04 -2.291701e+04
-2.069403e+05 -9.245709e+04 -2.576197e+04
-2.002705e+05 -8.711070e+04 -2.506835e+04
-2.029998e+05 -9.187291e+04 -1.957308e+04
-2.047184e+05 -8.094413e+04 -2.295873e+04
-2.127439e+05 -8.063423e+04 -2.249574e+04
-2.116374e+05 -8.370697e+04 -2.811808e+04
-1.653049e+05 -9.970719e+04 -3.837378e+04
-1.734650e+05 -9.665663e+04 -3.524228e+04
-1.722287e+05 -1.044824e+05 -3.938166e+04
-1.682438e+05 -9.692356e+04 -3.039870e+04
-1.645283e+05 -1.032086e+05 -3.458617e+04
-1.770229e+05 -9.579137e+04 -2.773994e+04
-1.733074e+05 -1.020764e+05 -3.192742e+04
-1.695919e+05 -1.083615e+05 -3.611489e+04
-1.575753e+05 -1.066944e+05 -3.805745e+04
-1.638232e+05 -1.091191e+05 -4.416814e+04
-1.626389e+05 -1.118472e+05 -3.958617e+04
-1.635626e+05 -1.188399e+05 -4.305745e+04
-1.717405e+05 -1.122820e+05 -4.261502e+04
-1.705156e+05 -1.153541e+05 -3.958617e+04
-1.785776e+05 -1.177795e+05 -4.403963e+04
-1.785760e+05 -1.168595e+05 -3.848731e+04
-1.849870e+05 -1.117367e+05 -4.030689e+04
-1.769087e+05 -1.107599e+05 -4.042864e+04
-1.776523e+05 -1.098668e+05 -3.501603e+04
-1.799381e+05 -9.938376e+04 -3.456651e+04
-1.872045e+05 -1.046659e+05 -3.608305e+04
-1.796251e+05 -1.056920e+05 -3.728183e+04
-1.813679e+05 -1.035818e+05 -3.082856e+04
-1.798029e+05 -1.053399e+05 -4.219175e+04
-1.756749e+05 -8.435346e+04 -2.202375e+04
-1.684119e+05 -8.449961e+04 -3.213739e+04
-1.704450e+05 -7.507255e+04 -2.718891e+04
-1.797739e+05 -7.289412e+04 -2.357370e+04
-1.778440e+05 -8.229184e+04 -2.845994e+04
-1.844540e+05 -8.322127e+04 -1.936499e+04
-1.723382e+05 -7.605900e+04 -1.843250e+04
-1.811173e+05 -7.492682e+04 -1.577375e+04
-1.743881e+05 -6.551261e+04 -1.993366e+04
-1.766501e+05 -8.947456e+04 -3.146602e+04
-1.719593e+05 -9.063851e+04 -2.621122e+04
-1.807384e+05 -8.950632e+04 -2.355247e+04
-1.830345e+05 -6.480307e+04 -1.772760e+04
-1.885715e+05 -7.062929e+04 -2.202021e+04
-1.897320e+05 -7.639238e+04 -1.452375e+04
-1.863954e+05 -6.809792e+04 -1.093250e+04
-1.915890e+05 -6.320121e+04 -1.517441e+04
-1.982462e+05 -6.731651e+04 -1.690084e+04
-1.944717e+05 -7.475304e+04 -2.150896e+04
-1.968325e+05 -7.682300e+04 -1.308348e+04
-1.915544e+05 -8.365189e+04 -1.792473e+04
-2.030032e+05 -7.402593e+04 -1.985434e+04
-1.857033e+05 -8.552125e+04 -2.846035e+04
-1.926294e+05 -9.196723e+04 -2.914682e+04
-1.828955e+05 -9.274527e+04 -3.310946e+04
-1.887989e+05 -9.101167e+04 -2.245361e+04
-1.850834e+05 -9.729672e+04 -2.664108e+04
-1.934324e+05 -8.501064e+04 -2.602871e+04
-1.958994e+05 -9.144229e+04 -2.101334e+04
-1.993286e+05 -7.903282e+04 -2.578072e+04
-1.903976e+05 -7.914676e+04 -2.684356e+04
-1.847391e+05 -7.549175e+04 -3.130452e+04
-2.895919e+05 -1.736388e+05 -4.632936e+04
-2.818204e+05 -1.613575e+05 -4.378283e+04
-2.908495e+05 -1.105361e+05 -1.419153e+04
-2.848553e+05 -9.659898e+04 -1.086658e+04
-2.827150e+05 -1.285607e+05 -2.809417e+04
-2.568623e+05 -9.176488e+04 -1.654501e+04
2.925832e+05 1.592484e+05 -9.789529e+03
2.879955e+05 1.722629e+05 -6.630013e+03
2.719841e+05 1.422084e+05 -1.670722e+04
2.871117e+05 9.087840e+04 -4.222128e+04
2.959939e+05 9.591975e+04 -4.554234e+04
2.792204e+05 7.913217e+04 -4.641309e+04
2.539744e+05 7.804961e+04 -4.247331e+04
2.658127e+05 8.340105e+04 -4.571323e+04
2.782015e+05 1.116032e+05 -3.335337e+04
-2.895124e+05 -1.418247e+05 -3.301682e+04
-2.850500e+05 -1.505520e+05 -4.180797e+04
-2.862470e+05 -1.298598e+05 -3.461845e+04
-2.573318e+05 -1.590069e+05 -4.634544e+04
-2.580747e+05 -1.260873e+05 -3.302226e+04
2.855350e+05 1.234729e+05 -2.839757e+04
2.560265e+05 1.421164e+05 -1.282475e+04
2.720155e+05 1.333708e+05 -2.793016e+04
2.549809e+05 1.091320e+05 -2.813928e+04
-1.676100e+05 -6.863539e+04 -2.192886e+04
-1.682477e+05 -9.227907e+04 -3.464319e+04
-1.298014e+05 -9.125420e+04 -4.085561e+04
-1.387325e+05 -6.168719e+04 -2.678063e+04
-1.114066e+05 -8.123955e+04 -4.042748e+04
-1.329550e+05 -1.027426e+05 -4.576227e+04
-1.748328e+05 -5.615730e+04 -2.037146e+04
-1.865688e+05 -5.778427e+04 -1.290703e+04
-1.583441e+05 -5.701244e+04 -1.899786e+04
-1.597763e+05 -4.669363e+04 -1.862677e+04
-1.632879e+05 -4.118976e+04 -8.556507e+03
-1.487119e+05 -5.291535e+04 -2.527001e+04
-1.587861e+05 -1.020304e+05 -4.269662e+04
-1.878391e+05 -9.827332e+04 -3.264961e+04
-1.790774e+05 -9.010512e+04 -3.741650e+04
-1.460956e+05 -9.550628e+04 -4.386532e+04
-1.618745e+05 -1.163430e+05 -4.680063e+04
-1.312588e+05 -4.621055e+04 -1.974730e+04
-1.340833e+05 -4.761994e+04 -2.607147e+04
-7.658307e+04 -2.796951e+04 -2.404206e+04
-5.281608e+04 -4.226595e+04 -3.639197e+04
-5.098601e+04 -5.872717e+04 -4.271641e+04
-6.937918e+04 -6.976072e+04 -4.461731e+04
-6.015122e+04 -5.706441e+04 -4.476837e+04
-3.744254e+04 -5.922967e+04 -4.557866e+04
-4.179469e+04 -5.722340e+04 -4.715570e+04
-8.555724e+04 -4.003622e+04 -2.719011e+04
-7.885554e+04 -1.289959e+04 -1.567724e+04
-7.916059e+04 -1.569666e+04 -2.232677e+04
-8.661458e+04 -4.816399e+04 -3.652776e+04
-8.157795e+04 -6.871186e+04 -4.134383e+04
-9.202565e+04 -7.065116e+04 -4.489654e+04
-1.011558e+05 -8.513294e+04 -4.611140e+04
-7.433157e+04 -6.814846e+04 -4.666560e+04
-4.157779e+04 -3.505617e+04 -3.410179e+04
-9.542829e+04 -2.796169e+04 -2.480912e+04
-1.060409e+05 -3.405357e+04 -1.915829e+04
-1.865183e+05 -4.760932e+04 -6.987047e+03
-2.063531e+05 -6.658198e+04 -1.457355e+04
-1.867848e+05 -4.653535e+04 -1.255600e+04
-1.554049e+05 -3.248171e+04 -4.501890e+03
-1.615043e+05 -3.615070e+04 -1.298846e+04
-1.089648e+05 -1.764793e+04 -1.026010e+04
-9.578766e+04 -6.155326e+03 -5.839510e+03
-7.094941e+04 -1.115674e+04 -2.412898e+04
-5.947327e+04 1.337664e+03 -1.164913e+04
-1.258161e+05 -2.011262e+04 -7.181868e+03
-1.182568e+05 -4.961852e+04 -2.631006e+04
-1.242366e+05 -4.936285e+04 -3.032255e+04
-1.357350e+05 -2.884692e+04 -8.998512e+03
2.462574e+05 6.592869e+04 -4.639715e+04
2.480647e+05 9.745444e+04 -3.304453e+04
2.243339e+05 6.278756e+04 -4.234835e+04
2.161920e+05 5.134911e+04 -4.645141e+04
2.031698e+05 5.575615e+04 -4.584505e+04
1.922823e+05 4.912900e+04 -4.224929e+04
2.169313e+05 8.248571e+04 -3.315587e+04
1.845235e+05 3.716895e+04 -4.644170e+04
1.719600e+05 4.050391e+04 -4.584812e+04
1.598637e+05 3.578063e+04 -4.235639e+04
1.855751e+05 6.951663e+04 -3.303875e+04
1.529334e+05 2.300876e+04 -4.617671e+04
1.521429e+05 2.860961e+04 -4.699015e+04
1.581560e+05 4.522297e+04 -4.266067e+04
1.536331e+05 5.391803e+04 -3.312968e+04
1.287483e+05 2.118908e+04 -4.385403e+04
1.213541e+05 8.827345e+03 -4.647317e+04
9.750830e+04 6.922780e+03 -4.222826e+04
1.082727e+05 1.303572e+04 -4.585195e+04
1.217338e+05 4.147006e+04 -3.282495e+04
8.990485e+04 -4.920207e+03 -4.642478e+04
6.516668e+04 -6.300490e+03 -4.231679e+04
7.731559e+04 -1.497940e+03 -4.581039e+04
9.002782e+04 2.659867e+04 -3.269832e+04
5.830018e+04 -1.907080e+04 -4.617153e+04
5.738038e+04 -1.349500e+04 -4.696152e+04
5.805893e+04 1.257773e+04 -3.280827e+04
6.298569e+04 3.901489e+03 -4.253859e+04
3.434273e+04 -2.120866e+04 -4.366795e+04
2.682534e+04 -3.327245e+04 -4.648439e+04
3.106198e+03 -3.537424e+04 -4.229502e+04
1.437990e+04 -2.904599e+04 -4.583751e+04
2.663862e+04 -2.172835e+03 -3.310280e+04
3.182254e+04 -1.053051e+04 -4.236175e+04
-4.930066e+03 -4.692374e+04 -4.642377e+04
-2.838070e+04 -5.080643e+04 -4.412180e+04
-5.717320e+03 -1.570496e+04 -3.273932e+04
-1.856905e+05 -1.193380e+05 -4.236035e+04
-1.757478e+05 -1.132818e+05 -4.609314e+04
-1.951398e+05 -1.283010e+05 -4.517138e+04
-2.118946e+05 -1.277595e+05 -4.236647e+04
-2.205895e+05 -1.317140e+05 -4.468863e+04
-2.252872e+05 -1.453908e+05 -4.645231e+04
-2.240071e+05 -1.111258e+05 -3.171530e+04
-2.502543e+05 -1.461949e+05 -4.177982e+04
-2.425293e+05 -1.468993e+05 -4.707854e+04
-2.536629e+05 -1.472045e+05 -4.555883e+04
-2.525881e+05 -1.357579e+05 -4.170488e+04
-2.475778e+05 -8.117922e+04 -1.217926e+04
-2.332095e+05 -8.210329e+04 -1.570712e+04
-2.573160e+05 -9.772333e+04 -2.663979e+04
-2.501162e+05 -1.133875e+05 -2.779378e+04
-2.207528e+05 -6.567543e+04 -9.644412e+03
-2.214420e+05 -9.814441e+04 -2.601674e+04
-2.273945e+05 -5.741794e+04 -7.230931e+03
-2.130377e+05 -6.375926e+04 -1.719226e+04
-1.996784e+05 -9.385926e+04 -2.798812e+04
-1.975633e+05 -8.317307e+04 -3.094313e+04
-4.276670e+04 2.333962e+03 -1.821596e+04
-2.633889e+04 1.633141e+04 -1.067607e+04
-3.235082e+04 -1.775362e+04 -2.820950e+04
-4.267248e+04 -5.032775e+03 -2.825034e+04
-1.031511e+04 1.677565e+04 -1.600672e+04
6.517030e+03 3.083511e+04 -1.201225e+04
-3.871706e+03 3.026191e+04 -1.642834e+04
2.138757e+04 3.183748e+04 -1.730608e+04
-9.644245e+02 -2.821774e+03 -2.775505e+04
-1.028409e+04 4.661252e+03 -2.931635e+04
3.698069e+04 4.713240e+04 -1.060463e+04
3.234728e+04 1.157233e+04 -2.845256e+04
2.079589e+04 2.377026e+04 -2.799194e+04
3.330353e+04 5.906535e+04 -7.994775e+03
5.108605e+04 4.525763e+04 -1.722036e+04
6.410816e+04 2.564923e+04 -2.810823e+04
6.762040e+04 6.194215e+04 -1.172858e+04
8.347362e+04 5.960005e+04 -1.761090e+04
1.023262e+05 7.403648e+04 -1.008333e+04
9.622687e+04 3.889660e+04 -2.959916e+04
9.840362e+04 8.725920e+04 -7.410189e+03
1.183235e+05 7.244503e+04 -1.512084e+04
1.292610e+05 9.004881e+04 -1.036572e+04
1.521133e+05 9.136609e+04 -1.510401e+04
1.275741e+05 5.444075e+04 -2.779645e+04
1.599647e+05 6.696328e+04 -2.878577e+04
1.516782e+05 8.887235e+04 -2.438743e+04
1.606479e+05 1.024468e+05 -1.120314e+04
1.530122e+05 1.108814e+05 -8.111032e+03
1.771261e+05 1.038262e+05 -1.473903e+04
1.702126e+05 1.053052e+05 -1.842335e+04
1.940865e+05 1.186937e+05 -9.600430e+03
1.923046e+05 8.081955e+04 -2.742433e+04
1.904413e+05 1.299296e+05 -6.519572e+03
2.162410e+05 1.155298e+05 -1.502090e+04
2.245452e+05 1.270368e+05 -1.104226e+04
2.471100e+05 1.305705e+05 -1.607696e+04
2.231013e+05 9.626441e+04 -2.875100e+04
2.474535e+05 1.272193e+05 -2.548590e+04
4.552724e+04 1.755310e+04 -3.431331e+04
6.183166e+04 2.439334e+04 -3.515957e+04
2.974666e+04 9.899221e+03 -3.573420e+04
7.142548e+03 2.392551e+03 -3.527256e+04
7.412264e+04 2.471156e+04 -3.724782e+04
-3.335771e+04 -2.454384e+04 -3.817600e+04
-2.102507e+04 -1.687830e+04 -3.524046e+04
-2.526761e+05 -1.139782e+05 -3.468258e+04
-2.400758e+05 -1.137640e+05 -3.653588e+04
2.051145e+05 8.367134e+04 -3.675795e+04
2.206929e+05 9.486908e+04 -3.631771e+04
2.531080e+05 1.074960e+05 -3.421568e+04
1.734227e+05 7.302644e+04 -3.522325e+04
1.532424e+05 5.888810e+04 -3.740516e+04
1.251421e+05 5.393063e+04 -3.460786e+04
-4.016331e+03 -3.215417e+03 -3.445413e+04
-2.231365e+05 -9.889308e+04 -3.258310e+04
-2.085798e+05 -9.259610e+04 -3.205548e+04
-1.977854e+05 -9.257692e+04 -3.409307e+04
-1.127960e+03 -1.814572e+05 0.000000e+00
-3.623044e+04 -1.830439e+05 0.000000e+00
-1.967753e+04 -1.540812e+05 -2.715467e+04
-1.149088e+04 -1.776245e+05 -2.801834e+04
1.655215e+04 -1.882549e+05 -2.490160e+04
-2.346663e+02 -2.026621e+05 -2.473822e+04
-4.704870e+04 -1.686952e+05 -2.391123e+04
1.507898e+03 -1.867090e+05 -5.000000e+04
-2.905722e+04 -1.982695e+05 -2.633814e+04
4.379323e+03 -1.563016e+05 -5.000000e+04
1.358708e+04 -1.636745e+05 -2.533049e+04
-2.780264e+04 -1.745422e+05 -5.000000e+04
-2.389493e+04 -1.479776e+05 0.000000e+00
-4.007590e+04 -1.293670e+05 -2.456501e+04
-1.042562e+04 -1.145137e+05 -2.470107e+04
-2.323734e+04 -1.352864e+05 -5.000000e+04
8.354522e+03 -1.362308e+05 -2.556724e+04
-1.825435e+05 -2.095705e+05 0.000000e+00
-1.957390e+05 -1.964312e+05 -2.560559e+04
-2.066299e+05 -1.802082e+05 0.000000e+00
-1.658735e+05 -1.855553e+05 -2.212876e+04
-1.620099e+05 -1.718467e+05 0.000000e+00
-1.885222e+05 -1.446356e+05 0.000000e+00
-1.584150e+05 -1.579035e+05 -1.693846e+04
-1.452588e+05 -1.577182e+05 -5.000000e+04
-1.338842e+05 -1.701257e+05 -2.600625e+04
9.630708e+04 -5.159042e+04 0.000000e+00
6.805042e+04 -3.163741e+04 0.000000e+00
9.978255e+04 -1.761209e+04 0.000000e+00
8.889354e+04 -3.441109e+04 -1.860677e+04
-1.307545e+05 -1.842458e+05 0.000000e+00
-1.486168e+05 -2.094642e+05 0.000000e+00
-1.309242e+05 -1.998763e+05 -2.476030e+04
-1.663900e+05 -2.169151e+05 -2.456060e+04
1.309988e+05 -9.965142e+04 -5.000000e+04
1.529342e+05 -1.205674e+05 -5.000000e+04
1.533697e+05 -9.835552e+04 -2.507272e+04
1.311413e+05 -1.163606e+05 -2.640834e+04
1.062158e+05 -9.522394e+04 -2.469926e+04
9.965452e+04 -1.132342e+05 -5.000000e+04
1.514908e+05 -1.202100e+05 0.000000e+00
1.652281e+05 -1.263157e+05 -2.454820e+04
1.383034e+05 -1.435857e+05 -2.508744e+04
1.196355e+05 -1.457921e+05 0.000000e+00
1.053897e+05 -1.332899e+05 -2.384401e+04
1.235267e+05 -1.050397e+05 0.000000e+00
1.811023e+05 -1.002169e+05 0.000000e+00
1.905252e+05 -8.906785e+04 -2.520903e+04
1.958226e+05 -1.247323e+05 -2.519850e+04
2.076942e+05 -1.114705e+05 -5.000000e+04
2.235991e+05 -1.054275e+05 -2.512058e+04
2.097709e+05 -1.488215e+05 -5.000000e+04
2.243787e+05 -1.404027e+05 -2.507883e+04
2.107803e+05 -1.163755e+05 0.000000e+00
-1.532454e+04 -2.107821e+05 -5.000000e+04
-4.755199e+03 -2.271640e+05 -2.360156e+04
1.662803e+04 -2.114951e+05 -5.000000e+04
-1.697737e+04 -2.116279e+05 0.000000e+00
1.657722e+04 -2.114673e+05 0.000000e+00
3.111407e+04 -2.117977e+05 -2.580723e+04
2.406367e+05 -2.004094e+05 0.000000e+00
2.730117e+05 -2.003685e+05 -2.521785e+04
2.503662e+05 -2.239484e+05 -2.507553e+04
2.504495e+05 -1.849249e+05 -2.508493e+04
2.704022e+05 -1.828984e+05 0.000000e+00
2.529791e+05 -1.549260e+05 -2.506286e+04
2.777779e+05 -1.660568e+05 -2.514332e+04
2.408306e+05 -1.989031e+05 -5.000000e+04
2.703239e+05 -1.810600e+05 -5.000000e+04
2.406549e+05 -1.645452e+05 -5.000000e+04
2.242210e+05 -1.741080e+05 -2.501331e+04
2.778750e+05 -1.322964e+05 -2.510287e+04
2.705459e+05 -1.156917e+05 0.000000e+00
2.529703e+05 -1.214379e+05 -2.510211e+04
2.777566e+05 -9.843234e+04 -2.511929e+04
2.703826e+05 -1.468747e+05 -5.000000e+04
2.705175e+05 -1.492446e+05 0.000000e+00
-1.160487e+05 -2.110006e+05 0.000000e+00
-1.029018e+05 -1.904913e+05 -2.501632e+04
-8.524787e+04 -1.643145e+05 -5.000000e+04
-7.677463e+04 -1.737554e+05 -2.346463e+04
-1.032825e+05 -1.577524e+05 -2.525865e+04
-8.449341e+04 -2.048828e+05 -5.000000e+04
-1.164948e+05 -2.123864e+05 -5.000000e+04
-1.002977e+05 -2.180747e+05 -2.490035e+04
-1.158772e+05 -1.798829e+05 -5.000000e+04
2.535097e+05 -2.703111e+05 -5.000000e+04
2.719493e+05 -2.696894e+05 -3.453763e+04
2.541465e+05 -2.518674e+05 -2.501695e+04
2.375506e+05 -2.767926e+05 -2.477049e+04
2.535454e+05 -2.705286e+05 0.000000e+00
2.016604e+05 -2.778973e+05 -2.471035e+04
2.173941e+05 -2.703004e+05 0.000000e+00
2.175752e+05 -2.701459e+05 -5.000000e+04
2.252963e+05 -2.525230e+05 -2.496740e+04
-1.833187e+05 -2.705862e+05 0.000000e+00
-1.886989e+05 -2.518300e+05 -2.502860e+04
-1.671953e+05 -2.723436e+05 -2.508253e+04
-2.012139e+05 -2.773097e+05 -2.496354e+04
-2.173900e+05 -2.702636e+05 0.000000e+00
-2.247004e+05 -2.500623e+05 -2.500301e+04
-1.832524e+05 -2.702226e+05 -5.000000e+04
-2.171764e+05 -2.700903e+05 -5.000000e+04
9.265337e+04 -1.205714e+05 0.000000e+00
1.509936e+05 -2.108833e+05 0.000000e+00
1.334137e+05 -2.410421e+05 0.000000e+00
1.242578e+05 -2.293296e+05 -2.507861e+04
1.520557e+05 -2.254537e+05 -2.506902e+04
1.516597e+05 -2.095877e+05 -5.000000e+04
1.353564e+05 -1.975221e+05 -2.507739e+04
1.655423e+05 -1.940843e+05 -2.529537e+04
1.784667e+05 -2.253060e+05 -2.507412e+04
1.581084e+05 -2.524047e+05 -2.497510e+04
1.335117e+05 -2.408767e+05 -5.000000e+04
9.928943e+04 -1.829074e+05 -5.000000e+04
8.873972e+04 -1.675528e+05 -2.391192e+04
1.059412e+05 -1.972273e+05 -2.501044e+04
1.180571e+05 -1.661224e+05 -2.638919e+04
1.345147e+05 -1.806275e+05 0.000000e+00
1.580514e+05 -1.631789e+05 -2.509678e+04
1.536207e+05 -1.476517e+05 -5.000000e+04
1.277974e+05 -1.342280e+05 -5.000000e+04
1.319169e+05 -1.740827e+05 -5.000000e+04
9.839410e+04 -1.499788e+05 -5.000000e+04
1.834350e+05 -2.705710e+05 0.000000e+00
1.914099e+05 -2.534636e+05 -2.499074e+04
2.704106e+05 -1.505843e+04 0.000000e+00
2.774079e+05 3.434389e+03 -2.489849e+04
2.673339e+05 -8.773255e+03 -5.000000e+04
2.513451e+05 -1.841127e+04 -2.482321e+04
2.770968e+05 -3.054299e+04 -2.526552e+04
2.538439e+05 1.646114e+04 -2.189142e+04
2.698436e+05 -2.167987e+05 0.000000e+00
2.772737e+05 -2.345731e+05 -2.522433e+04
2.716612e+05 -2.457270e+05 0.000000e+00
2.722384e+05 -2.694888e+05 -1.543937e+04
2.716315e+05 -2.450115e+05 -5.000000e+04
1.512781e+05 -1.521233e+05 0.000000e+00
-2.374457e+05 -2.761580e+05 -2.483929e+04
-2.534618e+05 -2.703605e+05 0.000000e+00
-2.545869e+05 -2.509781e+05 -2.493914e+04
-2.723446e+05 -2.691875e+05 -1.535089e+04
-2.722053e+05 -2.691584e+05 -3.443633e+04
-2.533403e+05 -2.697207e+05 -5.000000e+04
1.245850e+05 -7.060436e+04 0.000000e+00
1.332749e+05 -8.023427e+04 -2.324855e+04
9.450035e+04 -8.584248e+04 0.000000e+00
7.927705e+04 -1.084516e+05 -2.324020e+04
7.145792e+04 -9.248022e+04 -5.000000e+04
2.399703e+05 -3.147499e+04 0.000000e+00
2.209642e+05 -1.670684e+03 -2.391065e+04
2.394289e+05 2.469077e+03 0.000000e+00
1.030132e+05 -7.848433e+04 -5.000000e+04
2.683402e+05 -4.355119e+04 -5.000000e+04
2.516771e+05 -5.289256e+04 -2.516011e+04
2.773953e+05 -6.449955e+04 -2.517203e+04
2.704824e+05 -4.861876e+04 0.000000e+00
-8.333281e+04 -2.706014e+05 0.000000e+00
-9.207022e+04 -2.531554e+05 -2.509660e+04
-6.791807e+04 -2.781267e+05 -2.498543e+04
-1.012810e+05 -2.780696e+05 -2.518053e+04
-8.333267e+04 -2.705165e+05 -5.000000e+04
-1.166574e+05 -2.705809e+05 0.000000e+00
-1.345333e+05 -2.778809e+05 -2.510760e+04
-1.234974e+05 -2.547490e+05 -2.508606e+04
2.671284e+05 2.588542e+04 -5.000000e+04
2.788674e+05 3.879871e+04 -2.782150e+04
2.702163e+05 1.859918e+04 0.000000e+00
2.598251e+05 5.274410e+04 -1.443777e+04
2.705232e+05 -8.215557e+04 0.000000e+00
2.524920e+05 -8.727189e+04 -2.516477e+04
2.697644e+05 -7.840924e+04 -5.000000e+04
2.702406e+05 -1.127215e+05 -5.000000e+04
1.505399e+04 -1.512482e+05 0.000000e+00
4.237287e+04 -1.404981e+05 -2.305172e+04
4.593392e+04 -1.721985e+05 -2.493025e+04
3.300855e+04 -1.817951e+05 0.000000e+00
-5.000003e+04 -2.706038e+05 0.000000e+00
-1.666668e+04 -2.706045e+05 0.000000e+00
-3.451753e+04 -2.782437e+05 -2.475436e+04
-2.379971e+04 -2.541926e+05 -2.489308e+04
-1.382970e+03 -2.786241e+05 -2.474145e+04
-4.998371e+04 -2.705598e+05 -5.000000e+04
-1.664547e+04 -2.705812e+05 -5.000000e+04
1.679250e+05 -2.777208e+05 -2.472949e+04
1.500394e+05 -2.705880e+05 -5.000000e+04
1.354112e+05 -2.707330e+05 -2.485734e+04
1.834560e+05 -2.705510e+05 -5.000000e+04
-1.166537e+05 -2.702626e+05 -5.000000e+04
-1.499502e+05 -2.699433e+05 -5.000000e+04
-1.499785e+05 -2.705725e+05 0.000000e+00
-1.506011e+05 -2.445713e+05 -2.513243e+04
-2.712152e+05 -2.432763e+05 -5.000000e+04
-2.367263e+05 -2.365676e+05 -5.000000e+04
-2.782427e+05 -2.355271e+05 -2.488253e+04
-2.688207e+05 -2.132343e+05 -5.000000e+04
-2.547528e+05 -2.220509e+05 -2.437755e+04
1.734823e+05 -1.761961e+05 0.000000e+00
-2.714022e+05 -2.455434e+05 0.000000e+00
-2.697020e+05 -2.163632e+05 0.000000e+00
6.607732e+04 -1.699400e+05 -5.000000e+04
7.328769e+04 -1.425852e+05 -2.378613e+04
6.821971e+04 -1.278644e+05 -5.000000e+04
5.339095e+04 -1.154582e+05 -2.679060e+04
4.930457e+04 -1.528020e+05 0.000000e+00
3.205580e+04 -1.186027e+05 0.000000e+00
6.453650e+04 -1.296228e+05 0.000000e+00
2.222244e+04 -1.045799e+05 -2.577882e+04
1.165880e+05 -2.104462e+05 -5.000000e+04
-5.734291e+04 -2.540461e+05 -2.505094e+04
1.666666e+04 -2.706093e+05 0.000000e+00
7.112016e+03 -2.558482e+05 -2.514518e+04
3.116491e+04 -2.714470e+05 -2.476847e+04
1.667265e+04 -2.705944e+05 -5.000000e+04
-1.000874e+05 -2.401943e+05 -5.000000e+04
-7.745978e+04 -2.305613e+05 -2.514360e+04
-6.373500e+04 -2.039300e+05 -2.437881e+04
-6.666652e+04 -2.410994e+05 0.000000e+00
-4.164779e+04 -2.269232e+05 -2.505439e+04
-8.308257e+04 -2.115574e+05 0.000000e+00
-9.994686e+04 -2.410165e+05 0.000000e+00
-1.219344e+01 -2.410794e+05 0.000000e+00
3.333252e+04 -2.410737e+05 0.000000e+00
4.998822e+04 -2.114764e+05 0.000000e+00
5.726984e+04 -2.268729e+05 -2.502330e+04
2.790825e+04 -2.391879e+05 -2.579927e+04
3.330534e+04 -2.407272e+05 -5.000000e+04
5.732924e+04 -2.579585e+05 -2.312021e+04
6.658207e+04 -2.404427e+05 -5.000000e+04
1.669500e+05 -2.410552e+05 0.000000e+00
1.854838e+05 -2.116625e+05 0.000000e+00
-2.156376e+05 -1.753692e+05 -2.320173e+04
-2.184082e+05 -1.515076e+05 0.000000e+00
-1.930286e+05 -1.547226e+05 -1.765952e+04
-2.132956e+05 -1.234854e+05 0.000000e+00
-1.729191e+05 -1.335848e+05 -1.149900e+04
-1.331240e+05 -2.384168e+05 -5.000000e+04
-1.255553e+05 -2.271391e+05 -2.470146e+04
-1.665345e+05 -2.379459e+05 -5.000000e+04
2.402611e+05 -1.298132e+05 -5.000000e+04
-1.773229e+05 -1.715891e+05 -5.000000e+04
-2.417079e+05 -1.671682e+05 0.000000e+00
-2.389084e+05 -1.714052e+05 -1.737374e+04
-2.087235e+05 -1.844916e+05 -5.000000e+04
-8.234313e+04 -1.286439e+05 -5.000000e+04
-6.959956e+04 -1.408224e+05 -2.572112e+04
-6.187967e+04 -1.004286e+05 -1.625013e+04
-8.872180e+04 -1.232420e+05 -2.341423e+04
-1.268370e+05 -1.527462e+05 0.000000e+00
-1.378888e+05 -1.344763e+05 -1.867941e+04
-1.220359e+05 -1.166210e+05 0.000000e+00
2.407065e+05 -1.328038e+05 0.000000e+00
2.406211e+05 -1.666795e+05 0.000000e+00
8.301136e+04 -2.088577e+05 -5.000000e+04
8.914013e+04 -2.338764e+05 -2.524856e+04
8.335602e+04 -2.114559e+05 0.000000e+00
6.984671e+04 -1.966242e+05 -2.413222e+04
1.168490e+05 -2.113350e+05 0.000000e+00
2.698536e+05 -2.154441e+05 -5.000000e+04
-5.478612e+04 -5.387074e+04 0.000000e+00
-5.803807e+04 -8.831512e+04 0.000000e+00
-8.643485e+04 -6.796516e+04 0.000000e+00
-5.616645e+04 -7.652524e+04 -1.390502e+04
-2.657830e+04 -7.407519e+04 0.000000e+00
-3.093421e+04 -9.017128e+04 -2.019511e+04
1.797830e+05 -1.353865e+05 0.000000e+00
1.797642e+05 -1.312012e+05 -5.000000e+04
1.918135e+05 -1.605931e+05 -2.504158e+04
1.682902e+05 -9.215220e+04 -5.000000e+04
1.685878e+05 8.623105e+03 0.000000e+00
2.054331e+05 -1.274461e+04 0.000000e+00
1.872104e+05 -1.890433e+04 -2.407493e+04
1.935853e+05 2.045792e+04 -1.515064e+04
1.530846e+05 -4.903165e+03 -1.742956e+04
-1.136614e+05 -1.430797e+05 -5.000000e+04
-2.816982e+04 -1.090032e+05 0.000000e+00
-6.537635e+03 -7.533645e+04 -1.856862e+04
1.923280e+03 -9.429386e+04 0.000000e+00
1.208316e+04 -8.634018e+04 -5.000000e+04
6.660873e+04 -1.820041e+05 0.000000e+00
8.279600e+04 -1.527411e+05 0.000000e+00
2.206651e+05 -3.550840e+04 -2.484444e+04
2.344321e+05 -2.332594e+04 -5.000000e+04
2.114218e+05 -1.847116e+05 -5.000000e+04
1.978809e+05 -1.970344e+05 -2.503345e+04
2.263905e+05 -2.050759e+05 -2.504269e+04
2.106161e+05 -1.863062e+05 0.000000e+00
2.094120e+05 -1.518273e+05 0.000000e+00
1.692433e+05 -5.215425e+04 -5.000000e+04
1.631741e+05 -7.033343e+04 -2.224903e+04
1.889930e+05 -5.240835e+04 -2.494185e+04
1.792755e+05 -6.625919e+04 0.000000e+00
2.107482e+05 -8.214993e+04 0.000000e+00
2.221670e+05 -7.042321e+04 -2.512522e+04
2.047150e+05 -7.479501e+04 -5.000000e+04
2.076807e+05 -4.767530e+04 0.000000e+00
2.369604e+05 -5.935915e+04 -5.000000e+04
2.022626e+05 -2.471224e+03 -5.000000e+04
2.021236e+05 -3.790545e+04 -5.000000e+04
1.671999e+05 -2.408484e+05 -5.000000e+04
1.000059e+05 -2.410721e+05 0.000000e+00
1.085515e+05 -2.619813e+05 -2.517212e+04
9.996636e+04 -2.407251e+05 -5.000000e+04
1.753310e+05 -1.735624e+05 -5.000000e+04
1.355234e+05 -6.535637e+04 -5.000000e+04
1.479387e+05 -4.336949e+04 -2.491056e+04
1.523990e+05 -8.594911e+04 0.000000e+00
1.142789e+05 -5.719071e+04 -2.427391e+04
-1.997696e+05 -2.255802e+05 -2.490058e+04
-2.127967e+05 -2.139641e+05 0.000000e+00
-1.849476e+05 -2.073158e+05 -5.000000e+04
-2.258923e+05 -2.072508e+05 -2.475997e+04
2.150293e+05 -2.148637e+05 0.000000e+00
2.099623e+05 -2.271694e+05 -2.505958e+04
2.152706e+05 -2.139064e+05 -5.000000e+04
-1.498537e+05 -9.616716e+04 0.000000e+00
-1.545775e+05 -1.312408e+05 0.000000e+00
2.698114e+05 5.244290e+04 0.000000e+00
2.824025e+05 6.418653e+04 -1.587840e+04
-9.372611e+04 -1.381363e+05 0.000000e+00
2.392008e+05 -9.486308e+04 -5.000000e+04
2.409101e+05 -9.896015e+04 0.000000e+00
3.328026e+04 -8.037219e+04 0.000000e+00
5.530377e+04 -4.650233e+04 -1.756454e+04
5.283021e+04 -8.516451e+04 -2.453548e+04
2.453316e+04 -6.007369e+04 -1.778753e+04
4.359147e+04 -7.229631e+04 -5.000000e+04
7.510719e+04 -5.827078e+04 -5.000000e+04
6.491741e+04 -6.585683e+04 0.000000e+00
8.344190e+04 -7.163759e+04 -2.439022e+04
-6.657056e+04 -2.400942e+05 -5.000000e+04
7.175175e+04 2.502106e+03 0.000000e+00
1.067013e+05 -4.430302e+04 -5.000000e+04
1.704956e+05 -1.654707e+04 -5.000000e+04
1.281544e+05 -3.814720e+04 0.000000e+00
1.667361e+05 -3.010034e+04 0.000000e+00
1.384964e+05 -3.041923e+04 -5.000000e+04
1.193818e+05 -1.642088e+04 -1.543523e+04
2.386515e+05 3.676331e+04 0.000000e+00
-2.561385e+05 -1.897913e+05 -1.874394e+04
-2.781321e+05 -1.947118e+05 -2.202316e+04
-2.384250e+05 -1.989979e+05 -5.000000e+04
-2.370078e+05 -2.375011e+05 0.000000e+00
-1.486091e+05 -1.993140e+05 -5.000000e+04
-1.942701e+04 -1.003958e+05 -5.000000e+04
8.382152e+03 -1.208441e+05 -5.000000e+04
2.404984e+05 -6.523979e+04 0.000000e+00
-5.975279e+04 -1.238672e+05 0.000000e+00
-5.093213e+04 -1.144587e+05 -5.000000e+04
-5.019246e+04 -2.121193e+05 0.000000e+00
-1.663834e+05 -2.406437e+05 0.000000e+00
-3.335063e+04 -2.411053e+05 0.000000e+00
-3.301093e+04 -2.407386e+05 -5.000000e+04
-5.476646e+04 -1.490994e+05 -5.000000e+04
-6.620555e+04 -1.875656e+05 0.000000e+00
-6.342065e+04 -1.590285e+05 0.000000e+00
-6.240840e+02 -1.247302e+05 0.000000e+00
-9.772626e+04 -1.777647e+05 0.000000e+00
4.792683e+03 -5.985741e+04 0.000000e+00
-1.996871e+05 -2.401723e+05 -5.000000e+04
-1.997464e+05 -2.407939e+05 0.000000e+00
2.004881e+05 -2.410327e+05 0.000000e+00
2.008459e+05 -2.406203e+05 -5.000000e+04
2.054307e+05 2.204063e+04 0.000000e+00
2.282901e+05 3.421786e+04 -1.598490e+04
2.346799e+05 1.161348e+04 -5.000000e+04
3.993550e+04 -1.066247e+05 -5.000000e+04
1.640076e+02 -2.409963e+05 -5.000000e+04
-2.704614e+05 -1.827514e+05 0.000000e+00
-2.397458e+05 -1.999074e+05 0.000000e+00
8.332853e+04 -2.705696e+05 -5.000000e+04
8.623310e+04 -2.720452e+05 -2.627593e+04
1.166750e+05 -2.705777e+05 -5.000000e+04
1.166683e+05 -2.706036e+05 0.000000e+00
8.333338e+04 -2.706093e+05 0.000000e+00
-4.806518e+04 -2.089452e+05 -5.000000e+04
-5.982129e+04 -1.804100e+05 -5.000000e+04
4.941224e+04 -2.085773e+05 -5.000000e+04
3.621543e+04 -1.425562e+05 -5.000000e+04
2.957306e+04 -1.794815e+05 -5.000000e+04
2.376623e+05 -2.375322e+05 0.000000e+00
2.376968e+05 -2.368957e+05 -5.000000e+04
4.999624e+04 -2.705545e+05 -5.000000e+04
5.000001e+04 -2.705990e+05 0.000000e+00
6.348476e+04 -1.002404e+05 0.000000e+00
-1.817679e+05 -1.101830e+05 0.000000e+00
1.500201e+05 -2.705942e+05 0.000000e+00
6.666718e+04 -2.410691e+05 0.000000e+00
-2.129521e+05 -2.143459e+05 -5.000000e+04
-8.995751e+04 -1.024391e+05 0.000000e+00
1.329166e+05 -4.397197e+03 0.000000e+00
1.508402e+05 -5.785602e+04 0.000000e+00
1.864427e+05 -2.108687e+05 -5.000000e+04
2.691045e+05 8.666440e+04 0.000000e+00
2.374772e+05 7.149260e+04 0.000000e+00
1.004406e+05 -1.812391e+05 0.000000e+00
-1.331407e+05 -2.407697e+05 0.000000e+00
1.359769e+05 3.034208e+04 0.000000e+00
2.041404e+05 5.734268e+04 0.000000e+00
1.699456e+05 4.373926e+04 0.000000e+00
3.640586e+04 -4.574771e+04 0.000000e+00
4.010241e+04 -1.158471e+04 0.000000e+00
1.035822e+05 1.651075e+04 0.000000e+00
-2.316833e+04 -3.976812e+04 0.000000e+00
8.461253e+03 -2.567177e+04 0.000000e+00
-2.429051e+05 -1.363480e+05 0.000000e+00
-2.711384e+05 -1.499904e+05 0.000000e+00
-2.844104e+05 -2.029915e+05 -5.000000e+04
-2.683137e+05 -1.958248e+05 -5.000000e+04
-2.850778e+05 -1.947821e+05 -3.777089e+04
-2.738569e+05 -1.838435e+05 -3.396086e+04
-2.883534e+05 -1.815654e+05 -2.976098e+04
-2.854237e+05 -2.034964e+05 -3.534570e+04
-2.686757e+05 -1.175792e+05 -4.196282e+03
-2.698956e+05 -1.008230e+05 0.000000e+00
-2.854704e+05 -1.077574e+05 0.000000e+00
-2.709407e+05 -1.175644e+05 0.000000e+00
-2.873075e+05 -1.238059e+05 -6.927771e+03
2.845328e+05 1.455438e+05 0.000000e+00
2.889827e+05 7.006275e+04 -3.155902e+04
2.918045e+05 8.901494e+04 -2.506094e+04
2.839034e+05 5.020429e+04 -5.000000e+04
2.800246e+05 5.936310e+04 -3.511901e+04
2.774124e+05 7.906513e+04 -2.248814e+04
-2.861913e+05 -1.707648e+05 -1.837443e+04
-2.769378e+05 -1.686851e+05 -2.623704e+04
-2.725041e+05 -1.613088e+05 -1.700605e+04
-2.683597e+05 -1.453067e+05 -1.318920e+04
-2.842900e+05 -1.410163e+05 -7.359957e+03
-2.850813e+05 -1.559520e+05 -1.528268e+04
-2.715779e+05 -1.313569e+05 -9.811711e+03
2.800761e+05 1.113202e+05 -8.687806e+03
2.844336e+05 1.266551e+05 -5.712333e+03
2.814421e+05 9.764823e+04 -1.643825e+04
-1.437932e+05 -1.108380e+05 -2.607714e+04
-1.243916e+05 -1.156700e+05 -2.981718e+04
-1.350901e+05 -1.024025e+05 -1.964085e+04
-1.147475e+05 -1.045662e+05 -2.578792e+04
-1.515547e+05 -9.906925e+04 -1.468505e+04
-1.446559e+05 -7.741728e+04 -7.599945e+03
-1.461784e+05 -5.474608e+04 -3.016807e+03
-1.602018e+05 -6.121374e+04 -3.052420e+03
-1.460059e+05 -6.194844e+04 0.000000e+00
-1.215478e+05 -7.850114e+04 -9.021269e+03
-1.353328e+05 -9.150523e+04 -1.248448e+04
-1.221899e+05 -9.398596e+04 -1.959216e+04
-1.181078e+05 -8.205408e+04 0.000000e+00
-1.389038e+05 -1.270815e+05 -3.428254e+04
-1.577952e+05 -1.211244e+05 -2.745858e+04
-1.683372e+05 -1.039480e+05 -1.571170e+04
-1.713246e+05 -9.193942e+04 -1.044836e+04
-1.641762e+05 -7.795582e+04 -5.658664e+03
-1.776605e+05 -7.602645e+04 0.000000e+00
-1.329802e+05 -6.601397e+04 -7.588434e+03
-1.801375e+05 -8.216447e+04 -6.834645e+03
-1.738075e+05 -6.577929e+04 -3.384459e+03
-4.710430e+04 -5.035952e+04 -1.616135e+04
-5.936972e+04 -5.635937e+04 -1.515358e+04
-4.793746e+04 -6.446086e+04 -2.426732e+04
-6.403216e+04 -6.741326e+04 -2.439353e+04
-7.023128e+04 -6.273870e+04 -1.645982e+04
-7.326490e+04 -4.663849e+04 -8.926757e+03
-8.272069e+04 -3.377063e+04 0.000000e+00
-6.627564e+04 -2.648467e+04 -4.399506e+03
-8.828569e+04 -2.586333e+04 -2.615720e+03
-5.563391e+04 -3.907819e+04 -7.607232e+03
-4.978243e+04 -7.823894e+04 -3.086683e+04
-6.705506e+04 -8.204665e+04 -3.118103e+04
-8.966340e+04 -4.943719e+04 -9.773140e+03
-8.786049e+04 -6.700138e+04 -1.205886e+04
-7.521693e+04 -7.365551e+04 -2.241691e+04
-1.599650e+05 -5.188307e+04 0.000000e+00
-1.916134e+05 -6.596607e+04 0.000000e+00
-1.757923e+05 -5.892208e+04 0.000000e+00
-9.668029e+04 -2.370619e+04 0.000000e+00
-1.033949e+05 -3.427812e+04 -2.945476e+03
-8.085923e+04 -1.666220e+04 0.000000e+00
-1.021263e+05 -1.019727e+05 -3.101500e+04
-9.370590e+04 -8.749349e+04 -2.178652e+04
-1.082237e+05 -8.934159e+04 -1.968532e+04
-1.193516e+05 -6.097685e+04 -9.161498e+03
-1.195288e+05 -3.799123e+04 -2.363860e+03
-1.312841e+05 -4.822090e+04 -3.176109e+03
-1.143608e+05 -4.786306e+04 0.000000e+00
-1.014210e+05 -7.689772e+04 -1.114412e+04
-1.036534e+05 -5.912037e+04 -6.551599e+03
-8.554382e+04 -7.772258e+04 -2.116864e+04
-6.855941e+04 -9.676630e+04 -3.216602e+04
-8.979057e+04 -9.779548e+04 -3.057813e+04
-1.283214e+05 -3.779639e+04 0.000000e+00
-1.125004e+05 -3.075241e+04 0.000000e+00
-1.441440e+05 -4.483909e+04 0.000000e+00
2.481041e+05 6.645200e+04 -2.289567e+04
2.507491e+05 4.793105e+04 -3.171512e+04
2.652162e+05 5.707611e+04 -3.154449e+04
2.740782e+05 5.128012e+04 -4.147029e+04
2.629197e+05 7.476302e+04 -2.250868e+04
2.517143e+05 3.595652e+04 -5.000000e+04
2.674676e+05 4.297035e+04 -5.000000e+04
2.319692e+05 4.192380e+04 -3.366757e+04
2.460158e+05 3.074525e+04 -3.523855e+04
2.354900e+05 2.882055e+04 -5.000000e+04
2.156647e+05 4.937531e+04 -2.380614e+04
2.341316e+05 5.755902e+04 -2.300188e+04
2.193046e+05 3.171159e+04 -3.658657e+04
2.197367e+05 2.180671e+04 -5.000000e+04
1.978867e+05 4.492533e+04 -2.307744e+04
2.009911e+05 2.881549e+04 -3.169035e+04
2.146426e+05 1.678797e+04 -3.466333e+04
1.824908e+05 3.970191e+04 -2.321563e+04
2.035280e+05 1.476436e+04 -5.000000e+04
1.822606e+05 1.697176e+04 -3.330229e+04
1.877747e+05 7.750519e+03 -5.000000e+04
1.655793e+05 2.654722e+04 -2.196206e+04
1.671228e+05 1.018498e+04 -3.242403e+04
1.813308e+05 7.522220e+02 -3.464230e+04
1.718912e+05 7.125974e+02 -5.000000e+04
1.487000e+05 1.728283e+04 -2.382923e+04
1.476142e+05 6.558310e+01 -3.373389e+04
1.561378e+05 -6.301240e+03 -5.000000e+04
1.153658e+05 4.949448e+03 -2.257569e+04
1.310587e+05 -3.509111e+03 -3.201081e+04
1.314371e+05 1.077752e+04 -2.407865e+04
1.160589e+05 -1.361295e+04 -3.158444e+04
1.243849e+05 -2.025116e+04 -5.000000e+04
1.401383e+05 -1.323732e+04 -5.000000e+04
1.024928e+05 -1.988925e+04 -3.569963e+04
1.084874e+05 -2.719305e+04 -5.000000e+04
9.794905e+04 -7.738841e+02 -2.454980e+04
8.709338e+04 -1.121225e+04 -2.440115e+04
8.675880e+04 -2.860054e+04 -3.564819e+04
9.273405e+04 -3.420689e+04 -5.000000e+04
4.938196e+04 -2.226184e+04 -2.224744e+04
6.891819e+04 -3.137103e+04 -3.277342e+04
6.895035e+04 -1.821936e+04 -2.437813e+04
7.693698e+04 -4.119077e+04 -5.000000e+04
6.118364e+04 -4.820461e+04 -5.000000e+04
5.203508e+04 -4.083735e+04 -3.361491e+04
4.542578e+04 -5.521737e+04 -5.000000e+04
2.240883e+04 -3.718163e+04 -2.472116e+04
2.233446e+04 -5.496585e+04 -3.418895e+04
3.672693e+04 -4.652056e+04 -3.315065e+04
2.967244e+04 -6.223121e+04 -5.000000e+04
3.711887e+04 -3.217739e+04 -2.559784e+04
1.391829e+04 -6.925315e+04 -5.000000e+04
3.863909e+03 -4.490496e+04 -2.357774e+04
-1.411515e+04 -5.069118e+04 -2.321651e+04
-8.223708e+03 -6.946624e+04 -3.602191e+04
4.974935e+03 -6.103251e+04 -3.235006e+04
-1.835050e+03 -7.626699e+04 -5.000000e+04
-2.358526e+04 -6.204833e+04 -2.710656e+04
-2.173072e+04 -7.491036e+04 -3.484386e+04
-3.479876e+04 -7.026727e+04 -2.945226e+04
-1.759014e+04 -8.329479e+04 -5.000000e+04
-3.486881e+04 -8.506377e+04 -3.642169e+04
-3.334347e+04 -9.030863e+04 -5.000000e+04
-4.959939e+04 -9.014339e+04 -3.692813e+04
-4.909604e+04 -9.734006e+04 -5.000000e+04
-6.484937e+04 -1.043539e+05 -5.000000e+04
-8.176563e+04 -1.046812e+05 -3.769124e+04
-8.055487e+04 -1.114465e+05 -5.000000e+04
-9.883624e+04 -1.145251e+05 -3.554400e+04
-9.630821e+04 -1.184604e+05 -5.000000e+04
-1.119674e+05 -1.256782e+05 -5.000000e+04
-1.277207e+05 -1.326921e+05 -5.000000e+04
-1.435194e+05 -1.400113e+05 -5.000000e+04
-1.594268e+05 -1.369789e+05 -3.408176e+04
-1.592727e+05 -1.470252e+05 -5.000000e+04
-1.746665e+05 -1.356672e+05 -3.137995e+04
-1.878441e+05 -1.284713e+05 -2.278356e+04
-1.852056e+05 -1.429470e+05 -3.206676e+04
-2.005439e+05 -1.340307e+05 -2.343611e+04
-1.664172e+05 -1.511599e+05 -3.089106e+04
-1.946351e+05 -1.523978e+05 -3.585173e+04
-1.753048e+05 -1.539607e+05 -5.000000e+04
-1.910581e+05 -1.609745e+05 -5.000000e+04
-1.732820e+05 -1.233084e+05 -2.482147e+04
-2.253750e+05 -1.558104e+05 -2.973123e+04
-2.078601e+05 -1.595716e+05 -3.425568e+04
-2.131467e+05 -1.436841e+05 -2.481620e+04
-2.243265e+05 -1.682190e+05 -3.829341e+04
-2.067584e+05 -1.674257e+05 -5.000000e+04
-2.225117e+05 -1.744396e+05 -5.000000e+04
-2.379488e+05 -1.667735e+05 -3.328695e+04
-2.371483e+05 -1.523832e+05 -2.552608e+04
-2.373625e+05 -1.816927e+05 -5.000000e+04
-2.540907e+05 -1.601529e+05 -2.202492e+04
-2.501097e+05 -1.753638e+05 -3.536540e+04
-2.531159e+05 -1.887066e+05 -5.000000e+04
-2.598057e+05 -1.831184e+05 -3.217375e+04
-2.662030e+05 -1.690420e+05 -2.609368e+04
-2.366304e+05 -1.024288e+05 -4.063999e+03
-2.388883e+05 -8.695830e+04 0.000000e+00
-2.547094e+05 -9.400229e+04 0.000000e+00
-2.405682e+05 -1.039229e+05 0.000000e+00
-2.556409e+05 -1.113440e+05 -5.223918e+03
-2.232405e+05 -8.002666e+04 0.000000e+00
-2.092726e+05 -9.005965e+04 0.000000e+00
-2.194834e+05 -9.940566e+04 -5.656272e+03
-2.098348e+05 -8.750009e+04 -4.208170e+03
-2.074194e+05 -7.298267e+04 0.000000e+00
-1.946523e+05 -8.390523e+04 -4.522275e+03
-4.936471e+04 -2.173683e+04 -5.380587e+03
-4.921622e+04 -2.576238e+03 0.000000e+00
-6.503728e+04 -9.620227e+03 0.000000e+00
-5.107679e+04 -1.968668e+04 0.000000e+00
-1.757498e+04 1.151372e+04 0.000000e+00
-3.339603e+04 4.469727e+03 0.000000e+00
-1.603249e+04 -5.184575e+00 -3.209176e+03
-1.943642e+04 -5.594748e+03 0.000000e+00
-3.248591e+04 -7.975349e+03 -3.822581e+03
-1.752956e+03 1.855555e+04 0.000000e+00
1.243023e+04 9.118483e+03 -3.911106e+03
1.406810e+04 2.559954e+04 0.000000e+00
1.220762e+04 8.488914e+03 0.000000e+00
-3.571035e+03 4.457657e+03 -4.715523e+03
2.988866e+04 3.264465e+04 0.000000e+00
4.475420e+04 2.380649e+04 -3.982852e+03
4.570971e+04 3.968864e+04 0.000000e+00
4.384872e+04 2.257914e+04 0.000000e+00
2.923437e+04 1.834190e+04 -4.731864e+03
7.854064e+04 4.050080e+04 -3.607300e+03
7.735597e+04 5.377621e+04 0.000000e+00
6.153491e+04 4.673223e+04 0.000000e+00
7.549911e+04 3.666631e+04 0.000000e+00
6.075261e+04 2.899763e+04 -4.824528e+03
9.320073e+04 6.080993e+04 0.000000e+00
1.071886e+05 5.073375e+04 0.000000e+00
9.095444e+04 4.526159e+04 -5.438574e+03
1.093903e+05 5.313380e+04 -3.783779e+03
1.090218e+05 6.785392e+04 0.000000e+00
1.412829e+05 6.829968e+04 -3.686748e+03
1.408507e+05 8.188067e+04 0.000000e+00
1.250296e+05 7.483668e+04 0.000000e+00
1.392043e+05 6.469927e+04 0.000000e+00
1.251281e+05 5.745924e+04 -4.784466e+03
1.530111e+05 7.346581e+04 -5.174299e+03
1.725152e+05 7.749791e+04 -4.103383e+03
1.570308e+05 8.881909e+04 0.000000e+00
1.715645e+05 7.857610e+04 0.000000e+00
1.728518e+05 9.586308e+04 0.000000e+00
1.892410e+05 1.027685e+05 0.000000e+00
2.043428e+05 9.238700e+04 0.000000e+00
1.882497e+05 8.482860e+04 -4.978325e+03
2.050620e+05 1.098125e+05 0.000000e+00
2.051196e+05 9.629679e+04 -3.647027e+03
2.212443e+05 1.168936e+05 0.000000e+00
2.169409e+05 1.018624e+05 -5.120005e+03
2.358452e+05 1.081425e+05 -4.147785e+03
2.367073e+05 1.065491e+05 0.000000e+00
2.370653e+05 1.239376e+05 0.000000e+00
2.528336e+05 1.312644e+05 0.000000e+00
2.682438e+05 1.212029e+05 0.000000e+00
2.497092e+05 1.156364e+05 -5.094229e+03
2.688757e+05 1.225654e+05 -4.058679e+03
2.686547e+05 1.383084e+05 0.000000e+00
4.697262e+04 -6.279182e+03 -1.365947e+04
2.746188e+04 -1.754434e+03 -7.499164e+03
3.122521e+04 -1.744631e+04 -1.555787e+04
6.032926e+04 -1.976644e+04 -1.008101e+04
4.321352e+04 7.557522e+03 -9.164528e+03
5.858584e+04 1.270886e+04 -8.658081e+03
6.368062e+04 -4.487541e+03 -1.589767e+04
7.754638e+04 4.755826e+03 -1.576920e+04
9.268174e+04 -4.893781e+03 -1.012223e+04
1.090614e+05 2.206709e+04 -1.286067e+04
9.253374e+04 1.175497e+04 -1.493460e+04
7.447480e+04 2.196774e+04 -7.201029e+03
9.265617e+04 3.060564e+04 -6.878020e+03
-2.012001e+04 -3.856156e+04 -1.651306e+04
-4.016262e+04 -3.533889e+04 -1.100929e+04
-3.279934e+04 -4.703561e+04 -1.756611e+04
-2.362087e+04 -2.115909e+04 -6.029065e+03
-4.487343e+04 -3.672634e+04 -3.361413e+03
-2.389315e+05 -1.365092e+05 -1.312339e+04
-2.429270e+05 -1.183330e+05 -8.654686e+03
-2.564186e+05 -1.275819e+05 -9.115435e+03
-2.565332e+05 -1.412251e+05 -1.590502e+04
2.358965e+05 7.656823e+04 -1.393604e+04
2.197454e+05 6.529718e+04 -1.721171e+04
2.203315e+05 8.401508e+04 -6.158695e+03
2.514772e+05 8.162750e+04 -1.683307e+04
2.510766e+05 9.768831e+04 -7.343921e+03
2.343649e+05 9.198863e+04 -9.514477e+03
2.664184e+05 9.047139e+04 -1.522018e+04
2.507277e+05 7.147703e+04 -9.403854e+03
2.013555e+05 7.882426e+04 -7.587400e+03
1.848476e+05 6.802666e+04 -8.534070e+03
2.041730e+05 6.243299e+04 -1.328818e+04
2.648107e+05 1.037763e+05 -1.049273e+04
1.867415e+05 5.199392e+04 -1.772856e+04
1.715614e+05 4.887491e+04 -1.418691e+04
1.700034e+05 6.317360e+04 -9.899151e+03
1.548311e+05 5.554795e+04 -6.261320e+03
1.565418e+05 4.124363e+04 -1.563107e+04
1.243393e+05 8.978895e+03 -9.633713e+03
1.262938e+05 2.461581e+04 -1.570506e+04
1.211874e+05 3.981595e+04 -8.551465e+03
1.409031e+05 3.508981e+04 -1.299266e+04
1.069879e+05 3.682588e+04 -9.398133e+03
1.373345e+05 5.114002e+04 -7.660899e+03
1.558774e+05 2.476665e+04 -9.409644e+03
2.072644e+05 4.353359e+04 -1.351310e+04
2.943279e+04 -3.312550e+04 -1.286345e+04
1.278756e+04 -2.376825e+04 -1.260597e+04
-1.745754e+03 -1.148666e+04 -6.752156e+03
-6.082315e+03 -2.920427e+04 -1.199225e+04
1.182517e+04 -6.096988e+03 -9.251442e+03
-2.079344e+05 -1.182241e+05 -1.298204e+04
-2.199720e+05 -1.308650e+05 -1.661541e+04
-2.239207e+05 -1.489853e+05 -1.448779e+04
-2.265826e+05 -1.159834e+05 -9.154411e+03
-2.695386e+05 -1.807411e+05 -1.704530e+04
-6.186504e+03 -4.764529e+04 -1.331866e+04
6.842820e+03 -4.509275e+04 -9.800019e+03
-3.510956e+04 -6.483272e+04 -1.279826e+04
-2.012338e+05 -1.038200e+05 -1.096721e+04
-2.343598e+05 -1.179781e+05 -3.325107e+03
-1.789359e+05 -1.093675e+05 -1.878973e+04
-1.894407e+05 -1.155900e+05 -1.556387e+04
-1.832168e+05 -9.862504e+04 -8.084617e+03
-2.003767e+05 -1.107741e+05 -4.387164e+03
-1.588100e+05 -1.190010e+05 -1.447295e+04
-2.836849e+05 -1.896562e+05 -4.360152e+04
-2.841568e+05 -1.942867e+05 -5.000000e+04
-2.922052e+05 -1.978700e+05 -5.000000e+04
-2.911554e+05 -1.931260e+05 -4.539593e+04
-2.923177e+05 -1.874204e+05 -4.088820e+04
-2.909854e+05 -1.981556e+05 -4.369302e+04
-2.848005e+05 -1.055827e+05 -3.483310e+03
-2.849478e+05 -9.938667e+04 0.000000e+00
-2.927352e+05 -1.028538e+05 0.000000e+00
-2.926880e+05 -1.128935e+05 -5.147681e+03
2.922664e+05 1.573653e+05 0.000000e+00
2.937941e+05 7.354765e+04 -4.075394e+04
2.938550e+05 8.201644e+04 -3.513910e+04
2.919517e+05 6.229645e+04 -5.000000e+04
2.880908e+05 6.864489e+04 -4.289010e+04
2.858350e+05 7.730765e+04 -3.755062e+04
-2.931681e+05 -1.789160e+05 -3.753228e+04
-2.935501e+05 -1.717980e+05 -3.261314e+04
-2.866846e+05 -1.733303e+05 -3.665425e+04
-2.917711e+05 -1.677038e+05 -2.643797e+04
-2.838194e+05 -1.617182e+05 -2.514099e+04
-2.855850e+05 -1.669262e+05 -3.080397e+04
-2.837299e+05 -1.533008e+05 -2.374319e+04
-2.931718e+05 -1.520777e+05 -2.257194e+04
-2.917063e+05 -1.585784e+05 -2.550814e+04
-2.935754e+05 -1.202623e+05 -9.324374e+03
-2.933043e+05 -1.255913e+05 -1.270361e+04
-2.853542e+05 -1.225571e+05 -1.106129e+04
-2.858575e+05 -1.383551e+05 -1.773250e+04
-2.921499e+05 -1.348073e+05 -1.304610e+04
-2.925928e+05 -1.451585e+05 -1.780443e+04
-2.830938e+05 -1.304037e+05 -1.306533e+04
2.912502e+05 1.416242e+05 -8.806342e+03
2.896136e+05 1.242530e+05 -1.357371e+04
2.908330e+05 1.327648e+05 -1.119784e+04
2.943935e+05 9.049233e+04 -3.300232e+04
2.956353e+05 9.757664e+04 -3.139154e+04
2.897169e+05 9.558454e+04 -3.006260e+04
2.907138e+05 1.092288e+05 -2.008515e+04
2.899717e+05 1.025228e+05 -2.683694e+04
-1.305819e+05 -9.949005e+04 -2.915788e+04
-1.375272e+05 -1.029985e+05 -3.179957e+04
-1.470772e+05 -9.893385e+04 -2.962631e+04
-1.413101e+05 -9.628029e+04 -2.692987e+04
-1.502334e+05 -9.475540e+04 -2.324883e+04
-1.473320e+05 -8.350887e+04 -1.854412e+04
-1.479562e+05 -6.897607e+04 -1.226468e+04
-1.541411e+05 -7.470462e+04 -1.396102e+04
-1.380710e+05 -8.519157e+04 -2.047700e+04
-1.363602e+05 -9.143970e+04 -2.590817e+04
-1.426171e+05 -9.128796e+04 -2.099931e+04
-1.452168e+05 -1.062430e+05 -3.391838e+04
-1.527220e+05 -1.052512e+05 -2.979441e+04
-1.572457e+05 -9.696483e+04 -2.535117e+04
-1.616190e+05 -9.143187e+04 -1.820942e+04
-1.563200e+05 -8.426559e+04 -1.698819e+04
-1.407330e+05 -7.711520e+04 -1.784136e+04
-1.672030e+05 -8.211544e+04 -1.429614e+04
-1.637082e+05 -7.278988e+04 -1.185130e+04
-5.821422e+04 -5.183410e+04 -2.438380e+04
-6.020473e+04 -5.842060e+04 -2.854456e+04
-6.720555e+04 -6.044795e+04 -2.913160e+04
-6.487678e+04 -5.498179e+04 -2.352690e+04
-7.087125e+04 -5.846691e+04 -2.401679e+04
-7.116118e+04 -5.060097e+04 -2.007013e+04
-6.759470e+04 -4.040872e+04 -1.574008e+04
-7.616288e+04 -4.162322e+04 -1.572075e+04
-6.272122e+04 -4.621283e+04 -1.837032e+04
-5.971838e+04 -6.653257e+04 -3.212115e+04
-6.836325e+04 -6.920376e+04 -3.298083e+04
-7.931960e+04 -5.169695e+04 -1.813425e+04
-7.377283e+04 -6.413231e+04 -2.736338e+04
-7.740470e+04 -6.053942e+04 -2.052539e+04
-1.590654e+05 -6.571207e+04 -9.755942e+03
-1.595247e+05 -5.301279e+04 -5.539984e+03
-1.658876e+05 -5.643281e+04 -5.401349e+03
-1.670845e+05 -6.435827e+04 -8.650962e+03
-1.727388e+05 -5.795357e+04 -5.528247e+03
-1.745866e+05 -6.662152e+04 -8.412237e+03
-1.662578e+05 -5.247512e+04 -2.881941e+03
-1.804723e+05 -5.994021e+04 -4.719197e+03
-1.735414e+05 -5.559153e+04 -3.124441e+03
-8.080911e+04 -2.045370e+04 -6.398262e+03
-9.033255e+04 -2.004611e+04 -4.765433e+03
-8.078894e+04 -3.119721e+04 -9.731130e+03
-9.032974e+04 -3.345799e+04 -1.027630e+04
-9.607655e+04 -1.807370e+04 -2.405841e+03
-9.729649e+04 -2.531128e+04 -6.051294e+03
-8.660133e+04 -1.495705e+04 -3.249135e+03
-1.295252e+05 -8.944377e+04 -2.532960e+04
-1.306943e+05 -8.233035e+04 -1.823311e+04
-1.218856e+05 -7.542852e+04 -1.857881e+04
-1.238334e+05 -8.393040e+04 -2.469505e+04
-1.199266e+05 -9.008800e+04 -2.967676e+04
-1.329549e+05 -7.440595e+04 -1.834567e+04
-1.276673e+05 -6.943905e+04 -1.814307e+04
-1.347983e+05 -6.228894e+04 -1.347707e+04
-1.115057e+05 -9.117605e+04 -3.121037e+04
-1.099867e+05 -8.005161e+04 -2.684508e+04
-1.163891e+05 -8.259324e+04 -2.450590e+04
-1.203075e+05 -6.684589e+04 -1.938136e+04
-1.197857e+05 -5.498034e+04 -1.267435e+04
-1.267624e+05 -6.114455e+04 -1.498307e+04
-1.116656e+05 -7.541580e+04 -1.856111e+04
-1.128306e+05 -6.530873e+04 -1.742345e+04
-9.261787e+04 -5.669624e+04 -1.966527e+04
-8.591962e+04 -5.246273e+04 -1.986483e+04
-9.178308e+04 -4.589490e+04 -1.525156e+04
-8.536232e+04 -6.067292e+04 -2.050898e+04
-8.123011e+04 -6.600467e+04 -2.659589e+04
-8.618225e+04 -7.042049e+04 -2.801348e+04
-9.012353e+04 -6.709093e+04 -2.204477e+04
-8.091434e+04 -7.650617e+04 -3.182381e+04
-9.881358e+04 -4.947741e+04 -1.348950e+04
-9.803201e+04 -8.486166e+04 -3.264572e+04
-9.543070e+04 -7.573623e+04 -2.496883e+04
-1.025916e+05 -7.902784e+04 -2.771990e+04
-1.040807e+05 -7.569627e+04 -2.156675e+04
-9.811798e+04 -6.906142e+04 -1.884586e+04
-1.053696e+05 -6.535392e+04 -1.933248e+04
-9.809882e+04 -6.049228e+04 -1.746949e+04
-1.059404e+05 -5.531275e+04 -1.382194e+04
-9.066814e+04 -7.260854e+04 -2.678166e+04
-8.636782e+04 -7.948077e+04 -2.871472e+04
-9.188525e+04 -8.107268e+04 -3.234056e+04
-1.105848e+05 -2.589658e+04 -3.444005e+03
-1.118015e+05 -3.146043e+04 -5.341501e+03
-1.047087e+05 -2.724017e+04 -5.033952e+03
-1.050354e+05 -4.004755e+04 -9.834015e+03
-1.183458e+05 -4.331164e+04 -9.512727e+03
-1.193020e+05 -3.204788e+04 -4.260398e+03
-1.253363e+05 -3.694982e+04 -5.133944e+03
-1.118023e+05 -4.498283e+04 -8.447460e+03
-1.256275e+05 -3.096913e+04 -2.540952e+03
-1.165352e+05 -2.811287e+04 -2.388235e+03
-1.448173e+05 -5.929979e+04 -1.052134e+04
-1.461598e+05 -4.602413e+04 -4.945059e+03
-1.524248e+05 -5.036406e+04 -5.503204e+03
-1.390367e+05 -5.332851e+04 -9.207190e+03
-1.534775e+05 -4.546690e+04 -3.061035e+03
-1.309776e+05 -5.267417e+04 -1.020000e+04
-1.321343e+05 -4.056374e+04 -5.622012e+03
-1.384553e+05 -4.428999e+04 -5.576887e+03
-1.375864e+05 -3.953497e+04 -2.997321e+03
-1.449487e+05 -4.271019e+04 -2.841028e+03
2.817858e+05 6.385185e+04 -4.278137e+04
2.839034e+05 5.871312e+04 -5.000000e+04
2.758551e+05 5.512979e+04 -5.000000e+04
2.753757e+05 5.952914e+04 -4.414135e+04
2.730624e+05 6.637602e+04 -3.906491e+04
2.580567e+05 6.206574e+04 -3.839846e+04
2.599007e+05 5.491351e+04 -4.353606e+04
2.672198e+05 5.946870e+04 -4.199026e+04
2.713769e+05 5.598649e+04 -4.621687e+04
2.668353e+05 6.795118e+04 -3.566287e+04
2.597606e+05 4.800590e+04 -5.000000e+04
2.676372e+05 5.151282e+04 -5.000000e+04
2.434323e+05 5.693236e+04 -3.625628e+04
2.434457e+05 4.664122e+04 -4.175873e+04
2.526073e+05 5.134823e+04 -4.181861e+04
2.518839e+05 4.449898e+04 -5.000000e+04
2.440072e+05 4.099206e+04 -5.000000e+04
2.409477e+05 3.821902e+04 -4.306494e+04
2.339402e+05 4.538055e+04 -4.295440e+04
2.358951e+05 3.742408e+04 -5.000000e+04
2.268523e+05 4.906984e+04 -3.923654e+04
2.351463e+05 5.234393e+04 -3.720365e+04
2.280184e+05 3.391716e+04 -5.000000e+04
2.269484e+05 4.046042e+04 -4.288998e+04
2.188865e+05 3.752207e+04 -4.377246e+04
2.201417e+05 3.041024e+04 -5.000000e+04
2.122651e+05 2.690332e+04 -5.000000e+04
2.125351e+05 3.295729e+04 -4.434749e+04
2.108114e+05 3.969889e+04 -3.951532e+04
2.023117e+05 3.948829e+04 -3.826854e+04
2.025331e+05 3.191485e+04 -4.189357e+04
2.106143e+05 2.570352e+04 -4.227232e+04
1.934028e+05 3.600896e+04 -3.627578e+04
2.041608e+05 2.338215e+04 -5.000000e+04
1.944683e+05 2.647040e+04 -4.272710e+04
1.962841e+05 1.987523e+04 -5.000000e+04
1.755714e+05 2.656693e+04 -3.738343e+04
1.783723e+05 1.847656e+04 -4.327313e+04
1.867480e+05 2.177104e+04 -4.184463e+04
1.884074e+05 1.636831e+04 -5.000000e+04
1.805307e+05 1.286139e+04 -5.000000e+04
1.692999e+05 2.178589e+04 -3.887589e+04
1.702375e+05 1.537315e+04 -4.211743e+04
1.776281e+05 1.079421e+04 -4.211081e+04
1.725890e+05 9.342430e+03 -5.000000e+04
1.621361e+05 1.805197e+04 -3.854159e+04
1.635582e+05 1.086678e+04 -4.316537e+04
1.647123e+05 5.835511e+03 -5.000000e+04
1.547419e+05 7.029795e+03 -4.062539e+04
1.428853e+05 1.113750e+04 -3.829429e+04
1.451850e+05 3.173772e+03 -4.332241e+04
1.568356e+05 2.328592e+03 -5.000000e+04
1.489590e+05 -1.178327e+03 -5.000000e+04
1.262920e+05 4.950368e+03 -3.753060e+04
1.360263e+05 7.273996e+03 -3.911256e+04
1.356951e+05 1.335531e+03 -4.251739e+04
1.296581e+05 -2.599855e+03 -4.307862e+04
1.330825e+05 -8.153286e+03 -5.000000e+04
1.409592e+05 -4.646367e+03 -5.000000e+04
1.225020e+05 -7.112895e+03 -4.217069e+04
1.123360e+05 -2.422927e+03 -3.865488e+04
1.131015e+05 -1.215360e+04 -4.211406e+04
1.252058e+05 -1.166020e+04 -5.000000e+04
1.173292e+05 -1.516712e+04 -5.000000e+04
1.093804e+05 -1.863807e+04 -5.000000e+04
1.061108e+05 -1.361572e+04 -4.446832e+04
1.004982e+05 -1.086719e+04 -3.909428e+04
1.031547e+05 -5.100593e+03 -3.630636e+04
1.004232e+05 -1.703366e+04 -4.424517e+04
1.015037e+05 -2.214499e+04 -5.000000e+04
8.256432e+04 -2.488777e+04 -4.374915e+04
9.089160e+04 -1.971675e+04 -4.163105e+04
8.012501e+04 -1.684208e+04 -3.880638e+04
9.362707e+04 -2.565191e+04 -5.000000e+04
8.575041e+04 -2.915883e+04 -5.000000e+04
6.513957e+04 -2.309319e+04 -3.904163e+04
7.336300e+04 -2.081424e+04 -3.958288e+04
7.302994e+04 -2.677623e+04 -4.294804e+04
7.785187e+04 -3.265077e+04 -5.000000e+04
6.997520e+04 -3.615769e+04 -5.000000e+04
6.679289e+04 -3.055850e+04 -4.311153e+04
5.939646e+04 -3.480255e+04 -4.214544e+04
6.209853e+04 -3.966461e+04 -5.000000e+04
5.422186e+04 -4.317152e+04 -5.000000e+04
5.054883e+04 -3.862763e+04 -4.346820e+04
4.805290e+04 -3.034208e+04 -3.803195e+04
4.634294e+04 -4.667791e+04 -5.000000e+04
3.245724e+04 -3.707096e+04 -3.717723e+04
3.520704e+04 -4.465439e+04 -4.328247e+04
4.118652e+04 -4.083807e+04 -4.275144e+04
3.846627e+04 -5.018483e+04 -5.000000e+04
4.159213e+04 -3.500385e+04 -3.946919e+04
1.808648e+04 -4.445948e+04 -3.918572e+04
1.936211e+04 -5.264964e+04 -4.336729e+04
2.807962e+04 -4.895212e+04 -4.269035e+04
3.058960e+04 -5.369174e+04 -5.000000e+04
2.271293e+04 -5.719866e+04 -5.000000e+04
1.483585e+04 -6.070963e+04 -5.000000e+04
9.791777e+03 -4.823322e+04 -3.718230e+04
6.139407e+02 -5.111784e+04 -3.633531e+04
3.932611e+03 -5.825220e+04 -4.334635e+04
9.924287e+03 -5.471894e+04 -4.207587e+04
6.959182e+03 -6.421655e+04 -5.000000e+04
-1.408673e+04 -5.854102e+04 -3.897851e+04
-1.156482e+04 -6.675738e+04 -4.418396e+04
-4.741181e+03 -6.186475e+04 -4.324136e+04
-9.174864e+02 -6.772347e+04 -5.000000e+04
-8.794155e+03 -7.123039e+04 -5.000000e+04
-2.582027e+04 -6.675022e+04 -3.947086e+04
-1.920288e+04 -6.375853e+04 -4.084501e+04
-1.936859e+04 -6.969060e+04 -4.363693e+04
-1.667170e+04 -7.474429e+04 -5.000000e+04
-2.454837e+04 -7.825121e+04 -5.000000e+04
-2.557797e+04 -7.459783e+04 -4.352918e+04
-5.484414e+04 -7.311451e+04 -3.778100e+04
-4.845716e+04 -7.783322e+04 -4.127129e+04
-4.802664e+04 -7.072153e+04 -3.779368e+04
-5.754234e+04 -8.263265e+04 -3.980005e+04
-3.443271e+04 -7.646916e+04 -4.304737e+04
-3.242504e+04 -8.175813e+04 -5.000000e+04
-4.030170e+04 -8.526505e+04 -5.000000e+04
-4.171978e+04 -8.389265e+04 -4.422301e+04
-4.157927e+04 -7.498589e+04 -4.128076e+04
-5.519999e+04 -8.913506e+04 -4.336219e+04
-5.012256e+04 -8.435303e+04 -4.247776e+04
-4.817799e+04 -8.878076e+04 -5.000000e+04
-4.555633e+04 -8.370785e+04 -3.795677e+04
-5.605465e+04 -9.228768e+04 -5.000000e+04
-7.333841e+04 -8.706327e+04 -4.173201e+04
-6.605020e+04 -8.486422e+04 -4.086829e+04
-7.207396e+04 -7.792437e+04 -3.624687e+04
-7.845018e+04 -8.429355e+04 -3.740155e+04
-8.984635e+04 -8.860145e+04 -3.675735e+04
-8.312344e+04 -8.803721e+04 -3.442647e+04
-7.385109e+04 -9.568936e+04 -4.191806e+04
-8.440797e+04 -9.517841e+04 -4.012711e+04
-9.305715e+04 -9.812679e+04 -3.995515e+04
-6.440289e+04 -9.056108e+04 -4.369640e+04
-6.393132e+04 -9.579460e+04 -5.000000e+04
-7.180799e+04 -9.930152e+04 -5.000000e+04
-7.966074e+04 -1.028478e+05 -5.000000e+04
-8.153064e+04 -9.915551e+04 -4.437770e+04
-8.778943e+04 -1.032631e+05 -4.282156e+04
-8.753741e+04 -1.063548e+05 -5.000000e+04
-1.285123e+05 -1.068798e+05 -3.747699e+04
-1.222267e+05 -1.034483e+05 -3.512417e+04
-1.117959e+05 -1.053603e+05 -3.788231e+04
-1.169206e+05 -1.107672e+05 -4.016442e+04
-1.238599e+05 -1.145519e+05 -4.215586e+04
-1.174372e+05 -9.788021e+04 -3.423439e+04
-1.053078e+05 -1.035656e+05 -4.103587e+04
-1.021787e+05 -9.403968e+04 -3.540461e+04
-1.098403e+05 -9.778768e+04 -3.671518e+04
-9.982252e+04 -9.995072e+04 -4.235312e+04
-9.738587e+04 -1.059661e+05 -4.313362e+04
-1.041692e+05 -1.111115e+05 -4.409578e+04
-9.541408e+04 -1.098617e+05 -5.000000e+04
-1.032907e+05 -1.133686e+05 -5.000000e+04
-1.111203e+05 -1.169775e+05 -5.000000e+04
-1.189970e+05 -1.204845e+05 -5.000000e+04
-1.309698e+05 -1.194663e+05 -4.171452e+04
-1.426412e+05 -1.149372e+05 -3.844869e+04
-1.400325e+05 -1.238082e+05 -4.350743e+04
-1.491632e+05 -1.206318e+05 -4.081043e+04
-1.268737e+05 -1.239914e+05 -5.000000e+04
-1.347503e+05 -1.274983e+05 -5.000000e+04
-1.426497e+05 -1.311579e+05 -5.000000e+04
-1.503497e+05 -1.287507e+05 -4.118408e+04
-1.505263e+05 -1.346648e+05 -5.000000e+04
-1.597781e+05 -1.314323e+05 -4.215408e+04
-1.674054e+05 -1.288541e+05 -3.967700e+04
-1.669108e+05 -1.365743e+05 -4.252643e+04
-1.584030e+05 -1.381718e+05 -5.000000e+04
-1.662797e+05 -1.416787e+05 -5.000000e+04
-1.886464e+05 -1.329408e+05 -3.601794e+04
-1.817292e+05 -1.313287e+05 -3.601699e+04
-1.748743e+05 -1.348882e+05 -4.126182e+04
-1.802391e+05 -1.380849e+05 -4.134599e+04
-1.706370e+05 -1.436351e+05 -4.071716e+04
-1.821724e+05 -1.486533e+05 -5.000000e+04
-1.869404e+05 -1.425230e+05 -4.177737e+04
-1.742957e+05 -1.451464e+05 -5.000000e+04
-1.739493e+05 -1.293071e+05 -3.782912e+04
-1.936641e+05 -1.458156e+05 -4.375577e+04
-1.900490e+05 -1.521603e+05 -5.000000e+04
-1.979257e+05 -1.556672e+05 -5.000000e+04
-1.994763e+05 -1.496874e+05 -4.381464e+04
-2.002919e+05 -1.413927e+05 -3.682389e+04
-2.138638e+05 -1.503995e+05 -4.061588e+04
-2.074906e+05 -1.463687e+05 -3.963210e+04
-2.055107e+05 -1.544243e+05 -4.301515e+04
-2.153123e+05 -1.579181e+05 -4.178144e+04
-2.057758e+05 -1.588928e+05 -5.000000e+04
-2.136525e+05 -1.623997e+05 -5.000000e+04
-2.237375e+05 -1.601937e+05 -4.332281e+04
-2.315288e+05 -1.595110e+05 -4.154387e+04
-2.298704e+05 -1.658849e+05 -4.511808e+04
-2.215292e+05 -1.659066e+05 -5.000000e+04
-2.294059e+05 -1.694135e+05 -5.000000e+04
-2.373802e+05 -1.568880e+05 -3.744403e+04
-2.377042e+05 -1.645970e+05 -4.280233e+04
-2.368313e+05 -1.730401e+05 -5.000000e+04
-2.459044e+05 -1.623188e+05 -3.908885e+04
-2.440624e+05 -1.693247e+05 -4.405181e+04
-2.447079e+05 -1.765470e+05 -5.000000e+04
-2.761085e+05 -1.907033e+05 -5.000000e+04
-2.771299e+05 -1.847854e+05 -4.368408e+04
-2.704623e+05 -1.791494e+05 -4.196991e+04
-2.680602e+05 -1.871200e+05 -5.000000e+04
-2.786511e+05 -1.767427e+05 -3.968018e+04
-2.715103e+05 -1.713870e+05 -3.693792e+04
-2.508748e+05 -1.725658e+05 -4.292416e+04
-2.597055e+05 -1.704800e+05 -3.922727e+04
-2.585749e+05 -1.767009e+05 -4.444428e+04
-2.525846e+05 -1.800540e+05 -5.000000e+04
-2.604613e+05 -1.835609e+05 -5.000000e+04
-2.646371e+05 -1.719784e+05 -3.593456e+04
-2.624865e+05 -1.802111e+05 -4.165875e+04
-2.701382e+05 -9.981256e+04 -3.617309e+03
-2.693730e+05 -9.245233e+04 0.000000e+00
-2.771604e+05 -9.591950e+04 0.000000e+00
-2.537999e+05 -9.162182e+04 -3.407382e+03
-2.538694e+05 -8.551997e+04 0.000000e+00
-2.617799e+05 -8.904197e+04 0.000000e+00
-2.620109e+05 -9.855043e+04 -4.578469e+03
-2.389811e+05 -8.574853e+04 -3.437828e+03
-2.380483e+05 -7.847599e+04 0.000000e+00
-2.459589e+05 -8.199798e+04 0.000000e+00
-2.308724e+05 -8.442679e+04 -4.154060e+03
-2.302244e+05 -7.501017e+04 0.000000e+00
-2.243393e+05 -7.783313e+04 -3.281702e+03
-2.223139e+05 -7.148817e+04 0.000000e+00
-1.985898e+05 -6.093588e+04 0.000000e+00
-1.881505e+05 -5.921480e+04 -2.370377e+03
-1.906793e+05 -5.741388e+04 0.000000e+00
-1.914950e+05 -6.935117e+04 -5.440608e+03
-2.080677e+05 -7.061289e+04 -3.255885e+03
-2.064928e+05 -6.444418e+04 0.000000e+00
-2.144034e+05 -6.796618e+04 0.000000e+00
-2.002702e+05 -7.002305e+04 -3.639244e+03
-1.669446e+05 -4.685039e+04 0.000000e+00
-1.661216e+05 -4.791657e+04 -1.710332e+03
-1.610039e+05 -4.508942e+04 -1.510513e+03
-1.827688e+05 -5.389189e+04 0.000000e+00
-1.737043e+05 -5.169931e+04 -1.517197e+03
-1.748582e+05 -5.036990e+04 0.000000e+00
-1.590340e+05 -4.332840e+04 0.000000e+00
-1.353017e+05 -3.276306e+04 0.000000e+00
-1.366263e+05 -3.443615e+04 -1.801941e+03
-1.317409e+05 -3.112414e+04 -1.364469e+03
-1.273912e+05 -2.924107e+04 0.000000e+00
-1.435266e+05 -3.822505e+04 -1.478016e+03
-1.432130e+05 -3.628441e+04 0.000000e+00
-1.511235e+05 -3.980640e+04 0.000000e+00
-1.036601e+05 -1.867397e+04 0.000000e+00
-1.063235e+05 -2.236905e+04 -2.079609e+03
-1.011999e+05 -1.739384e+04 -1.299291e+03
-9.574956e+04 -1.515198e+04 0.000000e+00
-1.194806e+05 -2.571907e+04 0.000000e+00
-1.119926e+05 -2.447551e+04 -1.424276e+03
-1.115701e+05 -2.219708e+04 0.000000e+00
-7.278198e+04 -1.311740e+04 -3.471708e+03
-7.992850e+04 -8.107989e+03 0.000000e+00
-8.233912e+04 -1.205264e+04 -1.867235e+03
-8.783903e+04 -1.162998e+04 0.000000e+00
-6.428525e+04 -1.001984e+04 -4.314223e+03
-6.410699e+04 -1.065007e+03 0.000000e+00
-7.201752e+04 -4.587002e+03 0.000000e+00
-4.963240e+04 -8.773263e+02 -3.871669e+03
-4.828593e+04 5.978982e+03 0.000000e+00
-5.619646e+04 2.456988e+03 0.000000e+00
-3.246531e+04 1.302396e+04 0.000000e+00
-4.037584e+04 9.501965e+03 0.000000e+00
-3.182960e+04 7.512891e+03 -3.226635e+03
-4.044672e+04 2.279676e+03 -3.652479e+03
-1.664425e+04 2.006795e+04 0.000000e+00
-2.455478e+04 1.654595e+04 0.000000e+00
-1.779665e+04 1.272037e+04 -3.694960e+03
-8.733242e+03 2.358886e+04 0.000000e+00
-6.677989e+01 2.003896e+04 -3.699812e+03
-8.227129e+02 2.711086e+04 0.000000e+00
-9.684066e+03 1.400108e+04 -4.716394e+03
7.087817e+03 3.063285e+04 0.000000e+00
1.439335e+04 2.856616e+04 -3.441105e+03
1.499835e+04 3.415485e+04 0.000000e+00
2.290862e+04 3.767741e+04 0.000000e+00
3.165731e+04 3.421513e+04 -3.695925e+03
3.081915e+04 4.119940e+04 0.000000e+00
2.261865e+04 2.907317e+04 -5.158290e+03
3.872968e+04 4.472139e+04 0.000000e+00
4.600414e+04 4.248306e+04 -3.569454e+03
4.664021e+04 4.824339e+04 0.000000e+00
6.245144e+04 4.903300e+04 -3.482335e+03
6.246334e+04 5.528718e+04 0.000000e+00
5.455281e+04 5.176518e+04 0.000000e+00
5.399128e+04 4.147889e+04 -5.182461e+03
7.729019e+04 5.491618e+04 -3.691540e+03
7.828440e+04 6.233117e+04 0.000000e+00
7.037387e+04 5.880917e+04 0.000000e+00
8.553590e+04 5.604430e+04 -4.727108e+03
8.620678e+04 6.584802e+04 0.000000e+00
9.489733e+04 6.247405e+04 -3.491182e+03
9.411731e+04 6.937002e+04 0.000000e+00
1.020278e+05 7.289201e+04 0.000000e+00
1.094329e+05 7.068696e+04 -3.549859e+03
1.099384e+05 7.641401e+04 0.000000e+00
1.257603e+05 7.719781e+04 -3.464487e+03
1.258528e+05 8.342738e+04 0.000000e+00
1.179423e+05 7.990539e+04 0.000000e+00
1.173839e+05 6.977172e+04 -5.134595e+03
1.405072e+05 8.309692e+04 -3.662558e+03
1.416739e+05 9.047137e+04 0.000000e+00
1.337634e+05 8.694938e+04 0.000000e+00
1.485775e+05 8.434963e+04 -4.716839e+03
1.573861e+05 9.116237e+04 -3.471311e+03
1.497639e+05 9.394058e+04 0.000000e+00
1.576744e+05 9.746258e+04 0.000000e+00
1.724048e+05 9.688889e+04 -3.678879e+03
1.734955e+05 1.045066e+05 0.000000e+00
1.655850e+05 1.009846e+05 0.000000e+00
1.808816e+05 9.812686e+04 -4.631776e+03
1.816901e+05 1.079593e+05 0.000000e+00
1.896006e+05 1.114813e+05 0.000000e+00
1.892961e+05 1.052588e+05 -3.442390e+03
2.054217e+05 1.185253e+05 0.000000e+00
1.975111e+05 1.150033e+05 0.000000e+00
2.041079e+05 1.111714e+05 -3.702064e+03
2.135128e+05 1.220658e+05 0.000000e+00
2.121715e+05 1.124387e+05 -4.775584e+03
2.214660e+05 1.194371e+05 -3.659581e+03
2.214233e+05 1.255878e+05 0.000000e+00
2.293338e+05 1.291098e+05 0.000000e+00
2.365096e+05 1.268733e+05 -3.631688e+03
2.372444e+05 1.326318e+05 0.000000e+00
2.443032e+05 1.259038e+05 -5.477913e+03
2.451285e+05 1.362952e+05 0.000000e+00
2.538963e+05 1.325153e+05 -3.919182e+03
2.530390e+05 1.398172e+05 0.000000e+00
2.767991e+05 1.504789e+05 0.000000e+00
2.855294e+05 1.464885e+05 -3.611590e+03
2.845328e+05 1.539221e+05 0.000000e+00
2.764715e+05 1.396309e+05 -5.448884e+03
2.683978e+05 1.408339e+05 -3.692241e+03
2.688601e+05 1.468612e+05 0.000000e+00
2.609496e+05 1.433392e+05 0.000000e+00
6.723731e+04 -1.676436e+04 -3.398386e+04
5.766850e+04 -1.949575e+04 -3.307140e+04
4.841503e+04 -1.394964e+04 -2.889857e+04
5.808365e+04 -1.213444e+04 -3.004911e+04
6.583717e+04 -7.907724e+03 -3.062948e+04
4.782776e+04 -2.267149e+04 -3.243253e+04
4.123962e+04 -1.670798e+04 -3.033099e+04
4.726538e+04 -5.017257e+03 -2.419638e+04
3.677354e+04 -3.624702e+03 -2.040631e+04
4.009181e+04 -1.025809e+04 -2.563032e+04
5.505349e+04 -1.185010e+04 -2.169403e+04
4.511207e+04 2.466843e+03 -2.051130e+04
5.361276e+04 2.407519e+03 -2.233592e+04
5.675087e+04 -4.621767e+03 -2.603890e+04
6.400645e+04 8.504326e+02 -2.480128e+04
9.631558e+04 6.124617e+02 -3.449063e+04
9.153767e+04 -5.035588e+03 -3.502486e+04
8.169226e+04 -1.031655e+03 -3.057720e+04
8.938612e+04 2.678308e+03 -3.045899e+04
8.339365e+04 -9.780634e+03 -3.547850e+04
9.565576e+04 7.308793e+03 -2.963297e+04
7.292375e+04 -5.146714e+03 -2.910699e+04
7.217958e+04 3.210400e+03 -2.615380e+04
7.741857e+04 7.567145e+03 -2.587468e+04
6.933542e+04 1.091859e+04 -1.962966e+04
8.629083e+04 2.088045e+03 -2.263665e+04
9.297926e+04 1.469759e+04 -2.559528e+04
8.615897e+04 1.005676e+04 -2.512114e+04
7.807429e+04 1.411562e+04 -2.172482e+04
8.534479e+04 1.832021e+04 -2.215020e+04
-6.114341e+04 -2.342319e+04 -1.103368e+04
-7.174162e+04 -2.294290e+04 -7.778247e+03
-6.406316e+04 -3.200369e+04 -1.413864e+04
-5.750980e+04 -3.853353e+04 -1.719067e+04
-5.615996e+04 -2.901708e+04 -1.240376e+04
-5.149671e+04 -3.475668e+04 -1.764599e+04
-6.604154e+04 -1.766455e+04 -7.734709e+03
-5.073057e+04 -2.077562e+04 -1.171712e+04
-5.200663e+04 -1.015314e+04 -5.971365e+03
-5.864079e+04 -1.587389e+04 -7.976660e+03
-4.174899e+04 -1.516912e+04 -1.016836e+04
-3.853733e+04 -2.934921e+04 -1.852463e+04
-4.802503e+04 -2.846090e+04 -1.544615e+04
-4.344373e+04 -3.486637e+04 -1.989029e+04
-3.942593e+04 -2.261776e+04 -1.303572e+04
-4.979835e+04 -2.957201e+04 -1.016845e+04
-2.692756e+05 -1.143994e+05 -1.014384e+04
-2.703211e+05 -1.073274e+05 -7.226474e+03
-2.777577e+05 -1.112658e+05 -5.715408e+03
-2.768543e+05 -1.197621e+05 -1.153911e+04
-2.771634e+05 -1.267691e+05 -1.499903e+04
-2.708790e+05 -1.222347e+05 -1.372846e+04
-2.697419e+05 -1.290658e+05 -1.705696e+04
-2.627291e+05 -1.060900e+05 -8.054012e+03
-2.625729e+05 -1.114438e+05 -1.146526e+04
-2.540411e+05 -1.097186e+05 -1.033382e+04
-2.540507e+05 -1.234296e+05 -1.728483e+04
-2.557711e+05 -1.161853e+05 -1.468583e+04
-2.627113e+05 -1.201192e+05 -1.274058e+04
-2.619384e+05 -1.304205e+05 -1.829504e+04
2.412543e+05 7.150636e+04 -2.877038e+04
2.426267e+05 6.541118e+04 -3.454519e+04
2.513266e+05 6.682510e+04 -3.271469e+04
2.494627e+05 7.617971e+04 -2.946532e+04
2.259184e+05 6.368417e+04 -2.896341e+04
2.355398e+05 6.180191e+04 -3.303803e+04
2.337520e+05 6.930125e+04 -2.882732e+04
2.271801e+05 7.265965e+04 -2.445202e+04
2.363985e+05 7.909309e+04 -2.433869e+04
2.271002e+05 8.145683e+04 -2.089438e+04
2.359971e+05 8.690015e+04 -1.975795e+04
2.442809e+05 8.784268e+04 -2.111600e+04
2.445682e+05 8.007734e+04 -2.636545e+04
2.529333e+05 8.428107e+04 -2.545595e+04
2.433321e+05 7.564816e+04 -2.130735e+04
2.035184e+05 1.039694e+05 -7.126009e+03
1.961876e+05 1.001583e+05 -5.712066e+03
2.044053e+05 9.710211e+04 -9.963093e+03
1.969611e+05 9.170312e+04 -1.110404e+04
2.108224e+05 1.053217e+05 -8.177596e+03
2.109239e+05 9.974991e+04 -1.146272e+04
2.188545e+05 1.027293e+05 -1.019505e+04
2.122898e+05 7.940776e+04 -1.739998e+04
2.205564e+05 8.756306e+04 -1.631536e+04
2.114402e+05 9.103244e+04 -1.171837e+04
2.199376e+05 9.582694e+04 -1.247789e+04
1.940760e+05 8.274421e+04 -1.311732e+04
2.024285e+05 8.826126e+04 -1.304033e+04
2.035776e+05 8.127046e+04 -1.638459e+04
2.264815e+05 1.125622e+05 -7.158755e+03
2.281204e+05 1.044241e+05 -1.175389e+04
2.360180e+05 1.103847e+05 -1.022613e+04
2.350828e+05 1.186854e+05 -6.994164e+03
2.427496e+05 1.190453e+05 -8.561277e+03
2.428615e+05 1.132710e+05 -1.177238e+04
2.509136e+05 1.155601e+05 -1.058331e+04
2.429138e+05 9.675552e+04 -1.863189e+04
2.352860e+05 9.508846e+04 -1.710876e+04
2.342402e+05 1.018837e+05 -1.370224e+04
2.429294e+05 1.045510e+05 -1.222633e+04
2.268618e+05 9.588582e+04 -1.461846e+04
2.521053e+05 9.854161e+04 -1.690100e+04
2.507440e+05 1.080665e+05 -1.403348e+04
1.779220e+05 4.472992e+04 -3.061099e+04
1.856803e+05 4.136165e+04 -3.306468e+04
1.854032e+05 4.867930e+04 -2.986050e+04
1.776470e+05 3.432353e+04 -3.193037e+04
1.704050e+05 4.115514e+04 -2.903296e+04
1.867776e+05 5.613700e+04 -2.650626e+04
1.800482e+05 5.196522e+04 -2.697953e+04
1.729514e+05 4.986667e+04 -2.482308e+04
1.710822e+05 5.838076e+04 -2.096870e+04
1.631357e+05 5.265350e+04 -2.185115e+04
1.646581e+05 4.622673e+04 -2.638641e+04
1.793506e+05 5.824759e+04 -2.283826e+04
1.301745e+05 1.168789e+04 -3.401104e+04
1.203067e+05 1.059215e+04 -3.317566e+04
1.116637e+05 1.402157e+04 -2.857219e+04
1.212105e+05 1.655551e+04 -2.992501e+04
1.140270e+05 4.775416e+03 -3.329888e+04
1.288450e+05 2.046047e+04 -3.051963e+04
1.035826e+05 9.889694e+03 -2.831588e+04
1.018232e+05 1.757954e+04 -2.372581e+04
1.101750e+05 2.300788e+04 -2.372815e+04
1.005973e+05 2.602466e+04 -2.043780e+04
1.183272e+05 1.646377e+04 -2.142241e+04
1.197707e+05 2.368190e+04 -2.587313e+04
1.167850e+05 3.042210e+04 -2.232714e+04
1.270568e+05 2.917598e+04 -2.482244e+04
1.092837e+05 3.133946e+04 -1.928742e+04
1.409025e+05 6.906308e+04 -9.961164e+03
1.400562e+05 7.589237e+04 -7.100935e+03
1.326718e+05 7.213169e+04 -5.701213e+03
1.334713e+05 6.376227e+04 -1.105843e+04
1.474534e+05 7.165766e+04 -1.141289e+04
1.554212e+05 7.445764e+04 -1.007322e+04
1.473455e+05 7.717211e+04 -8.144464e+03
1.575382e+05 5.868562e+04 -1.628332e+04
1.562275e+05 6.763922e+04 -1.230900e+04
1.476510e+05 6.295064e+04 -1.173622e+04
1.487634e+05 5.353659e+04 -1.783067e+04
1.399632e+05 5.331574e+04 -1.634196e+04
1.388725e+05 6.029421e+04 -1.302343e+04
1.305536e+05 5.493465e+04 -1.310599e+04
2.744845e+05 1.179613e+05 -1.474858e+04
2.821774e+05 1.133723e+05 -1.734736e+04
2.815760e+05 1.221445e+05 -1.427221e+04
2.760929e+05 1.254078e+05 -1.186913e+04
2.825983e+05 1.298623e+05 -1.144084e+04
2.754025e+05 1.320039e+05 -8.600904e+03
2.724957e+05 1.089345e+05 -1.742610e+04
2.689159e+05 1.230301e+05 -1.033695e+04
2.674413e+05 1.323848e+05 -6.979217e+03
2.590138e+05 1.258218e+05 -8.253541e+03
2.597279e+05 1.164111e+05 -1.136765e+04
2.670869e+05 1.138678e+05 -1.370969e+04
2.586058e+05 1.089152e+05 -1.515818e+04
2.652153e+05 1.074538e+05 -1.870875e+04
2.726140e+05 8.527325e+04 -2.890047e+04
2.753495e+05 7.524057e+04 -3.425899e+04
2.795988e+05 8.247764e+04 -3.372948e+04
2.827777e+05 9.136355e+04 -2.776729e+04
2.828677e+05 9.977937e+04 -2.495435e+04
2.761229e+05 9.408190e+04 -2.610987e+04
2.749769e+05 1.021059e+05 -2.151917e+04
2.668688e+05 7.643723e+04 -3.298848e+04
2.654407e+05 8.355436e+04 -2.941001e+04
2.575827e+05 7.797276e+04 -3.038408e+04
2.598689e+05 8.724662e+04 -2.662320e+04
2.678858e+05 9.280087e+04 -2.516437e+04
2.583519e+05 9.430814e+04 -2.229575e+04
2.661367e+05 1.001839e+05 -2.156463e+04
2.736665e+05 9.001112e+04 -2.132915e+04
3.637453e+04 2.801511e+04 -7.787129e+03
4.561939e+04 2.356157e+04 -1.016966e+04
4.467528e+04 3.419728e+04 -6.818131e+03
3.648980e+04 2.147576e+04 -1.144238e+04
6.254113e+04 3.194730e+04 -1.007979e+04
5.288524e+04 3.401993e+04 -8.178576e+03
5.372177e+04 2.723161e+04 -1.114624e+04
4.521260e+04 1.065411e+04 -1.719123e+04
4.399838e+04 1.717706e+04 -1.466743e+04
3.751528e+04 1.310932e+04 -1.327021e+04
5.340819e+04 9.283370e+03 -1.804477e+04
5.171084e+04 1.870182e+04 -1.406488e+04
6.118254e+04 1.655551e+04 -1.703111e+04
5.928763e+04 2.423834e+04 -1.359702e+04
1.010138e+05 5.755548e+04 -7.440684e+03
1.091011e+05 5.188294e+04 -1.014101e+04
1.084340e+05 6.259119e+04 -6.718553e+03
9.848934e+04 4.847153e+04 -1.015434e+04
1.164142e+05 6.236898e+04 -8.094003e+03
1.172236e+05 5.548005e+04 -1.117828e+04
1.252717e+05 6.140010e+04 -1.017011e+04
1.150223e+05 4.680134e+04 -1.428548e+04
1.170404e+05 3.883694e+04 -1.844458e+04
1.246594e+05 4.503719e+04 -1.702332e+04
1.005340e+05 4.145345e+04 -1.305658e+04
1.085480e+05 3.903161e+04 -1.728684e+04
1.072784e+05 4.543107e+04 -1.471930e+04
1.228107e+05 5.246688e+04 -1.367382e+04
1.629622e+05 3.618194e+04 -2.715118e+04
1.540550e+05 3.057153e+04 -2.969829e+04
1.634466e+05 2.591578e+04 -3.351946e+04
1.543451e+05 2.333057e+04 -3.408197e+04
1.449768e+05 2.718734e+04 -2.993395e+04
1.462075e+05 1.827079e+04 -3.507358e+04
1.359878e+05 2.332656e+04 -2.882810e+04
1.574693e+05 4.384679e+04 -2.471429e+04
1.513830e+05 3.820838e+04 -2.548517e+04
1.482240e+05 4.513227e+04 -2.205680e+04
1.315356e+05 3.860336e+04 -2.034320e+04
1.356579e+05 3.170852e+04 -2.567281e+04
1.421475e+05 3.694743e+04 -2.391357e+04
1.405910e+05 4.527663e+04 -1.870881e+04
1.507194e+05 3.063034e+04 -2.128560e+04
1.647201e+05 7.600084e+04 -1.150758e+04
1.727977e+05 8.171546e+04 -1.019537e+04
1.640741e+05 8.514250e+04 -5.714590e+03
1.717793e+05 8.909522e+04 -7.343353e+03
1.799824e+05 9.028249e+04 -8.086944e+03
1.810146e+05 8.331551e+04 -1.140823e+04
1.886713e+05 8.926938e+04 -1.025138e+04
1.863165e+05 8.022377e+04 -1.389068e+04
1.778629e+05 7.466532e+04 -1.373883e+04
1.887000e+05 7.179696e+04 -1.654928e+04
1.716543e+05 6.665261e+04 -1.744398e+04
1.704053e+05 7.336665e+04 -1.393397e+04
1.632014e+05 6.749620e+04 -1.469044e+04
1.799917e+05 6.489881e+04 -1.824625e+04
1.794019e+05 7.756165e+04 -8.363347e+03
2.095806e+05 5.571107e+04 -3.049586e+04
2.201005e+05 5.312959e+04 -3.306966e+04
2.179288e+05 6.154538e+04 -2.985362e+04
2.107734e+05 4.673545e+04 -3.399995e+04
2.010241e+05 4.627339e+04 -3.308782e+04
2.009143e+05 5.512596e+04 -2.870751e+04
1.929059e+05 5.034035e+04 -2.910750e+04
2.188878e+05 6.978633e+04 -2.629877e+04
2.121902e+05 6.521920e+04 -2.668238e+04
2.113310e+05 7.212902e+04 -2.237081e+04
1.958603e+05 6.762566e+04 -2.193802e+04
2.052429e+05 6.336783e+04 -2.433095e+04
2.031797e+05 7.253291e+04 -2.030574e+04
1.949621e+05 5.880528e+04 -2.464962e+04
2.058323e+05 5.436426e+04 -2.309343e+04
1.876696e+04 -2.870597e+04 -3.050376e+04
2.003321e+04 -3.752669e+04 -3.388317e+04
2.607663e+04 -3.193190e+04 -3.420872e+04
3.596188e+04 -2.962626e+04 -3.497614e+04
2.716340e+04 -2.586999e+04 -3.083333e+04
3.564984e+04 -2.202717e+04 -3.027430e+04
1.146462e+04 -3.217607e+04 -2.829714e+04
3.284931e+04 -1.390209e+04 -2.448084e+04
2.200286e+04 -1.237124e+04 -2.218175e+04
2.525055e+04 -1.895018e+04 -2.591902e+04
2.475833e+04 -2.676241e+04 -2.359837e+04
1.567009e+04 -2.228426e+04 -2.334991e+04
4.176859e+03 -1.824094e+04 -1.983294e+04
6.019663e+03 -2.499120e+04 -2.577398e+04
1.400596e+04 -1.197873e+04 -1.912384e+04
-2.141271e+05 -1.426778e+05 -3.420938e+04
-2.211737e+05 -1.483058e+05 -3.580927e+04
-2.300689e+05 -1.446452e+05 -3.275086e+04
-2.234410e+05 -1.391069e+05 -3.066637e+04
-2.167403e+05 -1.329440e+05 -3.035450e+04
-2.294931e+05 -1.526905e+05 -3.778712e+04
-2.372510e+05 -1.492281e+05 -3.446539e+04
-2.372815e+05 -1.422482e+05 -3.071113e+04
-2.443986e+05 -1.464986e+05 -2.935117e+04
-2.365487e+05 -1.353435e+05 -2.369506e+04
-2.384105e+05 -1.252521e+05 -2.160433e+04
-2.465694e+05 -1.291507e+05 -1.934923e+04
-2.458500e+05 -1.389381e+05 -2.574144e+04
-2.207106e+05 -1.252651e+05 -2.556358e+04
-2.267148e+05 -1.314645e+05 -2.600738e+04
-2.282362e+05 -1.421813e+05 -2.468630e+04
-2.296384e+05 -1.243021e+05 -2.205858e+04
-2.789821e+05 -1.617813e+05 -3.240536e+04
-2.777593e+05 -1.571700e+05 -2.645322e+04
-2.682553e+05 -1.553382e+05 -2.409713e+04
-2.734155e+05 -1.583773e+05 -3.014883e+04
-2.675535e+05 -1.460302e+05 -2.374591e+04
-2.783814e+05 -1.431578e+05 -2.024175e+04
-2.759655e+05 -1.500553e+05 -2.473434e+04
-2.722534e+05 -1.641352e+05 -3.444848e+04
-2.702435e+05 -1.374559e+05 -2.025966e+04
-2.540092e+05 -1.474304e+05 -2.881778e+04
-2.613307e+05 -1.541903e+05 -2.981908e+04
-2.512155e+05 -1.564022e+05 -3.283282e+04
-2.590261e+05 -1.618946e+05 -3.512489e+04
-2.650113e+05 -1.636140e+05 -3.359938e+04
-2.681304e+05 -1.603182e+05 -3.027345e+04
-2.623177e+05 -1.371768e+05 -2.249581e+04
-2.606100e+05 -1.442275e+05 -2.606235e+04
-2.536236e+05 -1.384585e+05 -2.453840e+04
-2.710385e+05 -1.627472e+05 -2.481711e+04
7.886518e+04 4.010289e+04 -1.005625e+04
7.714441e+04 4.756538e+04 -7.117182e+03
6.951238e+04 4.393335e+04 -5.669544e+03
7.002947e+04 3.555720e+04 -1.082310e+04
8.459796e+04 4.868287e+04 -8.174888e+03
8.553205e+04 4.236628e+04 -1.137922e+04
9.097245e+04 4.699786e+04 -1.096452e+04
7.787020e+04 2.178526e+04 -1.608045e+04
7.554042e+04 3.164096e+04 -1.292930e+04
6.759029e+04 2.608638e+04 -1.393676e+04
8.600647e+04 2.595909e+04 -1.753251e+04
9.388269e+04 3.244577e+04 -1.641803e+04
8.407343e+04 3.328122e+04 -1.365265e+04
9.193313e+04 3.970889e+04 -1.304424e+04
8.098063e+04 3.250459e+04 -8.443934e+03
4.525563e+03 1.345191e+04 -8.011535e+03
1.388293e+04 9.380438e+03 -1.002647e+04
1.405446e+04 2.081364e+04 -5.588171e+03
4.696623e+03 5.756668e+03 -1.136033e+04
2.117134e+04 2.073705e+04 -8.468091e+03
2.225490e+04 1.366565e+04 -1.107144e+04
2.928704e+04 1.983690e+04 -1.012929e+04
3.015076e+04 3.074622e+03 -1.662992e+04
2.038570e+04 4.653687e+03 -1.392448e+04
2.228241e+04 -3.558876e+03 -1.821367e+04
2.958185e+04 1.141342e+04 -1.205308e+04
1.217008e+04 2.954086e+03 -1.470392e+04
5.336371e+03 -1.252864e+03 -1.355819e+04
1.347853e+04 -3.649069e+03 -1.719528e+04
-6.180034e+03 -3.955511e+04 -3.005965e+04
1.494103e+03 -4.256757e+04 -3.412705e+04
1.799130e+03 -3.485484e+04 -2.754769e+04
-1.537168e+04 -4.259137e+04 -2.996378e+04
-1.363015e+04 -5.205823e+04 -3.326347e+04
-6.909247e+03 -4.596390e+04 -3.357737e+04
-2.112729e+04 -4.590115e+04 -3.143417e+04
-1.888416e+04 -3.521666e+04 -2.596578e+04
-2.863383e+04 -3.416520e+04 -2.147940e+04
-2.381488e+04 -4.003934e+04 -2.706792e+04
-1.925313e+04 -2.868976e+04 -2.021665e+04
-1.103007e+04 -2.430627e+04 -2.138792e+04
-9.589120e+03 -3.299826e+04 -2.338634e+04
-2.120234e+03 -2.707123e+04 -2.371967e+04
-1.148130e+04 -4.059284e+04 -2.355173e+04
-1.788524e+04 5.616895e+03 -6.971686e+03
-2.460191e+04 3.110896e+03 -5.239759e+03
-1.603695e+04 -1.711430e+03 -9.532106e+03
-2.581596e+04 -4.554003e+03 -9.616713e+03
-3.296697e+04 -1.036248e+03 -6.734797e+03
-3.312075e+04 -9.813019e+03 -1.040121e+04
-1.058389e+04 6.774389e+03 -7.962233e+03
-9.690268e+03 1.488384e+02 -1.120129e+04
-2.787767e+03 5.326581e+03 -1.034465e+04
-3.025047e+04 -1.686345e+04 -1.339170e+04
-2.216269e+04 -1.069108e+04 -1.120681e+04
-1.881891e+04 -1.966499e+04 -1.561395e+04
-1.193816e+04 -8.996895e+03 -1.340714e+04
-1.017029e+04 -1.637735e+04 -1.745410e+04
-1.707943e+03 -1.016619e+04 -1.640977e+04
-3.624163e+03 -2.408973e+03 -1.276375e+04
-1.460438e+04 -9.431823e+03 -7.618210e+03
-5.339707e+04 -5.889834e+04 -2.911533e+04
-5.083213e+04 -5.109861e+04 -2.632825e+04
-4.389551e+04 -4.924428e+04 -2.633918e+04
-4.521852e+04 -5.672657e+04 -3.025169e+04
-4.870684e+04 -4.169616e+04 -2.084287e+04
-4.549584e+04 -6.367909e+04 -3.453931e+04
-2.447517e+04 -5.875264e+04 -3.639797e+04
-3.179044e+04 -6.295191e+04 -3.722364e+04
-3.856700e+04 -6.063748e+04 -3.367217e+04
-3.240754e+04 -5.615531e+04 -3.247821e+04
-2.587084e+04 -5.120906e+04 -3.074025e+04
-3.940972e+04 -6.920967e+04 -3.762392e+04
-3.006746e+04 -4.355751e+04 -2.602249e+04
-4.088705e+04 -4.235026e+04 -2.417353e+04
-3.579977e+04 -4.903308e+04 -2.782357e+04
-3.790178e+04 -5.749548e+04 -2.469290e+04
-2.368455e+05 -1.015897e+05 -1.020710e+04
-2.387614e+05 -9.333460e+04 -7.080154e+03
-2.465278e+05 -9.704256e+04 -5.544848e+03
-2.460133e+05 -1.052081e+05 -1.075851e+04
-2.305222e+05 -9.200148e+04 -7.655334e+03
-2.287540e+05 -1.008265e+05 -1.209285e+04
-2.216505e+05 -9.503720e+04 -1.054361e+04
-2.397366e+05 -1.177567e+05 -1.646877e+04
-2.410350e+05 -1.089411e+05 -1.325391e+04
-2.482882e+05 -1.137928e+05 -1.393557e+04
-2.308878e+05 -1.170503e+05 -1.743698e+04
-2.243890e+05 -1.097157e+05 -1.601729e+04
-2.336584e+05 -1.094773e+05 -1.418258e+04
-2.174043e+05 -1.048296e+05 -1.575579e+04
-2.362518e+05 -1.102147e+05 -9.498287e+03
-1.868338e+05 -1.246108e+05 -3.164145e+04
-1.946972e+05 -1.272015e+05 -3.231309e+04
-2.032105e+05 -1.234397e+05 -2.829551e+04
-1.964636e+05 -1.216211e+05 -2.700848e+04
-2.004544e+05 -1.321516e+05 -3.348402e+04
-1.893881e+05 -1.182761e+05 -2.887684e+04
-2.101675e+05 -1.286055e+05 -2.837676e+04
-2.127393e+05 -1.211744e+05 -2.346358e+04
-2.059635e+05 -1.147916e+05 -2.259031e+04
-2.156476e+05 -1.134632e+05 -1.951901e+04
-2.098198e+05 -1.083064e+05 -1.972878e+04
-2.004196e+05 -1.083643e+05 -2.175230e+04
-2.055067e+05 -1.017029e+05 -1.722021e+04
-1.894452e+05 -1.122288e+05 -2.635880e+04
-1.959519e+05 -1.154046e+05 -2.344421e+04
-1.966134e+05 -1.000772e+05 -1.836476e+04
-1.907250e+05 -1.069679e+05 -2.046531e+04
-2.000708e+05 -1.126405e+05 -1.675704e+04
-2.168191e+05 -9.023666e+04 -1.068193e+04
-2.116567e+05 -8.604934e+04 -9.929093e+03
-2.179914e+05 -8.297469e+04 -5.870937e+03
-2.098048e+05 -7.844108e+04 -6.031735e+03
-2.043080e+05 -8.508535e+04 -9.931452e+03
-2.091174e+05 -9.399158e+04 -1.230195e+04
-1.636738e+05 -9.991299e+04 -2.469025e+04
-1.598383e+05 -1.076312e+05 -2.861913e+04
-1.654038e+05 -1.147634e+05 -3.295874e+04
-1.690384e+05 -1.073798e+05 -2.640325e+04
-1.719049e+05 -9.904352e+04 -2.405047e+04
-1.563637e+05 -1.176333e+05 -3.546931e+04
-1.642975e+05 -1.230830e+05 -3.750021e+04
-1.816787e+05 -1.176108e+05 -2.971979e+04
-1.720240e+05 -1.212421e+05 -3.460846e+04
-1.738296e+05 -1.142413e+05 -3.068706e+04
-1.823128e+05 -1.104422e+05 -2.630836e+04
-1.756770e+05 -1.077912e+05 -2.870043e+04
-1.780774e+05 -1.026773e+05 -2.343258e+04
-1.713234e+05 -8.722067e+04 -1.710014e+04
-1.784290e+05 -8.955535e+04 -1.655850e+04
-1.742817e+05 -9.286075e+04 -2.019552e+04
-1.744957e+05 -8.092583e+04 -1.527749e+04
-1.808958e+05 -8.315712e+04 -1.416011e+04
-1.784404e+05 -7.414208e+04 -9.088130e+03
-1.870878e+05 -7.661699e+04 -9.695609e+03
-1.957111e+05 -7.675904e+04 -8.149391e+03
-1.893420e+05 -8.341690e+04 -1.240545e+04
-1.966750e+05 -8.417977e+04 -1.142520e+04
-1.923823e+05 -9.253084e+04 -1.437402e+04
-1.867050e+05 -9.901558e+04 -1.874670e+04
-1.796388e+05 -9.610601e+04 -1.895783e+04
-1.852542e+05 -8.999022e+04 -1.383861e+04
-1.795234e+05 -8.954153e+04 -1.117599e+04
-2.854828e+05 -1.821083e+05 -3.979503e+04
-2.794092e+05 -1.703567e+05 -3.449500e+04
-2.866015e+05 -1.142762e+05 -7.403398e+03
-2.779864e+05 -1.020960e+05 -4.227631e+03
-2.776060e+05 -1.349385e+05 -1.687534e+04
-2.554649e+05 -1.003937e+05 -6.808494e+03
2.928362e+05 1.493170e+05 -4.544265e+03
2.843973e+05 1.369144e+05 -7.093931e+03
2.872233e+05 8.518134e+04 -3.256311e+04
2.799733e+05 7.151126e+04 -3.917400e+04
2.728112e+05 6.662468e+04 -3.284146e+04
2.592219e+05 7.084105e+04 -3.411461e+04
2.818568e+05 1.065064e+05 -2.285097e+04
-2.863483e+05 -1.462813e+05 -2.116241e+04
-2.533079e+05 -1.643774e+05 -3.855292e+04
-2.566628e+05 -1.713780e+05 -3.253791e+04
-2.665877e+05 -1.337437e+05 -1.395044e+04
-2.552504e+05 -1.317067e+05 -2.110097e+04
2.903559e+05 1.182234e+05 -1.862546e+04
2.614092e+05 1.354520e+05 -4.582596e+03
2.720107e+05 1.365210e+05 -3.087024e+03
2.594944e+05 1.024811e+05 -1.893637e+04
-1.677207e+05 -9.384321e+04 -2.162013e+04
-1.703093e+05 -7.422189e+04 -1.189436e+04
-1.251956e+05 -9.558041e+04 -3.151344e+04
-1.402275e+05 -6.796075e+04 -1.474647e+04
-1.336355e+05 -7.585223e+04 -1.229091e+04
-1.055566e+05 -8.603586e+04 -3.116662e+04
-1.155635e+05 -9.473335e+04 -2.577135e+04
-1.358697e+05 -1.114969e+05 -3.580361e+04
-1.836573e+05 -6.594358e+04 -6.291109e+03
-1.528618e+05 -6.003183e+04 -9.001404e+03
-1.648163e+05 -6.777169e+04 -6.621243e+03
-1.595068e+05 -4.974138e+04 -2.964469e+03
-1.423826e+05 -6.615485e+04 -9.133800e+03
-1.497736e+05 -1.136286e+05 -3.540348e+04
-1.853220e+05 -1.037950e+05 -2.415959e+04
-1.584964e+05 -1.247393e+05 -4.114298e+04
-1.250625e+05 -4.675697e+04 -8.659927e+03
-1.358831e+05 -5.639122e+04 -7.273672e+03
-7.277134e+04 -3.297817e+04 -1.267681e+04
-5.548902e+04 -4.517128e+04 -2.194040e+04
-5.600881e+04 -4.652938e+04 -1.561955e+04
-5.275032e+04 -6.581312e+04 -3.423194e+04
-6.261701e+04 -7.561457e+04 -3.614203e+04
-5.273926e+04 -5.545247e+04 -2.176538e+04
-3.186878e+04 -6.980220e+04 -4.074427e+04
-4.395983e+04 -6.963607e+04 -3.156449e+04
-8.359540e+04 -4.298879e+04 -1.371691e+04
-7.630890e+04 -1.660876e+04 -5.648328e+03
-7.498166e+04 -7.111346e+04 -3.064681e+04
-9.618054e+04 -9.071324e+04 -3.817704e+04
-7.004267e+04 -7.371046e+04 -2.931758e+04
-3.590719e+04 -3.658196e+04 -2.263756e+04
-4.202326e+04 -4.270240e+04 -1.778809e+04
-9.710939e+04 -3.716312e+04 -9.163749e+03
-1.802074e+05 -5.621350e+04 -2.190775e+03
-2.031042e+05 -7.741947e+04 -5.890606e+03
-1.810254e+05 -6.148602e+04 -2.173529e+03
-1.524688e+05 -4.346843e+04 -1.410636e+03
-1.015461e+05 -2.185895e+04 -3.162906e+03
-9.066943e+04 -1.394961e+04 -1.355269e+03
-5.746537e+04 -4.188687e+03 -3.620316e+03
-1.230136e+05 -2.664692e+04 -1.106877e+03
-9.822988e+04 -2.645377e+04 -3.334029e+03
-1.120129e+05 -5.516973e+04 -1.498754e+04
-1.307743e+05 -3.616094e+04 -2.955798e+03
2.503270e+05 5.985951e+04 -3.888387e+04
2.540085e+05 7.673477e+04 -2.383140e+04
2.506981e+05 9.189328e+04 -2.313669e+04
2.279223e+05 5.658326e+04 -3.426167e+04
2.194904e+05 4.444802e+04 -3.802083e+04
1.931337e+05 4.354133e+04 -3.437006e+04
2.198141e+05 7.702695e+04 -2.045857e+04
1.851276e+05 2.973822e+04 -3.782641e+04
1.682483e+05 3.161982e+04 -3.382525e+04
1.880313e+05 6.295002e+04 -2.084423e+04
1.552778e+05 1.495249e+04 -3.911196e+04
1.605375e+05 1.981920e+04 -2.973591e+04
1.550578e+05 5.071656e+04 -2.096446e+04
1.373850e+05 1.690967e+04 -3.310039e+04
1.427331e+05 1.193698e+04 -3.024026e+04
1.206794e+05 2.741378e+02 -3.857606e+04
1.047394e+05 2.235328e+03 -3.277047e+04
1.263220e+05 6.271804e+03 -2.980387e+04
1.238252e+05 3.632679e+04 -2.132018e+04
1.360430e+05 2.676957e+04 -2.074682e+04
9.251220e+04 -1.286171e+04 -3.971828e+04
9.889551e+04 -2.260288e+04 -4.194391e+04
7.458808e+04 -1.146059e+04 -3.328255e+04
8.068521e+04 -1.662494e+04 -3.085379e+04
9.334673e+04 2.199034e+04 -2.007116e+04
5.729759e+04 -2.745778e+04 -3.705193e+04
6.077750e+04 8.007912e+03 -2.098757e+04
7.299229e+04 -2.050523e+03 -2.152505e+04
4.216381e+04 -2.528882e+04 -3.509100e+04
2.642426e+04 -4.170666e+04 -3.902692e+04
1.071491e+04 -4.053586e+04 -3.280933e+04
3.921759e+04 -3.761966e+04 -3.328849e+04
2.907618e+04 -6.102179e+03 -2.116812e+04
-5.502145e+03 -5.571189e+04 -3.879281e+04
2.908971e+03 -6.415692e+04 -4.119059e+04
-2.051412e+04 -5.381963e+04 -3.604190e+04
-3.916373e+03 -1.970846e+04 -2.037149e+04
-2.048776e+04 -6.669580e+04 -3.488168e+04
-3.036101e+04 -7.556504e+04 -3.717416e+04
-1.794126e+05 -1.243607e+05 -3.430024e+04
-1.652700e+05 -1.259623e+05 -3.208122e+04
-1.942040e+05 -1.364364e+05 -3.875874e+04
-1.802859e+05 -1.281738e+05 -2.962075e+04
-2.080385e+05 -1.359029e+05 -3.288300e+04
-2.229872e+05 -1.534033e+05 -4.111246e+04
-2.219782e+05 -1.184388e+05 -2.024229e+04
-2.306433e+05 -1.605478e+05 -3.585701e+04
-2.441830e+05 -1.535653e+05 -3.476541e+04
-2.484616e+05 -1.649901e+05 -3.310370e+04
-2.508474e+05 -1.438211e+05 -2.061417e+04
-2.468829e+05 -8.803611e+04 -4.128752e+03
-2.246376e+05 -8.544635e+04 -6.204207e+03
-2.471321e+05 -1.198337e+05 -1.840214e+04
-2.156551e+05 -7.476237e+04 -3.040028e+03
-2.133985e+05 -9.937417e+04 -1.517119e+04
-2.004469e+05 -9.248564e+04 -1.259225e+04
-4.212542e+04 -6.212484e+03 -6.252143e+03
-2.552134e+04 1.053924e+04 -4.167017e+03
-2.941108e+04 -2.587153e+04 -1.636225e+04
-3.560702e+03 1.218182e+04 -7.081852e+03
7.348495e+03 2.310795e+04 -4.285963e+03
1.133827e+03 1.255930e+04 -4.361989e+03
2.845920e+04 2.657469e+04 -7.168950e+03
2.203017e+04 2.088088e+04 -4.842668e+03
6.769260e+03 -9.053902e+03 -1.794069e+04
6.662029e+02 2.740442e+02 -8.698068e+03
3.903960e+04 3.716384e+04 -4.331466e+03
3.306943e+04 2.682510e+04 -4.323008e+03
3.842544e+04 5.216238e+03 -1.803653e+04
6.062632e+04 4.002787e+04 -6.883380e+03
4.902269e+04 3.817007e+04 -2.952829e+03
6.866195e+04 1.999181e+04 -1.834190e+04
6.394115e+04 2.404410e+04 -9.354263e+03
6.937684e+04 5.263060e+04 -4.216372e+03
9.298478e+04 5.346692e+04 -6.736050e+03
1.025625e+05 6.551483e+04 -4.220923e+03
1.021489e+05 3.404741e+04 -1.799853e+04
1.125891e+05 6.639160e+04 -2.902228e+03
1.239546e+05 6.840015e+04 -6.811352e+03
1.326313e+05 8.081379e+04 -4.207110e+03
1.548605e+05 8.251660e+04 -6.961431e+03
1.331011e+05 4.755427e+04 -1.759698e+04
1.319570e+05 5.842776e+04 -8.081071e+03
1.646388e+05 6.122963e+04 -1.841551e+04
1.640366e+05 6.687081e+04 -9.944664e+03
1.643384e+05 9.468345e+04 -4.264416e+03
1.873170e+05 9.647960e+04 -6.779176e+03
1.961096e+05 1.089108e+05 -4.222971e+03
1.955005e+05 8.609008e+04 -8.152936e+03
1.962419e+05 7.555432e+04 -1.768364e+04
2.182275e+05 1.105459e+05 -7.131553e+03
2.296062e+05 1.212452e+05 -4.799533e+03
2.399445e+05 1.225317e+05 -3.108466e+03
2.504245e+05 1.243303e+05 -7.541340e+03
2.286529e+05 1.163800e+05 -3.026198e+03
2.287900e+05 8.940689e+04 -1.821016e+04
2.279935e+05 9.558201e+04 -9.581359e+03
2.556854e+05 1.249969e+05 -4.473205e+03
4.852337e+04 5.896320e+03 -1.385999e+04
3.746728e+04 2.598626e+02 -1.353608e+04
2.224105e+04 -1.256120e+04 -1.516828e+04
1.013239e+05 3.012000e+04 -1.304441e+04
2.071802e+05 7.606636e+04 -1.266661e+04
2.282309e+05 8.490971e+04 -1.312381e+04
1.746948e+05 6.170158e+04 -1.433592e+04
1.599604e+05 5.072452e+04 -1.507826e+04
1.488599e+05 4.512944e+04 -1.517767e+04
1.170010e+05 3.042391e+04 -1.546110e+04
1.316515e+05 4.235038e+04 -1.317189e+04
5.642649e+03 -1.312118e+04 -1.280024e+04
-2.186367e+05 -1.106304e+05 -1.234372e+04
3.469886e+05 2.073847e+05 -7.407605e+04
3.433849e+05 1.692343e+05 -7.182181e+04
3.577346e+05 1.835409e+05 -8.762601e+04
3.759273e+05 1.923420e+05 -7.090359e+04
3.733466e+05 1.544178e+05 -7.844967e+04
3.780080e+05 1.899830e+05 -9.705035e+04
3.719652e+05 2.206219e+05 -1.141026e+05
3.797832e+05 2.208933e+05 -8.916727e+04
4.000000e+05 2.086968e+05 -7.809735e+04
3.592370e+04 -3.328767e+05 -1.111177e+05
3.620065e+03 -3.274225e+05 -1.109617e+05
2.348705e+03 -3.334736e+05 -1.389765e+05
1.061208e+04 -3.588363e+05 -1.185829e+05
8.212558e+04 -3.357512e+05 -1.111367e+05
9.160786e+04 -3.546434e+05 -1.415828e+05
9.145980e+04 -3.777382e+05 -1.235979e+05
6.754657e+04 -3.426098e+05 -1.387508e+05
1.597899e+04 -3.324891e+05 -9.401645e+04
-1.006169e+04 -3.692422e+05 -1.107090e+05
-1.739270e+04 -3.767091e+05 -1.412505e+05
-3.080390e+04 -3.420946e+05 -1.385016e+05
2.410447e+03 3.238717e+05 -1.181704e+05
-1.480417e+03 3.381956e+05 -1.451295e+05
-1.553984e+04 3.611755e+05 -1.385151e+05
1.438680e+04 3.508951e+05 -1.129276e+05
2.268770e+04 3.286893e+05 -9.796533e+04
1.769597e+04 3.730252e+05 -8.810107e+04
4.755026e+04 3.352984e+05 -9.413021e+04
4.264783e+04 3.686864e+05 -1.147418e+05
1.813426e+04 3.808687e+05 -1.312880e+05
1.676343e+04 3.550546e+05 -1.382719e+05
3.620762e+04 3.302988e+05 -1.261333e+05
-3.334864e+05 -3.964356e+04 -1.147117e+05
-3.128816e+05 -5.139789e+04 -1.400256e+05
-3.342114e+05 -6.604467e+04 -1.385271e+05
-3.437778e+05 -3.472975e+04 -1.397566e+05
-3.135918e+05 -4.000000e+05 -1.317406e+05
-2.959570e+05 -4.000000e+05 -1.040513e+05
-2.783180e+05 -4.000000e+05 -1.311186e+05
-2.922785e+05 -3.663308e+05 -1.120470e+05
-3.747842e+05 -4.335183e+04 -1.140735e+05
-3.605766e+05 -1.739174e+04 -1.407124e+05
-3.668116e+05 -1.162746e+04 -1.105253e+05
-3.110875e+05 -3.478260e+04 -1.600000e+05
-3.223061e+05 -1.715196e+04 -1.377793e+05
-3.407250e+05 -1.739131e+04 -1.600000e+05
-3.334917e+05 -5.813311e+03 -1.152700e+05
-3.750692e+05 -5.216883e+04 -1.408393e+05
-3.703625e+05 -3.478260e+04 -1.600000e+05
3.738592e+05 -6.523857e+04 -1.000622e+05
3.564454e+05 -8.975074e+04 -1.135536e+05
3.768438e+05 -8.704070e+04 -8.441715e+04
3.502699e+05 -7.491294e+04 -7.140831e+04
3.343035e+05 -7.150652e+04 -9.313553e+04
3.220875e+05 -6.354717e+04 -7.221292e+04
3.358049e+05 -9.909342e+04 -7.346141e+04
3.730684e+05 3.176509e+05 -1.119106e+05
3.327334e+05 3.264926e+05 -1.319996e+05
3.348139e+05 3.315065e+05 -8.758343e+04
3.560326e+05 3.440388e+05 -1.166424e+05
2.943055e+05 -3.631515e+05 -1.066484e+05
2.761242e+05 -3.397583e+05 -1.201610e+05
2.653299e+05 -3.360084e+05 -9.461238e+04
3.001321e+05 -3.366721e+05 -8.871149e+04
3.563689e+05 3.325410e+05 -7.096785e+04
3.556066e+05 3.546027e+05 -8.794982e+04
3.792098e+05 3.317802e+05 -8.365092e+04
3.786636e+05 3.522944e+05 -1.064283e+05
3.187399e+05 3.711635e+05 -1.114530e+05
3.348248e+05 3.591052e+05 -1.391455e+05
3.510995e+05 3.794351e+05 -1.118010e+05
3.749502e+05 3.718571e+05 -1.354987e+05
3.338267e+05 -1.073615e+05 -1.152767e+05
3.649323e+05 -1.139759e+05 -1.104146e+05
3.586625e+05 -8.427660e+04 -1.420267e+05
3.456479e+05 -6.465531e+04 -1.165377e+05
3.741962e+05 -5.506790e+04 -1.330278e+05
3.171386e+05 -9.463193e+04 -1.009758e+05
-6.672792e+04 1.813590e+05 -1.200000e+05
-8.565891e+04 1.856515e+05 -1.400135e+05
-5.105854e+04 1.861391e+05 -1.399401e+05
-6.713184e+04 1.611746e+05 -1.399907e+05
3.278570e+05 -6.878555e+04 -1.372964e+05
-8.695649e+04 2.814500e+05 -1.600000e+05
-1.217399e+05 2.814475e+05 -1.600000e+05
-1.016890e+05 2.670636e+05 -1.398420e+05
-1.167869e+05 2.920709e+05 -1.397617e+05
-1.043478e+05 3.110875e+05 -1.600000e+05
-1.236822e+05 3.207811e+05 -1.400268e+05
-1.391304e+05 3.110870e+05 -1.600000e+05
-1.000000e+05 3.000000e+05 -1.200000e+05
-9.390094e+04 3.220601e+05 -1.400534e+05
-3.442263e+05 -2.361964e+05 -7.335527e+04
-3.223599e+05 -1.992398e+05 -7.060111e+04
-3.000000e+05 -1.804460e+05 -8.651684e+04
-3.171634e+05 -1.948015e+05 -1.008056e+05
-3.000000e+05 -2.147012e+05 -8.619606e+04
1.308856e+05 -3.675986e+05 -9.932528e+04
1.293856e+05 -3.338816e+05 -1.153425e+05
1.537582e+05 -3.496420e+05 -1.018507e+05
1.487851e+05 -3.602879e+05 -1.393847e+05
1.679899e+05 -3.267313e+05 -1.400087e+05
1.699334e+05 -3.540207e+05 -1.351922e+05
1.247703e+05 -3.206905e+05 -1.400398e+05
1.217392e+05 -3.407249e+05 -1.600000e+05
1.565229e+05 -3.407240e+05 -1.600000e+05
1.739134e+05 -3.703622e+05 -1.600000e+05
1.212424e+05 -3.597572e+05 -1.408160e+05
1.391304e+05 -3.703625e+05 -1.600000e+05
3.000000e+05 1.526597e+05 -8.443677e+04
3.415890e+05 1.383910e+05 -7.364739e+04
3.323400e+05 1.741195e+05 -9.085603e+04
-4.000000e+05 -1.565218e+05 -1.039511e+05
-3.715290e+05 -1.832959e+05 -1.128314e+05
-4.000000e+05 -1.739132e+05 -1.317672e+05
-3.749643e+05 -1.471407e+05 -1.135003e+05
3.373624e+05 2.061598e+05 -1.147011e+05
3.459463e+05 1.744865e+05 -1.180312e+05
4.000000e+05 1.739133e+05 -7.904660e+04
3.684242e+05 1.659032e+05 -1.010909e+05
4.000000e+05 1.565220e+05 -1.067846e+05
-4.000000e+05 -2.434840e+05 -1.313903e+05
-4.000000e+05 -2.260899e+05 -1.043369e+05
-4.000000e+05 -2.608934e+05 -1.043696e+05
-3.672797e+05 -2.518703e+05 -1.094923e+05
4.000000e+05 1.913053e+05 -1.060104e+05
-3.604879e+05 1.739144e+04 -1.400508e+05
-3.460427e+05 1.016339e+02 -1.396876e+05
-3.344617e+05 3.269316e+04 -1.391531e+05
-3.524305e+05 2.198577e+04 -1.186115e+05
-3.333480e+05 3.900706e+04 -1.157325e+05
-3.346804e+05 2.600172e+04 -7.359721e+04
-3.669310e+05 4.581525e+04 -1.116967e+05
-4.000000e+05 -1.913048e+05 -1.050551e+05
2.333333e+05 3.000000e+05 -1.200000e+05
2.524548e+05 3.000000e+05 -8.548316e+04
2.388144e+05 3.306861e+05 -1.145878e+05
2.241752e+05 3.299795e+05 -9.619972e+04
2.967128e+05 -3.398590e+05 -1.600000e+05
2.939224e+05 -3.181119e+05 -1.392916e+05
2.819073e+05 -3.402520e+05 -1.443339e+05
3.149323e+05 -3.318315e+05 -1.403240e+05
3.115856e+05 -3.125047e+05 -1.600000e+05
3.138869e+05 -3.692166e+05 -1.600000e+05
2.963231e+05 -3.712052e+05 -1.403289e+05
3.356409e+05 -3.602187e+05 -1.383744e+05
3.359235e+05 -3.354735e+05 -1.600000e+05
-3.340011e+05 -1.638605e+05 -7.421897e+04
-3.732313e+05 -1.483495e+05 -8.289736e+04
-3.450361e+05 -1.275492e+05 -9.173062e+04
-3.625193e+05 -1.151566e+05 -7.063666e+04
-3.671603e+05 -1.146185e+05 -1.087542e+05
-3.454416e+05 -8.288566e+04 -9.185920e+04
-3.616010e+05 -1.661677e+05 -8.926421e+04
-3.338542e+05 -1.073533e+05 -1.143465e+05
-3.243749e+05 -1.239787e+05 -7.428276e+04
-3.189949e+05 -1.281950e+05 -9.950318e+04
3.000000e+05 -2.160932e+05 -8.528628e+04
3.000000e+05 -1.821237e+05 -8.495979e+04
3.414240e+05 -2.023918e+05 -7.293658e+04
-3.185212e+05 -3.715561e+05 -1.115296e+05
-3.341739e+05 -3.451829e+05 -1.149346e+05
-3.334307e+05 -3.617971e+05 -1.383607e+05
-3.560222e+05 -3.561916e+05 -1.234221e+05
-3.555893e+05 -3.545145e+05 -8.830204e+04
-3.509454e+05 -4.000000e+05 -1.310714e+05
-3.668364e+05 -3.211507e+05 -1.108972e+05
3.363482e+05 -1.656885e+05 -7.260982e+04
3.777618e+05 -1.880611e+05 -8.613555e+04
-3.602259e+05 -3.322067e+05 -1.378430e+05
-3.787538e+05 -3.522301e+05 -1.100812e+05
-3.735072e+05 -3.747202e+05 -1.328601e+05
-4.000000e+05 -3.509114e+05 -1.313135e+05
-3.528313e+05 -3.782928e+05 -1.025716e+05
-3.563804e+05 -3.270749e+05 -7.237917e+04
-3.744937e+05 -3.716534e+05 -7.530115e+04
-3.794959e+05 -3.262898e+05 -8.811039e+04
-3.341192e+05 -3.319064e+05 -8.761489e+04
-3.321116e+05 -3.791801e+05 -8.779127e+04
-3.328119e+05 -3.545731e+05 -6.955928e+04
2.814448e+05 1.217517e+05 -1.600000e+05
2.721149e+05 1.009770e+05 -1.398192e+05
2.814493e+05 8.695826e+04 -1.600000e+05
2.938483e+05 1.177028e+05 -1.398114e+05
3.110862e+05 1.391314e+05 -1.600000e+05
3.110875e+05 1.043478e+05 -1.600000e+05
3.262037e+05 1.328007e+05 -1.400302e+05
3.000000e+05 1.000000e+05 -1.200000e+05
3.230866e+05 9.022350e+04 -1.381124e+05
-2.086536e+05 -3.110087e+05 -1.600000e+05
-1.920169e+05 -3.208548e+05 -1.400273e+05
-2.266109e+05 -3.206496e+05 -1.400097e+05
-2.101895e+05 -3.409721e+05 -1.404253e+05
-2.086973e+05 -3.703600e+05 -1.600000e+05
-2.261010e+05 -3.665587e+05 -1.401481e+05
-1.913050e+05 -3.652722e+05 -1.401156e+05
-1.913047e+05 -3.407204e+05 -1.600000e+05
4.000000e+05 -2.959570e+05 -1.040513e+05
3.691744e+05 -3.198637e+05 -1.108978e+05
3.789013e+05 -3.265397e+05 -8.090541e+04
3.772476e+05 -2.956292e+05 -7.585012e+04
-3.668134e+05 3.211992e+05 -1.102983e+05
-3.432685e+05 3.550873e+05 -9.711484e+04
-3.299382e+05 3.335816e+05 -1.301573e+05
-3.555892e+05 3.566211e+05 -1.234234e+05
-3.228002e+05 3.666694e+05 -1.063727e+05
-3.516800e+05 3.789887e+05 -1.048857e+05
-3.509114e+05 4.000000e+05 -1.313135e+05
-3.318698e+05 3.614947e+05 -1.401738e+05
-3.749797e+05 3.742419e+05 -1.331467e+05
-3.688846e+05 3.526018e+05 -1.600000e+05
-4.000000e+05 3.509511e+05 -1.311244e+05
-3.789658e+05 3.517718e+05 -1.005524e+05
2.078524e+05 3.315087e+05 -1.204688e+05
1.747054e+05 3.317039e+05 -1.132989e+05
1.913051e+05 3.604870e+05 -1.400532e+05
1.920510e+05 3.208783e+05 -1.399961e+05
4.000000e+05 -3.509454e+05 -1.310714e+05
3.789243e+05 -3.518738e+05 -1.021923e+05
3.561493e+05 -3.560403e+05 -1.230832e+05
2.110978e+05 3.654133e+05 -1.107919e+05
2.101436e+05 3.442485e+05 -1.406113e+05
2.261110e+05 3.630729e+05 -1.401867e+05
2.261320e+05 3.407109e+05 -1.600000e+05
2.270221e+05 3.208556e+05 -1.398692e+05
2.448957e+05 3.370995e+05 -1.403530e+05
-2.086630e+05 3.110007e+05 -1.600000e+05
-2.310664e+05 3.219322e+05 -1.400495e+05
-1.930677e+05 3.207235e+05 -1.400355e+05
-2.105317e+05 3.388507e+05 -1.405289e+05
-1.913057e+05 3.407120e+05 -1.600000e+05
-1.750249e+05 3.373290e+05 -1.403414e+05
-2.086978e+05 3.703567e+05 -1.600000e+05
-1.913054e+05 3.642428e+05 -1.403651e+05
-2.260970e+05 3.604405e+05 -1.400245e+05
-3.000000e+05 1.113662e+05 -8.488258e+04
-3.312337e+05 1.084310e+05 -1.178918e+05
-3.000000e+05 1.000000e+05 -1.200000e+05
-3.259646e+05 9.346408e+04 -9.748050e+04
-3.000000e+05 7.835320e+04 -8.587430e+04
-3.361595e+05 6.181362e+04 -7.906497e+04
-3.377561e+05 9.591031e+04 -7.286092e+04
-3.655017e+05 1.109165e+05 -1.094609e+05
-3.392028e+05 1.207733e+05 -9.444728e+04
-4.000000e+05 3.509428e+05 -7.969849e+04
-4.000000e+05 3.670478e+05 -1.055410e+05
-4.000000e+05 4.000000e+05 -8.686567e+04
-3.715611e+05 3.726725e+05 -7.649034e+04
-3.359817e+05 7.683326e+04 -1.150640e+05
-3.801828e+05 8.018205e+04 -8.936576e+04
-3.683178e+05 7.773520e+04 -1.137359e+05
-3.322098e+05 2.415765e+05 -1.177086e+05
-3.388983e+05 2.105884e+05 -1.407662e+05
-3.654423e+05 2.261128e+05 -1.405622e+05
-3.441739e+05 2.448202e+05 -1.403321e+05
-3.672216e+05 2.518548e+05 -1.094983e+05
-3.603542e+05 2.611154e+05 -1.398672e+05
-3.407029e+05 2.261534e+05 -1.600000e+05
-3.207280e+05 2.273062e+05 -1.397412e+05
-3.108820e+05 2.442980e+05 -1.600000e+05
2.097713e+05 -2.508161e+05 -1.600000e+05
1.742477e+05 -2.516483e+05 -1.600000e+05
1.967387e+05 -2.607544e+05 -1.397066e+05
1.851777e+05 -2.384692e+05 -1.397130e+05
1.569819e+05 -2.222246e+05 -1.600000e+05
1.698970e+05 -2.137585e+05 -1.378873e+05
1.467752e+05 -2.399834e+05 -1.399673e+05
1.832181e+05 -2.704209e+05 -1.200000e+05
1.588828e+05 -2.613897e+05 -1.398706e+05
1.671373e+05 -2.404676e+05 -1.200000e+05
1.814487e+05 3.334333e+04 -1.200000e+05
1.573462e+05 3.379697e+04 -1.399504e+05
1.920146e+05 5.030470e+04 -1.397441e+05
1.854227e+05 1.696289e+04 -1.399499e+05
1.518070e+05 1.668938e+04 -1.200000e+05
1.557692e+05 1.985354e+02 -1.399480e+05
1.814495e+05 1.332958e+00 -1.200000e+05
1.877629e+05 -1.671051e+04 -1.398785e+05
2.407060e+05 1.333894e+05 -1.200000e+05
2.106138e+05 1.509412e+05 -1.200000e+05
2.307903e+05 1.486452e+05 -1.398665e+05
2.096087e+05 1.310571e+05 -1.391593e+05
1.809519e+05 1.342405e+05 -1.200000e+05
1.849843e+05 1.182830e+05 -1.398739e+05
1.720353e+05 1.511319e+05 -1.405766e+05
1.906560e+05 1.422105e+05 -1.600000e+05
1.922613e+05 1.050560e+05 -1.600000e+05
2.219297e+05 1.223557e+05 -1.600000e+05
2.208976e+05 1.591603e+05 -1.600000e+05
1.994103e+05 1.688926e+05 -1.418272e+05
1.725154e+04 -1.036070e+05 -1.600000e+05
3.438920e+04 -9.658719e+04 -1.399342e+05
2.521514e+02 -9.576566e+04 -1.399954e+05
1.685861e+04 -1.283492e+05 -1.399615e+05
3.786291e+03 -6.071687e+04 -1.200000e+05
-1.713703e+04 -6.501276e+04 -1.400021e+05
1.956775e+04 -7.036921e+04 -1.403252e+05
1.767944e+04 -9.199301e+04 -1.200000e+05
3.406280e+05 -2.260997e+05 -1.600000e+05
3.205762e+05 -2.269571e+05 -1.399716e+05
3.371280e+05 -2.447861e+05 -1.402264e+05
3.406531e+05 -2.109330e+05 -1.406342e+05
2.168998e+05 3.000000e+05 -8.467922e+04
2.359971e+05 3.428171e+05 -7.454718e+04
3.338185e+05 -2.090038e+05 -1.156617e+05
3.206163e+05 -1.940611e+05 -1.400627e+05
3.605462e+05 -1.913050e+05 -1.400430e+05
-4.000000e+05 -2.086959e+05 -7.789223e+04
3.670611e+05 -2.162046e+05 -1.092900e+05
3.654217e+05 -2.260963e+05 -1.400745e+05
3.697093e+05 4.972239e+04 -1.144669e+05
3.335984e+05 5.192966e+04 -9.734317e+04
3.670449e+05 1.150062e+04 -1.147272e+05
3.437616e+05 3.427904e+04 -7.461675e+04
3.224135e+05 9.228838e+03 -1.056822e+05
3.409599e+05 5.075397e+03 -7.559404e+04
4.000000e+05 -2.743449e-01 -7.840273e+04
4.000000e+05 1.739071e+04 -1.058997e+05
3.764900e+05 2.117079e+04 -7.920345e+04
3.667434e+05 -1.763918e+04 -7.739314e+04
3.801110e+05 5.638081e+04 -8.591462e+04
1.913065e+05 3.407245e+05 -1.600000e+05
2.087746e+05 3.110745e+05 -1.600000e+05
2.519030e+05 3.673831e+05 -1.094676e+05
2.610061e+05 3.736678e+05 -1.341557e+05
2.786884e+05 3.361759e+05 -1.141904e+05
2.435117e+05 3.703390e+05 -1.600000e+05
-2.783133e+05 4.000000e+05 -1.319380e+05
-2.934321e+05 3.717494e+05 -1.142246e+05
-2.606862e+05 3.636529e+05 -1.400502e+05
-2.696479e+05 3.765289e+05 -1.130476e+05
-2.782927e+05 4.000000e+05 -7.817433e+04
-2.608934e+05 4.000000e+05 -1.043696e+05
-2.503078e+05 3.736018e+05 -8.525095e+04
-2.959167e+05 4.000000e+05 -1.059368e+05
-2.802730e+05 3.322022e+05 -1.175174e+05
-2.434840e+05 4.000000e+05 -1.313903e+05
-2.415339e+05 3.692068e+05 -1.119995e+05
-2.381835e+05 -3.417701e+05 -7.293936e+04
-2.960138e+05 3.792222e+05 -7.975993e+04
-2.711975e+05 3.437097e+05 -7.541624e+04
-2.657763e+05 3.384603e+05 -9.661397e+04
-2.508367e+05 -2.098052e+05 -1.600000e+05
-2.617205e+05 -1.995112e+05 -1.397656e+05
-2.306014e+05 -2.110208e+05 -1.403978e+05
-2.336512e+05 -1.785366e+05 -1.396271e+05
-2.407559e+05 -2.004734e+05 -1.200000e+05
-2.703391e+05 -1.834566e+05 -1.200000e+05
-2.407634e+05 -1.669284e+05 -1.200000e+05
-2.203171e+05 -1.683113e+05 -1.399024e+05
-2.116430e+05 -1.853224e+05 -1.200000e+05
3.000000e+05 -8.158492e+04 -8.629336e+04
3.219226e+05 -4.947009e+04 -1.085117e+05
3.000000e+05 -3.333333e+04 -1.200000e+05
3.313148e+05 -3.333231e+04 -9.723881e+04
3.000000e+05 -4.783126e+04 -8.601673e+04
-2.434894e+05 3.703280e+05 -1.600000e+05
-2.261035e+05 3.406187e+05 -1.600000e+05
3.298189e+05 -3.366439e+04 -1.324043e+05
3.070528e+05 -5.116100e+04 -1.400322e+05
-3.612176e+05 4.783020e+04 -1.375117e+05
-3.000000e+05 -3.000000e+05 -1.200000e+05
-2.879517e+05 -2.871707e+05 -1.413367e+05
-2.666667e+05 -3.000000e+05 -1.200000e+05
-2.966969e+05 -3.188888e+05 -1.391510e+05
-3.703625e+05 3.478260e+04 -1.600000e+05
-3.407250e+05 1.739131e+04 -1.600000e+05
-3.000000e+05 3.333333e+04 -1.200000e+05
-3.273009e+05 6.264532e+03 -9.658192e+04
-3.061099e+05 5.133063e+04 -1.379100e+05
-3.128906e+05 1.698920e+04 -1.400315e+05
-3.407250e+05 5.217392e+04 -1.600000e+05
-3.334956e+05 6.660825e+04 -1.375643e+05
-1.516299e+05 -5.012916e+04 -1.200000e+05
-1.572506e+05 -3.375304e+04 -1.399606e+05
-1.561430e+05 -6.800403e+04 -1.399592e+05
-1.869642e+05 -5.077287e+04 -1.399696e+05
-1.209022e+05 -6.753631e+04 -1.200000e+05
-1.262919e+05 -5.107817e+04 -1.401547e+05
-1.286715e+05 -8.272504e+04 -1.396846e+05
-1.629182e+05 -5.203422e+04 -1.600000e+05
-3.338129e+05 -7.353552e+04 -1.144143e+05
-3.767418e+05 -7.416097e+04 -1.106245e+05
-3.507105e+05 -5.349620e+04 -7.836752e+04
-3.624461e+05 -8.061286e+04 -7.229685e+04
-3.801391e+05 -4.625842e+04 -7.998883e+04
-3.230214e+05 -8.551180e+04 -7.425627e+04
3.000000e+05 -2.519079e+05 -8.441079e+04
3.316188e+05 -2.608487e+05 -9.431703e+04
3.309663e+05 -2.255467e+05 -9.423086e+04
3.415893e+05 -2.340682e+05 -7.264356e+04
3.378363e+05 -2.998004e+05 -8.813369e+04
3.534952e+05 -3.282202e+05 -7.042442e+04
3.431805e+05 -2.720292e+05 -7.348665e+04
-3.171035e+05 -5.933462e+04 -1.008815e+05
-3.171792e+05 -9.307846e+04 -1.006490e+05
-1.192804e-02 -3.703625e+05 -1.600000e+05
-1.739131e+04 -3.407250e+05 -1.600000e+05
1.739131e+04 -3.407250e+05 -1.600000e+05
1.925465e+04 -3.597116e+05 -1.388005e+05
-1.715788e+04 -3.135962e+05 -1.400328e+05
5.093170e-11 -3.000000e+05 -1.200000e+05
1.678205e+04 -2.978420e+05 -1.398859e+05
3.333333e+04 -3.000000e+05 -1.200000e+05
-2.168998e+05 -3.000000e+05 -8.524016e+04
-3.161426e+05 -3.386353e+05 -1.405180e+05
-3.516402e+05 -3.698463e+05 -1.600000e+05
-3.106345e+05 -3.335228e+05 -1.151154e+05
-2.985549e+05 -3.358621e+05 -9.167705e+04
1.152114e+05 3.538383e+05 -7.108421e+04
6.452503e+04 3.393633e+05 -7.274229e+04
8.503423e+04 3.740278e+05 -7.644425e+04
1.043476e+05 4.000000e+05 -7.826269e+04
-2.368728e+05 3.421767e+05 -7.093288e+04
5.128374e+04 3.802302e+05 -8.761957e+04
7.077086e+04 3.697259e+05 -1.059754e+05
8.695630e+04 4.000000e+05 -1.055370e+05
1.019875e+05 3.750881e+05 -9.747176e+04
6.956517e+04 4.000000e+05 -7.816712e+04
1.925008e+05 6.969655e+04 -1.600000e+05
2.156958e+05 6.832834e+04 -1.399071e+05
1.850697e+05 8.402488e+04 -1.398364e+05
1.814413e+05 6.671985e+04 -1.200000e+05
1.629010e+05 5.225616e+04 -1.600000e+05
1.925353e+05 3.479200e+04 -1.600000e+05
2.150574e+05 3.413595e+04 -1.399492e+05
-4.000000e+05 -3.478296e+04 -7.817791e+04
2.221693e+05 5.219172e+04 -1.600000e+05
3.698233e+05 -3.516620e+05 -1.600000e+05
3.668538e+05 -3.743333e+05 -1.349354e+05
3.339762e+05 -3.338432e+05 -1.280242e+05
3.614442e+05 -3.336465e+05 -1.391463e+05
3.254252e+05 -3.695050e+05 -1.122695e+05
3.329890e+05 -3.332643e+05 -8.760612e+04
3.506638e+05 -3.796984e+05 -9.830586e+04
3.509428e+05 -4.000000e+05 -1.310687e+05
-3.556813e+05 -1.843145e+05 -7.260112e+04
-3.540734e+05 -2.168847e+05 -7.251514e+04
-3.447952e+05 -1.963980e+05 -9.193301e+04
-3.210231e+05 -2.250440e+05 -9.547693e+04
-3.787545e+05 -2.201209e+05 -7.790853e+04
-3.110859e+05 1.391326e+05 -1.600000e+05
-3.110579e+05 1.739550e+05 -1.600000e+05
-3.233292e+05 1.639917e+05 -1.400463e+05
-2.932762e+05 1.462780e+05 -1.399023e+05
-3.221542e+05 1.274918e+05 -1.400630e+05
-2.940669e+05 1.165716e+05 -1.398461e+05
-3.000000e+05 1.333333e+05 -1.200000e+05
-2.703332e+05 1.500434e+05 -1.200000e+05
-2.771208e+05 1.353076e+05 -1.398384e+05
1.452603e+05 -1.192745e+05 -1.200000e+05
1.232615e+05 -1.232305e+05 -1.400250e+05
1.312842e+05 -8.794765e+04 -1.394899e+05
1.595242e+05 -1.031568e+05 -1.414157e+05
1.802726e+05 -1.343733e+05 -1.200000e+05
1.898953e+05 -1.175542e+05 -1.402154e+05
1.585047e+05 -1.347407e+05 -1.402086e+05
-3.407250e+05 -5.217390e+04 -1.600000e+05
-3.703625e+05 -6.956522e+04 -1.600000e+05
-3.646821e+05 -9.454847e+04 -1.404049e+05
-3.220470e+05 -9.390215e+04 -1.400285e+05
1.489128e+05 3.672407e+05 -1.106477e+05
1.358801e+05 3.443190e+05 -7.293413e+04
1.212797e+05 3.784974e+05 -8.425356e+04
1.278784e+05 3.508865e+05 -1.017363e+05
9.969948e+04 3.316025e+05 -9.546730e+04
1.290565e+05 3.171476e+05 -1.007881e+05
9.902335e+04 3.456314e+05 -1.162476e+05
1.522343e+05 3.342584e+05 -9.217416e+04
1.560608e+05 3.795742e+05 -8.253486e+04
-3.720237e+05 1.453918e+05 -1.120069e+05
-3.792938e+05 1.183648e+05 -8.391317e+04
-3.438119e+05 1.303326e+05 -7.290872e+04
-3.000000e+05 1.461959e+05 -8.551437e+04
-3.391985e+05 1.548237e+05 -9.460306e+04
-3.339565e+05 1.412163e+05 -1.153001e+05
-3.000000e+05 -2.333333e+05 -1.200000e+05
-3.338687e+05 -2.088324e+05 -1.147012e+05
-3.339665e+05 -2.426826e+05 -1.146988e+05
-3.000000e+05 -2.000000e+05 -1.200000e+05
-3.207729e+05 -2.269988e+05 -1.397071e+05
-3.672035e+05 -2.175321e+05 -1.094843e+05
-3.703593e+05 2.131957e+05 -1.130003e+05
-3.604843e+05 1.913104e+05 -1.400485e+05
-3.000000e+05 -3.000000e+05 -8.477016e+04
-2.729122e+05 -3.437900e+05 -7.349320e+04
-3.000000e+05 -2.511929e+05 -8.604716e+04
-3.000000e+05 -2.666667e+05 -1.200000e+05
-8.430043e+04 3.803162e+05 -8.213260e+04
3.703326e+05 2.434887e+05 -1.600000e+05
3.702759e+05 2.782782e+05 -1.600000e+05
3.400119e+05 2.611146e+05 -1.600000e+05
3.654699e+05 2.631054e+05 -1.385664e+05
1.217387e+05 4.000000e+05 -1.050269e+05
-3.358907e+05 -2.985468e+05 -9.235232e+04
-1.407038e+05 3.305957e+05 -1.153273e+05
-1.477719e+05 3.683984e+05 -1.082917e+05
-1.609022e+05 3.324359e+05 -9.724658e+04
-1.255514e+05 3.315839e+05 -9.428058e+04
-3.668523e+05 -2.972500e+05 -1.105972e+05
-3.423466e+05 -2.699409e+05 -7.301879e+04
-3.786579e+05 -2.693409e+05 -8.696693e+04
-3.713020e+05 -3.006395e+05 -8.023679e+04
-1.043478e+05 4.000000e+05 -7.716791e+04
-3.148111e+04 3.413213e+05 -1.380918e+05
-1.739131e+04 3.407250e+05 -1.600000e+05
-1.673173e+04 3.083301e+05 -1.400825e+05
3.333333e+04 3.000000e+05 -1.200000e+05
-5.093170e-11 3.000000e+05 -1.200000e+05
1.729714e+04 3.043105e+05 -1.395358e+05
-1.153012e+05 3.783414e+05 -8.074775e+04
-1.051340e+05 3.286194e+05 -1.171896e+05
-7.355416e+04 3.338876e+05 -1.144123e+05
-7.944695e+04 3.669693e+05 -1.099233e+05
-9.119406e+04 3.312866e+05 -9.376297e+04
1.739131e+04 3.407250e+05 -1.600000e+05
-3.313969e+05 2.812035e+05 -1.122606e+05
-3.596120e+05 2.968499e+05 -1.392654e+05
-3.357603e+05 2.800658e+05 -1.400707e+05
-3.444083e+05 2.012673e+05 -7.296927e+04
-3.405625e+05 2.612639e+05 -1.600000e+05
-3.207494e+05 2.621071e+05 -1.393235e+05
-3.108038e+05 2.803634e+05 -1.600000e+05
-3.701118e+05 2.785724e+05 -1.600000e+05
-3.396399e+05 2.970686e+05 -1.600000e+05
-3.335099e+05 3.106001e+05 -1.151519e+05
-3.197132e+05 2.985546e+05 -1.398773e+05
3.703625e+05 -3.478260e+04 -1.600000e+05
3.613202e+05 -3.894760e+04 -1.225027e+05
3.407250e+05 -5.217390e+04 -1.600000e+05
4.000000e+05 -5.217391e+04 -1.600000e+05
3.703625e+05 -6.956522e+04 -1.600000e+05
4.000000e+05 -5.217364e+04 -1.061846e+05
3.688916e+05 -2.780419e+04 -1.017339e+05
3.305143e+05 -6.350596e+03 -1.122593e+05
3.561735e+05 -1.568679e+04 -1.373050e+05
4.000000e+05 -3.478251e+04 -1.323045e+05
1.194975e+05 -3.556448e+05 -7.200331e+04
1.344076e+05 -3.218111e+05 -7.183141e+04
1.429594e+05 -3.490360e+05 -7.157322e+04
1.698902e+05 -3.443638e+05 -7.316471e+04
1.560554e+05 -3.795858e+05 -8.308372e+04
8.695598e+04 3.805804e+05 -1.232832e+05
1.217360e+05 3.804611e+05 -1.265544e+05
1.411942e+05 3.338816e+05 -1.152996e+05
1.217394e+05 3.604898e+05 -1.400588e+05
1.024950e+05 3.261812e+05 -1.357719e+05
1.254341e+05 3.206211e+05 -1.400554e+05
1.000000e+05 3.000000e+05 -1.200000e+05
7.257972e+04 3.327892e+05 -1.120687e+05
-1.391203e+05 2.517627e+05 -1.600000e+05
-1.522721e+05 2.446774e+05 -1.399439e+05
-1.340574e+05 2.778466e+05 -1.397625e+05
-1.673354e+05 2.643122e+05 -1.397706e+05
-1.913275e+05 2.813276e+05 -1.600000e+05
-1.806358e+05 2.904607e+05 -1.398168e+05
-1.981112e+05 2.623432e+05 -1.398065e+05
-1.740899e+05 2.511492e+05 -1.600000e+05
-1.565308e+05 2.814213e+05 -1.600000e+05
1.335925e+05 -2.404834e+05 -1.200000e+05
1.351039e+05 -2.156964e+05 -1.406659e+05
1.523066e+05 -2.091304e+05 -1.200000e+05
1.500133e+05 -2.703494e+05 -1.200000e+05
1.364582e+05 -2.712669e+05 -1.399055e+05
1.391751e+05 -2.518024e+05 -1.600000e+05
1.179371e+05 -2.482041e+05 -1.398916e+05
2.783151e+05 4.000000e+05 -7.755495e+04
2.979876e+05 3.777206e+05 -8.374081e+04
2.560497e+05 3.785953e+05 -8.401837e+04
2.721792e+05 3.761825e+05 -1.050706e+05
2.782958e+05 4.000000e+05 -1.313051e+05
2.922841e+05 3.652527e+05 -1.123146e+05
-3.000000e+05 2.509820e+05 -8.443054e+04
2.726122e+05 3.432057e+05 -7.487261e+04
2.959312e+05 4.000000e+05 -1.042499e+05
3.407250e+05 -1.739131e+04 -1.600000e+05
3.309880e+05 -1.096248e+02 -1.400553e+05
3.000000e+05 5.093170e-11 -1.200000e+05
3.052677e+05 -1.777541e+04 -1.382726e+05
-3.668485e+05 2.972618e+05 -1.094576e+05
-3.358800e+05 2.985387e+05 -9.173160e+04
1.739128e+04 4.000000e+05 -1.059678e+05
3.055030e+05 1.722524e+04 -1.389938e+05
3.263160e+05 4.258899e+04 -1.201588e+05
3.703673e+05 1.653768e+04 -1.399338e+05
3.407250e+05 1.739131e+04 -1.600000e+05
3.110875e+05 3.478263e+04 -1.600000e+05
3.311574e+05 2.624826e+05 -9.567164e+04
3.387325e+05 2.391298e+05 -7.307637e+04
3.190193e+05 2.294205e+05 -1.005117e+05
3.567904e+05 2.399743e+05 -8.914485e+04
-3.000000e+05 2.146334e+05 -8.514391e+04
3.346069e+05 2.440722e+05 -1.160175e+05
3.680244e+05 2.531298e+05 -1.118696e+05
3.548957e+05 -4.762323e+04 -7.227394e+04
3.797702e+05 -5.541877e+04 -7.004872e+04
4.000000e+05 -6.956512e+04 -7.897213e+04
-1.166753e+05 2.703598e+05 -1.200000e+05
-1.333333e+05 3.000000e+05 -1.200000e+05
-1.179309e+05 2.483764e+05 -1.398220e+05
-1.000251e+05 2.407162e+05 -1.200000e+05
-8.584834e+04 2.477581e+05 -1.399694e+05
-6.864131e+04 2.796653e+05 -1.399679e+05
-8.333335e+04 2.703625e+05 -1.200000e+05
3.407250e+05 1.565217e+05 -1.600000e+05
3.606995e+05 1.565256e+05 -1.420574e+05
3.289364e+05 1.726515e+05 -1.382794e+05
3.000000e+05 2.531562e+05 -8.549292e+04
3.437804e+05 2.729422e+05 -7.257351e+04
3.000000e+05 2.183077e+05 -8.475557e+04
2.970461e+05 3.396469e+05 -1.600000e+05
2.968432e+05 3.596120e+05 -1.392766e+05
3.620832e+05 3.302335e+05 -1.386179e+05
3.600491e+05 2.957858e+05 -1.397599e+05
3.121208e+05 3.121779e+05 -1.600000e+05
2.985340e+05 3.197212e+05 -1.398908e+05
3.197099e+05 2.981359e+05 -1.398521e+05
3.373086e+05 3.341174e+05 -1.600000e+05
3.397006e+05 2.962351e+05 -1.600000e+05
3.106163e+05 3.335235e+05 -1.151500e+05
-3.355193e+05 2.196168e+05 -9.342345e+04
-3.410693e+05 2.338964e+05 -7.282290e+04
2.449382e+05 -2.724500e+05 -1.200000e+05
2.294817e+05 -2.549934e+05 -1.389589e+05
2.357528e+05 -2.390522e+05 -1.200000e+05
2.617888e+05 -2.630924e+05 -1.391570e+05
2.821434e+05 -2.558221e+05 -1.600000e+05
2.643396e+05 -2.809197e+05 -1.600000e+05
2.830618e+05 -2.808377e+05 -1.421087e+05
2.490525e+05 -2.461550e+05 -1.600000e+05
2.275923e+05 -2.803033e+05 -1.600000e+05
1.166667e+05 -3.000000e+05 -8.600905e+04
1.003426e+05 -3.223868e+05 -7.215268e+04
6.246921e+04 -3.396123e+05 -7.235160e+04
8.640963e+04 -3.684587e+05 -7.344209e+04
8.333333e+04 -3.000000e+05 -8.618183e+04
1.053145e+05 -3.320950e+05 -9.349295e+04
2.802760e+05 2.265523e+05 -1.600000e+05
2.903958e+05 2.461965e+05 -1.400877e+05
2.550476e+05 2.339628e+05 -1.397589e+05
2.891566e+05 2.142993e+05 -1.398124e+05
3.102167e+05 2.434140e+05 -1.600000e+05
3.205066e+05 2.270465e+05 -1.399005e+05
3.109137e+05 2.087727e+05 -1.600000e+05
3.232278e+05 1.968623e+05 -1.399776e+05
-3.799632e+05 -1.831318e+05 -8.926736e+04
-3.338440e+05 -1.750041e+05 -1.149403e+05
-3.000000e+05 2.333333e+05 -1.200000e+05
-3.824716e+05 -2.636132e+05 -1.214091e+05
-4.000000e+05 -2.783133e+05 -1.319380e+05
-4.000000e+05 -2.959167e+05 -1.059368e+05
-3.701091e+05 -2.784782e+05 -1.600000e+05
-3.658671e+05 -2.962775e+05 -1.406604e+05
-3.603532e+05 -2.610761e+05 -1.399037e+05
-4.000000e+05 -2.608696e+05 -1.600000e+05
1.220940e+05 3.351486e+04 -1.200000e+05
1.342567e+05 1.699530e+04 -1.399210e+05
1.270415e+05 5.150602e+04 -1.399317e+05
1.037156e+05 1.734290e+04 -1.600000e+05
9.220842e+04 5.073001e+04 -1.200000e+05
1.035464e+05 5.262833e+04 -1.600000e+05
9.545559e+04 7.271297e+04 -1.393703e+05
1.333832e+05 7.012216e+04 -1.600000e+05
1.237669e+05 8.824390e+04 -1.395770e+05
-2.518125e+05 3.578412e-02 -1.600000e+05
-2.518125e+05 -3.478258e+04 -1.600000e+05
-2.221750e+05 -1.739126e+04 -1.600000e+05
-2.491364e+05 -1.668294e+04 -1.397735e+05
-4.992469e+04 -9.189896e+04 -1.200000e+05
-3.381265e+04 -1.050079e+05 -1.399844e+05
-5.188215e+04 -1.270866e+05 -1.399534e+05
-7.205836e+04 -9.417829e+04 -1.388497e+05
-6.993070e+04 -1.334671e+05 -1.600000e+05
-8.617176e+04 -1.289690e+05 -1.403036e+05
-8.890813e+04 -1.044400e+05 -1.600000e+05
-1.070250e+05 -9.536118e+04 -1.403898e+05
-3.556588e+05 2.905494e+05 -7.203275e+04
-3.469777e+05 2.674482e+05 -7.244251e+04
-3.302249e+05 2.686607e+05 -9.532409e+04
-3.782941e+05 2.577676e+05 -8.678164e+04
-6.666667e+04 -3.000000e+05 -1.200000e+05
-3.989151e+04 -3.298695e+05 -1.160676e+05
-7.709312e+04 -3.291389e+05 -1.100540e+05
-6.771953e+04 -3.386031e+05 -1.393915e+05
-5.121154e+04 -3.111081e+05 -1.400521e+05
-9.541366e+04 -3.223086e+05 -1.400658e+05
-8.695652e+04 -3.407250e+05 -1.600000e+05
-6.956520e+04 -3.110875e+05 -1.600000e+05
-1.739951e+05 -2.512244e+05 -1.600000e+05
-1.510922e+05 -2.401505e+05 -1.402940e+05
-1.807113e+05 -2.331423e+05 -1.384212e+05
-1.642755e+05 -2.708560e+05 -1.398133e+05
-2.086624e+05 -2.512201e+05 -1.600000e+05
-2.087833e+05 -2.305270e+05 -1.394165e+05
-2.003871e+05 -2.615975e+05 -1.397308e+05
-1.834652e+05 -2.702411e+05 -1.200000e+05
-2.005935e+05 -2.405919e+05 -1.200000e+05
-1.673156e+05 -2.403634e+05 -1.200000e+05
-1.867618e+05 -2.103057e+05 -1.200000e+05
-1.692681e+05 -2.192499e+05 -1.403438e+05
2.785031e+05 -3.701056e+05 -1.600000e+05
2.612358e+05 -3.405695e+05 -1.600000e+05
2.620551e+05 -3.207662e+05 -1.393751e+05
2.441281e+05 -3.479123e+05 -1.400077e+05
2.639123e+05 -3.731525e+05 -1.368687e+05
-3.000000e+05 -4.478797e+04 -8.701354e+04
-5.648899e+04 3.301575e+05 -9.353592e+04
-3.386452e+04 3.563300e+05 -8.970512e+04
-6.683358e+04 3.443336e+05 -7.250894e+04
-3.340779e+04 3.406282e+05 -7.222420e+04
-2.017139e+03 3.408289e+05 -7.325496e+04
-4.252906e+04 3.297874e+05 -1.144776e+05
-1.260962e+04 3.273967e+05 -9.650545e+04
-1.220110e+04 3.625713e+05 -1.092731e+05
3.334849e+05 -3.106033e+05 -1.151403e+05
3.189174e+05 -2.970502e+05 -1.393017e+05
3.346903e+05 -2.784353e+05 -1.158535e+05
3.381236e+05 -2.801101e+05 -1.399965e+05
3.399566e+05 -2.611499e+05 -1.600000e+05
3.673922e+05 -2.609827e+05 -1.402859e+05
3.048356e+05 -2.801607e+05 -1.600000e+05
3.184792e+05 -2.616744e+05 -1.375420e+05
3.702044e+05 -2.784213e+05 -1.600000e+05
3.600141e+05 -2.963680e+05 -1.409808e+05
3.394288e+05 -2.965685e+05 -1.600000e+05
1.739133e+05 -4.000000e+05 -1.328878e+05
1.554476e+05 -3.788769e+05 -1.264482e+05
1.772624e+05 -3.696227e+05 -1.090895e+05
1.391305e+05 -4.000000e+05 -1.328014e+05
1.216150e+05 -3.805093e+05 -1.240268e+05
1.921219e+05 -3.654555e+05 -1.362847e+05
1.913209e+05 -3.407147e+05 -1.600000e+05
-3.449119e+05 -3.275422e+04 -9.232981e+04
3.804587e+05 1.933159e+05 -1.226137e+05
-3.000000e+05 -3.333333e+04 -1.200000e+05
-2.703625e+05 -1.666668e+04 -1.200000e+05
-2.703625e+05 -5.000001e+04 -1.200000e+05
-2.697253e+05 -3.442580e+04 -1.399491e+05
3.000000e+05 1.666667e+05 -1.200000e+05
3.184214e+05 1.916184e+05 -1.035507e+05
3.619856e+05 1.913044e+05 -1.403943e+05
3.333466e+05 1.433623e+05 -1.158498e+05
3.663073e+05 1.405130e+05 -1.078240e+05
-3.525063e+05 6.472880e+03 -7.226948e+04
-3.226500e+05 -1.494069e+04 -7.415809e+04
-3.544799e+05 -2.283416e+04 -6.994931e+04
1.764407e+05 1.730772e+05 -1.200000e+05
1.383955e+05 1.600380e+05 -1.398404e+05
1.648042e+05 1.960784e+05 -1.402814e+05
-3.000000e+05 -5.093170e-11 -1.200000e+05
-3.110875e+05 1.192804e-02 -1.600000e+05
-2.814500e+05 -1.739128e+04 -1.600000e+05
1.559545e+05 1.373600e+05 -1.400186e+05
1.528514e+05 1.497919e+05 -1.200000e+05
1.568241e+05 1.584895e+05 -1.600000e+05
-3.000000e+05 -6.666667e+04 -1.200000e+05
3.328461e+05 3.547582e+05 -6.956725e+04
3.321074e+05 3.791977e+05 -8.781316e+04
3.509428e+05 4.000000e+05 -7.969849e+04
3.742433e+05 3.740226e+05 -7.349271e+04
-3.478296e+04 4.000000e+05 -7.817791e+04
3.395079e+05 2.446288e+05 -1.384686e+05
3.605980e+05 2.261005e+05 -1.400354e+05
3.348847e+05 2.748623e+05 -1.156342e+05
3.213407e+05 2.628974e+05 -1.403196e+05
2.518124e+05 -3.478260e+04 -1.600000e+05
2.462200e+05 -1.673316e+04 -1.399192e+05
2.221748e+05 -1.739136e+04 -1.600000e+05
2.165925e+05 -3.373259e+04 -1.399323e+05
3.000000e+05 2.666667e+05 -1.200000e+05
3.000000e+05 2.333333e+05 -1.200000e+05
3.790898e+05 2.575510e+05 -8.283999e+04
1.378086e+05 -3.300531e+05 -9.394726e+04
1.500008e+05 -3.000000e+05 -8.494895e+04
-3.398507e+05 -2.967337e+05 -1.600000e+05
-3.214657e+05 -3.004329e+05 -1.399361e+05
-3.108427e+05 -2.803079e+05 -1.600000e+05
-3.401896e+05 -2.799659e+05 -1.405263e+05
-3.405693e+05 -2.612376e+05 -1.600000e+05
-3.207214e+05 -2.624641e+05 -1.395451e+05
-3.424114e+05 -2.451646e+05 -1.404962e+05
-3.345679e+05 -2.767801e+05 -1.151430e+05
1.333333e+05 3.000000e+05 -1.200000e+05
-3.000000e+05 1.799534e+05 -8.476603e+04
1.666667e+05 3.000000e+05 -1.200000e+05
1.166667e+05 3.000000e+05 -8.594133e+04
-4.000000e+05 -1.391305e+05 -7.717884e+04
-3.793674e+05 -9.781272e+04 -8.931605e+04
-4.000000e+05 -1.739131e+05 -7.794583e+04
-4.000000e+05 -1.217392e+05 -1.032681e+05
-4.000000e+05 -2.027767e-01 -7.871336e+04
-3.795222e+05 1.561657e+04 -8.826175e+04
-3.818683e+05 -1.145179e+04 -7.759805e+04
-4.000000e+05 -1.739198e+04 -1.058247e+05
-4.000000e+05 2.782958e+05 -1.313051e+05
-3.834645e+05 2.790485e+05 -1.069083e+05
-4.000000e+05 2.783151e+05 -7.755495e+04
-3.788733e+05 2.944187e+05 -7.462327e+04
-4.000000e+05 2.959312e+05 -1.042499e+05
-8.695749e+04 3.605416e+05 -1.402605e+05
-6.880784e+04 3.346152e+05 -1.397018e+05
-2.812132e+05 -3.313876e+05 -1.122112e+05
-6.666667e+04 3.000000e+05 -1.200000e+05
-6.956520e+04 3.110875e+05 -1.600000e+05
-5.217390e+04 3.407250e+05 -1.600000e+05
-5.189630e+04 3.031002e+05 -1.399985e+05
-8.695652e+04 3.407250e+05 -1.600000e+05
3.806520e+05 1.565247e+05 -1.242003e+05
4.000000e+05 1.391305e+05 -7.903427e+04
-5.187087e+04 3.788163e+05 -7.373221e+04
3.000000e+05 -1.151575e+05 -8.615364e+04
3.218035e+05 -2.851330e+04 -7.091513e+04
-3.000000e+05 -1.121070e+05 -8.624905e+04
-3.000000e+05 -1.462993e+05 -8.638399e+04
-3.703625e+05 1.043478e+05 -1.600000e+05
-4.000000e+05 1.043476e+05 -1.319848e+05
-4.000000e+05 8.695652e+04 -1.600000e+05
-3.626187e+05 9.163888e+04 -1.386559e+05
1.789704e+05 -3.257357e+05 -1.135121e+05
1.548674e+05 -3.200076e+05 -1.082754e+05
1.833576e+05 -3.000000e+05 -8.552419e+04
1.855042e+05 -3.330777e+05 -9.534203e+04
-3.343849e+05 1.838592e+05 -9.226214e+04
1.333333e+05 -3.000000e+05 -1.200000e+05
1.666667e+05 -3.000000e+05 -1.200000e+05
4.999999e+04 2.703625e+05 -1.200000e+05
6.666840e+04 2.407232e+05 -1.200000e+05
3.333347e+04 2.407248e+05 -1.200000e+05
5.079661e+04 2.462531e+05 -1.399138e+05
3.000000e+05 1.851968e+05 -8.521268e+04
3.000000e+05 2.000000e+05 -1.200000e+05
-2.608696e+05 -4.000000e+05 -1.600000e+05
-2.434807e+05 -4.000000e+05 -1.311432e+05
-2.260870e+05 -4.000000e+05 -1.600000e+05
-2.435096e+05 -3.703184e+05 -1.600000e+05
1.217392e+05 -4.000000e+05 -1.062233e+05
-2.814449e+05 -1.217456e+05 -1.600000e+05
-2.779998e+05 -1.347972e+05 -1.397825e+05
-2.968825e+05 -1.178670e+05 -1.399076e+05
-2.938670e+05 -1.464668e+05 -1.399023e+05
-3.000000e+05 -1.333333e+05 -1.200000e+05
-2.703649e+05 -1.500139e+05 -1.200000e+05
-3.110856e+05 -1.391325e+05 -1.600000e+05
-3.208730e+05 -1.227093e+05 -1.400212e+05
-3.206106e+05 -1.597699e+05 -1.400271e+05
-1.000000e+05 -3.000000e+05 -1.200000e+05
-8.695652e+04 -2.814499e+05 -1.600000e+05
-1.148196e+05 -2.919678e+05 -1.398042e+05
4.000000e+05 3.509428e+05 -1.310687e+05
4.000000e+05 3.316993e+05 -1.054445e+05
4.000000e+05 3.670477e+05 -1.055167e+05
-1.332277e+05 -3.262096e+05 -1.400374e+05
-1.333333e+05 -3.000000e+05 -1.200000e+05
-1.349793e+05 -2.764787e+05 -1.398236e+05
-1.166808e+05 -2.703492e+05 -1.200000e+05
-1.011441e+05 -2.661435e+05 -1.398206e+05
-3.109511e+05 -2.089044e+05 -1.600000e+05
-3.208275e+05 -1.921025e+05 -1.399165e+05
-3.424279e+05 -2.105655e+05 -1.405212e+05
-3.640691e+05 -2.261194e+05 -1.404478e+05
-3.596839e+05 -1.887405e+05 -1.402606e+05
-3.000000e+05 4.478934e+04 -8.633710e+04
1.565220e+05 -4.000000e+05 -1.067846e+05
-3.407250e+05 8.695652e+04 -1.600000e+05
-3.110875e+05 6.956524e+04 -1.600000e+05
-3.236437e+05 9.576987e+04 -1.400476e+05
-3.208773e+05 5.862538e+04 -1.055531e+05
4.000000e+05 1.391305e+05 -1.328014e+05
3.649783e+05 1.166043e+05 -1.412545e+05
3.320684e+05 1.216406e+05 -9.509925e+04
3.761856e+05 1.207396e+05 -8.905245e+04
2.918287e+05 -2.482086e+05 -1.405098e+05
2.649006e+05 -2.316417e+05 -1.393965e+05
2.419981e+05 -2.256010e+05 -1.393260e+05
2.693427e+05 -2.180746e+05 -1.200000e+05
2.697013e+05 -2.542380e+05 -1.200000e+05
-3.703625e+05 -1.192804e-02 -1.600000e+05
3.719367e+05 3.428236e+05 -1.600000e+05
3.526018e+05 3.688846e+05 -1.600000e+05
-1.453140e+05 2.944212e+05 -1.399794e+05
-1.739129e+05 3.110819e+05 -1.600000e+05
-1.573696e+05 3.208682e+05 -1.400225e+05
1.736292e+04 -1.629066e+05 -1.600000e+05
2.956429e+02 -1.573618e+05 -1.399566e+05
3.384210e+04 -1.572355e+05 -1.399872e+05
1.022084e+02 -1.220817e+05 -1.200000e+05
-1.717635e+04 -1.253253e+05 -1.399742e+05
-3.622546e+01 -1.332802e+05 -1.600000e+05
-5.000001e+04 3.000000e+05 -8.527154e+04
-1.666668e+04 3.000000e+05 -8.462542e+04
-4.693312e+04 3.734679e+05 -1.146130e+05
3.355435e+04 -3.437520e+05 -7.265180e+04
6.956517e+04 4.000000e+05 -1.321036e+05
5.130348e+04 3.663692e+05 -1.393608e+05
5.217390e+04 4.000000e+05 -1.050182e+05
6.503006e+04 3.417157e+05 -1.369920e+05
8.694464e+04 3.607207e+05 -1.416411e+05
-1.814376e+05 -3.334157e+04 -1.200000e+05
-2.221749e+05 -5.217402e+04 -1.600000e+05
-2.155883e+05 -6.843041e+04 -1.399035e+05
-1.925180e+05 -6.955861e+04 -1.600000e+05
-1.869745e+05 -8.471857e+04 -1.400256e+05
-1.813716e+05 -6.669677e+04 -1.200000e+05
1.016210e+05 -3.731118e+05 -9.626511e+04
1.072227e+05 -3.526309e+05 -1.147972e+05
5.160030e+04 -9.139062e+04 -1.200000e+05
6.863967e+04 -1.207882e+05 -1.200000e+05
5.105232e+04 -1.276860e+05 -1.401960e+05
7.036249e+04 -9.714856e+04 -1.412842e+05
4.785427e+04 -3.772454e+05 -8.579071e+04
6.993860e+04 -3.746274e+05 -1.061820e+05
6.956529e+04 -4.000000e+05 -7.847716e+04
5.217390e+04 -4.000000e+05 -1.061781e+05
6.956529e+04 -4.000000e+05 -1.322845e+05
5.168834e+04 -3.640841e+05 -1.400186e+05
8.695664e+04 -4.000000e+05 -1.053276e+05
-1.763630e+05 -1.732116e+05 -1.200000e+05
-1.691097e+05 -1.928592e+05 -1.600000e+05
-1.811701e+05 -1.560203e+05 -1.399972e+05
-1.552392e+05 -1.825193e+05 -1.399979e+05
-1.523660e+05 -2.091061e+05 -1.200000e+05
-1.562734e+05 -2.215042e+05 -1.600000e+05
-1.360395e+05 -1.792106e+05 -1.200000e+05
-1.189578e+05 -1.883279e+05 -1.405387e+05
-1.356222e+05 -2.179468e+05 -1.405460e+05
-1.393179e+05 -1.918391e+05 -1.600000e+05
4.000000e+05 -1.739130e+05 -1.320845e+05
3.640740e+05 -1.565213e+05 -1.403540e+05
3.703621e+05 -1.739132e+05 -1.600000e+05
-1.724454e+05 3.336411e+05 -1.166717e+05
-1.774976e+05 3.684179e+05 -1.092663e+05
-1.565222e+05 3.668790e+05 -1.401480e+05
-1.565218e+05 3.407247e+05 -1.600000e+05
-1.739133e+05 3.703618e+05 -1.600000e+05
-1.410217e+05 3.371165e+05 -1.403859e+05
-9.192663e+04 5.014923e+04 -1.200000e+05
-7.139512e+04 4.946100e+04 -1.403891e+05
-9.443885e+04 3.503965e+04 -1.395215e+05
-8.904520e+04 6.957604e+04 -1.392166e+05
-1.218000e+05 6.745772e+04 -1.200000e+05
-1.199218e+05 5.192716e+04 -1.395444e+05
-1.109634e+05 8.039641e+04 -1.410091e+05
3.509511e+05 4.000000e+05 -1.311244e+05
3.316994e+05 4.000000e+05 -1.054845e+05
3.134791e+05 4.000000e+05 -1.317649e+05
-8.877742e+04 8.763318e+04 -1.200000e+05
-6.533920e+04 6.458943e+04 -1.200000e+05
-3.171582e+05 -1.608526e+05 -1.008836e+05
-3.000000e+05 -1.666667e+05 -1.200000e+05
-3.338558e+05 -1.411832e+05 -1.145515e+05
8.468750e+03 3.543639e+04 -1.200000e+05
4.205451e+04 3.617214e+04 -1.425643e+05
3.264709e+04 1.695932e+04 -1.200000e+05
1.740294e+04 2.121157e+04 -1.394121e+05
-1.391304e+05 -3.110875e+05 -1.600000e+05
-1.739094e+05 -3.110849e+05 -1.600000e+05
-1.578414e+05 -3.208279e+05 -1.400320e+05
-1.446404e+05 -2.924735e+05 -1.399229e+05
-1.217394e+05 -2.814482e+05 -1.600000e+05
-1.565222e+05 -2.814260e+05 -1.600000e+05
-1.500448e+05 -2.703275e+05 -1.200000e+05
3.633380e+05 5.302257e+04 -1.405728e+05
3.324275e+05 6.572864e+04 -1.296429e+05
3.604873e+05 8.695647e+04 -1.400467e+05
3.473599e+05 7.863816e+04 -1.198373e+05
3.338792e+05 8.512209e+04 -9.855829e+04
3.297644e+05 1.110289e+05 -1.128855e+05
3.643912e+05 1.086737e+05 -1.110874e+05
4.000000e+05 -1.913043e+05 -1.600000e+05
3.703601e+05 -2.086965e+05 -1.600000e+05
3.672303e+05 8.348363e+04 -9.746482e+04
3.668260e+05 -2.972841e+05 -1.093392e+05
3.759737e+05 -2.767526e+05 -1.055827e+05
4.000000e+05 -2.783180e+05 -1.311186e+05
3.698739e+05 -2.471339e+05 -1.082473e+05
3.797998e+05 -2.553273e+05 -8.438078e+04
4.000000e+05 -2.783180e+05 -7.728612e+04
4.000000e+05 -2.609001e+05 -1.034278e+05
1.002772e+05 3.221157e+05 -7.202508e+04
8.333333e+04 3.000000e+05 -8.577214e+04
-1.922983e+05 -1.397001e+05 -1.600000e+05
-1.587543e+05 -1.352331e+05 -1.406738e+05
-1.883121e+05 -1.184571e+05 -1.401343e+05
-1.802810e+05 -1.343912e+05 -1.200000e+05
-1.519922e+05 -1.509251e+05 -1.200000e+05
-1.595968e+05 -1.598440e+05 -1.600000e+05
-1.931753e+05 -1.759999e+05 -1.600000e+05
-2.222304e+05 -1.569998e+05 -1.600000e+05
-2.106128e+05 -1.509372e+05 -1.200000e+05
2.145510e+04 4.243969e+04 -1.600000e+05
4.640342e+04 1.812701e+04 -1.600000e+05
2.435803e+05 -3.354137e+05 -1.186729e+05
2.250794e+05 -3.613160e+05 -1.400821e+05
2.058023e+05 -3.348646e+05 -1.155410e+05
2.273145e+05 -3.207104e+05 -1.397463e+05
2.454370e+05 -3.749044e+05 -1.105666e+05
2.261778e+05 -3.406891e+05 -1.600000e+05
2.442743e+05 -3.108737e+05 -1.600000e+05
2.435234e+05 -3.703245e+05 -1.600000e+05
1.500457e+05 2.703277e+05 -1.200000e+05
1.355255e+05 2.708678e+05 -1.398461e+05
1.458072e+05 2.922611e+05 -1.398894e+05
1.217520e+05 2.814458e+05 -1.600000e+05
1.565527e+05 2.814421e+05 -1.600000e+05
1.391305e+05 3.110875e+05 -1.600000e+05
1.739154e+05 3.110871e+05 -1.600000e+05
1.660193e+05 3.241916e+05 -1.400526e+05
1.775559e+05 2.908501e+05 -1.399767e+05
6.956522e+04 3.110875e+05 -1.600000e+05
6.787652e+04 2.774453e+05 -1.398604e+05
8.724172e+04 3.031236e+05 -1.384694e+05
5.187927e+04 3.039195e+05 -1.400050e+05
6.666667e+04 3.000000e+05 -1.200000e+05
5.217392e+04 3.407250e+05 -1.600000e+05
3.478263e+04 3.110875e+05 -1.600000e+05
-2.261061e+05 -3.406227e+05 -1.600000e+05
-2.431996e+05 -3.104967e+05 -1.600000e+05
-2.439786e+05 -3.417788e+05 -1.397899e+05
-2.428027e+05 -3.344249e+05 -1.152479e+05
-2.098541e+05 -3.354284e+05 -1.152870e+05
-2.623455e+05 -3.612773e+05 -1.345004e+05
-2.611384e+05 -3.400137e+05 -1.600000e+05
-3.000000e+05 -7.843103e+04 -8.654803e+04
-3.000000e+05 -1.000000e+05 -1.200000e+05
-1.925405e+05 -3.477592e+04 -1.600000e+05
-1.869872e+05 -1.671972e+04 -1.399526e+05
-2.158386e+05 -3.392090e+04 -1.399560e+05
-1.332057e+05 -6.836555e+04 -1.600000e+05
-1.624168e+05 -8.687137e+04 -1.600000e+05
3.000000e+05 -1.000000e+05 -1.200000e+05
2.694012e+05 -1.023539e+05 -1.398935e+05
2.814494e+05 -8.695656e+04 -1.600000e+05
2.936084e+05 -1.163713e+05 -1.398175e+05
2.814458e+05 -1.217394e+05 -1.600000e+05
3.110875e+05 -1.043478e+05 -1.600000e+05
3.110867e+05 -1.391294e+05 -1.600000e+05
3.253676e+05 -1.330379e+05 -1.400343e+05
3.170332e+05 -9.133788e+04 -1.400328e+05
3.333304e+05 -2.414606e+05 -1.154671e+05
3.110097e+05 -2.086514e+05 -1.600000e+05
3.703269e+05 -2.434956e+05 -1.600000e+05
3.102560e+05 -2.432305e+05 -1.600000e+05
-3.604937e+05 -1.217390e+05 -1.400556e+05
-3.395418e+05 -1.406731e+05 -1.403124e+05
-3.703625e+05 -1.391304e+05 -1.600000e+05
-3.607282e+05 -1.565255e+05 -1.411091e+05
-3.407241e+05 -1.565230e+05 -1.600000e+05
-3.407250e+05 -1.217391e+05 -1.600000e+05
3.701588e+05 3.127960e+05 -1.600000e+05
1.666666e+04 2.703625e+05 -1.200000e+05
1.670244e+04 2.462387e+05 -1.399300e+05
-5.559926e+01 2.749514e+05 -1.399050e+05
3.377556e+04 2.758920e+05 -1.399299e+05
-3.333351e+04 2.407249e+05 -1.200000e+05
-3.377766e+04 2.166174e+05 -1.399330e+05
-5.127530e+04 2.447040e+05 -1.399631e+05
-1.670624e+04 2.462545e+05 -1.399299e+05
-1.739128e+04 2.814500e+05 -1.600000e+05
-3.394123e+04 2.750869e+05 -1.399524e+05
-3.478258e+04 2.518125e+05 -1.600000e+05
4.000000e+05 -2.086956e+05 -1.317700e+05
3.652679e+05 -1.794155e+05 -1.063712e+05
-3.356069e+05 -2.626407e+05 -9.520114e+04
-1.219143e+05 -3.357408e+04 -1.200000e+05
-1.001930e+05 -3.405448e+04 -1.399926e+05
-1.268239e+05 -1.685276e+04 -1.399696e+05
-1.217393e+05 3.605889e+05 -1.400385e+05
-1.629072e+05 -1.735068e+04 -1.600000e+05
-1.333073e+05 -3.451196e+04 -1.600000e+05
-3.703381e+05 -2.435071e+05 -1.600000e+05
-3.407012e+05 -2.261537e+05 -1.600000e+05
-1.037935e+05 -5.127958e+04 -1.600000e+05
1.166778e+05 2.703522e+05 -1.200000e+05
1.003706e+05 2.734262e+05 -1.397327e+05
1.070490e+05 2.930957e+05 -1.400079e+05
8.695819e+04 2.814494e+05 -1.600000e+05
-3.335003e+05 -3.106063e+05 -1.154569e+05
-3.124309e+05 -3.118739e+05 -1.600000e+05
-2.965757e+05 -3.394874e+05 -1.600000e+05
-3.354907e+05 -3.359360e+05 -1.600000e+05
-3.140624e+05 -3.698019e+05 -1.600000e+05
-2.963608e+05 -3.598418e+05 -1.394305e+05
-3.478260e+04 3.703625e+05 -1.600000e+05
-5.217272e+04 3.605434e+05 -1.403195e+05
-3.333333e+04 3.000000e+05 -1.200000e+05
1.192804e-02 3.110875e+05 -1.600000e+05
6.214636e+04 -1.639100e+03 -1.200000e+05
6.995385e+04 -1.823326e+04 -1.402755e+05
6.127903e+04 1.706260e+04 -1.403870e+05
9.808363e+04 -3.534781e+02 -1.399903e+05
9.244576e+04 1.669520e+04 -1.200000e+05
1.037236e+05 -1.735972e+04 -1.600000e+05
9.664463e+04 -3.422826e+04 -1.398569e+05
3.000000e+05 -6.666667e+04 -1.200000e+05
2.928172e+05 -1.450631e+05 -1.399170e+05
3.110797e+05 -1.739050e+05 -1.600000e+05
3.222832e+05 -1.604083e+05 -1.400343e+05
2.814174e+05 -1.565165e+05 -1.600000e+05
2.774246e+05 -1.349855e+05 -1.398530e+05
1.043479e+05 -4.000000e+05 -7.840173e+04
5.183332e+04 -3.347063e+05 -9.279362e+04
-2.086955e+05 -4.000000e+05 -7.805483e+04
-2.248782e+05 -3.782106e+05 -7.589593e+04
-4.000000e+05 -4.000000e+05 -8.686567e+04
-2.009816e+05 -3.464930e+05 -7.144624e+04
-1.915924e+05 -3.795248e+05 -8.557627e+04
-2.145431e+05 -3.695736e+05 -1.082642e+05
-2.220482e+05 -3.332687e+05 -9.320983e+04
-2.525516e+05 -3.659789e+05 -1.076212e+05
-3.587594e+05 3.349232e+05 -1.384193e+05
-3.315354e+05 3.532353e+05 -7.215347e+04
-3.308305e+05 3.784087e+05 -8.316636e+04
-3.105892e+05 3.334987e+05 -1.154561e+05
-3.313839e+05 3.315026e+05 -8.755076e+04
-2.517651e+05 1.741627e+05 -1.600000e+05
-2.618863e+05 1.644128e+05 -1.398514e+05
-2.375078e+05 1.476872e+05 -1.399754e+05
-2.411994e+05 1.831147e+05 -1.398638e+05
-2.701484e+05 1.835158e+05 -1.200000e+05
-2.404833e+05 1.673068e+05 -1.200000e+05
-2.109893e+05 1.866002e+05 -1.200000e+05
-2.166251e+05 1.718765e+05 -1.398789e+05
-2.601500e+05 1.992778e+05 -1.398654e+05
-2.399748e+05 2.010120e+05 -1.200000e+05
1.916432e+05 -1.392421e+05 -1.600000e+05
2.075322e+05 -1.302734e+05 -1.399894e+05
1.812728e+05 -1.529496e+05 -1.420369e+05
2.094076e+05 -1.619771e+05 -1.404929e+05
2.165043e+05 -1.923956e+05 -1.600000e+05
1.945796e+05 -1.983360e+05 -1.407306e+05
2.290721e+05 -1.786306e+05 -1.369260e+05
2.212762e+05 -1.562696e+05 -1.600000e+05
1.927373e+05 -1.691461e+05 -1.600000e+05
-5.217390e+04 -3.407250e+05 -1.600000e+05
-3.478260e+04 -3.110875e+05 -1.600000e+05
-3.333333e+04 -3.000000e+05 -1.200000e+05
-4.800926e+04 -3.673198e+05 -1.137197e+05
1.192804e-02 -3.110875e+05 -1.600000e+05
-2.962112e+05 3.397541e+05 -1.600000e+05
-3.341158e+05 3.373122e+05 -1.600000e+05
-3.121527e+05 3.121569e+05 -1.600000e+05
1.922879e+05 -1.044634e+05 -1.600000e+05
2.406854e+05 -1.334049e+05 -1.200000e+05
2.109495e+05 -1.168178e+05 -1.200000e+05
2.406558e+05 -1.181428e+05 -1.398843e+05
2.219479e+05 -1.217616e+05 -1.600000e+05
2.173895e+05 -1.003515e+05 -1.398392e+05
1.217405e+05 -2.814492e+05 -1.600000e+05
1.006027e+05 -2.716673e+05 -1.397673e+05
8.695666e+04 -2.814499e+05 -1.600000e+05
1.070492e+05 -2.930983e+05 -1.400171e+05
1.043478e+05 -3.110875e+05 -1.600000e+05
1.391320e+05 -3.110860e+05 -1.600000e+05
8.713215e+04 -3.019888e+05 -1.400074e+05
1.031663e+05 -3.278569e+05 -1.373041e+05
1.000000e+05 -3.000000e+05 -1.200000e+05
-1.517811e+05 -1.669035e+04 -1.200000e+05
-9.238812e+04 -1.714012e+04 -1.200000e+05
-6.855573e+04 -1.827462e+04 -1.398051e+05
-9.907758e+04 -2.661547e+02 -1.399219e+05
3.217602e+05 -1.252938e+05 -1.023957e+05
3.338387e+05 -1.411726e+05 -1.149348e+05
3.300679e+05 -1.566286e+05 -9.413599e+04
3.465893e+05 -1.313896e+05 -7.293019e+04
3.652174e+05 -4.000000e+05 -1.600000e+05
3.440063e+05 -3.707550e+05 -1.600000e+05
3.000000e+05 -1.333333e+05 -1.200000e+05
4.000000e+05 -4.000000e+05 -1.234328e+05
3.316993e+05 -4.000000e+05 -1.054445e+05
3.670477e+05 -4.000000e+05 -1.055167e+05
-3.000000e+05 6.666667e+04 -1.200000e+05
2.518105e+05 -6.956572e+04 -1.600000e+05
2.221713e+05 -5.217555e+04 -1.600000e+05
2.450687e+05 -5.130665e+04 -1.399224e+05
2.564221e+05 -3.797787e+05 -8.194899e+04
2.724065e+05 -3.431001e+05 -7.232648e+04
2.955031e+05 -3.776866e+05 -7.995417e+04
2.612950e+05 3.405339e+05 -1.600000e+05
2.620235e+05 3.208133e+05 -1.393194e+05
2.802570e+05 3.108928e+05 -1.600000e+05
2.796220e+05 3.422785e+05 -1.398051e+05
1.925326e+05 -3.478642e+04 -1.600000e+05
-8.357612e+04 1.508238e+05 -1.200000e+05
-7.173233e+04 1.321960e+05 -1.600000e+05
-1.058482e+05 1.528594e+05 -1.394845e+05
-5.015165e+04 1.515618e+05 -1.200000e+05
-3.405481e+04 1.564252e+05 -1.399410e+05
-5.342252e+04 1.229470e+05 -1.390505e+05
-6.755128e+04 1.208632e+05 -1.200000e+05
-2.083727e+05 -1.338491e+05 -1.399894e+05
-1.924883e+05 -1.043795e+05 -1.600000e+05
-2.167768e+05 -1.003350e+05 -1.398442e+05
-2.221668e+05 -1.217954e+05 -1.600000e+05
-2.308677e+05 -1.491884e+05 -1.399808e+05
1.744974e+05 2.516749e+05 -1.600000e+05
1.831020e+05 2.306058e+05 -1.399811e+05
1.634202e+05 2.608085e+05 -1.398787e+05
1.523557e+05 2.430223e+05 -1.398978e+05
1.394002e+05 2.517162e+05 -1.600000e+05
1.589429e+05 2.210842e+05 -1.600000e+05
1.223686e+05 2.219665e+05 -1.600000e+05
1.363281e+05 2.078432e+05 -1.405686e+05
1.523936e+05 2.090487e+05 -1.200000e+05
3.519776e+04 -3.294414e+05 -1.396217e+05
6.956522e+04 -3.110875e+05 -1.600000e+05
5.217392e+04 -3.407250e+05 -1.600000e+05
6.666667e+04 -3.000000e+05 -1.200000e+05
3.478263e+04 -3.110875e+05 -1.600000e+05
-1.912490e+05 -2.813817e+05 -1.600000e+05
-1.773135e+05 -2.908704e+05 -1.400535e+05
-1.391340e+05 -2.517156e+05 -1.600000e+05
4.719253e+04 -3.671413e+05 -1.116071e+05
6.956522e+04 -3.703625e+05 -1.600000e+05
-2.814498e+05 -8.695673e+04 -1.600000e+05
-3.110872e+05 -1.043481e+05 -1.600000e+05
-2.719218e+05 -1.021961e+05 -1.398870e+05
1.242748e+05 -3.794183e+05 -7.298319e+04
1.391305e+05 -4.000000e+05 -7.903427e+04
-3.110874e+05 1.043480e+05 -1.600000e+05
-2.703563e+05 1.166779e+05 -1.200000e+05
-2.678790e+05 1.020130e+05 -1.398671e+05
-2.406206e+05 1.335584e+05 -1.200000e+05
-2.101464e+05 1.519899e+05 -1.200000e+05
-2.170855e+05 1.363632e+05 -1.401534e+05
-2.220895e+05 1.218949e+05 -1.600000e+05
-2.477723e+05 1.181769e+05 -1.398887e+05
-2.518023e+05 1.391701e+05 -1.600000e+05
1.012240e+05 2.184427e+05 -1.399645e+05
1.192337e+05 1.875420e+05 -1.406352e+05
1.047875e+05 1.924840e+05 -1.600000e+05
8.461584e+04 1.849023e+05 -1.401030e+05
1.048355e+05 1.528183e+05 -1.386181e+05
1.361063e+05 1.784566e+05 -1.200000e+05
1.415407e+05 1.913071e+05 -1.600000e+05
-1.749984e+05 -3.339028e+05 -1.150484e+05
-1.423746e+05 -3.285280e+05 -1.097638e+05
-1.565213e+05 -3.607426e+05 -1.401173e+05
1.814363e+05 -3.333667e+04 -1.200000e+05
1.869222e+05 -5.080035e+04 -1.399259e+05
-1.043478e+05 -3.703625e+05 -1.600000e+05
-6.956522e+04 -3.703625e+05 -1.600000e+05
-9.009250e+04 -3.587538e+05 -1.404526e+05
-1.760311e+05 -3.388950e+05 -1.406830e+05
3.806211e+05 -8.646493e+04 -1.270158e+05
3.110875e+05 -3.478260e+04 -1.600000e+05
4.000000e+05 2.783165e+05 -1.311048e+05
3.693498e+05 2.911410e+05 -1.109857e+05
3.827090e+05 2.786389e+05 -1.030324e+05
1.739133e+05 -4.000000e+05 -7.904660e+04
3.797961e+05 2.953003e+05 -7.972390e+04
4.000000e+05 2.783246e+05 -7.733975e+04
4.000000e+05 2.609149e+05 -1.036656e+05
4.000000e+05 2.959339e+05 -1.039968e+05
-1.475525e+05 -3.760184e+05 -1.154762e+05
-1.494092e+05 -3.795865e+05 -8.794903e+04
-1.205974e+05 -3.781942e+05 -8.778620e+04
-1.272403e+05 -3.394691e+05 -8.289008e+04
-1.166667e+05 -3.000000e+05 -8.486722e+04
-1.522466e+05 -3.342582e+05 -9.218206e+04
2.407248e+05 -6.666691e+04 -1.200000e+05
2.110844e+05 -5.000166e+04 -1.200000e+05
2.167233e+05 -6.787229e+04 -1.399022e+05
-1.075352e+05 -3.337720e+05 -1.145312e+05
-1.040281e+05 -3.412949e+05 -7.251951e+04
-1.500008e+05 -3.000000e+05 -8.550857e+04
-1.138358e+05 -3.661456e+05 -1.108371e+05
2.703625e+05 -8.333335e+04 -1.200000e+05
2.407224e+05 -1.000042e+05 -1.200000e+05
2.483006e+05 -8.412833e+04 -1.398165e+05
-3.457974e+05 1.644348e+05 -7.297314e+04
2.110407e+05 -8.336437e+04 -1.200000e+05
-3.339250e+05 1.750176e+05 -1.154436e+05
-3.720502e+05 1.798790e+05 -1.124559e+05
-3.782455e+05 1.533375e+05 -8.211592e+04
-3.307037e+05 2.069744e+05 -1.164931e+05
-3.207547e+05 1.928169e+05 -1.399631e+05
-2.221618e+05 8.697324e+04 -1.600000e+05
-1.924379e+05 1.045367e+05 -1.600000e+05
-2.157303e+05 1.025390e+05 -1.399730e+05
4.000000e+05 3.478241e+04 -1.327142e+05
4.000000e+05 -2.504888e-01 -1.321380e+05
-3.407167e+05 1.913189e+05 -1.600000e+05
-3.109527e+05 2.089091e+05 -1.600000e+05
-2.407242e+05 6.666859e+04 -1.200000e+05
-2.110626e+05 8.340592e+04 -1.200000e+05
-2.172681e+05 6.773725e+04 -1.398721e+05
-2.467052e+05 8.605956e+04 -1.399722e+05
3.000000e+05 -1.361245e+04 -8.487859e+04
-2.568158e+05 -3.789032e+05 -8.073504e+04
-2.966375e+05 -3.758289e+05 -8.203806e+04
-2.788963e+05 -3.816623e+05 -1.030636e+05
-2.783180e+05 -4.000000e+05 -7.728612e+04
1.565577e+05 -2.814212e+05 -1.600000e+05
1.552338e+05 -3.006657e+05 -1.399947e+05
1.739522e+05 -3.110541e+05 -1.600000e+05
1.785667e+05 -2.892553e+05 -1.397469e+05
1.936112e+05 -3.213701e+05 -1.399438e+05
1.913043e+05 -4.000000e+05 -1.600000e+05
1.913053e+05 -4.000000e+05 -1.060104e+05
2.086961e+05 -4.000000e+05 -1.319480e+05
2.115692e+05 -3.653898e+05 -1.079928e+05
3.106016e+05 -3.334848e+05 -1.151473e+05
2.783165e+05 -4.000000e+05 -1.311048e+05
2.775508e+05 -3.790134e+05 -9.976103e+04
-2.518121e+05 6.956560e+04 -1.600000e+05
-2.446789e+05 5.127899e+04 -1.399559e+05
-2.221742e+05 5.217469e+04 -1.600000e+05
2.783246e+05 -4.000000e+05 -7.733975e+04
2.959339e+05 -4.000000e+05 -1.039968e+05
-2.518101e+05 -1.043543e+05 -1.600000e+05
-2.488283e+05 -8.395441e+04 -1.397999e+05
-2.395634e+05 -1.174539e+05 -1.398127e+05
-2.517962e+05 -1.391836e+05 -1.600000e+05
-8.708920e+04 -1.629752e+05 -1.600000e+05
-1.029619e+05 -1.578479e+05 -1.403412e+05
-6.821240e+04 -1.572346e+05 -1.399937e+05
-1.052032e+05 -1.341138e+05 -1.600000e+05
-1.225458e+05 -1.279463e+05 -1.418791e+05
-1.034946e+05 -1.220249e+05 -1.200000e+05
-1.666667e+05 -3.000000e+05 -1.200000e+05
-2.130964e+05 -2.905062e+05 -1.400858e+05
1.040052e+05 -1.288223e+05 -1.600000e+05
1.334267e+05 -1.055185e+05 -1.600000e+05
1.051372e+05 -1.027057e+05 -1.406292e+05
8.988977e+04 -8.665093e+04 -1.200000e+05
9.887339e+04 -7.062385e+04 -1.403989e+05
8.507611e+04 -1.257450e+05 -1.395554e+05
7.967893e+04 -1.060753e+05 -1.600000e+05
1.227092e+05 -9.572852e+04 -1.200000e+05
8.343755e+04 -2.109982e+05 -1.200000e+05
8.376985e+04 -2.493856e+05 -1.397850e+05
6.782659e+04 -2.165674e+05 -1.399703e+05
1.020965e+05 -2.163452e+05 -1.399969e+05
1.007066e+05 -1.809955e+05 -1.200000e+05
8.511504e+04 -1.867807e+05 -1.400228e+05
1.186761e+05 -1.888821e+05 -1.407126e+05
8.695935e+04 -2.221764e+05 -1.600000e+05
3.000000e+05 -1.487536e+05 -8.601377e+04
3.800467e+05 -1.560897e+05 -8.452249e+04
3.734995e+05 -1.505242e+05 -1.151869e+05
2.088927e+05 -3.109439e+05 -1.600000e+05
2.164310e+05 -2.904905e+05 -1.396424e+05
1.916295e+05 -2.811636e+05 -1.600000e+05
2.777433e+05 -6.925701e+04 -1.398466e+05
2.517970e+05 -1.043510e+05 -1.600000e+05
4.000000e+05 2.434858e+05 -1.312378e+05
4.000000e+05 2.260870e+05 -1.600000e+05
4.000000e+05 2.086961e+05 -1.319480e+05
3.703603e+05 2.086965e+05 -1.600000e+05
-2.518070e+05 1.043574e+05 -1.600000e+05
3.407249e+05 -1.217391e+05 -1.600000e+05
3.604589e+05 -1.241571e+05 -1.397029e+05
3.407246e+05 -1.565217e+05 -1.600000e+05
4.000000e+05 -1.391308e+05 -1.322162e+05
4.000000e+05 -1.043482e+05 -1.328287e+05
4.000000e+05 -1.217391e+05 -1.600000e+05
3.703625e+05 -1.043478e+05 -1.600000e+05
3.703625e+05 -1.391304e+05 -1.600000e+05
4.000000e+05 -8.695671e+04 -1.067450e+05
-1.000467e+05 -2.406795e+05 -1.200000e+05
-1.025559e+05 -2.155834e+05 -1.400063e+05
-8.414038e+04 -2.482902e+05 -1.398410e+05
-1.176935e+05 -2.487175e+05 -1.398788e+05
-6.667287e+04 -2.407189e+05 -1.200000e+05
-5.144003e+04 -2.442005e+05 -1.399632e+05
-6.860110e+04 -2.792680e+05 -1.399624e+05
-8.341826e+04 -2.110141e+05 -1.200000e+05
-6.783122e+04 -2.166020e+05 -1.399425e+05
-6.956584e+04 -2.518116e+05 -1.600000e+05
-6.285728e+04 -3.509895e+04 -1.200000e+05
-4.101198e+04 -3.632351e+04 -1.411859e+05
-6.288476e+04 -5.152804e+04 -1.399408e+05
-1.035934e+05 -1.722537e+04 -1.600000e+05
-7.398682e+04 -3.493008e+04 -1.600000e+05
-6.292726e+04 -1.784473e+03 -1.200000e+05
-6.375051e+04 1.658955e+04 -1.398838e+05
2.000000e+05 -3.000000e+05 -1.200000e+05
2.161549e+05 -2.705073e+05 -1.200000e+05
-4.000000e+05 2.434821e+05 -1.320284e+05
-4.000000e+05 2.260870e+05 -1.600000e+05
-4.000000e+05 2.086959e+05 -1.328769e+05
-3.703461e+05 2.435047e+05 -1.600000e+05
-3.703611e+05 2.086986e+05 -1.600000e+05
-4.000000e+05 8.695630e+04 -1.055370e+05
-4.000000e+05 6.956517e+04 -7.816712e+04
-4.000000e+05 1.043476e+05 -7.826269e+04
-4.000000e+05 5.217390e+04 -1.050182e+05
-6.843540e+04 6.953103e+04 -1.600000e+05
-1.018147e+05 5.435733e+04 -1.600000e+05
-5.082839e+04 6.988663e+04 -1.388625e+05
-2.558300e+05 -2.821792e+05 -1.600000e+05
-2.609204e+05 -2.654776e+05 -1.398602e+05
-2.463007e+05 -2.911000e+05 -1.401683e+05
-1.220367e+05 1.034523e+05 -1.200000e+05
-1.334462e+05 1.073435e+05 -1.600000e+05
-9.631025e+04 9.645706e+04 -1.600000e+05
-1.539865e+05 1.020376e+05 -1.398763e+05
-8.075813e+04 9.482414e+04 -1.387032e+05
-2.793058e+05 6.924200e+04 -1.400000e+05
-1.322390e+05 7.171422e+04 -1.600000e+05
-1.517008e+05 8.418717e+04 -1.200000e+05
-9.931092e+04 -6.689743e+04 -1.411645e+05
-1.547381e+05 -1.067886e+05 -1.395637e+05
-1.284618e+05 -1.046147e+05 -1.600000e+05
-1.059930e+05 -7.985265e+04 -1.600000e+05
3.477409e+04 -1.925385e+05 -1.600000e+05
1.671213e+04 -1.869761e+05 -1.399217e+05
5.083222e+04 -1.869607e+05 -1.399585e+05
1.100362e+00 -1.814489e+05 -1.200000e+05
-2.516147e+02 -2.158189e+05 -1.399330e+05
-1.671078e+04 -1.869812e+05 -1.399147e+05
-5.606178e-01 -1.925376e+05 -1.600000e+05
1.669459e+04 -1.517900e+05 -1.200000e+05
1.514999e+05 1.188045e+05 -1.200000e+05
1.813494e+05 1.003411e+05 -1.200000e+05
1.574226e+05 1.042711e+05 -1.397755e+05
2.184642e+05 1.017042e+05 -1.397315e+05
2.110423e+05 1.167651e+05 -1.200000e+05
-1.759729e+05 2.273193e+05 -1.391605e+05
-1.561256e+05 2.216581e+05 -1.600000e+05
-1.519023e+05 2.102000e+05 -1.200000e+05
-1.335489e+05 2.406474e+05 -1.200000e+05
-1.371845e+05 2.151038e+05 -1.402007e+05
2.024984e+05 -3.437759e+05 -7.330090e+04
-2.221749e+05 1.739143e+04 -1.600000e+05
-2.483300e+05 1.669497e+04 -1.398124e+05
-2.158343e+05 2.268126e+02 -1.399415e+05
-2.166293e+05 3.377276e+04 -1.399511e+05
-1.814493e+05 4.204634e-01 -1.200000e+05
-1.861876e+05 1.684687e+04 -1.399586e+05
-2.110873e+05 1.666732e+04 -1.200000e+05
-2.609869e+05 -3.340767e+05 -9.388639e+04
-2.801211e+05 -3.048928e+05 -1.600000e+05
-2.638454e+05 -3.204042e+05 -1.403895e+05
-2.524548e+05 -3.000000e+05 -8.433292e+04
-1.623238e+05 -1.219119e+05 -1.600000e+05
-1.806245e+05 -1.004057e+05 -1.200000e+05
1.043478e+05 3.703625e+05 -1.600000e+05
8.695652e+04 4.000000e+05 -1.600000e+05
6.956522e+04 3.703625e+05 -1.600000e+05
2.609149e+05 -4.000000e+05 -1.036656e+05
-3.792445e+05 3.313321e+05 -8.804911e+04
-4.000000e+05 3.134791e+05 -1.317649e+05
2.721774e+05 2.450764e+05 -1.200000e+05
2.664241e+05 2.627668e+05 -1.397860e+05
3.046895e+05 2.802568e+05 -1.600000e+05
1.736247e+04 1.629098e+05 -1.600000e+05
1.695739e+04 1.854291e+05 -1.399573e+05
2.595303e+02 1.573373e+05 -1.399428e+05
3.382906e+04 1.577449e+05 -1.399140e+05
-1.744749e+04 1.628804e+05 -1.600000e+05
-1.697631e+04 1.277155e+05 -1.399152e+05
1.669189e+04 1.517604e+05 -1.200000e+05
-4.012294e+01 1.220916e+05 -1.200000e+05
1.674606e+04 1.283452e+05 -1.399160e+05
1.673436e+05 2.403391e+05 -1.200000e+05
1.172907e+05 2.472647e+05 -1.398540e+05
3.452532e+04 -7.329691e+04 -1.600000e+05
5.105660e+04 -6.798542e+04 -1.393991e+05
4.898763e+04 -4.662417e+04 -1.600000e+05
3.253538e+04 3.422848e+05 -7.236221e+04
1.634050e+04 -3.806425e+04 -1.600000e+05
2.762531e+04 -2.547388e+04 -1.200000e+05
1.913948e+05 2.814153e+05 -1.600000e+05
1.983537e+05 2.612456e+05 -1.399771e+05
1.336441e+05 2.404580e+05 -1.200000e+05
2.813977e+05 -1.912313e+05 -1.600000e+05
2.624401e+05 -1.597013e+05 -1.398274e+05
2.655373e+05 -2.005861e+05 -1.387536e+05
2.911301e+05 -1.752250e+05 -1.400385e+05
2.811598e+05 -2.256247e+05 -1.600000e+05
2.909641e+05 -2.099791e+05 -1.401423e+05
2.398861e+05 -2.011026e+05 -1.200000e+05
6.736916e+04 1.208690e+05 -1.200000e+05
6.665488e+04 1.021000e+05 -1.412220e+05
8.327290e+04 1.256966e+05 -1.396513e+05
9.614314e+04 1.065745e+05 -1.405160e+05
8.368893e+04 1.504215e+05 -1.200000e+05
5.127927e+04 1.269917e+05 -1.402112e+05
6.831509e+04 1.333790e+05 -1.600000e+05
1.043210e+05 1.292675e+05 -1.600000e+05
7.977710e+04 1.062062e+05 -1.600000e+05
3.000000e+05 1.192570e+05 -8.559800e+04
3.000000e+05 1.333333e+05 -1.200000e+05
3.447210e+05 1.043655e+05 -7.274344e+04
-2.333333e+05 -3.000000e+05 -1.200000e+05
4.000000e+05 2.956522e+05 -1.600000e+05
4.000000e+05 1.565217e+05 -1.600000e+05
3.703625e+05 1.391304e+05 -1.600000e+05
3.703623e+05 1.739131e+05 -1.600000e+05
4.000000e+05 1.217392e+05 -1.062233e+05
4.000000e+05 -6.956510e+04 -1.327924e+05
-7.210375e+04 -7.150398e+04 -1.600000e+05
-4.812357e+04 -4.941392e+04 -1.600000e+05
3.804636e+05 -2.050996e+04 -1.216698e+05
4.000000e+05 -1.739136e+04 -1.051333e+05
1.166779e+05 -2.703510e+05 -1.200000e+05
-1.356537e+05 1.799117e+05 -1.200000e+05
-1.204679e+05 1.920623e+05 -1.401710e+05
-1.541462e+05 1.888600e+05 -1.426130e+05
-1.216507e+05 2.221178e+05 -1.600000e+05
-1.028502e+05 2.150061e+05 -1.400189e+05
-1.170871e+05 2.108796e+05 -1.200000e+05
1.666707e+04 2.110867e+05 -1.200000e+05
3.408394e+04 2.152085e+05 -1.399633e+05
-8.946030e-03 2.407250e+05 -1.200000e+05
-2.799139e+02 2.166247e+05 -1.399302e+05
3.578412e-02 2.518125e+05 -1.600000e+05
1.739164e+04 2.221749e+05 -1.600000e+05
1.781825e+05 3.682656e+05 -1.083302e+05
1.922024e+05 3.294845e+05 -9.454565e+04
1.698310e+05 3.442975e+05 -7.273860e+04
1.879140e+05 3.769531e+05 -8.473147e+04
1.739125e+05 4.000000e+05 -1.328123e+05
1.533871e+05 3.646521e+05 -1.409628e+05
2.985435e+05 3.357891e+05 -9.155292e+04
3.110717e+05 1.739243e+05 -1.600000e+05
3.057636e+05 1.545943e+05 -1.400429e+05
2.814248e+05 1.565668e+05 -1.600000e+05
2.572381e+05 1.594120e+05 -1.397683e+05
2.517037e+05 1.394061e+05 -1.600000e+05
2.705390e+05 1.357716e+05 -1.398571e+05
2.387494e+05 1.191183e+05 -1.398047e+05
2.703623e+05 1.166684e+05 -1.200000e+05
3.000000e+05 -3.000000e+05 -1.200000e+05
-2.814075e+05 -1.565753e+05 -1.600000e+05
-3.110612e+05 -1.739469e+05 -1.600000e+05
-2.908174e+05 -1.774706e+05 -1.399593e+05
-2.624022e+05 -1.596168e+05 -1.398257e+05
-2.703631e+05 -1.166691e+05 -1.200000e+05
-1.666667e+05 3.000000e+05 -1.200000e+05
-1.500190e+05 2.703608e+05 -1.200000e+05
-2.700805e+05 -2.175288e+05 -1.200000e+05
-2.584381e+05 -2.337211e+05 -1.401759e+05
-2.904759e+05 -2.480383e+05 -1.395123e+05
-2.902598e+05 -2.141292e+05 -1.396810e+05
-2.802806e+05 -2.277282e+05 -1.600000e+05
1.517216e+05 -4.998078e+04 -1.200000e+05
1.275633e+05 -5.079034e+04 -1.399039e+05
1.580602e+05 -3.368620e+04 -1.398896e+05
1.577895e+05 -6.759081e+04 -1.399093e+05
1.627648e+05 -8.718804e+04 -1.600000e+05
1.868000e+05 -8.500275e+04 -1.400209e+05
-2.221826e+05 1.569972e+05 -1.600000e+05
-2.814284e+05 1.565558e+05 -1.600000e+05
1.044152e+05 2.517915e+05 -1.600000e+05
8.456998e+04 2.470316e+05 -1.399177e+05
1.000336e+05 2.406924e+05 -1.200000e+05
1.171947e+05 2.105494e+05 -1.200000e+05
-2.172516e+05 2.701469e+05 -1.200000e+05
-2.114346e+05 2.907497e+05 -1.400836e+05
-2.279411e+05 2.583393e+05 -1.382532e+05
-2.481640e+05 2.919798e+05 -1.401764e+05
-2.000000e+05 3.000000e+05 -1.200000e+05
-2.432042e+05 3.104885e+05 -1.600000e+05
2.030401e+05 3.388259e+05 -7.353033e+04
1.833430e+05 3.000000e+05 -8.530628e+04
-2.814500e+05 5.217395e+04 -1.600000e+05
-1.739527e+04 -1.629015e+05 -1.600000e+05
-3.379397e+04 -1.573047e+05 -1.399481e+05
-3.483261e+04 -1.332842e+05 -1.600000e+05
-3.333317e+04 -1.221256e+05 -1.200000e+05
2.407235e+05 1.000059e+05 -1.200000e+05
2.517930e+05 1.044037e+05 -1.600000e+05
2.457394e+05 8.640170e+04 -1.399460e+05
1.659399e+04 4.934761e+03 -1.600000e+05
4.603306e+04 -1.667543e+04 -1.600000e+05
-2.726949e+05 3.438084e+04 -1.399535e+05
4.043325e+04 1.212641e+03 -1.398883e+05
-6.666861e+04 2.407243e+05 -1.200000e+05
-5.000307e+04 2.110865e+05 -1.200000e+05
-6.782190e+04 2.165940e+05 -1.399369e+05
7.446287e+04 5.418908e+01 -1.600000e+05
3.302954e+05 -1.941125e+05 -9.502507e+04
3.778363e+05 -2.237620e+05 -8.502570e+04
-2.814499e+05 8.695668e+04 -1.600000e+05
8.707057e+04 2.221510e+05 -1.600000e+05
6.842132e+04 2.151817e+05 -1.399703e+05
1.006731e+05 1.803065e+05 -1.200000e+05
8.342089e+04 2.109782e+05 -1.200000e+05
4.000000e+05 1.739133e+05 -1.328878e+05
2.405869e+05 -1.669992e+05 -1.200000e+05
-3.507901e+05 4.000000e+05 -7.989941e+04
-3.316365e+05 4.000000e+05 -1.064081e+05
8.695652e+04 3.407250e+05 -1.600000e+05
8.333428e+04 2.703616e+05 -1.200000e+05
1.043478e+05 3.110875e+05 -1.600000e+05
2.434858e+05 -4.000000e+05 -1.312378e+05
2.608696e+05 -4.000000e+05 -1.600000e+05
2.235987e+05 3.787076e+05 -8.493379e+04
-2.407250e+05 8.946029e-03 -1.200000e+05
-2.110875e+05 -1.666666e+04 -1.200000e+05
-2.407250e+05 -3.333334e+04 -1.200000e+05
2.653398e+05 3.272273e+05 -9.475161e+04
8.689578e+04 1.626614e+05 -1.600000e+05
6.678180e+04 1.812203e+05 -1.200000e+05
5.046361e+04 1.927005e+05 -1.398241e+05
1.929111e+05 -2.221270e+05 -1.600000e+05
-3.703625e+05 1.391304e+05 -1.600000e+05
-3.407235e+05 1.565241e+05 -1.600000e+05
-3.703624e+05 1.739134e+05 -1.600000e+05
-3.604870e+05 1.565224e+05 -1.400505e+05
1.864311e+05 -2.104564e+05 -1.200000e+05
2.106795e+05 -2.342957e+05 -1.391754e+05
1.577323e+05 -1.816060e+05 -1.399536e+05
1.217392e+05 3.407250e+05 -1.600000e+05
3.407132e+05 -1.913050e+05 -1.600000e+05
-3.135757e+05 4.000000e+05 -1.326292e+05
-2.985599e+05 3.358776e+05 -9.234103e+04
-2.957747e+05 3.600646e+05 -1.398221e+05
-2.513110e+05 2.094375e+05 -1.600000e+05
-2.257104e+05 2.074062e+05 -1.396472e+05
-2.225858e+05 1.924944e+05 -1.600000e+05
-1.929213e+05 1.764379e+05 -1.600000e+05
-1.831173e+05 1.602679e+05 -1.385522e+05
-1.887029e+05 1.946640e+05 -1.395935e+05
-1.386521e+05 1.923779e+05 -1.600000e+05
-1.362356e+05 1.585850e+05 -1.407640e+05
-1.006803e+05 1.805472e+05 -1.200000e+05
-1.222048e+05 1.628265e+05 -1.600000e+05
-1.043460e+05 1.925118e+05 -1.600000e+05
-1.897711e+05 -3.312851e+05 -9.434472e+04
-1.799847e+05 -3.715300e+05 -1.124172e+05
-2.000000e+05 -3.000000e+05 -1.200000e+05
-2.110541e+05 3.736011e+05 -1.104214e+05
-2.226236e+05 3.322745e+05 -9.255879e+04
-2.220797e+05 3.791315e+05 -8.029815e+04
-2.021583e+05 3.421323e+05 -7.198785e+04
-2.168998e+05 3.000000e+05 -8.496351e+04
-2.524548e+05 3.000000e+05 -8.556874e+04
2.608950e+05 4.000000e+05 -1.043684e+05
-3.000000e+05 1.666667e+05 -1.200000e+05
-2.814489e+05 1.217405e+05 -1.600000e+05
-2.434792e+05 4.000000e+05 -7.761428e+04
1.806467e+05 -1.003827e+05 -1.200000e+05
2.221468e+05 -8.696759e+04 -1.600000e+05
-1.628063e+05 5.244889e+04 -1.600000e+05
-1.618321e+05 6.733867e+04 -1.398248e+05
-1.329924e+05 3.534148e+04 -1.600000e+05
-1.598921e+05 3.356072e+04 -1.398057e+05
-1.301386e+05 1.672136e+04 -1.398299e+05
-1.517870e+05 5.009588e+04 -1.200000e+05
3.000000e+05 3.000000e+05 -1.200000e+05
3.000000e+05 3.000000e+05 -8.447793e+04
3.367626e+05 3.001623e+05 -9.109584e+04
3.335333e+05 3.106133e+05 -1.151128e+05
-8.333335e+04 -3.000000e+05 -8.549020e+04
-8.757187e+04 -3.297365e+05 -9.586646e+04
-7.987594e+04 -3.688257e+05 -1.124832e+05
-5.217414e+04 -3.604877e+05 -1.400518e+05
-5.190450e+04 -3.353609e+05 -9.206514e+04
2.634000e+05 2.816506e+05 -1.600000e+05
2.470574e+05 2.909985e+05 -1.396881e+05
2.332708e+05 2.587898e+05 -1.402602e+05
2.179868e+05 2.694674e+05 -1.200000e+05
2.141989e+05 2.903733e+05 -1.400279e+05
2.267046e+05 2.811530e+05 -1.600000e+05
3.000000e+05 -1.666667e+05 -1.200000e+05
3.299238e+05 -1.778640e+05 -1.126319e+05
3.000000e+05 -2.000000e+05 -1.200000e+05
-1.173057e+05 -2.105179e+05 -1.200000e+05
-1.007926e+05 -1.809397e+05 -1.200000e+05
-1.198456e+05 -1.507088e+05 -1.200000e+05
-1.044221e+05 -1.924112e+05 -1.600000e+05
-8.521015e+04 -1.867355e+05 -1.399879e+05
-1.218787e+05 -1.628877e+05 -1.600000e+05
-1.376365e+05 -1.523422e+05 -1.398102e+05
-1.812382e+05 1.007184e+05 -1.200000e+05
-1.880568e+05 1.192979e+05 -1.402068e+05
-1.881220e+05 8.547489e+04 -1.398586e+05
-1.449937e+05 -1.195456e+05 -1.200000e+05
-1.353801e+05 -1.368915e+05 -1.600000e+05
-1.685408e+05 1.935929e+05 -1.600000e+05
-1.589696e+05 1.606535e+05 -1.600000e+05
-3.000000e+05 2.666667e+05 -1.200000e+05
-2.882831e+05 2.793189e+05 -1.399217e+05
-2.907371e+05 2.457723e+05 -1.390045e+05
3.795121e+05 -1.168069e+05 -8.489808e+04
6.910629e+04 -2.709858e+05 -1.399778e+05
8.333594e+04 -2.703598e+05 -1.200000e+05
1.000637e+05 -2.406636e+05 -1.200000e+05
1.043495e+05 -2.518120e+05 -1.600000e+05
-2.407102e+05 1.000354e+05 -1.200000e+05
-2.703622e+05 8.333387e+04 -1.200000e+05
2.798357e+05 7.171136e+04 -1.398565e+05
2.703615e+05 -1.166681e+05 -1.200000e+05
-3.546189e+05 3.296301e+05 -6.953870e+04
3.406083e+05 2.261158e+05 -1.600000e+05
3.407174e+05 1.913089e+05 -1.600000e+05
-1.565217e+05 -4.000000e+05 -1.600000e+05
-1.913043e+05 -4.000000e+05 -1.600000e+05
-1.739130e+05 -4.000000e+05 -1.320845e+05
-1.739132e+05 -3.703623e+05 -1.600000e+05
-4.000000e+05 -3.652174e+05 -1.600000e+05
-3.707936e+05 -3.439666e+05 -1.600000e+05
-4.000000e+05 -3.304348e+05 -1.600000e+05
4.000000e+05 -3.317213e+05 -1.054531e+05
4.000000e+05 -3.509454e+05 -7.969368e+04
3.760223e+05 -3.681469e+05 -7.834129e+04
1.045059e+05 -1.210170e+05 -1.200000e+05
1.023039e+05 -1.587893e+05 -1.401975e+05
-3.135918e+05 -4.000000e+05 -7.808599e+04
5.200886e+04 -1.629061e+05 -1.600000e+05
8.671302e+04 -1.625493e+05 -1.600000e+05
6.823534e+04 -1.332824e+05 -1.600000e+05
6.832035e+04 -1.563710e+05 -1.400208e+05
-1.391308e+05 -4.000000e+05 -1.322162e+05
-1.248695e+05 -3.587562e+05 -1.404015e+05
-3.304348e+05 -4.000000e+05 -1.600000e+05
-2.170942e+05 -2.697417e+05 -1.200000e+05
-3.478260e+04 3.110875e+05 -1.600000e+05
-5.000001e+04 2.703625e+05 -1.200000e+05
3.334809e+04 -1.814406e+05 -1.200000e+05
5.000597e+04 -2.110823e+05 -1.200000e+05
3.376595e+04 -2.166066e+05 -1.399174e+05
1.666693e+04 -2.110872e+05 -1.200000e+05
1.739133e+04 -2.221750e+05 -1.600000e+05
1.686409e+04 -2.454792e+05 -1.399461e+05
-1.737194e+04 -1.036886e+05 -1.600000e+05
-3.453622e+04 -7.453857e+04 -1.600000e+05
-1.618957e+04 -9.177187e+04 -1.200000e+05
-4.928438e+04 -7.088200e+04 -1.405809e+05
-2.333333e+05 3.000000e+05 -1.200000e+05
-2.404237e+05 3.392434e+05 -1.177312e+05
-1.942824e+05 3.309675e+05 -9.504466e+04
-2.046462e+05 3.353233e+05 -1.169705e+05
-2.703625e+05 5.000005e+04 -1.200000e+05
-2.809523e+05 -2.643236e+05 -1.600000e+05
-2.704813e+05 -2.534916e+05 -1.200000e+05
-4.000000e+05 1.391299e+05 -7.832379e+04
-4.000000e+05 1.217387e+05 -1.050269e+05
-1.523695e+05 1.517537e+05 -1.200000e+05
-1.754951e+05 1.755770e+05 -1.200000e+05
-1.511762e+05 1.380404e+05 -1.403909e+05
-1.805024e+05 1.356808e+05 -1.200000e+05
-1.918965e+05 1.401664e+05 -1.600000e+05
1.835294e+05 2.702115e+05 -1.200000e+05
-1.043478e+05 4.000000e+05 -1.309412e+05
-1.102773e+05 3.663380e+05 -1.122744e+05
-6.956532e+04 4.000000e+05 -1.312052e+05
-5.217428e+04 4.000000e+05 -1.041946e+05
6.957638e+04 2.518092e+05 -1.600000e+05
2.810004e+05 2.568382e+05 -1.600000e+05
2.702781e+05 2.165217e+05 -1.200000e+05
2.516724e+05 -1.391352e+05 -1.600000e+05
2.291231e+05 -1.519526e+05 -1.449630e+05
-4.000000e+05 2.260899e+05 -1.061280e+05
-2.800607e+05 3.049423e+05 -1.600000e+05
-2.637339e+05 3.197498e+05 -1.375059e+05
-2.259193e+05 2.811235e+05 -1.600000e+05
-2.534554e+05 2.703478e+05 -1.200000e+05
-2.559030e+05 2.821316e+05 -1.600000e+05
-2.666667e+05 3.000000e+05 -1.200000e+05
1.172793e+05 -2.105378e+05 -1.200000e+05
6.954580e+04 -1.925274e+05 -1.600000e+05
6.677838e+04 -1.813887e+05 -1.200000e+05
-3.478260e+04 -3.703625e+05 -1.600000e+05
-3.478251e+04 -4.000000e+05 -1.323045e+05
-2.504888e-01 -4.000000e+05 -1.321380e+05
-1.739130e+04 -4.000000e+05 -1.600000e+05
1.773258e+04 -3.788968e+05 -1.330441e+05
-2.407250e+05 -6.666673e+04 -1.200000e+05
-2.459451e+05 -5.105878e+04 -1.398871e+05
-2.110875e+05 -5.000008e+04 -1.200000e+05
-1.814165e+05 6.680343e+04 -1.200000e+05
-1.844090e+05 5.170260e+04 -1.399422e+05
-1.725620e+04 6.029717e+04 -1.381935e+05
-1.794565e+03 6.300706e+04 -1.200000e+05
1.924322e+04 6.309080e+04 -1.393397e+05
-1.925241e+05 6.960458e+04 -1.600000e+05
-1.666668e+04 2.703625e+05 -1.200000e+05
-2.516385e+05 -1.742897e+05 -1.600000e+05
-2.812007e+05 -1.915956e+05 -1.600000e+05
-2.222216e+05 -1.929080e+05 -1.600000e+05
-4.000000e+05 -2.782927e+05 -7.817433e+04
2.703625e+05 -5.000001e+04 -1.200000e+05
2.747253e+05 -3.394418e+04 -1.398658e+05
3.110875e+05 -6.956520e+04 -1.600000e+05
-2.086956e+05 -4.000000e+05 -1.317700e+05
3.000000e+05 -2.333333e+05 -1.200000e+05
3.000000e+05 -2.666667e+05 -1.200000e+05
-5.221061e+04 -1.629186e+05 -1.600000e+05
-5.265410e+04 -1.035926e+05 -1.600000e+05
-6.447013e+04 -6.508339e+04 -1.200000e+05
-6.757705e+04 -1.217860e+05 -1.200000e+05
-5.010989e+04 -1.517823e+05 -1.200000e+05
1.517857e+05 5.013989e+04 -1.200000e+05
1.517503e+05 8.399863e+04 -1.200000e+05
1.628996e+05 1.739508e+04 -1.600000e+05
1.332693e+05 3.483867e+04 -1.600000e+05
-8.695153e+04 2.221732e+05 -1.600000e+05
-6.959514e+04 1.925259e+05 -1.600000e+05
-8.341508e+04 2.110297e+05 -1.200000e+05
-6.958419e+04 -1.925211e+05 -1.600000e+05
-5.080541e+04 -1.869560e+05 -1.399362e+05
-5.217552e+04 -2.221729e+05 -1.600000e+05
-3.376339e+04 -2.166295e+05 -1.399222e+05
-6.677206e+04 -1.813935e+05 -1.200000e+05
-1.217391e+05 3.407250e+05 -1.600000e+05
4.970716e+04 4.758976e+04 -1.600000e+05
6.558788e+04 5.106365e+04 -1.393407e+05
4.999516e+04 7.090557e+04 -1.404615e+05
7.470282e+04 3.433032e+04 -1.600000e+05
1.199681e+05 -1.505822e+05 -1.200000e+05
1.382413e+05 -1.528002e+05 -1.393441e+05
1.217854e+05 -2.221726e+05 -1.600000e+05
1.043279e+05 -1.925291e+05 -1.600000e+05
4.000000e+05 1.043479e+05 -7.840173e+04
4.000000e+05 6.956529e+04 -7.847716e+04
-6.794452e+04 -3.442266e+05 -7.274748e+04
-8.760364e+04 -3.795344e+05 -8.622504e+04
1.043476e+05 4.000000e+05 -1.319848e+05
2.666667e+05 -3.000000e+05 -1.200000e+05
2.469147e+05 -2.911048e+05 -1.391837e+05
2.802558e+05 -3.108582e+05 -1.600000e+05
1.628606e+05 8.748829e+04 -1.600000e+05
1.337424e+05 1.060777e+05 -1.600000e+05
-1.628889e+05 1.222906e+05 -1.600000e+05
-1.628518e+05 8.745997e+04 -1.600000e+05
-3.134446e+05 4.000000e+05 -7.898989e+04
1.286991e+05 1.242719e+05 -1.410274e+05
2.115089e+05 1.853756e+05 -1.200000e+05
2.038418e+05 2.031262e+05 -1.400296e+05
2.292998e+05 2.081282e+05 -1.400783e+05
2.310906e+05 1.816960e+05 -1.396019e+05
2.407325e+05 1.669358e+05 -1.200000e+05
2.508918e+05 2.098363e+05 -1.600000e+05
2.515169e+05 1.746589e+05 -1.600000e+05
2.611973e+05 1.990795e+05 -1.396880e+05
-4.000000e+05 -1.565217e+05 -1.600000e+05
-4.000000e+05 -1.391305e+05 -1.310453e+05
-3.703625e+05 -1.739131e+05 -1.600000e+05
-4.000000e+05 -3.135757e+05 -1.326292e+05
-5.217373e+04 2.221749e+05 -1.600000e+05
-8.697097e+04 -2.221458e+05 -1.600000e+05
1.813347e+05 -6.670323e+04 -1.200000e+05
1.925062e+05 -6.958893e+04 -1.600000e+05
8.695652e+04 -3.407250e+05 -1.600000e+05
2.168998e+05 -3.000000e+05 -8.488845e+04
-3.604877e+05 1.217390e+05 -1.400447e+05
-1.833430e+05 -3.000000e+05 -8.482878e+04
2.110865e+05 5.000275e+04 -1.200000e+05
2.110794e+05 8.335525e+04 -1.200000e+05
1.218907e+05 1.630593e+05 -1.600000e+05
9.699880e+04 1.212083e+05 -1.200000e+05
1.201027e+05 1.442322e+05 -1.200000e+05
-8.422426e+04 -1.515997e+05 -1.200000e+05
2.814500e+05 -1.739128e+04 -1.600000e+05
2.703625e+05 -1.666668e+04 -1.200000e+05
2.758671e+05 -3.111231e+02 -1.399112e+05
-2.518122e+05 -6.956589e+04 -1.600000e+05
-4.000000e+05 1.217391e+05 -1.600000e+05
-4.000000e+05 2.608950e+05 -1.043684e+05
1.219124e+05 -6.653270e+04 -1.200000e+05
1.332982e+05 -6.995629e+04 -1.600000e+05
1.511500e+05 -8.320537e+04 -1.200000e+05
1.622214e+05 -1.222904e+05 -1.600000e+05
1.042102e+05 -8.901434e+04 -1.600000e+05
6.667639e+04 -2.407155e+05 -1.200000e+05
5.125116e+04 -2.450768e+05 -1.399334e+05
1.998122e+05 -2.410779e+05 -1.200000e+05
2.241904e+05 -2.236254e+05 -1.600000e+05
6.307739e+04 3.445706e+04 -1.200000e+05
-5.217390e+04 2.814500e+05 -1.600000e+05
-6.956493e+04 2.518123e+05 -1.600000e+05
-3.000000e+05 3.000000e+05 -1.200000e+05
2.814499e+05 -5.217390e+04 -1.600000e+05
2.407249e+05 -3.333336e+04 -1.200000e+05
-1.913044e+05 -4.000000e+05 -1.053793e+05
-3.358004e+04 1.218991e+05 -1.200000e+05
-3.466901e+04 9.574010e+04 -1.394428e+05
-5.103260e+04 9.162378e+04 -1.200000e+05
-3.529692e+04 1.330336e+05 -1.600000e+05
-2.146754e+05 -2.148380e+05 -1.200000e+05
-2.070388e+05 -2.057535e+05 -1.394110e+05
-2.374096e+05 -2.376319e+05 -1.200000e+05
1.213685e+05 -1.626356e+05 -1.600000e+05
8.446019e+04 -1.513578e+05 -1.200000e+05
-1.372248e+05 1.366371e+05 -1.600000e+05
-2.388113e+02 -7.351319e+04 -1.600000e+05
-4.000000e+05 -2.086963e+05 -1.317986e+05
-4.000000e+05 -1.913043e+05 -1.600000e+05
-3.703600e+05 -2.086990e+05 -1.600000e+05
-3.407192e+05 -1.913128e+05 -1.600000e+05
3.000000e+05 6.666667e+04 -1.200000e+05
3.407250e+05 8.695652e+04 -1.600000e+05
3.110875e+05 6.956522e+04 -1.600000e+05
-7.613668e+01 1.332610e+05 -1.600000e+05
-1.669369e+04 1.517701e+05 -1.200000e+05
-3.333918e+04 -1.814468e+05 -1.200000e+05
-3.478466e+04 -1.925365e+05 -1.600000e+05
-1.667215e+04 -1.518077e+05 -1.200000e+05
3.110875e+05 1.192804e-02 -1.600000e+05
5.000531e+04 2.110793e+05 -1.200000e+05
6.962598e+04 1.925356e+05 -1.600000e+05
5.204982e+04 1.629521e+05 -1.600000e+05
1.868082e+05 2.102605e+05 -1.200000e+05
2.148931e+05 2.147223e+05 -1.200000e+05
4.000000e+05 -2.608696e+05 -1.600000e+05
4.000000e+05 -2.434807e+05 -1.311432e+05
-4.000000e+05 -6.956534e+04 -7.726181e+04
-4.000000e+05 -5.217428e+04 -1.041946e+05
5.218342e+04 2.221739e+05 -1.600000e+05
3.478208e+04 1.925414e+05 -1.600000e+05
3.334440e+04 1.814321e+05 -1.200000e+05
5.217409e+04 -2.221752e+05 -1.600000e+05
6.956534e+04 -2.518125e+05 -1.600000e+05
3.478265e+04 -2.518125e+05 -1.600000e+05
1.894884e+05 -3.794406e+05 -8.246350e+04
1.391300e+05 4.000000e+05 -1.321929e+05
1.565207e+05 4.000000e+05 -1.060961e+05
1.628801e+05 -5.222121e+04 -1.600000e+05
-3.652174e+05 -4.000000e+05 -1.600000e+05
2.201688e+05 -3.792321e+05 -8.335629e+04
2.086968e+05 -4.000000e+05 -7.809735e+04
2.333333e+05 -3.000000e+05 -1.200000e+05
-5.823251e+04 3.343660e+04 -1.200000e+05
-3.685889e+04 4.414633e+04 -1.417024e+05
-2.010397e+04 3.405889e+04 -1.200000e+05
-1.494592e+04 3.726364e+04 -1.600000e+05
-3.561630e+04 9.131007e+03 -1.200000e+05
-3.374300e+04 7.316692e+04 -1.600000e+05
2.213636e+05 1.953807e+05 -1.600000e+05
-5.217390e+04 -2.814500e+05 -1.600000e+05
-3.478260e+04 -2.518125e+05 -1.600000e+05
-3.417917e+04 -2.730510e+05 -1.399299e+05
-1.669326e+04 -2.476711e+05 -1.398529e+05
-2.109946e+05 -1.167722e+05 -1.200000e+05
-2.407257e+05 -1.000021e+05 -1.200000e+05
-2.110489e+05 -8.335779e+04 -1.200000e+05
-2.221739e+05 -8.696238e+04 -1.600000e+05
-2.407143e+05 -1.334035e+05 -1.200000e+05
-2.110855e+05 5.000636e+04 -1.200000e+05
-2.518125e+05 3.478268e+04 -1.600000e+05
-2.407249e+05 3.333356e+04 -1.200000e+05
-2.769325e+05 -6.891715e+04 -1.399580e+05
-2.703625e+05 -8.333337e+04 -1.200000e+05
2.703625e+05 1.666666e+04 -1.200000e+05
2.814500e+05 1.739133e+04 -1.600000e+05
1.842942e+05 1.849257e+05 -1.600000e+05
2.407250e+05 6.666679e+04 -1.200000e+05
2.457694e+05 5.106085e+04 -1.399120e+05
2.814500e+05 5.217392e+04 -1.600000e+05
2.518111e+05 6.956978e+04 -1.600000e+05
2.407250e+05 3.333334e+04 -1.200000e+05
2.752934e+05 3.443096e+04 -1.399952e+05
2.462624e+05 1.673872e+04 -1.399299e+05
1.666671e+04 -2.703624e+05 -1.200000e+05
5.942891e+01 -2.725041e+05 -1.400009e+05
3.391747e+04 -2.795465e+05 -1.398861e+05
3.000000e+05 1.944156e+04 -8.581977e+04
4.000000e+05 3.135867e+05 -1.317279e+05
1.332662e+05 -3.485596e+04 -1.600000e+05
1.221446e+05 -3.332071e+04 -1.200000e+05
1.261624e+05 -1.696857e+04 -1.399445e+05
-2.815993e+02 1.010175e+05 -1.398962e+05
-1.754570e+04 1.034806e+05 -1.600000e+05
7.114240e+02 7.302655e+04 -1.600000e+05
-3.509077e+04 6.308215e+04 -1.200000e+05
1.395538e+05 -1.923929e+05 -1.600000e+05
1.592548e+05 -1.599965e+05 -1.600000e+05
1.355353e+05 -1.363017e+05 -1.600000e+05
2.091741e+05 2.516620e+05 -1.600000e+05
2.084812e+05 2.295803e+05 -1.403116e+05
2.009068e+05 2.403115e+05 -1.200000e+05
-2.001743e+05 2.409525e+05 -1.200000e+05
-1.860815e+05 2.114120e+05 -1.200000e+05
-2.098613e+05 2.296463e+05 -1.395098e+05
-2.370160e+05 2.377395e+05 -1.200000e+05
-2.246061e+05 2.235399e+05 -1.600000e+05
-2.575585e+05 2.313705e+05 -1.407947e+05
-2.139163e+05 2.153363e+05 -1.200000e+05
-2.695836e+05 2.170495e+05 -1.200000e+05
-2.890641e+05 2.162634e+05 -1.400889e+05
6.530300e+04 6.502199e+04 -1.200000e+05
8.856429e+04 8.799019e+04 -1.200000e+05
1.043162e+05 8.920872e+04 -1.600000e+05
1.217497e+05 6.766923e+04 -1.200000e+05
-1.713899e+04 9.241028e+04 -1.200000e+05
-1.670878e+04 1.869521e+05 -1.399195e+05
-2.611214e+05 3.399818e+05 -1.600000e+05
-2.260902e+05 -4.000000e+05 -1.041954e+05
-1.268170e+05 1.234567e+05 -1.413619e+05
-1.200009e+05 1.448847e+05 -1.200000e+05
2.703606e+05 1.500116e+05 -1.200000e+05
2.884276e+05 1.744047e+05 -1.399031e+05
-1.043482e+05 -4.000000e+05 -1.328287e+05
-8.695671e+04 -4.000000e+05 -1.067450e+05
3.000000e+05 3.333333e+04 -1.200000e+05
3.455988e+04 1.333463e+05 -1.600000e+05
3.447421e+04 9.432416e+04 -1.400150e+05
5.129669e+04 1.038117e+05 -1.600000e+05
5.063813e+04 9.150198e+04 -1.200000e+05
-1.565557e+05 -2.049774e+02 -1.399621e+05
-8.695661e+04 4.000000e+05 -1.035085e+05
-6.956534e+04 4.000000e+05 -7.726181e+04
-2.254399e+00 1.925370e+05 -1.600000e+05
4.000000e+05 -2.086955e+05 -7.805483e+04
4.000000e+05 -1.739130e+05 -7.817781e+04
-1.739126e+04 2.221750e+05 -1.600000e+05
-1.666703e+04 2.110873e+05 -1.200000e+05
-3.334608e+04 1.814327e+05 -1.200000e+05
-2.287334e+05 -2.601263e+05 -1.386183e+05
3.478260e+04 -3.703625e+05 -1.600000e+05
1.795737e+04 -3.687833e+05 -8.812060e+04
4.000000e+05 3.478241e+04 -7.876584e+04
-9.704180e+04 1.212966e+05 -1.200000e+05
-1.077788e+05 1.328964e+05 -1.600000e+05
-1.512595e+05 1.197796e+05 -1.200000e+05
1.358642e+05 1.371160e+05 -1.600000e+05
-3.110875e+05 3.478263e+04 -1.600000e+05
1.220709e+05 1.032218e+05 -1.200000e+05
1.623957e+05 1.231792e+05 -1.600000e+05
-4.000000e+05 1.739128e+04 -1.059678e+05
3.407250e+05 -8.695652e+04 -1.600000e+05
-2.387812e+04 -3.295690e+05 -9.453843e+04
-3.379836e+02 -3.432741e+05 -7.293849e+04
-3.168839e+04 -3.446283e+05 -7.315961e+04
-1.627855e+04 -3.779877e+05 -8.413366e+04
-1.666668e+04 -3.000000e+05 -8.579263e+04
1.666666e+04 -3.000000e+05 -8.614471e+04
1.739133e+04 -2.814500e+05 -1.600000e+05
3.333435e+04 -2.407240e+05 -1.200000e+05
-3.333356e+04 -2.407247e+05 -1.200000e+05
-1.666668e+04 -2.703625e+05 -1.200000e+05
-1.739128e+04 -2.814500e+05 -1.600000e+05
-2.703625e+05 1.666666e+04 -1.200000e+05
-2.814500e+05 1.739133e+04 -1.600000e+05
-2.712470e+05 -5.332189e+01 -1.399720e+05
-5.000001e+04 -3.000000e+05 -8.474845e+04
-3.110875e+05 -6.956520e+04 -1.600000e+05
-3.317213e+05 -4.000000e+05 -1.054531e+05
2.518123e+05 3.478301e+04 -1.600000e+05
3.670478e+05 4.000000e+05 -1.055410e+05
-4.000000e+05 1.565207e+05 -1.060961e+05
-4.000000e+05 1.739125e+05 -7.897374e+04
1.730660e+04 1.035753e+05 -1.600000e+05
-2.091245e+05 2.508779e+05 -1.600000e+05
2.703411e+05 1.833597e+05 -1.200000e+05
-1.926721e+05 2.163346e+05 -1.600000e+05
-1.670465e+05 2.407093e+05 -1.200000e+05
-1.814479e+05 3.334057e+04 -1.200000e+05
4.000000e+05 -2.434807e+05 -7.732264e+04
4.000000e+05 -2.260902e+05 -1.041954e+05
-1.925330e+05 3.479635e+04 -1.600000e+05
3.800488e+05 8.452789e+04 -1.228384e+05
4.000000e+05 8.695664e+04 -1.053276e+05
4.000000e+05 1.043479e+05 -1.322725e+05
3.703625e+05 1.043478e+05 -1.600000e+05
3.703625e+05 6.956522e+04 -1.600000e+05
-4.000000e+05 -5.217391e+04 -1.600000e+05
-4.000000e+05 -8.695652e+04 -1.600000e+05
-4.000000e+05 -6.956532e+04 -1.312052e+05
4.000000e+05 8.695652e+04 -1.600000e+05
4.000000e+05 5.217390e+04 -1.061781e+05
4.000000e+05 6.956529e+04 -1.322845e+05
3.315222e+05 -3.562336e+05 -7.172662e+04
3.000000e+05 -3.000000e+05 -8.495216e+04
1.391304e+05 3.703625e+05 -1.600000e+05
1.739131e+05 3.703624e+05 -1.600000e+05
1.565217e+05 4.000000e+05 -1.600000e+05
-4.000000e+05 2.434805e+05 -7.821913e+04
-1.217817e+05 -2.220064e+05 -1.600000e+05
-6.920568e+03 -3.221260e+04 -1.200000e+05
-1.332333e+05 1.279998e+02 -1.600000e+05
-5.393956e+04 1.021812e+05 -1.600000e+05
-1.214900e+05 -9.694208e+04 -1.200000e+05
1.217391e+05 -4.000000e+05 -1.600000e+05
1.043478e+05 -3.703625e+05 -1.600000e+05
-2.609001e+05 -4.000000e+05 -1.034278e+05
-1.565219e+05 -4.000000e+05 -1.050129e+05
-1.217400e+05 -4.000000e+05 -1.060289e+05
-7.382310e+04 -3.292497e+02 -1.600000e+05
-4.430786e+04 1.582690e+04 -1.600000e+05
-4.024460e+04 -5.259874e+03 -1.397303e+05
-3.703625e+05 6.956522e+04 -1.600000e+05
-4.000000e+05 6.956517e+04 -1.321036e+05
-3.407250e+05 1.217391e+05 -1.600000e+05
1.739071e+04 -4.000000e+05 -1.058997e+05
-2.258028e+05 -2.812025e+05 -1.600000e+05
2.666667e+05 3.000000e+05 -1.200000e+05
4.000000e+05 4.000000e+05 -1.234328e+05
3.652174e+05 4.000000e+05 -1.600000e+05
2.266354e+05 -3.296992e+05 -9.267576e+04
2.361812e+05 -3.404341e+05 -7.293732e+04
3.350312e+04 1.218709e+05 -1.200000e+05
-2.804064e+05 2.276411e+05 -1.600000e+05
-2.810007e+05 2.642963e+05 -1.600000e+05
1.500000e+05 3.000000e+05 -8.490709e+04
1.217391e+05 4.000000e+05 -1.600000e+05
3.407250e+05 1.217391e+05 -1.600000e+05
-9.211726e+04 1.647165e+04 -1.200000e+05
-3.478251e+04 -4.000000e+05 -7.840466e+04
-1.739136e+04 -4.000000e+05 -1.051333e+05
-5.155161e+04 -3.797859e+05 -8.308184e+04
-3.407250e+05 -8.695652e+04 -1.600000e+05
-8.766557e+04 -8.871354e+04 -1.200000e+05
1.759013e+05 -1.932094e+05 -1.600000e+05
4.000000e+05 -1.565219e+05 -1.050129e+05
-4.674469e+04 4.717801e+04 -1.600000e+05
-3.479134e+04 1.925342e+05 -1.600000e+05
-5.241611e+04 1.628044e+05 -1.600000e+05
-2.236169e+05 -2.243894e+05 -1.600000e+05
-2.461845e+05 -2.491030e+05 -1.600000e+05
1.162984e-01 1.814449e+05 -1.200000e+05
3.478299e+04 2.518124e+05 -1.600000e+05
-3.771702e+05 2.230297e+05 -8.215915e+04
-4.000000e+05 1.913041e+05 -1.065393e+05
-4.000000e+05 2.086956e+05 -7.903935e+04
-3.749988e+05 1.882927e+05 -8.577981e+04
-3.805005e+05 1.112707e+04 -1.205518e+05
-3.000000e+05 -1.645535e+04 -9.277711e+04
-6.956522e+04 3.703625e+05 -1.600000e+05
-1.043447e+05 2.518111e+05 -1.600000e+05
2.518124e+05 5.964020e-02 -1.600000e+05
2.407250e+05 -8.946030e-03 -1.200000e+05
2.110872e+05 -1.666677e+04 -1.200000e+05
2.166170e+05 -2.795613e+02 -1.399298e+05
-5.000007e+04 -2.703624e+05 -1.200000e+05
-8.333415e+04 -2.703617e+05 -1.200000e+05
3.000000e+05 8.592966e+04 -8.638607e+04
4.000000e+05 -1.913044e+05 -1.053793e+05
3.000000e+05 5.284011e+04 -8.613807e+04
3.464585e+05 6.715925e+04 -7.271629e+04
3.134780e+05 -4.000000e+05 -7.817779e+04
4.000000e+05 1.217391e+05 -1.600000e+05
4.000000e+05 1.739130e+04 -1.600000e+05
4.000000e+05 5.217391e+04 -1.600000e+05
3.703625e+05 3.478260e+04 -1.600000e+05
-2.981212e+05 3.197306e+05 -1.398553e+05
-1.518075e+05 1.667630e+04 -1.200000e+05
4.000000e+05 4.000000e+05 -8.686567e+04
-1.925376e+05 1.777278e+00 -1.600000e+05
2.260899e+05 4.000000e+05 -1.061280e+05
2.434821e+05 4.000000e+05 -1.320284e+05
2.542116e+05 2.696315e+05 -1.200000e+05
4.000000e+05 4.000000e+05 -1.600000e+05
4.000000e+05 3.652174e+05 -1.600000e+05
3.578412e-02 -2.518125e+05 -1.600000e+05
2.876365e+05 2.865307e+05 -1.412457e+05
2.110874e+05 1.666680e+04 -1.200000e+05
2.221748e+05 1.739188e+04 -1.600000e+05
1.925372e+05 3.578412e-02 -1.600000e+05
-3.670500e+05 -4.000000e+05 -1.055289e+05
-3.509454e+05 -4.000000e+05 -7.969368e+04
-2.784452e+05 -3.702094e+05 -1.600000e+05
4.000000e+05 -3.135918e+05 -1.317406e+05
4.000000e+05 -2.956522e+05 -1.600000e+05
3.698395e+05 -3.139056e+05 -1.600000e+05
2.812025e+05 1.915060e+05 -1.600000e+05
5.124273e+04 -1.037893e+05 -1.600000e+05
2.000000e+05 3.000000e+05 -1.200000e+05
2.240193e+05 2.251482e+05 -1.600000e+05
2.386626e+05 2.363198e+05 -1.200000e+05
2.407898e+05 2.003752e+05 -1.200000e+05
-2.011307e+04 -4.446669e+04 -1.600000e+05
-4.000000e+05 -4.000000e+05 -1.234328e+05
-4.000000e+05 -4.000000e+05 -1.600000e+05
-1.335913e+05 3.407183e+05 -7.238928e+04
-3.668768e+05 4.000000e+05 -1.057445e+05
-5.217364e+04 -4.000000e+05 -1.061846e+05
-1.043478e+05 3.703625e+05 -1.600000e+05
-6.956510e+04 -4.000000e+05 -1.327924e+05
-4.000000e+05 -2.260870e+05 -1.600000e+05
-3.108783e+05 -2.442943e+05 -1.600000e+05
-4.000000e+05 1.565217e+05 -1.600000e+05
-4.000000e+05 1.913043e+05 -1.600000e+05
-4.000000e+05 1.739125e+05 -1.328123e+05
4.999999e+04 3.000000e+05 -8.471311e+04
4.000000e+05 2.260908e+05 -1.042234e+05
3.304348e+05 4.000000e+05 -1.600000e+05
3.149676e+05 3.689234e+05 -1.600000e+05
3.135864e+05 4.000000e+05 -7.813504e+04
-4.000000e+05 1.391300e+05 -1.321929e+05
-1.924702e+05 -2.164953e+05 -1.600000e+05
2.439741e+05 3.110784e+05 -1.600000e+05
-1.739130e+05 -4.000000e+05 -7.817781e+04
2.086964e+05 3.703618e+05 -1.600000e+05
1.628972e+05 -1.739832e+04 -1.600000e+05
-6.956512e+04 -4.000000e+05 -7.897213e+04
5.217392e+04 -2.814500e+05 -1.600000e+05
-1.508586e+05 -8.349865e+04 -1.200000e+05
4.000000e+05 -3.478251e+04 -7.840466e+04
-4.000000e+05 -3.668768e+05 -1.057445e+05
-1.690384e+05 -3.385152e+05 -7.319118e+04
2.434866e+05 -4.000000e+05 -7.734211e+04
4.000000e+05 -4.000000e+05 -8.686567e+04
4.000000e+05 -3.670500e+05 -1.055289e+05
1.739136e+04 2.814500e+05 -1.600000e+05
3.407250e+05 5.217392e+04 -1.600000e+05
4.000000e+05 1.913043e+05 -1.600000e+05
4.000000e+05 2.434866e+05 -7.734211e+04
4.000000e+05 -3.652174e+05 -1.600000e+05
4.000000e+05 -4.000000e+05 -1.600000e+05
3.509509e+05 -4.000000e+05 -7.963625e+04
-4.000000e+05 -3.316365e+05 -1.064081e+05
-4.000000e+05 -3.507901e+05 -7.989941e+04
1.520094e+05 -1.508946e+05 -1.200000e+05
-1.565217e+05 -3.407250e+05 -1.600000e+05
1.949498e+05 2.217035e+05 -1.600000e+05
3.454874e+04 -1.333352e+05 -1.600000e+05
-1.666764e+04 -2.110866e+05 -1.200000e+05
-2.027767e-01 4.000000e+05 -1.326510e+05
-1.739198e+04 4.000000e+05 -1.058247e+05
1.739125e+05 4.000000e+05 -7.897374e+04
3.304348e+05 -4.000000e+05 -1.600000e+05
-1.500024e+05 3.000000e+05 -8.606426e+04
-1.166668e+05 3.000000e+05 -8.578173e+04
-1.217392e+05 4.000000e+05 -1.032681e+05
-1.739133e+04 -2.221749e+05 -1.600000e+05
-1.511983e+05 3.727426e+05 -8.122951e+04
-1.391305e+05 4.000000e+05 -7.717884e+04
2.703402e+05 -1.500283e+05 -1.200000e+05
2.701121e+05 -1.836189e+05 -1.200000e+05
4.000000e+05 -1.391308e+05 -7.830540e+04
2.105393e+05 -1.508628e+05 -1.200000e+05
1.762750e+05 -1.732352e+05 -1.200000e+05
2.471474e+05 2.481104e+05 -1.600000e+05
2.221335e+05 8.707651e+04 -1.600000e+05
-8.946030e-03 -2.407249e+05 -1.200000e+05
2.703625e+05 8.333340e+04 -1.200000e+05
-4.000000e+05 -2.027767e-01 -1.326510e+05
-3.794732e+05 4.876318e+04 -8.590550e+04
-1.739131e+05 4.000000e+05 -7.794583e+04
-1.839042e+05 3.789151e+05 -8.628957e+04
-9.159874e+04 -5.103990e+04 -1.200000e+05
1.035442e+05 -5.266037e+04 -1.600000e+05
7.050818e+04 -4.975400e+04 -1.396366e+05
-3.000000e+05 2.000000e+05 -1.200000e+05
7.142504e+04 -7.202240e+04 -1.600000e+05
6.311818e+04 -3.648682e+04 -1.200000e+05
1.518076e+05 -1.666127e+04 -1.200000e+05
1.221596e+05 8.203509e+00 -1.200000e+05
3.370689e+04 -1.218708e+05 -1.200000e+05
-4.495844e+04 -2.005379e+04 -1.600000e+05
-2.732645e+03 2.040062e+03 -1.200000e+05
3.016163e+05 5.182234e+04 -1.399813e+05
-3.360833e+04 -1.918727e+04 -1.200000e+05
-1.455995e+04 -7.859039e+03 -1.600000e+05
3.514643e+04 7.364943e+04 -1.600000e+05
1.655387e+04 9.202214e+04 -1.200000e+05
3.357138e+04 5.792340e+04 -1.200000e+05
2.112808e+05 -1.855209e+05 -1.200000e+05
2.137804e+05 -2.152534e+05 -1.200000e+05
-2.713276e+05 2.458780e+05 -1.200000e+05
-2.466066e+05 2.488025e+05 -1.600000e+05
3.763012e+04 -6.196175e+04 -1.200000e+05
1.360566e+05 -1.791983e+05 -1.200000e+05
-1.833577e+05 3.000000e+05 -8.599783e+04
-1.668645e+05 3.387158e+05 -7.183004e+04
-1.033893e+05 1.773219e+04 -1.600000e+05
-3.478294e+04 4.000000e+05 -1.319148e+05
5.000041e+04 -2.703621e+05 -1.200000e+05
-2.027767e-01 4.000000e+05 -7.871336e+04
-1.728791e+04 3.789349e+05 -8.761958e+04
3.703625e+05 -1.192804e-02 -1.600000e+05
2.524548e+05 -3.000000e+05 -8.558700e+04
-2.782756e+05 3.702575e+05 -1.600000e+05
-2.608696e+05 4.000000e+05 -1.600000e+05
2.511896e+05 -1.739815e+05 -1.600000e+05
2.511825e+05 -2.086180e+05 -1.600000e+05
3.478268e+04 4.000000e+05 -1.321333e+05
3.478241e+04 -4.000000e+05 -1.327142e+05
5.217391e+04 -4.000000e+05 -1.600000e+05
-1.192804e-02 3.703625e+05 -1.600000e+05
1.739130e+04 4.000000e+05 -1.600000e+05
-1.739130e+04 4.000000e+05 -1.600000e+05
-8.333335e+04 3.000000e+05 -8.470919e+04
1.666666e+04 3.000000e+05 -8.526502e+04
-1.005962e+05 3.405312e+05 -7.213588e+04
-1.391305e+05 4.000000e+05 -1.310453e+05
4.999999e+04 -3.000000e+05 -8.648301e+04
-2.956522e+05 -4.000000e+05 -1.600000e+05
-1.628849e+05 1.743838e+04 -1.600000e+05
-4.000000e+05 -2.956522e+05 -1.600000e+05
-3.692617e+05 -3.137214e+05 -1.600000e+05
2.785793e+05 3.701048e+05 -1.600000e+05
-2.907342e+05 1.782526e+05 -1.400120e+05
4.000000e+05 -3.304348e+05 -1.600000e+05
2.260908e+05 -4.000000e+05 -1.042234e+05
1.565217e+05 -4.000000e+05 -1.600000e+05
1.043479e+05 -4.000000e+05 -1.322725e+05
-2.458556e+05 -2.715864e+05 -1.200000e+05
-8.695652e+04 -4.000000e+05 -1.600000e+05
-5.217391e+04 -4.000000e+05 -1.600000e+05
-4.000000e+05 -1.739130e+04 -1.600000e+05
-2.812403e+05 1.916038e+05 -1.600000e+05
-4.000000e+05 -3.134446e+05 -7.898989e+04
-7.321749e+04 3.467081e+04 -1.600000e+05
-1.217391e+05 -3.407250e+05 -1.600000e+05
2.703625e+05 4.999999e+04 -1.200000e+05
-1.043521e+05 -2.518031e+05 -1.600000e+05
-3.000000e+05 3.000000e+05 -8.477016e+04
-3.127913e+05 3.701674e+05 -1.600000e+05
1.565219e+05 3.407249e+05 -1.600000e+05
-5.001073e+04 -2.110783e+05 -1.200000e+05
4.000000e+05 -1.739130e+04 -1.600000e+05
7.465876e+04 -3.420486e+04 -1.600000e+05
4.000000e+05 -2.260870e+05 -1.600000e+05
-8.753426e+04 1.627475e+05 -1.600000e+05
7.151040e+04 7.210100e+04 -1.600000e+05
3.135867e+05 -4.000000e+05 -1.317279e+05
3.269261e+05 -3.790358e+05 -8.093179e+04
-3.288125e+04 -5.736945e+04 -1.200000e+05
-4.000000e+05 4.000000e+05 -1.234328e+05
-4.000000e+05 3.135864e+05 -7.813504e+04
-4.000000e+05 3.652174e+05 -1.600000e+05
-4.000000e+05 3.478268e+04 -1.321333e+05
-3.428234e+05 3.719368e+05 -1.600000e+05
-2.086959e+05 4.000000e+05 -7.789223e+04
-4.000000e+05 -2.434792e+05 -7.761428e+04
-4.000000e+05 2.956522e+05 -1.600000e+05
-4.000000e+05 3.316994e+05 -1.054845e+05
4.000000e+05 -3.135918e+05 -7.808599e+04
-2.260899e+05 4.000000e+05 -1.043369e+05
-1.739132e+05 4.000000e+05 -1.317672e+05
-1.913043e+05 4.000000e+05 -1.600000e+05
3.478268e+04 4.000000e+05 -7.839736e+04
2.956522e+05 4.000000e+05 -1.600000e+05
2.608696e+05 4.000000e+05 -1.600000e+05
-1.043478e+05 -3.110875e+05 -1.600000e+05
4.000000e+05 -8.695652e+04 -1.600000e+05
1.913043e+05 4.000000e+05 -1.600000e+05
2.086959e+05 4.000000e+05 -1.328769e+05
1.913041e+05 4.000000e+05 -1.065393e+05
8.695652e+04 -4.000000e+05 -1.600000e+05
-3.000000e+05 1.141988e+04 -8.705230e+04
-4.000000e+05 3.478268e+04 -7.839736e+04
-4.000000e+05 -3.478294e+04 -1.319148e+05
3.478241e+04 -4.000000e+05 -7.876584e+04
-2.108745e+05 1.171893e+05 -1.200000e+05
5.032255e+04 -1.516091e+05 -1.200000e+05
-1.043482e+05 -4.000000e+05 -7.903479e+04
-1.217391e+05 -4.000000e+05 -1.600000e+05
-1.391304e+05 -3.703625e+05 -1.600000e+05
3.478260e+04 3.703625e+05 -1.600000e+05
4.000000e+05 3.134780e+05 -7.817779e+04
1.739130e+04 -4.000000e+05 -1.600000e+05
2.260870e+05 -4.000000e+05 -1.600000e+05
2.087026e+05 -3.703575e+05 -1.600000e+05
-1.336153e+05 -2.404688e+05 -1.200000e+05
-1.391308e+05 -4.000000e+05 -7.830540e+04
5.014456e+04 1.515474e+05 -1.200000e+05
4.000000e+05 -1.043482e+05 -7.903479e+04
-2.260870e+05 4.000000e+05 -1.600000e+05
6.646888e+04 -6.469548e+04 -1.200000e+05
-1.221191e+05 -4.681457e+01 -1.200000e+05
2.434805e+05 4.000000e+05 -7.821913e+04
9.247961e+04 -1.710911e+04 -1.200000e+05
1.391299e+05 4.000000e+05 -7.832379e+04
5.217411e+04 2.814499e+05 -1.600000e+05
2.086956e+05 4.000000e+05 -7.903935e+04
4.000000e+05 -1.565217e+05 -1.600000e+05
-3.652174e+05 4.000000e+05 -1.600000e+05
2.956522e+05 -4.000000e+05 -1.600000e+05
-4.000000e+05 3.304348e+05 -1.600000e+05
-4.000000e+05 4.000000e+05 -1.600000e+05
-2.814500e+05 -5.217392e+04 -1.600000e+05
4.000000e+05 -1.217400e+05 -1.060289e+05
4.000000e+05 2.608696e+05 -1.600000e+05
-4.000000e+05 2.608696e+05 -1.600000e+05
9.260403e+04 -5.030090e+04 -1.200000e+05
-1.833728e+05 2.703714e+05 -1.200000e+05
-3.304348e+05 4.000000e+05 -1.600000e+05
-3.689240e+05 3.149676e+05 -1.600000e+05
-2.956522e+05 4.000000e+05 -1.600000e+05
-4.000000e+05 -1.043478e+05 -1.309412e+05
-3.703625e+05 -1.043478e+05 -1.600000e+05
2.260870e+05 4.000000e+05 -1.600000e+05
5.217391e+04 4.000000e+05 -1.600000e+05
-4.000000e+05 -1.217391e+05 -1.600000e+05
-1.391304e+05 3.703625e+05 -1.600000e+05
-1.217391e+05 4.000000e+05 -1.600000e+05
4.000000e+05 3.509509e+05 -7.963625e+04
-2.434807e+05 -4.000000e+05 -7.732264e+04
-4.000000e+05 -8.695661e+04 -1.035085e+05
-4.000000e+05 -1.043478e+05 -7.716791e+04
-1.221008e+05 3.339944e+04 -1.200000e+05
-2.743449e-01 -4.000000e+05 -7.840273e+04
-1.565218e+05 4.000000e+05 -1.039511e+05
-2.086963e+05 4.000000e+05 -1.317986e+05
1.332699e+05 -3.614196e+00 -1.600000e+05
-5.217391e+04 4.000000e+05 -1.600000e+05
-1.913048e+05 4.000000e+05 -1.050551e+05
4.000000e+05 3.304348e+05 -1.600000e+05
-4.000000e+05 5.217391e+04 -1.600000e+05
-1.565217e+05 4.000000e+05 -1.600000e+05
-4.000000e+05 1.739130e+04 -1.600000e+05
-8.695652e+04 4.000000e+05 -1.600000e+05
-3.111799e+05 -1.959942e+05 -6.030056e+04
-3.170005e+05 -1.783045e+05 -6.210948e+04
-3.000000e+05 -1.865973e+05 -6.825842e+04
-3.000000e+05 -2.037249e+05 -6.809803e+04
-3.219266e+05 -1.966655e+05 -5.515028e+04
3.232293e+05 7.077393e+04 -6.135814e+04
3.000000e+05 8.015914e+04 -6.819304e+04
3.000000e+05 6.361436e+04 -6.806904e+04
-3.055900e+05 -1.943714e+05 -5.515028e+04
-3.085003e+05 -1.855266e+05 -5.605474e+04
-3.000000e+05 -1.896729e+05 -5.912921e+04
-3.000000e+05 -1.982367e+05 -5.904901e+04
-3.109633e+05 -1.947071e+05 -5.257514e+04
3.116146e+05 7.258128e+04 -5.567907e+04
3.000000e+05 7.727388e+04 -5.909652e+04
3.000000e+05 6.900149e+04 -5.903452e+04
-4.984134e+04 -1.328278e+05 -7.145072e+04
-4.661626e+04 -1.322487e+05 -9.820777e+04
-7.642015e+04 -1.369342e+05 -8.704055e+04
-5.738848e+04 -1.033664e+05 -7.867261e+04
-7.407840e+04 -8.400687e+04 -9.969035e+04
-9.013807e+04 -1.094746e+05 -1.008375e+05
-4.114473e+04 -8.463528e+04 -9.870187e+04
-2.788140e+04 -1.016690e+05 -7.277979e+04
-6.500303e+04 -7.747102e+04 -7.955362e+04
-8.594192e+04 -1.117368e+05 -7.850455e+04
-3.553777e+03 1.280877e+05 -9.606006e+04
9.435813e+03 1.490613e+05 -9.909745e+04
1.144320e+04 1.675356e+05 -7.106654e+04
3.083390e+04 1.726903e+05 -9.502730e+04
2.183659e+04 1.332393e+05 -7.462671e+04
4.237848e+04 1.631515e+05 -7.147391e+04
4.552238e+04 1.447999e+05 -9.668413e+04
-7.702884e+03 1.729984e+05 -9.372177e+04
-7.102704e+03 1.503351e+05 -7.424545e+04
-5.875085e+04 1.716785e+05 -9.749148e+04
-8.637323e+04 1.996521e+05 -9.739988e+04
-8.373660e+04 1.697583e+05 -9.396229e+04
-6.147941e+04 1.616130e+05 -7.264920e+04
-7.132042e+04 1.913218e+05 -7.298831e+04
-9.974302e+04 1.942955e+05 -7.454515e+04
-1.156815e+05 1.716368e+05 -9.438142e+04
-2.922303e+04 7.562003e+04 -9.532595e+04
-5.639723e+04 7.129943e+04 -9.749760e+04
-2.818414e+04 3.987773e+04 -9.839545e+04
-4.430639e+04 4.738169e+04 -7.644888e+04
-7.034400e+04 4.968212e+04 -7.714806e+04
-5.469721e+04 2.352117e+04 -9.770696e+04
-8.175158e+04 2.354301e+04 -9.402235e+04
-6.444309e+04 4.769492e+04 -1.009269e+05
-1.618247e+05 1.691328e+05 -7.444489e+04
-1.900362e+05 1.542003e+05 -7.255754e+04
-1.868838e+05 1.772183e+05 -9.620752e+04
-1.697996e+05 1.580259e+05 -9.752445e+04
-1.652734e+05 1.356719e+05 -8.434063e+04
-1.400535e+05 1.513606e+05 -9.528679e+04
-1.984872e+05 1.500111e+05 -9.503711e+04
-6.802565e+04 -2.538757e+05 -7.001583e+04
-3.730752e+04 -2.288629e+05 -7.363208e+04
-2.316598e+05 1.695203e+05 -9.674301e+04
-2.095630e+05 1.678106e+05 -7.470729e+04
-2.091560e+05 1.894933e+05 -9.513659e+04
-2.303317e+05 1.828702e+05 -7.510486e+04
-2.330430e+05 2.055965e+05 -9.656370e+04
-2.206915e+05 2.042456e+05 -7.312949e+04
-1.911295e+05 1.935688e+05 -7.236795e+04
-2.227414e+05 1.417978e+05 -7.400978e+04
-1.329503e+05 1.566659e+05 -7.196415e+04
2.750464e+05 9.487455e+03 -8.118222e+04
2.786104e+05 4.803863e+04 -7.390624e+04
-1.432436e+05 -3.516387e+04 -5.345481e+04
-1.300081e+05 -6.709921e+03 -7.628614e+04
-1.200000e+05 -2.000000e+04 -5.500000e+04
-1.263516e+05 -3.262044e+04 -8.068174e+04
2.463986e+05 2.645777e+04 -7.045737e+04
2.539188e+05 4.734131e+04 -9.726990e+04
2.762660e+05 3.567647e+04 -9.579593e+04
2.770765e+05 7.247586e+04 -7.949356e+04
2.502566e+05 7.950115e+04 -7.780810e+04
2.042584e+05 -1.269125e+05 -9.630521e+04
2.225681e+05 -1.061228e+05 -1.007918e+05
2.224038e+05 -7.443956e+04 -9.872617e+04
8.508265e+04 -3.755790e+04 -7.552578e+04
1.078077e+05 -2.480986e+04 -9.775435e+04
8.184687e+04 -4.221420e+04 -1.012524e+05
8.120271e+04 -5.762096e+03 -7.914451e+04
1.003610e+05 9.120250e+03 -9.932834e+04
5.113857e+04 -1.443844e+04 -7.737630e+04
4.720003e+04 1.591846e+04 -8.310111e+04
1.076897e+05 -2.681623e+03 -8.215031e+04
-4.437697e+04 1.983685e+05 -9.519713e+04
-7.907886e+04 2.206851e+05 -7.355041e+04
-2.513800e+05 2.685180e+05 -8.133802e+04
-2.618522e+05 2.420042e+05 -7.343598e+04
-2.725610e+05 2.746076e+05 -7.043319e+04
1.327504e+05 -7.643219e+04 -7.499263e+04
1.596242e+05 -5.896069e+04 -7.374799e+04
1.339133e+05 -4.799123e+04 -9.540528e+04
1.197841e+05 -3.678300e+04 -7.355791e+04
1.027332e+05 -6.440092e+04 -7.253830e+04
2.613272e+04 -2.981174e+04 -8.025762e+04
2.030155e+05 -2.670839e+05 -9.697982e+04
1.853355e+05 -2.372378e+05 -9.707372e+04
2.693834e+05 2.340414e+05 -9.853727e+04
1.511588e+05 -2.499532e+05 -7.160934e+04
2.111945e+05 1.606852e+05 -9.841843e+04
2.300175e+05 1.414217e+05 -7.850086e+04
2.076008e+05 1.788638e+05 -7.300857e+04
1.902012e+05 1.515447e+05 -7.336787e+04
1.584660e+05 1.663443e+05 -8.925881e+04
1.879268e+05 1.821711e+05 -9.450373e+04
1.723584e+05 1.360683e+05 -9.237276e+04
2.080036e+05 1.320788e+05 -9.839471e+04
-2.010683e+04 2.566535e+05 -9.809033e+04
3.017525e+03 2.704095e+05 -8.145942e+04
-2.660656e+04 2.507035e+05 -7.429162e+04
1.086080e+04 2.304735e+05 -7.613719e+04
1.684760e+04 2.525853e+05 -9.950528e+04
2.802463e+04 2.269031e+05 -9.742462e+04
3.081541e+04 2.502630e+05 -7.552887e+04
-6.242280e+03 2.279021e+05 -9.897828e+04
-1.567110e+04 2.173041e+05 -7.530697e+04
1.380679e+04 2.017688e+05 -9.514046e+04
1.594247e+05 -1.003780e+05 -7.527715e+04
1.931139e+05 -8.827719e+04 -8.545237e+04
1.452075e+05 -1.010705e+05 -9.787325e+04
1.311172e+05 -7.989530e+04 -9.975367e+04
1.598878e+05 -7.300828e+04 -9.711691e+04
1.912523e+05 -5.657873e+04 -9.916232e+04
1.611279e+05 -3.677895e+04 -9.736143e+04
1.670764e+05 -1.263583e+05 -8.829763e+04
-1.770127e+05 -1.168408e+05 -7.608258e+04
-1.849836e+05 -1.085013e+05 -9.983722e+04
-1.704556e+05 -8.350220e+04 -7.255919e+04
-1.585425e+05 -1.041289e+05 -9.509108e+04
-1.300999e+05 -1.119555e+05 -7.695839e+04
-1.378552e+05 -8.415118e+04 -7.914264e+04
-1.271977e+05 -1.086196e+05 -9.807750e+04
-1.545210e+05 -1.397286e+05 -8.025771e+04
-1.809410e+05 -1.403860e+05 -9.400064e+04
-1.570287e+05 -7.732649e+04 -9.779419e+04
-1.882416e+05 -8.072667e+04 -9.516936e+04
2.336563e+05 1.043597e+05 -7.354194e+04
2.575215e+05 1.112453e+05 -9.507000e+04
2.409158e+05 9.696689e+04 -9.439485e+04
2.558733e+05 8.155042e+04 -9.969855e+04
2.250762e+05 8.443677e+04 -9.583060e+04
1.677961e+05 -2.657230e+05 -9.471695e+04
1.338963e+05 -2.689681e+05 -8.668665e+04
2.235159e+05 1.116718e+05 -9.733997e+04
1.052007e+05 -2.669546e+05 -7.134916e+04
-6.884996e+04 1.056094e+05 -9.380005e+04
-5.348544e+04 1.326286e+05 -7.261462e+04
-4.557920e+04 1.069970e+05 -6.845777e+04
-6.032435e+04 8.056331e+04 -7.353657e+04
-3.746547e+04 1.091518e+05 -9.270788e+04
-5.661838e+04 -1.719838e+05 -7.413122e+04
-2.867096e+04 -1.563492e+05 -7.708482e+04
-3.434588e+04 -1.962067e+05 -7.349206e+04
-6.945118e+03 -1.770652e+05 -7.138094e+04
-6.285347e+04 -2.142866e+05 -7.456586e+04
-9.801192e+04 1.502378e+05 -1.003110e+05
-9.713976e+04 1.652534e+05 -7.223033e+04
1.900584e+04 -1.744638e+05 -9.428423e+04
1.261732e+04 -1.388506e+05 -9.554458e+04
-3.495462e+03 -1.593089e+05 -9.331204e+04
1.860146e+04 -1.634312e+05 -7.145642e+04
-1.139217e+05 1.378321e+05 -8.503857e+04
-1.250734e+05 2.007519e+05 -9.593281e+04
-1.259204e+05 1.878237e+05 -7.130273e+04
-1.499273e+05 1.786719e+05 -9.712639e+04
2.628218e+05 -7.177298e+04 -7.393917e+04
2.705255e+05 -4.769257e+04 -8.959708e+04
2.497404e+05 -7.363771e+04 -9.822062e+04
2.472975e+05 -4.831533e+04 -9.199123e+04
2.216056e+05 -3.822693e+04 -8.968339e+04
2.273808e+05 -6.955762e+04 -7.431013e+04
2.480450e+05 -1.614306e+04 -7.360221e+04
2.528415e+05 -1.750459e+04 -9.751659e+04
-8.548549e+04 7.334583e+04 -8.635329e+04
-1.104977e+05 1.037465e+05 -9.636168e+04
-1.144029e+05 6.883198e+04 -8.366849e+04
-1.664631e+05 2.333709e+05 -9.887064e+04
-1.746473e+05 2.003483e+05 -9.461871e+04
-9.993462e+04 5.156941e+04 -9.847351e+04
-6.595061e+04 -2.482172e+05 -9.487724e+04
-1.330272e+05 8.834832e+04 -7.214682e+04
-1.003306e+05 1.018751e+05 -7.179591e+04
-1.395463e+05 5.351704e+04 -9.966850e+04
-1.307441e+05 2.679119e+04 -8.739709e+04
1.440294e+05 -2.189171e+05 -7.385114e+04
-1.110663e+05 -2.578782e+05 -7.266770e+04
-8.828873e+04 -2.376461e+05 -7.874155e+04
-9.412822e+04 -2.718860e+05 -8.914974e+04
-5.742000e+04 -2.774263e+05 -9.135115e+04
-1.069311e+05 -2.464863e+05 -9.780856e+04
-1.301619e+05 -2.701979e+05 -9.779082e+04
-2.103991e+05 2.209461e+05 -9.528279e+04
-1.555317e+05 1.946645e+05 -7.379519e+04
6.098393e+04 -2.521415e+05 -9.700763e+04
8.949923e+04 -2.346604e+05 -7.240518e+04
8.516415e+04 -2.264905e+05 -9.734659e+04
5.344867e+04 -2.236901e+05 -6.980991e+04
-2.495255e+05 -1.827031e+04 -7.386998e+04
-2.167751e+05 -3.655385e+03 -7.404212e+04
-2.250359e+05 -3.198414e+04 -6.689797e+04
-2.262778e+05 -3.453446e+04 -9.230039e+04
-2.752541e+05 2.651399e+05 -9.711909e+04
-2.330590e+05 -6.510373e+04 -9.726058e+04
-2.012196e+05 -5.749354e+04 -9.598765e+04
-1.949268e+05 -2.535437e+04 -9.584939e+04
-1.600494e+05 -2.923557e+04 -8.410743e+04
-1.979112e+05 -3.504879e+04 -7.139722e+04
-1.858294e+05 -9.945930e+03 -7.297416e+04
-1.763568e+05 -5.279268e+04 -7.370834e+04
-5.442582e+04 1.426506e+04 -7.479872e+04
-3.140239e+04 7.909102e+04 -7.057028e+04
-1.378912e+04 4.706891e+04 -7.513652e+04
1.077725e+05 -2.075509e+05 -9.434747e+04
1.280943e+05 -1.901486e+05 -9.665517e+04
8.778950e+04 -1.931550e+05 -9.822367e+04
8.908205e+04 -1.673411e+05 -9.854528e+04
5.515905e+04 -1.838393e+05 -9.891633e+04
7.999892e+04 -1.958666e+05 -7.388796e+04
5.147195e+04 -2.178289e+05 -9.387776e+04
2.629693e+05 1.973655e+05 -7.221024e+04
2.518513e+05 1.848377e+05 -9.497010e+04
2.604683e+05 1.630982e+05 -7.292885e+04
2.357122e+05 1.797922e+05 -7.547741e+04
2.301044e+05 2.087825e+05 -7.540509e+04
1.079451e+05 -1.713484e+05 -7.448242e+04
1.185064e+05 -1.988583e+05 -7.012499e+04
1.916431e+05 2.505238e+05 -7.173400e+04
1.579246e+05 2.513072e+05 -7.344049e+04
1.691965e+05 2.757822e+05 -7.978988e+04
1.903260e+05 2.608898e+05 -9.772113e+04
2.040857e+05 2.734532e+05 -7.796054e+04
1.356157e+05 2.712837e+05 -7.279688e+04
1.551658e+05 2.602376e+05 -9.745305e+04
8.128493e+04 -7.284074e+04 -9.896304e+04
5.873907e+04 -5.281915e+04 -9.759574e+04
5.708748e+04 -7.629584e+04 -9.424853e+04
2.946412e+04 -7.222793e+04 -9.661208e+04
5.195472e+04 -5.428169e+04 -7.475491e+04
7.813648e+04 -5.941959e+04 -7.975842e+04
7.334709e+04 -8.030475e+04 -7.328279e+04
7.736069e+04 -1.093720e+05 -9.724771e+04
3.937411e+04 -8.340576e+04 -7.116927e+04
1.151803e+05 -2.382777e+05 -9.123103e+04
1.480343e+05 -2.339156e+05 -9.628301e+04
2.502864e+05 1.217529e+04 -9.625981e+04
1.965118e+05 -1.240610e+05 -7.137198e+04
1.963997e+05 -1.651517e+05 -6.823032e+04
2.137557e+05 -2.061126e+05 -7.452036e+04
1.951306e+05 -1.709995e+05 -9.538539e+04
1.776663e+05 -1.904832e+05 -7.331437e+04
1.756582e+05 -1.534926e+05 -8.082893e+04
2.216099e+05 -1.771786e+05 -7.181648e+04
1.658683e+05 -2.036028e+05 -9.659954e+04
1.468086e+05 -1.803948e+05 -7.375588e+04
1.559822e+05 -1.752563e+05 -9.803885e+04
1.269772e+05 -1.579683e+05 -9.761045e+04
1.397469e+05 1.351853e+05 -7.454855e+04
1.338960e+05 1.712118e+05 -7.769706e+04
1.402236e+05 1.978354e+05 -8.273616e+04
1.712205e+05 2.057813e+05 -7.928376e+04
1.981415e+05 1.061449e+05 -1.008179e+05
1.985740e+05 1.175644e+05 -7.485419e+04
2.033031e+05 -2.328013e+05 -7.489926e+04
2.074422e+05 -2.212469e+05 -9.940364e+04
1.945166e+05 -2.032913e+05 -9.709070e+04
2.284765e+05 5.876953e+04 -9.772187e+04
1.992715e+05 7.506923e+04 -9.859273e+04
2.217938e+05 3.750707e+04 -7.600769e+04
2.449337e+05 5.277310e+04 -7.684000e+04
2.279060e+05 2.857840e+04 -9.742775e+04
2.002336e+05 4.822426e+04 -9.705833e+04
2.215516e+05 6.457766e+04 -7.218263e+04
-1.371186e+05 2.752884e+05 -7.970821e+04
-1.242500e+05 2.586196e+05 -9.726721e+04
-1.524368e+05 2.478592e+05 -7.624876e+04
-1.240407e+05 2.486484e+05 -7.245506e+04
-1.033042e+05 2.751050e+05 -7.974556e+04
2.443269e+05 2.503028e+05 -9.735869e+04
-1.607590e+05 2.625414e+05 -9.881203e+04
1.332884e+05 -7.976875e+03 -9.852850e+04
5.658069e+04 -2.701548e+04 -9.771102e+04
-1.194270e+05 -2.050761e+05 -7.243432e+04
-1.415995e+05 -2.255281e+05 -7.268289e+04
-1.447230e+05 -1.901652e+05 -7.502938e+04
-1.709278e+05 -2.278125e+05 -7.317057e+04
-1.860087e+05 -2.071477e+05 -8.357796e+04
2.625019e+05 2.314400e+05 -7.357844e+04
-1.800061e+05 -1.675052e+05 -7.727175e+04
-1.297434e+05 -1.943295e+05 -9.745120e+04
-1.066317e+05 -1.868790e+05 -7.983855e+04
-1.292146e+05 -1.570406e+05 -8.425810e+04
-1.571520e+05 -1.732200e+05 -9.924403e+04
-1.633003e+05 -2.073844e+05 -9.696996e+04
-1.137222e+05 -2.298135e+05 -7.546619e+04
-9.245030e+04 -2.160897e+05 -7.153800e+04
-7.590913e+04 -2.212818e+05 -9.818740e+04
-1.028005e+05 -2.127033e+05 -9.582556e+04
-7.942831e+04 -1.894979e+05 -8.567578e+04
-2.277454e+05 -2.039081e+05 -7.168212e+04
-2.192849e+05 -1.749218e+05 -7.528736e+04
-2.321537e+05 -1.790823e+05 -9.578821e+04
-2.499021e+05 -1.864668e+05 -7.369125e+04
-2.522007e+05 -1.584916e+05 -7.574484e+04
-2.208800e+05 -2.066565e+05 -9.647019e+04
1.441521e+05 1.376653e+05 -9.910515e+04
1.422969e+05 1.137071e+05 -9.636384e+04
1.308906e+05 9.127702e+04 -7.141505e+04
1.139922e+05 1.272589e+05 -8.819499e+04
1.363669e+05 8.561463e+04 -9.519304e+04
1.629448e+05 1.045259e+05 -7.268128e+04
9.856378e+04 2.690647e+05 -9.620648e+04
1.032738e+05 2.718693e+05 -7.198685e+04
7.118866e+04 2.724245e+05 -8.153710e+04
5.481656e+04 2.575941e+05 -9.862793e+04
8.901774e+04 2.359645e+05 -9.584086e+04
1.413238e+05 -1.500944e+05 -7.641195e+04
1.759924e+05 -2.175596e+05 -7.545857e+04
1.155777e+04 1.508188e+04 -7.502715e+04
1.279171e+04 4.866727e+04 -7.364856e+04
1.029403e+04 7.722876e+04 -7.335600e+04
4.623725e+04 4.690158e+04 -7.391957e+04
4.219776e+04 4.850989e+04 -9.826811e+04
-1.388334e+05 1.192819e+05 -9.646062e+04
-1.326762e+05 1.208430e+05 -7.164780e+04
-8.727047e+04 1.344447e+05 -7.825866e+04
3.532804e+04 1.977656e+05 -7.252680e+04
4.206111e+04 2.257964e+05 -7.141201e+04
5.955800e+04 2.494142e+05 -7.290493e+04
7.015138e+04 2.198226e+05 -7.330354e+04
2.260247e+05 1.906843e+05 -9.868817e+04
2.480492e+05 1.609569e+05 -9.793646e+04
2.766452e+05 1.739088e+05 -9.269882e+04
2.624778e+05 2.065120e+05 -9.767003e+04
-1.236693e+04 2.002687e+05 -9.793741e+04
5.747525e+03 1.942192e+05 -7.251524e+04
-6.191320e+04 2.477232e+05 -7.421991e+04
-9.001672e+04 2.591235e+05 -9.820296e+04
-9.359142e+04 2.490623e+05 -7.415953e+04
-7.158113e+04 2.750719e+05 -8.007151e+04
-5.540103e+04 2.601446e+05 -9.658368e+04
-2.492537e+05 3.715928e+04 -7.416547e+04
-2.320463e+05 6.425943e+04 -9.555214e+04
-2.208848e+05 3.099086e+04 -8.402868e+04
-2.504574e+05 3.424295e+04 -9.882544e+04
1.986179e+05 2.158565e+05 -7.180368e+04
2.035138e+05 2.102757e+05 -9.735973e+04
1.760824e+05 2.320630e+05 -9.263654e+04
1.295182e+05 1.538843e+05 -9.575171e+04
-2.696935e+05 2.214400e+05 -9.678868e+04
-2.597925e+05 1.900125e+05 -9.820716e+04
-2.786232e+05 1.953738e+05 -7.924144e+04
-1.045819e+05 -2.888145e+04 -5.436600e+04
-1.220311e+05 9.031803e+03 -5.330028e+04
-9.421015e+04 -5.838534e+03 -7.476429e+04
-2.555114e+05 2.054735e+05 -7.402268e+04
-2.550293e+05 1.743340e+05 -7.483523e+04
-5.388956e+04 -1.813897e+04 -7.325722e+04
-7.727671e+04 -3.019629e+04 -8.930157e+04
-1.040085e+05 -4.480720e+04 -7.652650e+04
-1.039647e+05 -1.834439e+04 -9.825693e+04
-1.106211e+05 1.235515e+04 -9.182585e+04
-1.024887e+05 3.734975e+04 -7.186734e+04
-2.537893e+05 -1.471653e+05 -9.425957e+04
-2.826562e+05 -1.647398e+05 -7.665486e+04
-1.448541e+05 -2.433718e+05 -9.513945e+04
-1.657325e+05 -2.688532e+05 -9.678897e+04
-1.270250e+05 -2.220141e+05 -9.874803e+04
-2.403751e+05 -2.493452e+05 -7.028933e+04
-2.604639e+05 -2.290522e+05 -9.708604e+04
-2.506749e+05 -2.144503e+05 -7.418974e+04
-2.315124e+05 -2.300304e+05 -8.536811e+04
-2.064407e+05 -2.262614e+05 -7.293178e+04
-2.081729e+05 -2.349154e+05 -9.890705e+04
-2.192760e+05 -2.515502e+05 -8.419962e+04
-2.421497e+05 -2.612149e+05 -9.543002e+04
-1.355492e+05 2.313684e+05 -9.546803e+04
-1.055542e+05 2.299674e+05 -9.667090e+04
-1.518230e+05 2.203238e+05 -7.611338e+04
-2.727668e+05 2.376914e+04 -9.012714e+04
-2.579804e+05 -1.981700e+04 -9.790439e+04
-2.489676e+05 8.810312e+03 -7.705859e+04
-2.772180e+05 -3.281655e+03 -8.940121e+04
2.231609e+05 2.426421e+05 -7.303676e+04
2.125654e+05 2.398323e+05 -9.557754e+04
2.278822e+05 2.739335e+05 -9.692047e+04
2.400792e+05 2.639010e+05 -7.265665e+04
4.611845e+04 -1.827580e+05 -7.449977e+04
2.014600e+04 -2.029778e+05 -9.647262e+04
2.358532e+04 -1.959449e+05 -7.030958e+04
1.848131e+04 -2.235535e+05 -7.151200e+04
-1.032095e+05 -1.311858e+05 -7.424611e+04
1.655423e+05 -2.715112e+05 -7.034682e+04
1.245660e+05 -2.464633e+05 -6.940462e+04
1.767548e+05 -2.442497e+05 -7.224831e+04
-1.023285e+03 -1.469929e+05 -6.890737e+04
-1.165863e+04 -1.282238e+05 -8.270822e+04
2.371269e+04 -1.266979e+05 -7.488814e+04
-4.244394e+04 -2.214962e+05 -9.779786e+04
-5.339033e+04 -1.954841e+05 -9.890707e+04
-6.490423e+03 -2.352594e+05 -7.689758e+04
-2.083319e+05 2.308155e+05 -7.189667e+04
1.711740e+05 1.002971e+05 -9.614025e+04
1.975645e+05 8.751831e+04 -7.655903e+04
-2.759845e+05 1.017468e+05 -7.676071e+04
-2.609189e+05 9.098358e+04 -9.961561e+04
-2.488158e+05 8.775025e+04 -7.516215e+04
-2.678861e+05 6.090226e+04 -8.566181e+04
-2.612003e+05 1.239834e+05 -9.749758e+04
1.062876e+05 -5.928024e+04 -9.700468e+04
1.031109e+05 -8.807583e+04 -8.776835e+04
-1.962645e+05 9.198605e+03 -9.671215e+04
1.146282e+05 -1.159643e+05 -9.827725e+04
8.617061e+04 -1.087932e+05 -7.209022e+04
1.226906e+05 -1.064004e+05 -7.355231e+04
-1.367654e+05 -9.184077e+03 -9.923606e+04
1.737016e+04 3.179702e+04 -9.681746e+04
-7.263324e+03 1.644836e+04 -9.630727e+04
-5.823254e+03 -1.386781e+04 -9.485476e+04
2.629290e+04 -1.552717e+03 -9.902576e+04
-2.285643e+04 1.008320e+04 -7.328969e+04
1.933652e+05 5.083248e+04 -7.281704e+04
1.697925e+05 6.738841e+04 -9.634611e+04
-2.027880e+05 -1.961131e+05 -7.115264e+04
2.746911e+05 -2.051379e+05 -7.968731e+04
-2.207624e+05 2.457000e+05 -9.642193e+04
-2.362803e+05 2.247316e+05 -7.400048e+04
-2.266615e+05 2.571301e+05 -7.251029e+04
-1.961876e+05 2.570099e+05 -9.566177e+04
-2.478093e+05 2.399603e+05 -9.786867e+04
-2.327028e+05 2.721327e+05 -9.676146e+04
7.066071e+04 2.670515e+04 -9.775492e+04
7.503950e+04 5.262059e+04 -9.788513e+04
6.706702e+04 7.498415e+04 -9.438419e+04
9.838819e+04 6.637153e+04 -7.373638e+04
7.581894e+04 5.109584e+04 -7.172323e+04
-1.826495e+05 2.287006e+05 -8.040783e+04
-1.354169e+05 -5.711109e+04 -8.495153e+04
-2.577120e+05 -1.904149e+05 -9.641461e+04
-2.772819e+05 -1.987318e+05 -7.870272e+04
-1.697368e+05 -5.554434e+04 -9.574906e+04
-1.157867e+05 -5.102265e+04 -9.975447e+04
-1.677299e+05 -3.422629e+03 -9.305646e+04
-1.640755e+05 3.097041e+04 -8.833196e+04
2.362998e+05 2.223358e+05 -9.660970e+04
6.968804e+04 1.673503e+05 -9.608952e+04
6.649085e+04 1.540637e+05 -7.122945e+04
-6.156128e+04 -5.524737e+04 -9.809424e+04
-6.505531e+04 -7.330541e+03 -9.793813e+04
-4.153541e+04 -3.262004e+04 -9.635925e+04
-8.711234e+04 -5.671665e+04 -8.936297e+04
-2.267201e+05 -1.019181e+03 -9.781348e+04
-2.338714e+04 -1.815109e+05 -9.665098e+04
7.226182e+04 -1.486848e+05 -8.416536e+04
5.345061e+04 -1.266488e+05 -7.189115e+04
4.049551e+04 -1.513345e+05 -8.542173e+04
4.308770e+04 -1.246847e+05 -9.829331e+04
1.037855e+05 -1.373433e+05 -8.050926e+04
2.628824e+05 -2.358850e+05 -9.814252e+04
2.407127e+05 -2.167891e+05 -9.598290e+04
2.214592e+05 -2.410262e+05 -9.693886e+04
2.346617e+05 -2.424307e+05 -7.368567e+04
2.440038e+05 -2.632970e+05 -9.272125e+04
2.220410e+05 -2.695027e+05 -7.331205e+04
-2.615849e+04 -2.441433e+04 -7.315431e+04
-1.303173e+04 -4.496363e+04 -7.285806e+04
6.388665e+02 -3.369586e+04 -7.234183e+04
-7.080551e+03 -4.215810e+04 -9.449388e+04
-4.107142e+04 -5.451495e+04 -7.598216e+04
-1.814771e+05 2.605096e+05 -7.393463e+04
-1.598465e+05 1.045866e+05 -7.165728e+04
-1.703173e+05 1.027492e+05 -9.581163e+04
-2.029731e+05 -2.725162e+05 -9.568071e+04
-1.942188e+05 -2.615599e+05 -7.396869e+04
-1.888042e+05 1.939337e+04 -7.229305e+04
-2.322710e+05 -2.747780e+05 -7.364443e+04
-2.299504e+04 -7.149017e+04 -8.320161e+04
-2.171138e+05 -1.531473e+05 -9.812335e+04
1.092872e+05 1.942612e+05 -9.616265e+04
1.033843e+05 1.634445e+05 -9.775359e+04
-2.782902e+05 -2.821514e+04 -7.224879e+04
-1.630454e+05 -2.610248e+05 -7.168462e+04
-1.368903e+05 -2.681215e+05 -7.352687e+04
-1.821743e+05 -2.430287e+05 -9.703951e+04
2.233207e+05 -1.957723e+05 -9.701225e+04
-3.075290e+04 1.727722e+03 -9.661286e+04
-2.355870e+03 -2.030982e+05 -7.512499e+04
-1.118074e+04 -2.201877e+05 -9.835587e+04
-1.144409e+05 2.203122e+05 -7.274813e+04
4.727922e+04 2.007085e+05 -9.641424e+04
5.749422e+04 2.282379e+05 -9.688983e+04
8.944432e+04 1.397164e+05 -7.341747e+04
6.732865e+04 1.903469e+05 -7.346164e+04
8.709639e+04 1.731181e+05 -7.484081e+04
5.826702e+04 1.242504e+05 -7.245243e+04
4.172312e+04 1.209677e+05 -9.586759e+04
-1.763455e+04 1.820570e+05 -7.204543e+04
-3.306197e+04 1.542866e+05 -9.406064e+04
-1.701365e+04 1.248908e+05 -7.342542e+04
7.708590e+04 2.267390e+04 -7.324564e+04
1.047610e+05 2.063567e+05 -7.324089e+04
1.195968e+05 2.455377e+05 -7.488593e+04
8.846140e+04 2.477226e+05 -7.217812e+04
1.319053e+05 2.303049e+05 -9.696556e+04
-2.477345e+05 1.203156e+05 -7.165025e+04
-2.611792e+05 1.461792e+05 -7.670115e+04
-2.315472e+05 1.364313e+05 -9.696630e+04
-2.637389e+05 1.598803e+05 -1.000347e+05
7.640441e+04 1.373713e+05 -9.807636e+04
7.897662e+04 1.971498e+05 -9.686007e+04
2.651311e+05 -2.343449e+05 -7.196879e+04
2.597468e+05 -1.909572e+05 -9.789666e+04
2.469537e+05 -1.989307e+05 -7.291645e+04
-2.696691e+05 -2.336538e+05 -7.252434e+04
2.762640e+05 -1.305496e+05 -9.003080e+04
2.588072e+05 -1.419544e+05 -7.258769e+04
2.612609e+05 -1.061375e+05 -7.215198e+04
2.688587e+05 -1.619542e+05 -9.764643e+04
2.499731e+05 -1.350337e+05 -9.569567e+04
2.540062e+05 -1.030969e+05 -9.694378e+04
2.261722e+05 -9.627567e+04 -7.629388e+04
2.307609e+05 -1.246212e+05 -7.307788e+04
-3.094166e+04 1.559219e+05 -6.915759e+04
-4.323327e+04 1.883071e+05 -7.120032e+04
-2.017991e+05 -9.555999e+04 -7.282621e+04
-1.980750e+05 -6.696768e+04 -7.154483e+04
-2.226609e+05 -6.300781e+04 -7.106638e+04
-2.225647e+05 -8.684154e+04 -8.983657e+04
-3.520446e+04 -2.644267e+05 -7.270619e+04
-1.292996e+03 -2.650259e+05 -7.370808e+04
-1.206698e+03 -2.633879e+05 -9.914135e+04
-3.042496e+04 -2.521861e+05 -9.730213e+04
3.477884e+04 2.750859e+05 -8.346669e+04
2.825344e+04 -2.505797e+05 -7.336959e+04
2.011343e+04 -2.349859e+05 -9.713607e+04
2.711449e+05 2.715336e+05 -8.576911e+04
1.900084e+05 -2.266311e+04 -9.734860e+04
1.950735e+05 -5.068579e+04 -7.477926e+04
2.185569e+05 -1.498503e+05 -8.288655e+04
-6.888911e+04 -4.578414e+04 -7.318988e+04
-1.073107e+05 -8.116425e+04 -8.222058e+04
1.619954e+05 -5.779285e+02 -8.184962e+04
7.084861e+03 6.641727e+04 -9.854080e+04
1.381397e+05 -1.263592e+05 -8.530491e+04
1.098627e+05 1.630754e+05 -7.209864e+04
-1.507764e+05 -6.323440e+04 -7.238359e+04
4.044502e+04 7.915652e+04 -8.576252e+04
6.553853e+04 8.344927e+04 -7.113978e+04
3.828890e+04 1.036326e+05 -7.180178e+04
6.743902e+04 1.063176e+05 -9.428597e+04
2.352714e+05 -1.679007e+05 -9.357722e+04
2.678220e+05 -1.704459e+05 -7.361367e+04
1.450397e+05 2.239877e+05 -7.353997e+04
2.651239e+05 1.314064e+05 -7.171045e+04
-2.475720e+05 -8.204318e+04 -7.249299e+04
-2.475816e+05 -1.234403e+05 -6.873140e+04
-2.604895e+05 -1.170762e+05 -9.014743e+04
-2.271388e+05 -1.147651e+05 -8.053743e+04
-2.098399e+05 -1.131719e+05 -9.664512e+04
-2.138707e+05 -1.392894e+05 -7.651712e+04
-9.318650e+04 -1.614532e+05 -7.241971e+04
-6.304135e+04 -1.647904e+05 -9.779418e+04
-1.022708e+05 -1.638198e+05 -9.680752e+04
-8.695992e+03 1.006527e+05 -8.880318e+04
2.343354e+04 9.939543e+04 -9.558947e+04
1.940365e+05 -2.671996e+05 -7.339443e+04
1.188479e+04 -6.457230e+04 -8.120861e+04
3.372651e+03 -1.055080e+05 -9.683476e+04
1.596702e+05 6.894241e+04 -7.350516e+04
4.565554e+04 -1.014349e+05 -8.441471e+04
1.036767e+05 7.154557e+04 -9.783693e+04
9.625584e+04 9.892708e+04 -7.987196e+04
-2.001654e+05 1.190117e+05 -9.669312e+04
-1.907235e+05 8.639253e+04 -7.637026e+04
-2.015149e+05 8.440948e+04 -9.939899e+04
-1.412450e+05 8.600032e+04 -9.628254e+04
-1.615072e+05 7.150958e+04 -7.570778e+04
-1.917772e+05 1.199601e+05 -7.209610e+04
-1.708415e+05 6.776129e+04 -9.890600e+04
-1.323994e+05 -7.548129e+04 -1.015491e+05
-1.949609e+05 -1.832128e+05 -9.767063e+04
1.258845e+05 2.647897e+05 -9.797992e+04
2.942400e+04 -2.657812e+05 -9.896626e+04
2.714703e+05 1.411342e+05 -9.706793e+04
-1.887438e+05 5.454043e+04 -7.112221e+04
-1.966953e+05 4.871768e+04 -9.628096e+04
-2.176543e+05 6.887802e+04 -7.463750e+04
-2.307967e+05 1.024994e+05 -9.720288e+04
-2.197722e+05 1.040766e+05 -7.375612e+04
2.712906e+05 1.021528e+05 -7.297259e+04
1.991407e+05 1.579963e+04 -9.705365e+04
-7.169230e+04 2.299223e+05 -9.700124e+04
-2.715100e+05 -2.708652e+05 -8.387334e+04
1.022624e+05 4.141061e+04 -9.579173e+04
1.042368e+05 3.251163e+04 -7.222643e+04
-2.485330e+05 -4.472246e+04 -7.222798e+04
1.650599e+05 -2.909410e+04 -6.981254e+04
9.961278e+03 -9.957105e+04 -7.295342e+04
-2.616681e+05 -5.565280e+04 -9.301135e+04
-2.655467e+05 -8.978921e+04 -9.433439e+04
2.010252e+05 -1.542298e+04 -7.467969e+04
2.189481e+05 6.934317e+03 -7.293627e+04
1.522754e+05 2.981972e+04 -7.476152e+04
-1.387439e+05 5.396599e+04 -7.214608e+04
1.307165e+05 1.566065e+04 -7.187541e+04
1.281253e+05 5.159568e+04 -7.424701e+04
1.381355e+05 5.499085e+04 -9.822836e+04
2.242489e+05 -6.084642e+03 -9.752042e+04
1.371742e+05 -1.256735e+04 -7.633374e+04
5.872667e+04 -2.603733e+05 -7.243810e+04
1.891301e+05 1.550292e+04 -7.796159e+04
-3.791717e+04 2.294275e+05 -9.675008e+04
-4.662272e+04 2.212246e+05 -7.217922e+04
9.470001e+04 -2.640144e+05 -9.378129e+04
1.322291e+05 2.398912e+04 -9.586757e+04
-6.550852e+04 1.393787e+05 -9.796921e+04
1.687874e+05 3.646060e+04 -9.708346e+04
-2.928072e+05 -1.776407e+05 -6.068686e+04
-2.761463e+05 -1.742836e+05 -6.420179e+04
-2.886520e+05 -1.914050e+05 -6.486154e+04
-2.732157e+05 -1.912552e+05 -6.212841e+04
-2.911134e+05 -2.147786e+05 -5.899761e+04
2.913771e+05 5.913647e+04 -5.981501e+04
2.876053e+05 7.297670e+04 -6.496702e+04
2.770036e+05 5.958868e+04 -6.291383e+04
2.750109e+05 7.273934e+04 -5.829245e+04
2.864962e+05 8.944904e+04 -6.433560e+04
2.929733e+05 7.132974e+04 -7.803441e+04
2.620084e+05 7.176395e+04 -6.460095e+04
2.559855e+05 5.583533e+04 -6.380492e+04
2.417063e+05 4.779893e+04 -6.318686e+04
2.396322e+05 3.817713e+04 -5.752295e+04
2.297887e+05 4.042350e+04 -6.237120e+04
2.305945e+05 5.466968e+04 -6.151573e+04
2.315453e+05 5.041603e+04 -7.011608e+04
2.132219e+05 3.785116e+04 -6.244192e+04
2.008291e+05 3.992636e+04 -5.958582e+04
1.984046e+05 2.304710e+04 -6.466573e+04
1.796093e+05 1.777970e+04 -6.397275e+04
2.123210e+05 2.039196e+04 -6.176946e+04
1.581046e+05 1.981473e+04 -6.257579e+04
1.454617e+05 1.423119e+04 -6.031588e+04
1.504595e+05 2.974742e+03 -6.487480e+04
1.648774e+05 6.590254e+03 -6.070231e+04
1.848895e+05 2.512332e+03 -5.762114e+04
1.401404e+05 -3.209081e+03 -6.082608e+04
1.346797e+05 7.072488e+03 -6.091229e+04
1.499198e+05 -1.105199e+04 -6.208584e+04
1.187007e+05 4.682885e+03 -6.048854e+04
1.243538e+05 -1.091273e+04 -6.360371e+04
9.891229e+04 -7.656196e+03 -6.223518e+04
1.087069e+05 -2.642834e+03 -6.625334e+04
9.826105e+04 -2.379570e+04 -6.467219e+04
1.137081e+05 -2.193318e+04 -6.343402e+04
7.980889e+04 -1.404966e+04 -6.294055e+04
8.325749e+04 -3.013767e+04 -6.113686e+04
1.192981e+05 -1.557823e+04 -7.199946e+04
6.639065e+04 -2.376281e+04 -6.491218e+04
4.865303e+04 -2.242669e+04 -6.241608e+04
4.778954e+04 -4.246471e+04 -6.390025e+04
6.966878e+04 -3.901812e+04 -6.099436e+04
3.977574e+04 -3.285511e+04 -5.927806e+04
3.225894e+04 -5.544523e+04 -6.243517e+04
2.391863e+04 -4.080102e+04 -6.467235e+04
1.014198e+04 -4.182397e+04 -6.168880e+04
1.849843e+03 -5.000612e+04 -6.343212e+04
1.466468e+04 -5.845934e+04 -6.508843e+04
-4.512651e+03 -6.589729e+04 -6.514578e+04
2.750328e+04 -7.040115e+04 -6.305959e+04
1.410245e+04 -4.355052e+04 -7.247127e+04
-1.460339e+04 -5.433199e+04 -6.159820e+04
3.976678e+03 -3.199194e+04 -5.774432e+04
-1.995671e+04 -7.088443e+04 -6.682773e+04
-3.860993e+04 -7.252695e+04 -6.513415e+04
-2.798525e+04 -6.137184e+04 -6.350646e+04
-4.312827e+04 -6.532728e+04 -5.933609e+04
-6.305031e+03 -8.426944e+04 -6.534411e+04
-3.712417e+04 -8.761607e+04 -6.312150e+04
-2.022516e+04 -8.370494e+04 -5.956705e+04
-5.546515e+04 -7.796643e+04 -6.524165e+04
-5.861715e+04 -6.024153e+04 -6.404613e+04
-5.285939e+04 -9.271139e+04 -6.264957e+04
-6.726114e+04 -9.501293e+04 -6.259322e+04
-7.405864e+04 -8.372588e+04 -6.242167e+04
-4.545718e+04 -1.009427e+05 -6.497012e+04
-7.928262e+04 -1.041505e+05 -6.505826e+04
-9.158627e+04 -8.772117e+04 -6.612844e+04
-1.095532e+05 -9.583836e+04 -6.320410e+04
-1.011114e+05 -1.090063e+05 -6.629293e+04
-1.001334e+05 -7.404924e+04 -5.908131e+04
-1.068915e+05 -1.161000e+05 -5.644320e+04
-1.185971e+05 -1.125331e+05 -6.211369e+04
-1.238051e+05 -9.484346e+04 -6.582473e+04
-1.376340e+05 -1.149670e+05 -6.391137e+04
-1.471482e+05 -1.340132e+05 -6.278400e+04
-1.339234e+05 -1.391939e+05 -6.660805e+04
-1.628525e+05 -1.357285e+05 -6.308899e+04
-1.540527e+05 -1.221427e+05 -6.398579e+04
-1.718483e+05 -1.242283e+05 -6.144906e+04
-1.744641e+05 -1.364037e+05 -6.906986e+04
-1.748264e+05 -1.522395e+05 -6.439682e+04
-1.875466e+05 -1.367086e+05 -6.536846e+04
-1.814986e+05 -1.143122e+05 -5.784801e+04
-2.073927e+05 -1.413922e+05 -6.242334e+04
-1.944084e+05 -1.530264e+05 -6.217347e+04
-2.278639e+05 -1.678468e+05 -6.077756e+04
-2.091287e+05 -1.641149e+05 -6.445062e+04
-2.276968e+05 -1.559235e+05 -6.246783e+04
-2.402611e+05 -1.770089e+05 -6.061520e+04
-2.607377e+05 -1.664334e+05 -6.144361e+04
-2.451358e+05 -1.639267e+05 -6.456728e+04
-2.592296e+05 -1.798378e+05 -6.268912e+04
-2.584698e+05 -1.979802e+05 -6.220267e+04
-2.679277e+05 -1.602893e+05 -6.541150e+04
-2.850644e+05 -1.891098e+05 -5.746054e+04
-2.870222e+05 -1.814407e+05 -5.667253e+04
-2.953866e+05 -1.844167e+05 -5.418571e+04
-2.932350e+05 -1.901941e+05 -5.695641e+04
-2.955567e+05 -2.037636e+05 -5.449881e+04
2.935052e+05 7.319479e+04 -5.761626e+04
2.950744e+05 6.628159e+04 -5.439668e+04
2.848283e+05 7.098433e+04 -5.655251e+04
2.874832e+05 6.495019e+04 -5.586393e+04
2.933463e+05 8.149169e+04 -5.721393e+04
2.963739e+05 7.267018e+04 -6.414652e+04
2.802143e+05 6.091128e+04 -5.473115e+04
2.778126e+05 6.771944e+04 -5.449761e+04
2.714485e+05 6.778068e+04 -5.292071e+04
2.723588e+05 6.038369e+04 -5.576908e+04
2.650525e+05 6.665992e+04 -5.636588e+04
2.633318e+05 5.880583e+04 -5.772650e+04
2.537464e+05 5.521189e+04 -5.557671e+04
2.477750e+05 4.893952e+04 -5.558617e+04
2.399670e+05 4.722393e+04 -5.554034e+04
2.328422e+05 4.290008e+04 -5.514377e+04
2.379484e+05 4.233103e+04 -5.303740e+04
2.349925e+05 5.162794e+04 -5.608387e+04
2.315663e+05 5.583873e+04 -5.366159e+04
2.347293e+05 4.775581e+04 -5.950858e+04
2.243974e+05 3.976204e+04 -5.635058e+04
2.163640e+05 3.671674e+04 -5.534151e+04
2.086283e+05 3.633649e+04 -5.558234e+04
2.032351e+05 3.560349e+04 -5.406089e+04
2.023411e+05 2.797590e+04 -5.689944e+04
1.923577e+05 2.387573e+04 -5.708725e+04
2.095735e+05 2.693108e+04 -5.607302e+04
1.842274e+05 2.047656e+04 -5.604987e+04
1.746291e+05 1.765677e+04 -5.696066e+04
1.652587e+05 1.924370e+04 -5.553621e+04
1.570590e+05 1.607921e+04 -5.510459e+04
1.617172e+05 1.058601e+04 -5.509830e+04
1.681151e+05 1.210409e+04 -5.402665e+04
1.783898e+05 1.065612e+04 -5.404153e+04
1.550619e+05 6.351755e+03 -5.686499e+04
1.515020e+05 1.152509e+04 -5.532552e+04
1.448160e+05 1.053399e+04 -5.470077e+04
1.457135e+05 4.465837e+03 -5.687421e+04
1.376821e+05 4.161821e+03 -5.498339e+04
1.403227e+05 1.661049e+02 -5.417496e+04
1.460992e+05 -2.829303e+03 -5.607236e+04
1.307033e+05 3.234998e+03 -5.485265e+04
1.347819e+05 -2.487585e+03 -5.509387e+04
1.273276e+05 -7.374619e+03 -5.677857e+04
1.240487e+05 7.486563e+02 -5.626476e+04
1.153738e+05 -1.652678e+03 -5.465718e+04
1.178820e+05 -7.712465e+03 -5.653104e+04
1.045415e+05 -9.060734e+03 -5.581985e+04
1.093892e+05 -4.945371e+03 -5.725442e+04
1.055610e+05 -1.578392e+04 -5.787758e+04
1.138089e+05 -1.522206e+04 -5.738060e+04
9.708538e+04 -1.212594e+04 -5.669829e+04
9.701560e+04 -2.047658e+04 -5.613381e+04
8.995575e+04 -2.496551e+04 -5.548305e+04
8.864776e+04 -1.773691e+04 -5.718764e+04
8.107641e+04 -1.762264e+04 -5.480226e+04
8.227601e+04 -2.467874e+04 -5.539862e+04
7.447904e+04 -2.419806e+04 -5.732340e+04
6.591177e+04 -2.574675e+04 -5.665207e+04
6.753235e+04 -3.238183e+04 -5.569017e+04
7.504907e+04 -3.165457e+04 -5.484974e+04
7.624107e+04 -1.368587e+04 -5.375657e+04
5.891943e+04 -3.639654e+04 -5.710268e+04
5.781139e+04 -2.722374e+04 -5.779785e+04
4.726261e+04 -3.019210e+04 -5.525681e+04
4.732735e+04 -3.894897e+04 -5.650907e+04
4.360430e+04 -3.570518e+04 -5.308980e+04
3.970696e+04 -4.673089e+04 -5.634523e+04
3.843866e+04 -3.945997e+04 -5.474643e+04
3.192671e+04 -5.164943e+04 -5.548236e+04
2.372130e+04 -5.232311e+04 -5.713780e+04
3.045830e+04 -4.253964e+04 -5.752983e+04
2.075780e+04 -4.657522e+04 -5.563109e+04
8.426070e+03 -5.189667e+04 -5.660970e+04
1.365234e+04 -4.521133e+04 -5.530245e+04
1.406626e+04 -5.535691e+04 -5.645545e+04
4.654772e+03 -6.072206e+04 -5.794005e+04
2.115423e+04 -6.057645e+04 -5.658969e+04
1.600909e+04 -4.769741e+04 -6.030995e+04
6.765865e+02 -5.441609e+04 -5.662465e+04
1.012210e+04 -4.144443e+04 -5.370146e+04
-3.676896e+03 -6.377119e+04 -5.646004e+04
-1.142805e+04 -6.548685e+04 -5.818906e+04
-7.105318e+03 -5.837538e+04 -5.651117e+04
-1.690795e+04 -6.067153e+04 -5.639246e+04
-3.096596e+04 -6.674776e+04 -5.673454e+04
-2.834004e+04 -7.263741e+04 -5.980237e+04
-1.849871e+04 -6.981303e+04 -5.817772e+04
-2.213591e+04 -6.439280e+04 -5.679939e+04
-1.175262e+04 -7.481763e+04 -5.746491e+04
-2.671204e+04 -7.867095e+04 -5.676384e+04
-1.940622e+04 -7.553268e+04 -5.433081e+04
-3.627347e+04 -7.624754e+04 -5.741020e+04
-3.801196e+04 -7.074405e+04 -5.492874e+04
-4.534426e+04 -7.174407e+04 -5.385791e+04
-4.308069e+04 -7.563633e+04 -5.707661e+04
-3.479695e+04 -8.143089e+04 -5.518940e+04
-4.388636e+04 -8.287949e+04 -5.746444e+04
-5.119589e+04 -7.868076e+04 -5.728248e+04
-5.322025e+04 -7.011436e+04 -5.646670e+04
-5.111644e+04 -8.662538e+04 -5.557682e+04
-5.902292e+04 -8.947282e+04 -5.717622e+04
-6.191098e+04 -8.260999e+04 -5.722129e+04
-4.698863e+04 -9.014361e+04 -5.742843e+04
-6.645827e+04 -9.227862e+04 -5.550291e+04
-7.323183e+04 -9.356048e+04 -5.539447e+04
-6.950662e+04 -8.696932e+04 -5.574107e+04
-7.735539e+04 -8.766198e+04 -5.540644e+04
-7.776898e+04 -9.851418e+04 -5.732918e+04
-8.359424e+04 -9.046802e+04 -5.818931e+04
-9.256300e+04 -9.447738e+04 -5.638130e+04
-8.829498e+04 -1.020523e+05 -5.739942e+04
-8.884992e+04 -8.423079e+04 -5.477414e+04
-9.676448e+04 -1.054648e+05 -5.814459e+04
-1.011985e+05 -9.738914e+04 -5.750881e+04
-1.093586e+05 -1.015447e+05 -5.566692e+04
-1.061765e+05 -1.075487e+05 -5.772975e+04
-1.133938e+05 -1.105676e+05 -5.563308e+04
-1.082627e+05 -1.114584e+05 -5.259427e+04
-1.166631e+05 -1.021917e+05 -5.727628e+04
-1.215992e+05 -1.127597e+05 -5.554478e+04
-1.297512e+05 -1.152447e+05 -5.680002e+04
-1.415091e+05 -1.188012e+05 -5.666700e+04
-1.454360e+05 -1.292056e+05 -5.502856e+04
-1.382650e+05 -1.303487e+05 -5.735255e+04
-1.569982e+05 -1.244457e+05 -5.651774e+04
-1.535604e+05 -1.323917e+05 -5.662538e+04
-1.487021e+05 -1.230765e+05 -5.654947e+04
-1.611348e+05 -1.343037e+05 -5.496966e+04
-1.639220e+05 -1.277467e+05 -5.540069e+04
-1.710713e+05 -1.287962e+05 -5.430071e+04
-1.676465e+05 -1.343232e+05 -5.577765e+04
-1.726701e+05 -1.350579e+05 -5.936108e+04
-1.729307e+05 -1.435189e+05 -5.711631e+04
-1.793372e+05 -1.370541e+05 -5.747301e+04
-1.763214e+05 -1.244724e+05 -5.363149e+04
-1.888546e+05 -1.394837e+05 -5.721940e+04
-1.839706e+05 -1.474643e+05 -5.697077e+04
-1.966916e+05 -1.438658e+05 -5.663011e+04
-2.071954e+05 -1.456727e+05 -5.574456e+04
-1.929096e+05 -1.491614e+05 -5.581736e+04
-2.004584e+05 -1.507881e+05 -5.538775e+04
-2.177324e+05 -1.618978e+05 -5.666551e+04
-2.062898e+05 -1.563300e+05 -5.737262e+04
-2.179071e+05 -1.516210e+05 -5.695824e+04
-2.253641e+05 -1.646542e+05 -5.434715e+04
-2.316241e+05 -1.649698e+05 -5.515738e+04
-2.254617e+05 -1.584911e+05 -5.544439e+04
-2.319998e+05 -1.576834e+05 -5.508731e+04
-2.364218e+05 -1.701703e+05 -5.529773e+04
-2.473376e+05 -1.665048e+05 -5.599576e+04
-2.455147e+05 -1.724054e+05 -5.602740e+04
-2.385722e+05 -1.635121e+05 -5.745424e+04
-2.427931e+05 -1.563644e+05 -5.397495e+04
-2.795773e+05 -1.791018e+05 -5.548215e+04
-2.774234e+05 -1.858024e+05 -5.625446e+04
-2.699898e+05 -1.853504e+05 -5.535017e+04
-2.699096e+05 -1.771141e+05 -5.753408e+04
-2.537722e+05 -1.760580e+05 -5.684847e+04
-2.551875e+05 -1.686851e+05 -5.604789e+04
-2.630802e+05 -1.713438e+05 -5.444248e+04
-2.623122e+05 -1.772716e+05 -5.574273e+04
-2.631134e+05 -1.876956e+05 -5.593237e+04
-2.674855e+05 -1.692093e+05 -5.703835e+04
-2.905522e+05 -1.762739e+05 -5.371748e+04
2.838614e+05 5.887589e+04 -5.706346e+04
-1.323772e+05 -1.089734e+05 -5.370312e+04
2.474770e+05 5.425911e+04 -5.744504e+04
1.950462e+05 1.698634e+04 -5.386290e+04
1.509520e+05 1.626236e+04 -5.550519e+04
1.209869e+05 5.947748e+03 -5.338857e+04
5.634652e+04 -2.197425e+04 -5.384812e+04
2.633171e+04 -3.704475e+04 -5.466625e+04
-2.586694e+05 -1.627262e+05 -5.338531e+04
-1.481507e+05 -7.537184e+04 -2.375000e+04
-1.535932e+05 -6.594520e+04 -1.750000e+04
-1.469639e+05 -6.299366e+04 -1.750000e+04
-1.415215e+05 -7.242030e+04 -2.375000e+04
-8.185809e+04 -4.585646e+04 -2.375000e+04
-1.590357e+05 -5.651856e+04 -1.125000e+04
-9.392983e+04 -3.938136e+04 -1.750000e+04
-9.274304e+04 -2.700318e+04 -1.125000e+04
-8.730057e+04 -3.642982e+04 -1.750000e+04
-9.937230e+04 -2.995472e+04 -1.125000e+04
-1.282629e+05 -6.651722e+04 -2.375000e+04
-1.348922e+05 -6.946876e+04 -2.375000e+04
-1.337054e+05 -5.709058e+04 -1.750000e+04
-1.216337e+05 -6.356569e+04 -2.375000e+04
-1.204469e+05 -5.118751e+04 -1.750000e+04
-1.150044e+05 -6.061415e+04 -2.375000e+04
-1.270761e+05 -5.413905e+04 -1.750000e+04
-9.511662e+04 -5.175954e+04 -2.375000e+04
-8.848736e+04 -4.880800e+04 -2.375000e+04
-1.071884e+05 -4.528443e+04 -1.750000e+04
-1.005591e+05 -4.233290e+04 -1.750000e+04
-1.017459e+05 -5.471107e+04 -2.375000e+04
-1.083751e+05 -5.766261e+04 -2.375000e+04
-1.126308e+05 -3.585779e+04 -1.125000e+04
-1.060016e+05 -3.290626e+04 -1.125000e+04
-1.192601e+05 -3.880933e+04 -1.125000e+04
-1.138176e+05 -4.823597e+04 -1.750000e+04
-1.258894e+05 -4.176087e+04 -1.125000e+04
-1.524064e+05 -5.356702e+04 -1.125000e+04
-1.457771e+05 -5.061548e+04 -1.125000e+04
-1.403347e+05 -6.004212e+04 -1.750000e+04
-1.391479e+05 -4.766394e+04 -1.125000e+04
-1.325186e+05 -4.471241e+04 -1.125000e+04
CELLS 19270 96350
4  5968 5969 5970 5971
4  892 5972 5969 5971
4  5968 5970 5973 5971
4  5974 5975 5968 5973
4  5976 5975 5973 5971
4  5977 5978 5979 5980
4  5981 5982 5983 5984
4  5978 5985 5986 5980
4  5987 5979 5988 5980
4  5989 5990 5991 5992
4  5993 5994 5995 5992
4  5996 5997 5998 5992
4  5999 5996 5998 5992
4  6000 6001 6002 6003
4  6004 6005 6006 6007
4  6008 6009 6010 6003
4  6011 6012 6013 6003
4  6000 6014 6012 6003
4  6008 6015 6009 6003
4  6016 6013 6009 6003
4  6016 6009 6015 6003
4  6017 6018 6019 6020
4  6021 6022 6023 6020
4  6021 6023 6018 6020
4  6024 6025 6026 6027
4  6028 6029 6030 6031
4  6032 6033 6034 6027
4  6035 6034 6033 6027
4  6036 6026 6025 6027
4  6036 6025 6037 6027
4  6038 6037 6039 6027
4  6040 6041 6042 6018
4  6017 6043 6044 6018
4  6021 6023 6045 6018
4  6046 6047 6048 6049
4  6021 6050 6043 6018
4  6021 6043 6017 6018
4  6023 6019 6018 6020
4  6051 6052 6053 6054
4  6055 6056 6057 6054
4  6058 6051 6053 6054
4  6055 6059 6056 6054
4  264 876 6060 6061
4  6062 6063 6064 6061
4  6065 6066 6067 6068
4  6069 6070 6067 6068
4  6066 6071 6069 6068
4  6072 6073 6071 6068
4  6074 6070 6073 6068
4  6072 6075 6076 6068
4  6077 6078 6079 5969
4  6079 5970 5968 5969
4  6079 5972 5970 5969
4  6080 6081 6082 6083
4  131 319 6078 5969
4  892 5969 5968 5971
4  319 5972 6078 5969
4  319 892 5972 5969
4  6084 5970 6085 5973
4  892 527 6086 5971
4  6086 6087 5970 5973
4  6086 5973 5970 5971
4  6088 6087 6086 5973
4  5976 5973 6086 5971
4  527 5976 6086 5971
4  6084 5974 5968 5973
4  6089 6090 6091 6092
4  6093 5975 5974 5973
4  6086 5970 5972 5971
4  6094 6095 6096 6097
4  6098 6099 6100 6097
4  6080 6101 6082 6081
4  6102 6103 6104 6105
4  6106 6107 6108 6109
4  6110 6107 6106 6109
4  6111 6112 6113 6109
4  6111 6113 6114 6109
4  939 6115 6116 6117
4  939 6116 6118 6117
4  6119 6120 6118 6117
4  6083 6116 6121 6117
4  6122 6123 6120 6117
4  6122 6124 6123 6117
4  6083 6119 6116 6117
4  672 6125 6126 6127
4  6128 6129 6130 6131
4  6128 6132 6129 6131
4  6133 6128 6130 6131
4  6134 6129 6132 6131
4  854 6127 6135 6136
4  6134 6137 6129 6131
4  6138 6139 6137 6131
4  6140 6137 6138 6139
4  6128 6141 6132 6131
4  6142 6143 6144 6132
4  6134 6129 6145 6132
4  6128 6146 6147 6132
4  6148 6149 6150 6151
4  6152 6153 6154 6151
4  6155 6150 6149 6151
4  6155 6154 6156 6151
4  6157 6158 6159 6160
4  6161 6162 6163 6160
4  6161 6163 6164 6160
4  6164 6158 6157 6160
4  6165 6166 6167 6168
4  6169 6170 6171 6172
4  6173 6170 6174 6172
4  6175 6176 6174 6177
4  6174 6177 6176 6172
4  6178 6177 6179 6172
4  6169 6180 6170 6172
4  6179 6177 6180 6172
4  6181 6182 6183 6184
4  6185 6186 6166 6187
4  6181 6183 6188 6189
4  6188 6183 6190 6189
4  6191 6192 6193 6189
4  6194 6195 6196 6197
4  6198 6196 6199 6197
4  6200 6201 6202 6197
4  6200 6198 6201 6197
4  6194 6196 6198 6197
4  6203 6204 6205 6206
4  365 6207 6208 6209
4  6207 6208 6209 6206
4  6210 6211 6209 6206
4  6212 6213 6214 6215
4  6205 6204 6216 6206
4  6210 6209 6217 6206
4  6218 6217 6208 6206
4  6219 6220 6221 6222
4  6219 6221 6223 6222
4  6223 6221 6224 6222
4  6225 6226 6227 6222
4  6225 6221 6220 6222
4  6228 6229 6230 6231
4  6232 6233 6234 6231
4  6235 6230 6236 6231
4  6237 6236 6234 6231
4  6238 6239 6240 6241
4  6242 6243 6239 6241
4  6244 6245 6243 6241
4  6244 6243 6242 6241
4  6246 6247 6248 6249
4  6250 6251 6252 6249
4  6253 6251 6254 6249
4  6255 6248 6256 6249
4  6256 6248 6257 6249
4  6253 6257 6252 6249
4  6258 6259 6260 6261
4  6262 6263 6264 6260
4  6265 6264 6259 6260
4  6265 6262 6264 6260
4  6266 6267 6268 6269
4  987 6103 6270 6271
4  6272 6273 6274 6269
4  1020 313 214 6275
4  6272 6276 6277 6274
4  6272 6274 6277 6269
4  6278 6279 6280 6281
4  6280 6281 6282 6283
4  6284 6285 6280 6286
4  203 6287 6283 6286
4  6278 6281 6280 6286
4  700 702 987 6270
4  856 6281 6288 6286
4  6181 6104 6192 6189
4  6289 6184 6290 6189
4  6291 6190 6292 6193
4  6104 6291 6293 6193
4  6294 6292 6190 6193
4  6191 6294 6190 6193
4  6295 6296 6297 6298
4  6299 6300 6301 6298
4  6295 6302 6296 6298
4  6296 6303 6297 6298
4  6304 6297 6305 6298
4  245 167 753 6306
4  6304 6305 6300 6298
4  6296 6307 6308 6298
4  6296 6308 6309 6298
4  6310 6311 6312 6313
4  6314 6311 6315 6313
4  6316 6317 6318 6313
4  131 878 811 6077
4  6319 6021 6045 6320
4  6321 6322 6323 6320
4  6200 6324 6325 6202
4  6322 6326 6043 6320
4  6321 6327 6326 6320
4  6021 6022 6322 6320
4  6098 6100 6328 6097
4  6329 6330 6331 6332
4  6333 6328 6094 6096
4  6333 6094 6334 6096
4  6335 6336 6098 6096
4  6335 6098 6337 6096
4  6014 6096 6338 6095
4  6339 6096 6337 6340
4  6098 6096 6328 6340
4  6341 6342 6343 6344
4  6345 6346 6347 6343
4  6348 6346 6342 6343
4  6341 6346 6345 6343
4  6349 6350 6120 6351
4  693 6352 6353 6351
4  6354 6120 6352 6351
4  6350 6353 6352 6351
4  6304 6202 6305 6297
4  6355 6356 6357 6358
4  6166 6359 6360 6168
4  733 475 6361 6168
4  93 6360 475 6168
4  6354 6362 6363 6120
4  6350 6352 6120 6351
4  6122 6363 6349 6120
4  6364 6365 5987 5979
4  6366 6364 6367 5979
4  6365 6368 5988 5979
4  5978 5988 5979 5980
4  6369 6368 6370 5979
4  6369 6371 5978 5979
4  491 6372 167 6306
4  733 868 773 6361
4  6130 6373 6137 6129
4  6374 6137 6139 6131
4  6128 6141 6146 6132
4  6128 6145 6129 6132
4  6375 6373 6128 6129
4  6375 6128 6376 6129
4  6128 6145 6376 6129
4  883 6377 6378 6379
4  883 175 6380 6379
4  19 6381 6308 6301
4  6378 6382 6379 6383
4  6380 6384 6385 6379
4  883 177 175 6379
4  6386 6379 6382 6383
4  6384 6385 6379 6383
4  6387 6388 6389 6240
4  6390 6391 6389 6240
4  6392 6393 6240 6241
4  62 58 690 6394
4  6395 6388 6387 6240
4  6396 6113 6397 6187
4  6166 6398 6399 6187
4  6400 6398 6401 6187
4  6166 6401 6398 6187
4  6185 6397 6186 6187
4  6400 6113 6398 6187
4  6400 6402 6397 6187
4  6403 6400 6402 6397
4  6404 6405 6406 6061
4  313 6404 966 6405
4  6060 6407 6406 6061
4  876 6064 6407 6061
4  6406 6407 6063 6061
4  966 6405 6404 6061
4  216 6060 6408 6405
4  216 264 6060 6405
4  6409 6410 6411 6412
4  6409 6413 6414 6412
4  6409 6411 6413 6412
4  6415 6416 6417 6412
4  6418 6419 6420 6421
4  6422 6423 6424 6421
4  6425 6015 6002 6003
4  6426 6015 6427 6002
4  6426 6425 6015 6002
4  6349 6428 6427 6002
4  6350 6427 6015 6002
4  6429 6430 6431 6432
4  6433 6434 6435 6432
4  6436 6434 6430 6432
4  6429 6430 6436 6437
4  6210 6438 6439 6211
4  6440 6209 6439 6211
4  6441 6442 6443 6211
4  6415 6441 6443 6211
4  128 6440 6203 6209
4  6203 6209 6440 6211
4  6415 6443 6204 6211
4  6064 6063 6407 6061
4  6444 6445 6446 6407
4  6444 6445 6447 6448
4  6445 6449 6446 6407
4  6450 6451 6221 6220
4  246 181 6452 6453
4  6454 6444 6455 6446
4  948 821 43 6456
4  6457 6458 6459 6460
4  6454 6446 6060 6407
4  6385 6377 6431 6379
4  6433 6385 6377 6432
4  409 6437 6430 6431
4  6380 6385 6461 6431
4  6134 6145 6462 6142
4  6463 6464 6465 6466
4  6467 6468 6469 6470
4  819 6462 6142 6470
4  948 43 6471 6456
4  5999 5998 5990 5992
4  5989 5991 5990 6472
4  6473 6474 5990 6472
4  6475 6476 5989 6477
4  875 874 43 6478
4  6479 6480 6481 6482
4  6483 6477 5999 5990
4  6484 6224 6485 6486
4  767 769 770 6487
4  6488 6489 6490 6486
4  6491 6492 6485 6486
4  6493 6494 6484 6486
4  6493 6484 6485 6486
4  6495 6496 6497 6044
4  6498 6495 6499 6044
4  6497 6043 6042 6044
4  6017 6043 6496 6044
4  6500 6017 6501 6496
4  6502 6503 6496 6326
4  6504 6496 6495 6044
4  6497 6496 6503 6326
4  6497 6496 6043 6044
4  163 6505 6506 6507
4  378 6508 6509 6507
4  377 6505 163 6507
4  853 6508 378 6507
4  6385 6510 6511 6435
4  6433 6435 6385 6432
4  6512 6513 6514 6435
4  6512 6514 6513 6515
4  6516 6434 6514 6435
4  6512 6514 6434 6435
4  6433 6435 6517 6383
4  6518 6519 6520 6521
4  6522 6523 6524 6521
4  6525 6519 6518 6521
4  6522 6526 6523 6521
4  6527 6528 6529 6234
4  6530 6237 6236 6234
4  6530 6236 6531 6234
4  6532 6533 6531 6234
4  6534 6535 6536 6537
4  6538 6292 6539 6537
4  890 1024 888 6540
4  6539 6293 6541 6537
4  6534 6542 6535 6537
4  6539 6292 6293 6537
4  6538 6539 6542 6537
4  6543 6503 6544 6326
4  6545 6502 6546 6544
4  6493 6547 6484 6548
4  6549 5996 5994 5997
4  6545 6546 6550 6544
4  6502 6280 6503 6544
4  6551 6552 6280 6544
4  6553 6551 6554 6550
4  6553 6551 6550 6544
4  6555 6556 6557 6558
4  1024 769 767 6559
4  6560 5974 6561 6558
4  805 6562 866 6563
4  809 805 865 6563
4  6564 6500 6017 6563
4  809 6019 805 6563
4  805 6563 6019 6020
4  805 482 6562 6020
4  6017 6019 6563 6020
4  6021 6017 6562 6020
4  6565 6520 6566 6054
4  6052 6520 6567 6053
4  6568 6569 6567 6053
4  6058 6051 6570 6053
4  6571 6570 6569 6053
4  6571 6569 6568 6053
4  6572 6573 6574 6154
4  6084 6557 5968 6558
4  5968 6557 6556 6558
4  6560 6557 6084 6558
4  6575 6555 6576 6556
4  6575 6557 6555 6556
4  6577 5968 6557 6556
4  6578 6037 6579 6025
4  6024 6580 6581 6025
4  6582 6583 6584 6025
4  6585 6582 6586 6025
4  6585 6037 6578 6025
4  6587 6579 6036 6025
4  6540 6588 6559 6589
4  6590 6591 6592 6593
4  6594 6595 6596 6593
4  6597 6591 6598 6593
4  997 6599 6506 6600
4  747 6601 6600 6602
4  748 6601 6603 6600
4  748 6603 992 6600
4  748 747 6601 6600
4  6603 6604 6599 6600
4  6605 6606 6607 6608
4  6609 6610 6606 6608
4  6611 6612 6610 6608
4  6609 6611 6610 6608
4  6449 6613 6408 6405
4  6445 6614 6406 6063
4  6540 6219 6615 6588
4  6404 6406 6115 6061
4  313 6613 6404 6405
4  6445 6063 6406 6407
4  6091 6092 6469 6616
4  6617 6618 6467 6616
4  6619 6620 6621 6616
4  6617 6467 6620 6616
4  6619 6621 6622 6616
4  6089 6092 6091 6616
4  6622 6621 6089 6616
4  6623 6239 6624 6625
4  6623 6624 6626 6625
4  6627 6628 6629 6625
4  6630 6631 6629 6625
4  6632 6633 6634 6635
4  6636 6637 6638 6639
4  6640 6641 6638 6639
4  6640 6642 6641 6639
4  6642 6643 6641 6639
4  6547 6548 6644 6645
4  6223 6484 6547 6646
4  426 6589 6647 6645
4  426 888 6589 6645
4  576 6644 891 6645
4  891 6644 6548 6645
4  6648 6649 6650 6651
4  6649 6651 6652 5988
4  6648 6650 6653 6651
4  6654 6655 6653 6651
4  6656 6657 6658 6659
4  6660 6661 6662 6658
4  6663 6662 6658 6659
4  6663 6662 6664 6658
4  6665 6666 6667 6658
4  6668 6112 6106 6108
4  6669 6108 6670 6671
4  6668 6672 6112 6108
4  6029 6670 6108 6671
4  794 620 882 6673
4  6028 6029 6112 6672
4  6674 6675 6676 6677
4  799 6675 6678 6677
4  6679 6674 6680 6675
4  6679 6680 6681 6675
4  6680 6678 6675 6677
4  635 219 220 6099
4  6682 6683 6684 6685
4  6686 6685 6687 6268
4  6688 6689 6683 6685
4  6690 6691 6687 6685
4  6686 6689 6688 6685
4  6690 6692 6691 6685
4  6066 6069 6067 6068
4  6693 6074 6694 6070
4  6695 6070 6694 6067
4  6696 6697 6694 6068
4  6074 6698 6699 6070
4  6074 6694 6070 6068
4  6008 6010 6353 6700
4  6084 6085 6701 5973
4  6702 6703 6704 6705
4  6706 6574 6707 6085
4  6574 6612 6707 6085
4  6708 6612 6574 6085
4  6079 6709 6085 6710
4  351 6099 220 6711
4  6336 6700 6712 6711
4  620 6713 220 6712
4  220 6712 6713 6711
4  6714 6715 6716 6252
4  6717 6718 6719 6012
4  6250 6720 6721 6252
4  6721 6720 6715 6252
4  6722 6716 6715 6252
4  6673 6702 6723 6362
4  308 6724 6725 6033
4  6726 6725 6038 6033
4  308 6725 6726 6033
4  6024 6032 6034 6027
4  6035 6034 6727 6033
4  799 1008 443 6728
4  75 6079 5968 5969
4  6079 5970 6087 6085
4  6084 5968 5970 5973
4  6457 6460 6459 6729
4  6560 6561 6730 6460
4  6681 5991 5997 5992
4  6560 6730 6610 6729
4  6560 6730 6084 6610
4  6731 6732 6460 6729
4  6560 6732 6731 6729
4  553 238 821 6676
4  6575 6577 6557 6556
4  77 6577 6575 6556
4  76 6577 77 6556
4  6733 6734 6735 6736
4  6737 6738 6560 6557
4  642 5968 6556 6558
4  6084 5968 5974 6558
4  6084 6707 5968 6557
4  6737 6560 6555 6557
4  642 6576 6739 6558
4  163 992 997 6600
4  163 997 6506 6600
4  6740 6506 6505 6507
4  467 6741 6508 6506
4  6599 6740 6741 6506
4  853 6506 6508 6507
4  853 997 467 6506
4  6742 6743 6744 6745
4  6619 6621 6620 6745
4  6746 6745 6747 6748
4  6749 6620 6621 6745
4  6013 6009 6012 6095
4  6749 6747 6745 6748
4  6512 6434 6436 6432
4  6512 6514 6515 6434
4  6750 6512 6515 6434
4  770 769 6751 6487
4  6752 6512 6750 6434
4  6516 6433 6753 6434
4  834 835 726 6116
4  6121 6116 6115 6117
4  6754 6755 6118 6116
4  6756 6121 6080 6116
4  6080 6083 6757 6116
4  350 6758 6759 6760
4  58 6713 6353 6760
4  6394 6353 6761 6760
4  6010 6760 6700 6711
4  351 350 6759 6760
4  6761 6353 6010 6760
4  6010 6353 6700 6760
4  6713 6700 6760 6711
4  6010 6759 6760 6711
4  6762 6485 6547 6224
4  6762 6224 6547 6763
4  6223 6547 6224 6763
4  6764 6765 6647 6763
4  6223 6647 6547 6763
4  6764 6766 6765 6763
4  6762 6547 6766 6763
4  6480 6059 6767 6768
4  6375 6007 6769 6376
4  6770 6771 6059 6768
4  6772 6768 6773 6472
4  6770 6679 6773 6768
4  6771 6774 6059 6768
4  76 74 77 6577
4  6079 5972 6087 5970
4  6087 6775 6085 5973
4  6079 6078 5972 5969
4  706 6776 319 5972
4  6088 5972 6087 6710
4  6540 6615 6559 6588
4  799 6676 821 6777
4  6319 6023 6021 6022
4  9 6023 6319 6022
4  9 6778 6319 6023
4  8 6022 6323 6779
4  8 9 6319 6022
4  6319 6323 6022 6320
4  794 6354 798 6352
4  798 6354 797 6123
4  797 6354 6780 6123
4  6781 6115 6123 6124
4  6118 6352 6354 6120
4  6782 6783 6784 6785
4  6780 6123 6354 6363
4  6786 6787 6069 6067
4  6788 6786 6789 6787
4  6786 6789 6787 6067
4  770 6751 6790 6487
4  6789 6508 6787 6067
4  6599 6791 6741 6740
4  6741 6740 6791 6787
4  6788 6792 6786 6787
4  6084 6707 6612 6085
4  6577 5968 6707 6557
4  6793 6794 6795 6796
4  6797 5968 6079 6707
4  6798 6707 6084 6557
4  6706 6707 6079 6085
4  6706 6797 6079 6707
4  6491 6485 6762 6224
4  6799 6800 6801 6802
4  6803 6697 6065 6694
4  6065 6509 6694 6067
4  6693 6695 6698 6070
4  6696 6697 6803 6694
4  6695 6694 6509 6067
4  6804 6805 6806 6807
4  6808 6805 6809 6807
4  6810 6806 6811 6807
4  6808 6812 6811 6807
4  6813 6814 6653 6815
4  6816 6817 6818 6035
4  6813 6653 6819 6815
4  6820 6821 6822 6815
4  6813 6822 6823 6815
4  6824 6448 6825 6826
4  6449 6827 6828 6826
4  6445 6449 6828 6826
4  6445 6828 6825 6826
4  6445 6828 6614 6825
4  635 6829 6099 6208
4  6786 6695 6789 6067
4  6066 6069 6787 6067
4  6786 6069 6070 6067
4  6740 6066 6787 6067
4  6830 6065 6509 6694
4  6786 6070 6695 6067
4  6831 6832 6833 6340
4  6098 6834 6337 6340
4  6098 6337 6096 6340
4  6014 6336 6096 6097
4  6100 6328 6218 6340
4  6098 6100 6216 6340
4  6835 6088 6775 6710
4  6836 6775 6573 6710
4  6835 6775 6836 6710
4  6087 6085 6775 6710
4  6837 6078 6838 6710
4  6709 6078 6837 6710
4  6594 6596 6839 6593
4  6594 6597 6593 6840
4  6592 6591 6841 6840
4  6842 6592 6841 6840
4  6843 6593 6592 6840
4  6718 6013 6012 6095
4  6844 6334 6094 6095
4  6014 6096 6095 6097
4  6585 6845 6846 6580
4  6098 6336 6099 6097
4  1024 6559 767 6589
4  6844 6094 6009 6095
4  6014 6009 6010 6095
4  6052 6526 6520 6847
4  6848 6057 6849 6847
4  6848 6849 6523 6847
4  6265 6260 6259 6261
4  6850 6851 6852 6261
4  6853 6854 6260 6261
4  6855 6854 6851 6261
4  6856 6857 6680 6677
4  6858 6777 6676 6675
4  905 6678 6857 6677
4  846 847 746 6859
4  6856 6674 6676 6677
4  6856 6680 6674 6677
4  6860 6861 6510 6383
4  6862 6860 6384 6383
4  5996 6382 5995 6383
4  6433 6378 6379 6383
4  6517 5995 6378 6383
4  6517 6863 5996 6383
4  6517 6435 6864 6383
4  6865 6342 6341 6344
4  6866 6867 6868 6344
4  6868 6867 6869 6344
4  6055 6051 6771 6059
4  6870 6343 6869 6344
4  6871 5983 5981 6872
4  6873 6874 6875 6876
4  6601 6602 6877 6878
4  6879 6880 6877 6878
4  6881 5983 6882 6878
4  6883 5983 6881 6878
4  6884 6885 6886 6887
4  6888 6667 6666 6887
4  6666 6667 6885 6887
4  6889 6885 6667 6887
4  6890 6891 6892 6887
4  6889 6892 6893 6887
4  6894 6895 6896 6274
4  6897 6898 6899 6201
4  6900 6848 6849 6199
4  6901 6201 6198 6199
4  6900 6849 6902 6199
4  6900 6899 6901 6199
4  6903 6904 6905 6906
4  6907 6908 6909 6906
4  6910 6911 6912 6036
4  6907 6909 6913 6906
4  6903 6914 6904 6906
4  6062 6063 6115 6915
4  6916 6614 6063 6915
4  6614 6812 6917 6915
4  6916 6812 6614 6915
4  6918 6919 6920 6921
4  6062 6115 6781 6915
4  6922 6923 6924 6925
4  6926 6821 6927 6925
4  6820 6928 6821 6925
4  6926 6821 6925 6815
4  6922 6924 6819 6925
4  6551 6278 6929 6930
4  6931 6156 6930 6932
4  6933 6930 6156 6932
4  6934 6931 6935 6932
4  6551 6279 6278 6930
4  6936 6896 6937 6274
4  6933 6938 6279 6932
4  6165 6939 6168 6940
4  6941 6687 6939 6940
4  6941 6939 6687 6691
4  6942 6943 6361 6940
4  6944 6943 6945 6940
4  6941 6942 6687 6940
4  6165 6941 6939 6940
4  148 428 146 6946
4  6433 6377 6378 6946
4  6947 6433 6378 6946
4  6753 6433 6947 6946
4  820 6378 927 6946
4  820 927 146 6946
4  6948 6949 6950 6886
4  6951 6949 6952 6886
4  6952 6886 6953 6887
4  6954 6885 6953 6886
4  6955 6317 6954 6886
4  6318 6317 6956 6886
4  6318 6884 6954 6886
4  6957 6958 6919 6921
4  6959 6960 6961 6962
4  6963 6672 6960 6671
4  6959 6029 6963 6671
4  6964 6965 6962 6671
4  6966 6672 6669 6671
4  6966 6960 6672 6671
4  6750 6967 6968 6969
4  6970 6968 6971 6969
4  6972 6973 6974 6969
4  6973 6975 6974 6969
4  6976 6977 6978 6979
4  6980 5999 6863 6979
4  6976 6978 6863 6979
4  6976 6863 6981 6979
4  6982 6981 5999 6979
4  6983 6159 6984 6985
4  6986 6987 6162 6160
4  6986 6159 6987 6160
4  6986 6162 6988 6985
4  6348 6868 6343 6344
4  6802 6989 6988 6985
4  6802 6988 6162 6985
4  6673 6700 6362 6351
4  794 6352 693 6351
4  6990 6354 6362 6363
4  6991 6122 6124 6363
4  6990 6362 6723 6363
4  6122 6428 6349 6363
4  6991 6428 6122 6363
4  6992 6993 6994 6344
4  6517 6514 6978 6863
4  6995 6348 6996 6343
4  6475 5999 6980 6979
4  6980 6517 6978 6863
4  6517 5999 5996 6863
4  5996 6863 6861 6383
4  6981 6863 5999 6979
4  6997 6998 6999 7000
4  7001 6999 6998 7000
4  7002 7003 7004 7000
4  6997 7005 7004 7000
4  6272 7006 6267 6269
4  7007 6273 6267 6269
4  6684 6687 6685 6268
4  7006 6684 6689 6268
4  7008 6686 6687 6268
4  6266 6267 7009 6268
4  7009 6267 6689 6268
4  6122 7010 6811 7011
4  6917 6122 6811 7011
4  7012 7013 7014 7011
4  7015 6810 6811 7011
4  6614 6812 7013 7011
4  6614 7013 6917 7011
4  6585 7016 6845 6580
4  713 6536 6534 6535
4  6810 6812 6811 7011
4  7017 7018 7019 7020
4  7017 6795 7018 7020
4  6795 6796 7018 7020
4  6793 6977 6796 7020
4  7021 7022 7023 7024
4  7025 7019 7026 7024
4  7027 7026 7023 7024
4  7025 7026 7027 7024
4  7028 7029 6894 6274
4  6452 6462 6468 7030
4  6816 6845 6580 6039
4  6092 6469 6467 7030
4  6467 6469 6468 7030
4  6092 6060 6469 7030
4  6454 6446 6455 7030
4  6455 6446 6749 7030
4  7031 7032 6346 7033
4  6463 7034 6479 6056
4  6463 6464 7034 6899
4  7035 6348 7036 6342
4  6057 6849 6056 6902
4  6897 6463 6849 6902
4  6897 6899 6902 6199
4  6746 7037 6621 6748
4  6446 6092 6827 6748
4  6092 6621 6827 6748
4  7038 6827 6748 6826
4  6995 7039 7036 6346
4  6446 6747 6749 6748
4  6749 6745 6621 6748
4  7040 7041 6516 7042
4  7043 6978 7041 7042
4  6516 6978 6514 7042
4  6516 6514 6515 7042
4  7044 6743 6332 6373
4  7045 6332 6743 6373
4  7046 6332 7045 6373
4  7047 6130 7048 6373
4  6128 7049 6130 6373
4  6128 6373 6130 6129
4  7048 6130 7049 6373
4  7050 5991 7051 6472
4  5989 6681 5991 6472
4  7052 6474 6773 6472
4  6473 6474 7053 5990
4  5989 5990 6474 6472
4  7052 5989 6474 6472
4  6679 6773 6768 6472
4  7054 7055 7056 7057
4  7058 7054 7056 7057
4  7058 7056 6626 7057
4  7059 7055 7060 7057
4  7061 6050 6327 6320
4  6497 6050 6043 6326
4  7003 7062 7004 7000
4  7003 7063 7064 7062
4  7065 7001 7066 7062
4  87 7067 6879 6602
4  6883 7067 6871 6602
4  7068 6601 6877 6878
4  5981 6602 6601 6878
4  87 6879 82 6602
4  6883 6602 6871 6878
4  377 378 6509 6507
4  433 7069 434 7070
4  949 1023 7071 6143
4  433 7072 7073 7070
4  7074 7072 7075 7070
4  7076 7074 7075 7070
4  7074 7073 7072 7070
4  7077 6171 6176 6172
4  6173 7078 7079 6170
4  7080 6173 6171 6170
4  7080 6171 7081 6170
4  6173 6176 6171 6172
4  7082 7083 7084 7085
4  7086 7087 7083 7085
4  7088 7089 7087 7085
4  7086 7090 7091 7085
4  7092 7093 7094 7095
4  794 724 693 6352
4  7096 7097 7098 7095
4  949 271 1026 6143
4  7096 7098 7099 7095
4  7100 7092 7094 7095
4  7101 7102 6652 5988
4  7103 6652 6368 5988
4  5986 5987 7104 5988
4  5978 5988 6368 5979
4  7105 6368 6365 5979
4  7103 6368 5978 5988
4  5978 5986 5988 5980
4  6492 7077 6485 6171
4  7106 7107 7108 6171
4  6173 6174 6176 6172
4  7031 7033 6346 6342
4  6493 6485 6169 6171
4  6492 7107 7077 6171
4  7092 7109 6423 7093
4  7110 7111 7112 7093
4  7113 7114 7109 7093
4  7111 7114 7112 7093
4  927 177 883 6378
4  6430 6377 6431 6432
4  883 6380 920 6431
4  409 6430 6377 6431
4  883 6431 6377 6379
4  927 6377 148 6946
4  409 6430 148 6377
4  7115 7116 7117 7118
4  7119 6071 7120 7118
4  7117 7116 7121 7118
4  7119 7121 7122 7118
4  7123 6071 7122 7118
4  6871 6697 5983 6872
4  6604 6066 6065 6872
4  7124 7031 6341 6342
4  6604 5981 7122 6872
4  7125 7126 7032 7127
4  6040 6050 7005 6045
4  6997 6040 7005 6045
4  7061 6045 6050 6320
4  6997 7128 6040 6045
4  6040 6045 6023 6018
4  7061 6319 6045 6320
4  7129 7130 7131 7128
4  7132 6396 7133 6397
4  7134 7130 7129 7128
4  7134 7129 7004 7128
4  7129 6040 7004 7128
4  7135 7132 6403 6397
4  6997 6778 7128 6045
4  6403 7136 7137 6402
4  6216 6208 6834 6206
4  6207 6834 6208 6206
4  6335 6337 6098 6834
4  6829 6098 6208 6834
4  6098 6216 6834 6340
4  6829 6335 6098 6834
4  6205 7138 6207 6206
4  6445 6614 6081 6406
4  6444 6447 6445 6407
4  6447 6063 6445 6407
4  7139 6733 7140 7141
4  6062 6916 6063 6915
4  510 7142 7143 7144
4  6445 6825 6614 6063
4  6916 6614 6825 6063
4  7145 7146 7147 7148
4  6539 6579 6293 6292
4  6735 7149 7140 6736
4  6587 6579 6583 7148
4  6587 6293 6579 7148
4  7147 7146 6583 7148
4  7150 7151 7152 6049
4  7153 7154 7155 6049
4  7156 7155 7151 6049
4  7153 7155 7156 6049
4  6956 6317 7157 6886
4  6948 6950 7157 6886
4  7158 6950 7159 7157
4  7158 6948 6950 7157
4  7160 7161 6955 7157
4  7162 7163 7164 7165
4  7166 7162 7164 7165
4  7167 7168 7169 7165
4  7170 7167 7169 7165
4  5977 5984 6882 7171
4  7172 7173 5984 7171
4  7174 6371 7175 7171
4  7174 5984 5977 7171
4  6371 6370 7171 5979
4  7176 7177 6927 6659
4  7178 6657 6656 6659
4  6673 6000 6702 6362
4  6354 6362 6120 6351
4  620 6700 6673 6351
4  6723 6362 6349 6363
4  6349 6362 6700 6351
4  6349 6120 6362 6351
4  794 6673 6354 6351
4  6673 6700 6000 6362
4  6349 6363 6362 6120
4  5977 7179 6882 5984
4  7174 7172 7121 5984
4  7174 7175 7172 7171
4  5981 7121 7122 5984
4  7180 6882 5983 5984
4  7180 7173 6882 5984
4  5981 7122 5982 5984
4  6991 6428 7181 6806
4  7182 6811 6810 6806
4  6804 7183 7181 6806
4  7067 6803 6871 7184
4  379 7184 7067 6602
4  6065 6505 7184 6507
4  377 6509 7184 6507
4  6065 7184 6509 6507
4  994 6509 7185 7184
4  377 379 6505 7184
4  377 994 995 7184
4  7186 6409 6413 6414
4  7187 6417 7188 6414
4  6415 6417 6414 6412
4  798 6118 6354 6123
4  6781 6123 6780 6124
4  6917 6122 6119 6117
4  6118 6120 6123 6117
4  6780 6124 6123 6363
4  939 6123 6781 6115
4  1009 6780 6781 6123
4  6781 6124 6808 6915
4  6917 6115 6124 6117
4  6416 7083 7087 7084
4  7189 7190 7191 7084
4  7192 7193 7191 7084
4  7194 6417 7193 7084
4  7168 7169 7195 7196
4  7197 7198 7199 7196
4  7200 7201 6715 7196
4  7200 6715 7199 7196
4  7197 7195 7198 7196
4  7202 7203 7204 6924
4  7205 6245 6736 7206
4  6654 7207 7208 7209
4  7202 7204 6163 7210
4  6987 7210 6163 6160
4  6987 7202 6163 7210
4  6017 7211 6019 6018
4  6017 6043 6322 6496
4  6017 6044 7211 6018
4  6322 6502 6496 6326
4  6500 7211 6017 6044
4  6017 6322 6501 6496
4  7212 6546 6327 6326
4  6050 6326 6327 6320
4  6321 6327 6546 6326
4  6702 6011 6719 6705
4  6040 6042 6050 6018
4  7213 6561 7214 6460
4  6561 6576 6739 7215
4  7213 7214 6561 7215
4  994 7216 7185 6509
4  6576 7217 6739 7215
4  7218 7219 6739 7215
4  7218 7217 7220 7215
4  7220 7214 7213 7215
4  203 6284 207 6287
4  6322 6562 6501 6287
4  6322 6501 6502 6287
4  6501 6287 6562 6563
4  6322 6779 6562 6287
4  203 25 6283 6287
4  7221 7222 7223 7224
4  578 7225 171 7224
4  7203 7226 7221 7224
4  7227 7228 7141 7229
4  7225 7230 7231 7224
4  7232 7203 7225 7224
4  7203 7233 7230 7224
4  6614 6115 6063 6915
4  264 6405 966 6061
4  7234 7235 7227 7236
4  6808 6124 6917 6915
4  6614 6917 6115 6915
4  939 1035 966 6115
4  6441 6440 7237 6442
4  7227 7238 7229 7236
4  7239 7240 6438 6442
4  7237 6440 7241 6442
4  6781 6115 6124 6915
4  834 6121 6116 6115
4  6917 6124 6115 6915
4  6917 6083 6121 6117
4  6614 6121 6081 6406
4  7242 7243 6451 6220
4  7192 7244 7245 7246
4  6219 6226 6220 6222
4  7247 7248 6285 6280
4  6219 7242 6450 6220
4  7249 7243 7250 6220
4  7250 7243 6226 6220
4  6323 6322 6022 6320
4  7251 7252 7253 7254
4  482 6022 8 6779
4  612 8 6323 6779
4  25 6779 6283 6287
4  7255 6322 6283 6779
4  26 25 612 6779
4  26 7255 6283 6779
4  6323 6322 7255 6779
4  620 6713 6700 6351
4  6702 6000 6001 6362
4  6353 6713 6700 6760
4  6353 6700 6713 6351
4  620 58 6713 6351
4  6453 7256 7257 7258
4  7259 6005 7257 7258
4  7076 7256 6453 7258
4  6006 6988 6007 7258
4  6006 6007 6988 7049
4  6006 7076 6988 7258
4  6005 6006 6007 7258
4  7260 6531 7115 7261
4  7120 6069 7262 7261
4  7262 6069 7263 7261
4  6961 6786 7264 6698
4  7265 6074 6693 6698
4  6693 6695 7266 6698
4  7265 6693 7267 6698
4  7266 6695 7268 6698
4  6961 7268 6695 6698
4  7267 7268 6960 6698
4  7269 6683 6398 6109
4  6682 6691 6166 6398
4  6692 6398 6683 6109
4  6400 6401 6402 6187
4  7269 6401 6400 6398
4  6402 6401 6186 6187
4  6166 6186 6401 6187
4  6682 6166 6401 6398
4  7270 6028 6672 7271
4  7272 7273 7274 7253
4  7143 7144 7142 7271
4  7275 7142 7144 7271
4  7270 6672 6963 7271
4  7275 7144 7276 7271
4  7276 6028 7270 7271
4  58 693 6353 6351
4  724 731 693 6352
4  7277 7278 7183 7279
4  6804 7279 7183 6805
4  6804 7280 7279 6805
4  7281 6641 7282 7283
4  7284 6643 7285 6641
4  7286 7282 7285 6641
4  7281 7284 7282 6641
4  7287 7177 6659 6925
4  6157 7288 6158 7177
4  6663 7288 6662 7177
4  6923 6157 6158 7177
4  6923 6158 6924 7177
4  6923 7177 6924 6925
4  7289 6419 7290 7291
4  7292 6876 7293 7291
4  7292 7294 6876 7291
4  7289 7295 7294 7291
4  7292 7293 7296 7291
4  7297 7298 7299 7300
4  7301 7302 7303 7300
4  7304 7302 7299 7300
4  7297 7302 7301 7300
4  7129 7131 6040 7128
4  994 378 607 7216
4  7305 7131 7130 7128
4  7130 7131 6135 7306
4  7307 7131 7130 7306
4  6126 7130 7305 6135
4  7305 6778 7131 7128
4  7305 7130 7131 6135
4  286 7305 7131 6135
4  6861 6864 6510 6383
4  7308 7264 7309 7263
4  7308 7262 7264 7263
4  7260 7262 7263 7261
4  6792 7264 6069 7263
4  7310 7309 6230 7263
4  6999 7311 7236 6998
4  7235 7114 7236 7112
4  6999 7236 7312 6998
4  7235 7236 6998 7112
4  7313 7314 7315 6730
4  6609 6732 6610 6729
4  7313 6730 6561 6460
4  6560 6561 5974 6730
4  6084 6730 6708 6612
4  7315 5974 6730 6701
4  7314 6457 7316 6730
4  7272 7244 7317 7254
4  7318 7319 6042 7005
4  7129 7307 6895 7319
4  7320 6895 7319 7004
4  7321 6895 7307 7319
4  7322 7319 6041 7211
4  7323 7324 7325 7319
4  6041 7319 6042 7211
4  7325 7320 6895 7319
4  7326 6564 6500 6017
4  6021 6018 6017 6020
4  6042 6043 6050 6018
4  6040 6050 6045 6018
4  6561 7214 6576 7215
4  918 6739 6576 7217
4  644 918 7218 6739
4  7327 7328 7329 7330
4  7331 7332 7333 7329
4  7331 7334 7335 7329
4  7336 7332 7335 7329
4  7337 7126 7338 7339
4  7340 7032 7341 7126
4  7342 7343 7126 7127
4  7341 7126 7032 7339
4  6598 6591 6230 7309
4  7344 7309 7264 7263
4  6235 6230 7309 7263
4  7345 6235 6230 7309
4  7346 6224 6223 6221
4  6219 6223 6484 6222
4  6488 6489 6486 6222
4  7347 7346 7348 6221
4  6227 6226 6489 6222
4  7349 6488 6224 6222
4  7348 6221 6450 6451
4  7349 7347 7350 6221
4  7351 6217 6210 6439
4  6210 6217 6209 6439
4  51 6209 6217 6439
4  870 7352 7353 6217
4  7354 6218 7351 6217
4  7355 7356 6904 6906
4  7355 6904 7357 6906
4  6907 6903 6908 6906
4  7358 7359 6330 7360
4  7361 7362 7363 6909
4  7361 7364 7362 6909
4  7361 7363 7365 6909
4  7251 7273 7366 7254
4  6538 6912 6542 6539
4  6907 6908 7367 6909
4  7368 7367 7364 6909
4  7368 7361 6907 6909
4  6345 7369 6643 6347
4  6995 6347 6346 6343
4  6996 7370 6347 6343
4  7371 6643 7372 6347
4  7371 6347 6996 7370
4  7373 6852 7374 7375
4  7376 7377 7378 7374
4  7379 6851 7378 7374
4  7376 6851 7380 7374
4  7381 7382 7383 6251
4  6254 6389 7384 6251
4  7385 7384 6251 6249
4  7385 6251 6250 6249
4  6254 6251 7384 6249
4  6250 6251 6720 6252
4  7385 6250 6247 6249
4  6526 6518 6520 6521
4  6525 7386 7387 6519
4  7388 7387 7386 6519
4  6518 6567 6520 6519
4  7388 7389 7390 6519
4  466 608 378 7391
4  6518 7390 6567 6519
4  7392 7393 7394 7395
4  7396 7394 7397 6993
4  7398 7397 7394 7395
4  7398 7396 7394 7397
4  6986 7074 6987 7075
4  7076 7075 7399 6306
4  6989 6984 7400 7401
4  6986 6987 7074 6162
4  6452 7399 7402 6453
4  6951 7370 6949 6950
4  6948 6949 7403 6950
4  7404 6869 7370 6950
4  7404 7159 6869 6950
4  6956 7157 6951 6886
4  7405 7406 6864 6510
4  6696 6076 6697 6068
4  7407 6864 7406 6510
4  6860 5996 6861 6383
4  6384 6511 6385 6510
4  927 6378 883 6377
4  6862 5996 6860 6383
4  7408 6963 7142 7271
4  6766 6765 6169 7409
4  6179 6169 7410 7077
4  6766 7410 6169 6547
4  6493 7081 6169 6548
4  6493 6547 6169 6485
4  7411 6606 6607 7412
4  6737 7413 6732 6606
4  6609 6732 7413 6606
4  6738 6606 6610 6608
4  6609 6610 6732 6606
4  7414 7415 7416 7417
4  7418 7419 7416 7154
4  7420 7421 7416 7422
4  7414 7416 7422 7417
4  7423 7164 7163 7165
4  7166 7424 7168 7165
4  6654 7208 7101 6651
4  6967 7164 7423 7165
4  6971 6968 7166 7164
4  7166 7164 6968 7165
4  7425 7426 7427 6264
4  6258 6259 6264 6260
4  6258 6259 7425 6264
4  441 194 932 7428
4  6262 7429 7430 6264
4  7425 6259 7426 6264
4  6752 6750 6974 6969
4  6970 7042 6968 6969
4  6970 7043 7041 7042
4  6972 7042 6970 6969
4  7431 7164 7432 6975
4  6971 7166 7162 7164
4  7166 6968 7424 7165
4  7040 6968 7041 7042
4  7040 7424 7041 6968
4  7040 7433 7424 6968
4  7434 7435 7436 7437
4  7438 7434 7436 7439
4  7434 7436 7439 7437
4  6842 6841 7440 7436
4  7441 7442 7443 7444
4  7445 7446 7447 7443
4  7445 7443 7447 7199
4  7448 7443 7449 7444
4  7447 7443 7448 7199
4  6935 6837 6838 6710
4  6935 6709 6837 6710
4  6077 6837 6709 6078
4  6077 7450 6837 6078
4  7451 6934 6709 6837
4  7451 7450 6934 6837
4  879 7452 6837 6078
4  879 6837 7450 6078
4  7450 6933 6837 7452
4  7453 7402 6331 6986
4  6731 6584 6581 6732
4  6459 6460 6581 6732
4  7213 7454 6458 6581
4  7213 7214 6581 6460
4  6458 6581 6459 6460
4  7455 6573 7456 6775
4  7455 7457 6573 6775
4  6088 6701 6775 5973
4  6709 6573 6085 6710
4  6776 6838 5972 6710
4  6835 6935 7458 6710
4  7459 7211 6500 6044
4  7460 7461 7341 7339
4  6501 6503 7462 6496
4  6501 6502 6503 6496
4  6017 6501 6562 6563
4  531 6019 6023 6020
4  7463 6280 6501 6287
4  6501 6280 6502 6287
4  6500 6501 7463 7462
4  6502 6280 6283 6287
4  6527 6531 6533 6234
4  7115 6533 7116 6531
4  7115 6531 7116 7118
4  7464 6533 6527 6531
4  7260 6532 6531 6236
4  7465 7466 7467 7390
4  7468 7469 6567 7390
4  7388 7467 7387 7390
4  7470 7466 7465 7390
4  7470 7469 7466 7390
4  7471 7018 6795 7472
4  7473 7471 7474 7018
4  7475 7018 7019 7024
4  7475 7474 7476 7018
4  6181 7477 6182 7478
4  7477 7479 7480 6437
4  7477 6436 7478 7479
4  6181 7477 6188 6183
4  7481 7477 7482 6183
4  6182 7478 7477 6436
4  6182 7482 7477 6183
4  6912 6036 6539 6579
4  6293 6292 6579 7148
4  6539 6541 7483 6535
4  6587 6539 6293 7483
4  6587 6293 6539 6579
4  6572 6574 7484 7485
4  7486 7487 7488 7489
4  6246 7490 7488 7489
4  6148 7489 6149 6151
4  7491 6149 7490 7489
4  7491 7490 6246 7489
4  6110 6683 6107 6109
4  6682 6691 6683 6685
4  6682 6401 7269 6398
4  6682 6683 6691 6398
4  467 997 6741 6506
4  7492 6684 6682 6683
4  7492 7269 6682 6031
4  6682 7269 6401 6031
4  6804 7493 6805 6807
4  6810 6812 7494 6807
4  7494 6812 7495 6807
4  7493 7496 6805 6807
4  6808 6811 6806 6807
4  6991 6811 6428 6806
4  7493 7496 7280 6805
4  6808 7497 6805 6806
4  7498 6849 6566 6847
4  6566 6520 7499 6847
4  6526 6523 6521 6847
4  7499 6520 6519 6521
4  7498 6521 6523 6847
4  6566 6520 6847 6054
4  6052 6520 6053 6054
4  6052 6847 6520 6054
4  6058 6053 6565 6054
4  6057 6847 6052 6054
4  7500 7501 7502 7503
4  6447 7503 6825 7495
4  7504 7501 6311 7503
4  6315 6311 7500 7503
4  7505 7506 7507 7508
4  7509 7510 7508 6421
4  7505 7507 7206 7508
4  7194 7082 7083 7084
4  7082 7084 7511 7085
4  7087 7089 7084 7085
4  7512 6417 7194 7083
4  7082 7090 7083 7085
4  7190 7087 7089 7084
4  7194 7083 6417 7084
4  6984 7400 7401 7360
4  6331 7401 7400 7360
4  6331 6330 7359 7360
4  6984 7401 6159 7360
4  7040 6967 7433 6968
4  7513 7514 7195 7424
4  7168 7424 7169 7165
4  7515 7516 7195 7424
4  7517 7518 7519 7520
4  6194 6196 7518 6523
4  7521 6195 6196 7518
4  6194 6195 7522 7518
4  919 826 429 7479
4  409 429 6430 7479
4  7477 6436 7479 6437
4  562 7523 7479 7480
4  7524 7478 6436 7479
4  6832 7525 7366 6337
4  7526 6851 6854 7527
4  7528 6854 6637 6638
4  6853 6851 6854 6261
4  7526 6854 7528 7527
4  7529 6854 7527 6638
4  6476 7017 7019 6477
4  6476 6477 7019 6474
4  6483 6982 5999 6477
4  7053 6474 6477 5990
4  6475 5989 5999 6477
4  7530 7384 7385 7490
4  6148 7531 6149 7490
4  7531 7384 7532 7490
4  7530 6149 7532 7490
4  7430 7429 7533 7534
4  7525 7535 7366 6337
4  6920 6919 7056 7536
4  7537 7023 7538 7539
4  7540 7056 6958 7536
4  7430 7055 7534 7536
4  7029 7541 6276 6136
4  6276 7541 6127 6136
4  674 6125 672 6127
4  854 957 6135 6127
4  6357 6127 6358 7542
4  6125 6357 7541 6127
4  541 674 6127 6358
4  6961 6695 6786 6698
4  6741 6788 6508 6787
4  6693 6694 6695 6070
4  6693 6830 6695 6694
4  6740 6787 6508 6067
4  6508 6509 6507 6067
4  7272 7543 7366 7254
4  6071 6787 6069 7261
4  6634 6866 6992 6994
4  7544 7545 7198 7195
4  7546 7198 7195 7196
4  7547 7546 7198 7195
4  7516 7195 7169 7196
4  6084 6708 6701 6085
4  6079 6085 6087 6710
4  6709 6573 6574 6085
4  6084 6701 5974 5973
4  7458 6935 6838 6710
4  7548 6088 6701 6775
4  811 6797 75 6079
4  6088 6093 6701 5973
4  7549 7436 7098 7435
4  7009 6267 7439 6839
4  7007 6267 6273 7439
4  7438 6839 7439 6840
4  7007 7009 6267 7439
4  7550 6174 7079 6215
4  7551 6173 6302 7079
4  7551 6174 6173 7079
4  6302 6173 6307 7079
4  585 6307 7078 7079
4  959 7079 7078 6215
4  958 959 7550 7079
4  7552 6514 6864 6863
4  7553 6977 6980 6978
4  7553 6516 7041 6978
4  7552 6978 6514 6863
4  6976 6977 7043 6978
4  7554 6978 7043 7042
4  7552 7554 6514 6978
4  7555 7270 7556 6672
4  6291 6271 6541 6536
4  555 6271 7523 7557
4  555 702 7523 6271
4  907 987 702 6271
4  7558 7559 7560 6635
4  6103 7561 6105 6271
4  907 6103 6271 6541
4  7197 7562 7199 7198
4  7546 7199 7445 7198
4  7516 7546 7547 7195
4  7513 7514 7544 7195
4  7563 7564 7545 7198
4  7465 7467 7388 7390
4  6229 6234 6236 6231
4  7565 6233 6232 6231
4  7566 7567 7568 7569
4  7570 7565 7571 6231
4  6232 6233 7572 6528
4  6232 6233 6528 6234
4  7570 7572 7097 6233
4  7570 7097 7565 6233
4  6161 6983 6802 6162
4  7554 7573 6514 6515
4  6266 6937 7574 6269
4  6516 6515 6514 6434
4  6750 7042 6515 6969
4  6750 6515 6512 6974
4  7575 6302 6173 6296
4  7080 6296 6173 7576
4  6296 7576 6309 6308
4  6296 6297 6303 7577
4  7080 6173 6296 7577
4  7578 7579 7090 7085
4  7578 7090 7082 7085
4  7082 7511 7580 7085
4  7190 7089 7191 7084
4  7581 7582 7583 7089
4  7088 7580 7583 7089
4  7190 7089 7582 7191
4  7584 7467 7585 7466
4  7586 7469 6047 7466
4  7587 7585 7152 7466
4  7588 7152 6047 7466
4  7453 6986 6987 7075
4  6372 6987 7589 7075
4  6987 7074 6162 6163
4  6987 7590 7074 6163
4  6987 7074 7590 7589
4  7591 7202 6987 6158
4  7592 6305 7593 7594
4  56 7595 6381 7594
4  6305 6309 6381 6301
4  56 7595 253 6381
4  7596 7595 7593 6381
4  6309 6308 6381 6301
4  7597 7593 6309 6381
4  251 6381 7597 6308
4  6538 7598 6292 6537
4  6036 6535 7483 6724
4  6542 6535 6036 6725
4  6415 6411 7599 6412
4  7600 6417 7512 6412
4  7600 6414 6417 6412
4  7512 6417 7083 6412
4  7512 7194 7082 7083
4  7600 7188 7193 6417
4  6415 6417 7187 6414
4  7189 7193 6417 7084
4  7187 7189 7193 6417
4  15 6299 7601 6301
4  586 6308 6307 6301
4  6300 6305 6301 6298
4  7238 7602 7510 7114
4  7111 6423 7114 7093
4  7603 7236 7229 7114
4  7238 7510 7229 7114
4  7604 7367 7605 6908
4  7606 7607 7608 6908
4  7356 7367 7606 6908
4  7609 7605 6907 6908
4  7610 6587 7611 7612
4  7214 6731 6555 7612
4  7611 6555 7612 6576
4  7613 6024 6026 7612
4  7613 6731 7214 7612
4  913 7611 6026 7612
4  7614 6813 6650 7615
4  7616 7104 7617 6651
4  6654 6653 7209 6651
4  6650 7616 7104 7618
4  6648 6655 6652 6651
4  6813 7230 6650 7615
4  7230 6650 7616 7209
4  6848 6198 6196 6199
4  6566 6463 6056 6849
4  6900 6849 6057 6902
4  7619 7620 7621 7412
4  7622 7621 7432 7623
4  7619 7624 7621 7620
4  7624 7621 7620 7623
4  7574 6274 6273 6269
4  7625 7064 7626 6273
4  6266 7007 6267 6269
4  7626 6274 6272 6273
4  7007 6273 7063 7437
4  7627 6273 6272 6267
4  7628 6890 6891 6892
4  7629 7630 7282 6891
4  7631 7282 6891 7632
4  6893 7633 7634 6891
4  7252 7253 7254 7246
4  7635 7636 7637 7246
4  7252 7637 7253 7246
4  7252 7635 7637 7246
4  7638 7370 7285 6949
4  7403 6949 7370 6950
4  7639 7634 7285 6949
4  7639 6953 7634 6949
4  5996 5995 5994 5992
4  5994 7428 5995 6382
4  5993 5995 5994 7428
4  7584 7640 7641 7467
4  5999 5995 5996 5992
4  6492 6490 6494 6486
4  7642 6494 7643 6489
4  7642 6615 6489 7644
4  6484 6224 6486 6222
4  6615 6226 6219 6489
4  7387 7640 7584 7467
4  7129 6041 6040 7131
4  531 7131 6023 7645
4  387 7131 7645 7306
4  531 287 6023 7131
4  7625 6126 7626 7130
4  7287 7591 6663 7177
4  6987 6159 6158 6160
4  7176 6656 6662 6659
4  541 6358 6127 7542
4  541 773 6358 7542
4  773 6361 6358 6943
4  6164 6923 6158 7210
4  868 6355 6358 6361
4  7117 7116 7646 7121
4  7123 7464 6791 7118
4  7647 7646 7298 7116
4  7647 7298 7648 7116
4  7115 7649 7116 6533
4  6415 6205 6413 6414
4  6415 7187 6205 6414
4  7650 7254 7188 7193
4  7187 7193 7188 6417
4  7543 7366 7254 7188
4  6205 7651 7366 7188
4  7651 7650 7254 7188
4  6148 7490 6149 7489
4  6148 7488 7531 7490
4  6153 6150 6156 6151
4  6155 6156 6150 6151
4  7451 7489 7485 6151
4  6155 6150 7652 6149
4  7491 6149 7489 6151
4  7451 7491 7489 6151
4  7001 6998 7112 7066
4  6798 6612 6084 6707
4  6997 7311 6999 6998
4  7139 6999 7311 7236
4  7234 7236 7311 6998
4  7653 7235 6998 7112
4  7312 6998 7236 7112
4  6223 6589 6646 6645
4  921 6644 685 7654
4  921 6548 6644 7654
4  7655 6611 7656 6612
4  6073 6069 6071 6068
4  891 6646 888 6645
4  7657 7658 7659 7660
4  7661 7662 7663 6140
4  576 685 6644 6765
4  685 6644 6765 7654
4  7664 6166 6186 6167
4  7665 6167 6186 7666
4  7137 6186 6402 7666
4  7137 6402 6186 6397
4  7292 6874 6876 7294
4  7667 6419 7294 7291
4  7667 7294 7292 7291
4  7289 7668 6419 7294
4  6830 6065 7185 6509
4  7185 6509 6065 7184
4  7067 7184 6871 6602
4  6065 6507 6509 6067
4  6604 6065 6740 6505
4  271 6146 6143 6132
4  344 6147 7257 6146
4  6005 7257 6128 6146
4  7669 7257 6005 6146
4  271 6147 6146 6132
4  6134 6144 6138 6132
4  7670 7671 7672 7673
4  7590 7221 7226 7222
4  7202 7221 7203 7226
4  7221 7226 7222 7224
4  7674 7221 7233 7675
4  7202 7221 7590 7204
4  7203 7221 7204 7675
4  6133 6139 6141 6131
4  6133 6004 7676 6130
4  7044 6137 6743 6373
4  6133 7676 6374 6130
4  6004 6128 7049 6130
4  6706 6798 6797 6707
4  7046 7048 7049 6373
4  6986 6988 7401 6985
4  6769 6988 7049 7401
4  7453 6159 7401 7360
4  7046 7400 6332 7401
4  6331 7400 6330 7360
4  7453 7360 7677 7288
4  6331 6769 6332 7401
4  7678 6772 6773 6472
4  7679 7026 6570 6773
4  7678 6773 6474 6472
4  7678 7026 6474 6773
4  6770 6570 6771 6773
4  7052 7026 7679 6773
4  7680 7681 7682 7375
4  7683 7377 7374 7682
4  7684 7379 7377 7374
4  7683 7685 7377 7682
4  7686 7687 6637 6263
4  7686 6263 6637 6260
4  7688 6637 7689 6263
4  7430 7429 7427 6264
4  7686 6854 6855 6260
4  252 7596 7597 6381
4  7690 7691 7597 7593
4  7592 7593 7692 7595
4  7690 7693 7691 7593
4  7596 7692 7593 7595
4  6205 7138 6833 7366
4  6205 6833 7543 7366
4  7525 7535 7273 7366
4  7651 7254 7366 7188
4  7694 7251 7273 7366
4  6455 6330 6743 6747
4  7695 6330 7358 7359
4  7696 6330 7502 7359
4  6331 6330 7696 7359
4  51 6440 6209 6439
4  6210 6217 6218 6206
4  6438 6440 7241 6439
4  487 7241 6440 6439
4  487 52 7697 6439
4  7698 7351 6210 6439
4  7640 7641 7467 7582
4  7699 7700 7467 7582
4  7699 7701 7702 7582
4  7703 7701 7582 7636
4  7704 7432 7164 6975
4  7431 7162 7432 7164
4  7704 7623 7432 6975
4  6750 6515 6974 6969
4  6971 7164 6975 6969
4  7705 6481 7706 6767
4  7707 7708 6481 6858
4  7707 6481 7705 6767
4  6479 7706 6481 6767
4  7707 6858 6481 7051
4  6480 6767 6481 7051
4  7544 7514 7545 7195
4  7513 7544 7168 7195
4  7547 7545 7514 7195
4  6794 7547 7545 7514
4  7709 6796 7545 7514
4  6738 6560 6610 6732
4  6731 6581 6460 6732
4  6560 6731 6460 6729
4  6738 6732 6610 6606
4  6609 7413 7710 6606
4  7711 6607 7411 6606
4  6586 6584 7413 6732
4  7712 7112 7113 7713
4  7113 7713 7112 7093
4  7348 7346 7714 6450
4  7234 7235 7236 6998
4  7002 7005 6999 7000
4  7312 7603 7113 7114
4  7113 7112 7114 7093
4  7110 7111 7235 7112
4  7715 7522 7716 7520
4  7690 6195 7518 7520
4  7717 7519 7518 7520
4  7718 7517 7519 7520
4  7718 7719 7643 7520
4  7720 7718 7643 7520
4  7721 7301 7303 7300
4  75 6079 6797 5968
4  7304 7722 7299 7302
4  7297 7299 7302 7300
4  7723 7299 7375 7302
4  7724 7101 7617 5988
4  7725 7104 5987 7617
4  7726 6364 7727 5987
4  5987 6367 5979 5980
4  5987 7728 6367 5980
4  5978 5986 6649 5988
4  7726 5987 5986 7728
4  7727 6364 7724 5987
4  5986 7728 5987 5980
4  7729 7730 6867 7278
4  7731 7730 6994 6867
4  7560 6635 6994 7730
4  7560 6994 7731 7730
4  7732 7733 7253 7637
4  6918 7734 7735 7736
4  7245 7637 7364 7636
4  7732 7637 7368 7605
4  7737 7637 7733 7605
4  7738 7019 7026 6474
4  7738 7026 7019 7024
4  7021 7023 7026 7024
4  7679 7026 7021 7023
4  6310 7739 6311 6313
4  7740 6311 7496 7495
4  6310 6312 7741 6313
4  6316 6315 7496 6313
4  7742 6618 6091 6469
4  7317 7188 7254 7193
4  7187 7650 7188 7193
4  7543 7254 7317 7188
4  7272 7317 7543 7254
4  7230 6650 7209 6653
4  7244 7317 7254 7246
4  7743 7744 6321 6327
4  6321 6546 6502 6326
4  7212 6546 7744 6327
4  6497 7745 6050 6327
4  913 6026 7483 6724
4  913 6026 7611 7483
4  6036 7483 6026 6724
4  6801 7746 7658 6161
4  7611 7483 6293 6541
4  491 7402 6372 6306
4  7610 7611 6587 6293
4  7691 6303 6297 7716
4  7597 7593 7691 6309
4  7691 6297 6202 6195
4  251 252 7597 6381
4  7691 7593 6305 6309
4  7693 7592 7691 7593
4  7592 7691 6305 6202
4  6842 7436 7439 6840
4  7438 6594 6839 6840
4  7747 6842 7439 6840
4  6843 6842 7747 6840
4  6843 7748 6596 6839
4  7528 7527 6854 6638
4  6555 6576 6556 6558
4  7749 6640 7283 6638
4  6640 7750 6642 6639
4  6636 7751 7689 6639
4  7752 7753 7283 6638
4  6390 6238 7754 6240
4  7754 6391 6239 6625
4  7754 7755 6391 6625
4  7756 6624 6243 6239
4  7757 6624 6239 6625
4  6242 6624 6623 6239
4  6238 6242 6239 6241
4  74 75 6797 5968
4  7588 7758 7469 6047
4  7758 7759 7539 6047
4  7586 6046 7150 6047
4  7586 7469 7760 6047
4  7759 6048 7539 6047
4  7761 7762 7283 7632
4  7763 7764 7762 7335
4  7765 7762 7335 7632
4  7763 7762 7761 7335
4  7626 7064 6274 6273
4  7626 6895 6274 7064
4  7626 7541 7029 7130
4  7625 7626 7129 7130
4  7626 7129 7307 6895
4  7287 6659 6928 6925
4  6565 6053 6520 6054
4  6463 7034 6056 6902
4  6055 6057 6052 6054
4  6058 6479 6059 6056
4  7498 6463 6566 6849
4  6055 6059 7766 6056
4  7767 6919 7768 7769
4  6958 7770 6919 7056
4  6920 6919 7536 6921
4  6958 7056 6919 7536
4  6972 7554 6970 7042
4  6870 6869 6867 6344
4  6866 6994 7730 6867
4  7731 6867 6994 6344
4  6992 6994 6866 6344
4  7771 7668 7772 7303
4  7649 7773 7300 6533
4  7774 7303 7302 7300
4  7301 7668 7771 7303
4  359 7775 7776 6938
4  7301 7668 7303 7302
4  7616 7777 7615 7778
4  7233 7615 7231 7778
4  7230 7233 7616 7615
4  6820 6819 6924 6925
4  6813 7225 7230 7615
4  662 7231 7615 7777
4  662 7615 7614 7777
4  7225 7230 7615 7231
4  5996 6861 5998 5997
4  177 6378 6382 6379
4  6429 6511 6513 6432
4  6516 6514 6517 6435
4  6461 6385 6384 6511
4  6512 6513 6435 6432
4  6864 6435 6510 6383
4  6862 6382 5996 6383
4  7779 6511 6384 6510
4  323 7775 320 6838
4  7780 7781 6590 6593
4  6688 7782 6107 6596
4  6884 6886 6952 6887
4  7492 6107 7780 6596
4  7492 6683 6107 6596
4  6885 6893 6953 6887
4  6594 6597 6595 6593
4  6843 6839 6593 6840
4  6843 6839 6596 6593
4  7747 6267 6689 6839
4  7748 6689 6683 6596
4  6688 6596 6689 6839
4  7755 7783 6631 7383
4  7783 7784 6631 7383
4  7755 6630 6391 6625
4  7757 6626 6624 6625
4  7245 7364 7785 7636
4  7635 7364 7637 7636
4  7786 7364 7637 7605
4  7787 6302 6307 7079
4  7575 6296 6173 7577
4  6175 6173 6174 6176
4  7575 6173 6175 6176
4  6254 7383 7783 6389
4  7381 6720 6250 6251
4  7381 7383 7788 6720
4  7382 7755 7383 6389
4  7789 7790 7791 7792
4  7793 7792 7487 6248
4  7794 7792 7795 7796
4  7793 7792 7796 7487
4  6917 7013 7010 7011
4  6082 7013 6081 6828
4  7797 7798 6082 7013
4  7798 7010 6083 7013
4  7012 7015 7010 7011
4  7797 6082 7799 7013
4  7044 6134 6145 6462
4  6618 6134 6467 6470
4  7800 6620 6134 6137
4  7044 6134 6620 6137
4  6046 7539 6048 6047
4  7801 6048 7022 7539
4  7758 7539 6569 7469
4  7758 7539 7469 6047
4  7802 7335 7632 7328
4  7336 7332 7763 7335
4  7331 7335 7332 7329
4  7763 7332 7764 7335
4  7227 7235 7238 7236
4  7803 7206 7229 7510
4  7228 7206 6736 7229
4  7603 7229 7804 7510
4  7180 7805 7173 5984
4  7228 7803 7206 7229
4  466 6508 6789 7391
4  466 6788 6789 6508
4  6741 6508 6740 6787
4  6791 6066 6071 6787
4  7806 7344 6961 6789
4  6792 7344 6786 7264
4  7129 7004 6895 7064
4  7626 7129 6895 7064
4  7626 7307 7129 7130
4  6778 6023 7128 6045
4  7134 7129 7625 7064
4  6040 7005 7319 7004
4  6040 7131 6023 7128
4  6443 7807 6438 7569
4  6210 6438 6443 7807
4  6210 6443 6438 6211
4  6751 7239 7599 6442
4  7239 6443 6438 7569
4  6280 6281 6283 6286
4  6372 7591 7808 7589
4  6280 6552 6503 6544
4  6280 7462 6503 6552
4  6551 6280 6278 6279
4  7247 6280 6278 6552
4  7247 7248 6280 6552
4  7248 7462 6280 6552
4  7809 6388 6393 6240
4  6395 6392 6393 6240
4  7810 6388 6390 6389
4  6390 6389 6388 6240
4  7811 7197 7199 7196
4  7812 7813 7788 7199
4  7812 7448 7443 7199
4  7813 7445 7546 7199
4  7447 7448 7562 7199
4  7765 7753 7762 7283
4  7749 7527 7528 6638
4  7753 7527 7283 6638
4  7814 7752 7753 7283
4  7814 6641 7752 7283
4  6321 7744 6546 6327
4  7212 7815 7744 6546
4  7816 6734 7817 7744
4  7816 7744 7817 6546
4  6865 6993 6342 6344
4  7818 6867 7730 7278
4  6782 7819 6784 6783
4  7559 6993 6865 6994
4  6865 6994 6993 6344
4  7559 7560 6635 6994
4  6764 7820 6766 6763
4  7559 7394 6993 6994
4  7821 7822 7506 7508
4  7602 7823 7510 6421
4  7290 7509 6420 6421
4  6418 6424 6419 6421
4  7824 7290 6424 6421
4  7823 7296 7821 6420
4  7290 7825 7291 6420
4  7825 7822 7293 6420
4  7509 7508 7822 6420
4  6418 6419 7296 6420
4  7296 6419 7291 6420
4  7478 7479 7523 7480
4  562 555 7523 7480
4  6188 7478 6105 7523
4  6105 7523 6271 7557
4  702 6270 7523 6271
4  6270 6105 7523 6271
4  7304 7774 7302 7300
4  7826 7827 7681 7299
4  7723 7681 7375 7299
4  7722 7375 7299 7302
4  7681 7682 7375 7299
4  7345 6230 6591 7309
4  6592 6591 7828 7571
4  6228 6591 7829 7571
4  6592 6591 7571 6841
4  6597 6591 6593 6840
4  7767 6919 7770 7768
4  7054 6920 7056 7536
4  7830 6920 6919 7056
4  7058 7830 7768 7056
4  6626 7056 7540 7057
4  7058 7770 6626 7056
4  6058 6059 6770 6570
4  6058 6570 6571 6053
4  6770 6059 6771 6570
4  6771 6051 7831 6570
4  7831 7832 7023 6570
4  7659 7590 7204 6163
4  7052 7679 6770 6773
4  6223 6647 6589 6645
4  6547 6644 6647 6645
4  7833 6484 6493 6494
4  6219 6484 6223 6646
4  6493 6484 6547 6485
4  7139 7312 6999 7236
4  7834 7744 7141 7311
4  7061 7745 7005 7311
4  7745 7834 6999 7311
4  7234 7311 6997 6998
4  7061 7005 6997 7311
4  7835 6734 7816 7744
4  7061 7743 6321 6327
4  7828 7571 6230 6231
4  6228 6591 7571 6230
4  6228 7571 7565 6231
4  6237 6235 6236 6231
4  6229 6236 6230 6231
4  6235 6236 6230 7263
4  7014 7013 6828 6812
4  7746 6162 7074 6163
4  7746 7074 7836 7590
4  6800 7074 7746 6162
4  7836 7590 7074 7073
4  6800 7076 7074 6162
4  7076 6306 7256 7070
4  6336 6759 6099 6097
4  6339 6328 6096 6340
4  7138 6337 6834 6340
4  7759 6048 6047 6049
4  7150 7156 7151 6049
4  7837 7838 7839 7155
4  7840 7838 7419 7155
4  7156 7151 7155 7365
4  7841 6312 7842 6661
4  7841 7843 6312 6661
4  6310 7741 7739 6313
4  7500 6311 7501 7503
4  6314 7843 7501 6312
4  6310 7501 6312 6311
4  6314 7501 7500 6311
4  7667 6419 7668 7294
4  7844 6419 7289 7668
4  7844 7772 6419 7668
4  7301 7845 7668 7302
4  7771 7667 6419 7668
4  7700 7088 7583 7582
4  6114 6398 6692 6109
4  7785 7364 7701 7636
4  7699 7702 7700 7582
4  7641 7846 7585 7701
4  6066 6075 7122 6071
4  7123 6066 7122 6071
4  6072 7119 7122 6071
4  7119 7120 7115 7118
4  6066 6069 6071 6787
4  7747 6267 7006 6689
4  7009 6689 6267 6839
4  6692 6688 6683 6685
4  7006 6687 6684 6268
4  7009 6594 6688 6839
4  7748 6689 6596 6839
4  7748 6684 6683 6689
4  6636 7689 6637 6639
4  7752 6636 6638 6639
4  7529 6637 6854 6638
4  7686 7750 7528 6637
4  7528 6637 7750 6638
4  7847 7687 7686 6263
4  7847 6263 7686 6260
4  6258 7686 6855 6260
4  6853 6854 7688 6260
4  6614 6828 6812 6825
4  6614 6828 7013 6812
4  6614 6081 7013 6828
4  6082 6081 7848 6828
4  7849 7848 7850 6828
4  6824 6825 7851 6826
4  7038 7850 6827 6826
4  6614 6081 6083 7013
4  6934 6156 6931 6932
4  7852 6933 6930 6156
4  7853 7854 6930 6156
4  6952 6953 7634 6887
4  6155 6934 6156 6154
4  7855 7422 7416 7419
4  7418 7840 7419 7154
4  7856 7416 7419 7154
4  7856 7419 7837 7154
4  7857 7527 7378 7762
4  7858 7378 7526 7527
4  7749 7762 7527 7283
4  7857 7378 7764 7762
4  7529 6854 7859 7527
4  7529 7527 7753 6638
4  7859 6851 7378 7527
4  6545 7816 7817 6546
4  6545 7817 6550 6546
4  6543 7860 6546 6544
4  7860 6550 6546 6544
4  7861 7472 6796 7545
4  748 992 747 6600
4  7862 7545 7564 7198
4  7012 7799 7014 7013
4  7861 7563 7564 7545
4  7862 7564 7863 7198
4  7544 7198 7197 7195
4  7861 7564 7472 7545
4  7008 6687 6277 6268
4  7864 7865 7789 7790
4  6684 6687 6691 6685
4  7006 6942 6684 6687
4  7851 7494 7014 6812
4  7866 7008 6690 6687
4  7867 6942 6277 6687
4  7008 6277 6266 6268
4  351 6760 6759 6711
4  6000 6008 6349 6700
4  7868 6350 6353 6352
4  7868 6755 6350 6352
4  7869 6350 6008 6353
4  7869 6008 6761 6353
4  693 7868 690 6353
4  690 7868 6394 6353
4  7870 7472 7564 7545
4  7871 7870 7472 7564
4  7871 7415 7417 7564
4  6794 7545 6796 7514
4  7861 7547 7563 7545
4  7872 7415 7472 7564
4  7680 7374 6852 7375
4  7873 7373 7682 7375
4  7873 7722 7373 7375
4  7297 7299 7723 7302
4  7874 7873 7827 7299
4  7875 7682 7685 7827
4  7683 7374 7680 7682
4  6599 6791 6740 6066
4  6604 6871 6065 6505
4  6740 6505 6065 6507
4  6740 6065 6066 6067
4  6788 6789 6508 6787
4  6695 6789 6508 7876
4  6791 6740 6066 6787
4  6740 6508 6507 6067
4  6429 6513 6511 7482
4  7877 7878 6461 6429
4  7877 6429 6461 6511
4  7405 6864 6513 6510
4  6385 6435 6511 6432
4  6385 6431 6377 6432
4  7740 7496 7493 7495
4  6513 6511 6435 6432
4  7805 7122 7119 7121
4  6429 6430 6437 6431
4  6549 5996 6862 6382
4  6433 6378 6377 6379
4  7149 6245 7507 7206
4  7205 7505 7507 7206
4  7879 7206 7507 7508
4  7804 7206 7879 7508
4  7880 6374 7661 6139
4  378 607 7216 7876
4  7453 6987 6986 6159
4  608 7876 7391 7881
4  608 7882 607 7876
4  7883 6590 7781 7309
4  7780 7782 6670 7781
4  7782 6965 6670 7781
4  6598 6965 7781 7309
4  6595 7781 7782 6596
4  6595 7781 6596 6593
4  7883 6670 6962 7781
4  7884 6904 7885 7343
4  7886 7887 7888 7885
4  7884 7357 7885 6904
4  7889 7357 7885 7734
4  7887 7889 7885 7734
4  7780 7782 6107 6670
4  6688 6107 6110 6683
4  6688 6107 6683 6596
4  7269 6112 6029 6108
4  7890 6257 6256 7792
4  6692 6691 6683 6398
4  6682 7269 6683 6398
4  6614 6083 6081 6121
4  6614 6083 6917 7013
4  6445 6081 6614 6828
4  6115 6406 6063 6061
4  7336 7763 7802 7335
4  7336 7335 7802 7329
4  7381 6721 6250 6720
4  7336 7891 7332 7333
4  7892 7893 7894 7332
4  7336 7333 7332 7329
4  7160 7279 7280 7161
4  7895 7159 6950 7157
4  7160 6948 7158 7157
4  7896 7278 7159 7279
4  7896 7278 7897 7159
4  7898 7278 7277 7159
4  7895 7899 7896 7279
4  7138 6832 7366 6337
4  7900 7395 7273 7253
4  7901 7393 7395 7273
4  7251 7253 7273 7254
4  7902 7900 7395 7273
4  6991 7181 7903 7183
4  7181 7278 7903 7183
4  6991 7903 7904 7183
4  6704 6705 7903 6001
4  6551 6282 6550 6544
4  7905 6545 7817 6550
4  6553 6550 7860 6544
4  7906 7817 7860 6550
4  6247 6252 6257 6249
4  7907 6722 6253 6252
4  6256 7792 6257 6248
4  7793 6247 7792 6248
4  7890 7790 6257 7792
4  7890 7790 7907 6257
4  6256 6257 6253 6249
4  7908 7909 6388 7532
4  7910 7911 7909 7652
4  7908 7652 7909 7532
4  7912 7913 7914 7909
4  7915 7916 7917 6370
4  6371 7917 7175 6370
4  6369 7916 6370 6368
4  6369 7916 7915 6370
4  6816 6024 6035 6027
4  325 26 329 7918
4  6586 6581 6580 6025
4  7919 7016 6581 6580
4  6816 7919 6024 6580
4  7220 6024 7217 6034
4  7919 7220 6024 7214
4  6024 6032 7217 6034
4  6024 6026 6032 6027
4  7879 7507 7920 7506
4  7921 7060 7922 7506
4  7804 7508 7509 7510
4  7505 7823 7821 7508
4  7920 7507 7922 7506
4  6918 7887 7734 7736
4  7735 7734 7923 7736
4  7924 7925 7923 7734
4  7924 7923 7838 7734
4  7926 7885 7357 7734
4  7889 7838 7357 7734
4  7927 7572 7928 7772
4  7773 7927 7303 6528
4  7844 7668 7774 7303
4  7844 7929 6419 7772
4  7928 7929 7772 6424
4  7883 6959 6962 6670
4  6965 6962 6670 7781
4  7269 6029 6107 6108
4  6029 6670 6107 6108
4  6963 6029 6672 6671
4  7780 7782 7781 6596
4  6595 6965 7782 7781
4  7492 6029 7780 6107
4  6545 6502 6321 6546
4  6971 7162 7431 7164
4  7622 7432 7704 7623
4  7162 7163 7432 7164
4  7930 7432 7931 7621
4  7930 7163 7931 7432
4  7423 7932 7163 7432
4  7281 7282 7631 7632
4  7281 7283 7282 7632
4  6890 7634 7630 6891
4  7633 7285 7634 7282
4  7633 7282 7634 6891
4  7014 7494 6810 6812
4  245 6306 753 6453
4  344 6376 6453 7257
4  339 344 6453 7257
4  6824 7494 7851 6825
4  7933 7934 7935 7386
4  7933 7386 7935 6524
4  7933 7935 7519 6524
4  7936 7937 7938 7519
4  7658 7660 6161 6163
4  7936 7935 7939 7579
4  7835 6734 7744 7141
4  7940 7938 7090 7941
4  7091 7938 7936 7579
4  7936 7938 7937 7579
4  7578 7937 7938 7579
4  7942 7442 7943 6629
4  7944 6628 6630 6629
4  7944 6629 6630 6631
4  7942 6627 7768 6629
4  7945 6627 7943 6629
4  6627 6628 7768 6629
4  7837 7154 7419 7155
4  7421 7946 7419 7923
4  7418 7840 7855 7419
4  7153 7856 7837 7154
4  7153 7154 7837 7155
4  7153 6048 7154 6049
4  7418 7416 7947 7154
4  7720 6303 7691 7716
4  7521 7693 6196 6195
4  6194 6196 6195 7518
4  7690 7691 6195 7716
4  7948 6325 6297 6195
4  7522 7717 7518 7520
4  7717 7519 6524 7518
4  7948 7522 6195 7716
4  7552 6976 6978 6863
4  6986 7076 7074 7075
4  7552 6981 6976 6863
4  7552 6976 7554 6978
4  7573 6513 6864 6514
4  7287 6924 7202 6158
4  7287 6924 6158 7177
4  7591 6158 7288 7177
4  6157 7176 7288 7177
4  7212 7744 7834 6327
4  7591 6158 6159 7288
4  6983 6157 6159 6160
4  6800 7949 7746 7074
4  7846 7950 7585 7701
4  7699 7641 7585 7701
4  7951 7585 7950 7701
4  7951 7950 7585 7152
4  7465 7585 7467 7466
4  7465 7152 7585 7466
4  6021 6050 6045 6320
4  6021 6017 6322 6562
4  7002 7745 6999 7005
4  6321 7255 6322 6502
4  6021 6562 6322 6022
4  6706 7952 7953 7485
4  7810 6389 7382 7384
4  7382 7384 6389 6251
4  7530 7532 7810 7384
4  6255 6254 7384 6249
4  7954 7233 7955 7616
4  7810 6388 6389 7384
4  6551 6278 6280 6552
4  325 7918 6281 6283
4  7918 6282 6281 6283
4  7918 6282 6279 6281
4  7956 6282 6545 6550
4  7255 6502 6282 6283
4  7956 6551 6282 6550
4  7957 7446 7422 7958
4  7959 7769 7442 7958
4  7957 7959 7446 7958
4  7960 7446 7442 7958
4  6348 6343 6342 6344
4  6870 6341 6343 6344
4  6348 6346 7036 6342
4  7124 7961 7033 6342
4  7124 7033 7031 6342
4  7962 7706 6456 6478
4  6481 6676 6858 6777
4  7708 6481 6858 6777
4  821 6777 6676 6456
4  7513 7043 7709 7514
4  7963 7708 6777 6456
4  7964 7947 7416 7415
4  7943 6629 7444 6631
4  542 541 855 7965
4  7871 7862 7870 7564
4  855 854 385 7966
4  855 541 854 6136
4  6816 6024 6817 6035
4  7471 7415 7474 7472
4  7471 7474 7018 7472
4  7871 7472 7415 7564
4  7471 7872 7415 7472
4  6971 7164 7431 6975
4  7967 7022 7474 7024
4  7346 6223 6450 6221
4  7538 7022 6048 7539
4  7968 7947 7969 7022
4  7967 7947 7474 7022
4  6205 6216 7138 6206
4  5986 5987 5988 5980
4  6100 6099 6759 6097
4  7358 7970 7359 7360
4  7153 7156 7150 6049
4  7179 6367 7728 5980
4  552 433 167 7072
4  7971 6367 7728 6882
4  5977 6882 6367 7171
4  6366 6882 7173 7171
4  7179 7728 6367 6882
4  7179 7728 7972 5980
4  5986 7972 7728 5980
4  857 7973 6284 6286
4  6322 6502 6283 6287
4  6502 6280 6282 6283
4  6285 6278 6280 6286
4  7281 6640 7284 6641
4  866 6562 25 6287
4  7255 6322 6502 6283
4  203 325 6281 6283
4  6092 6621 6467 6616
4  6449 6092 6060 6408
4  203 866 25 6287
4  6446 6060 6092 7030
4  6089 6449 6092 6827
4  7626 7029 7307 7130
4  6446 6092 6749 7030
4  6092 6467 6749 7030
4  6449 6446 6092 6827
4  7785 7950 7846 7701
4  7785 7362 7950 7364
4  7361 7363 7362 7950
4  7951 7974 7950 7152
4  7974 7975 7363 7950
4  7702 7582 7701 7636
4  6801 6802 6800 6162
4  7976 7951 7950 7701
4  7846 7950 7975 7152
4  6058 6770 6571 6570
4  7977 6722 6715 6720
4  6318 6666 7841 7842
4  6721 7788 6715 6720
4  6718 7978 6334 6338
4  7381 7979 7788 7383
4  7980 6720 7383 6251
4  7977 7788 7980 6720
4  6497 7212 7745 6327
4  6604 6740 6065 6066
4  377 378 994 6509
4  6758 6761 7981 6759
4  6884 6954 6885 7842
4  6820 7287 6928 6925
4  994 378 7216 6509
4  6830 6509 7216 7876
4  6741 6791 6792 6787
4  7284 6640 6642 6641
4  6830 7266 6695 7876
4  6830 6803 6065 6694
4  7002 7982 7745 7005
4  7983 7984 7985 7986
4  7987 5985 7988 7984
4  5986 5985 7983 7984
4  967 7987 7984 7985
4  5985 7972 6859 7984
4  7987 7983 5985 7984
4  7952 7489 7486 7485
4  846 5985 6859 7984
4  7175 7917 7989 6370
4  7174 7175 6371 7917
4  7915 7685 7990 7917
4  7989 7685 7916 7917
4  6371 7915 7917 6370
4  7991 7894 7893 7332
4  7991 7894 7992 7893
4  7993 7916 7894 7893
4  7891 7893 7892 7332
4  7272 7525 7901 7273
4  7954 7674 7233 7675
4  7272 7525 7273 7366
4  7994 7902 7393 7535
4  7901 7535 7393 7273
4  7336 7892 7763 7332
4  7995 7996 7393 7535
4  7997 7618 6649 7983
4  7104 7983 7618 7985
4  968 7988 846 7984
4  5986 7984 7983 7986
4  968 967 7987 7984
4  6693 6698 6074 6070
4  7103 6649 5978 7983
4  7987 7103 5978 7983
4  7867 6942 6276 6277
4  7987 5978 7988 5985
4  6723 7903 7998 6001
4  7999 7669 6005 6146
4  7906 7914 7817 7913
4  8000 7914 7913 7909
4  7905 7914 7912 7913
4  798 939 6118 6123
4  7906 7913 7817 6550
4  6726 6911 8001 6038
4  7698 6210 6438 6439
4  8002 7698 6438 7241
4  131 879 878 6078
4  551 550 578 7232
4  6438 6440 6439 6211
4  7451 6934 6155 6154
4  487 7697 7241 6439
4  7400 7358 6330 7360
4  487 489 488 7241
4  6329 6769 6375 6332
4  489 7697 8003 7241
4  7957 7855 8004 7422
4  6788 6786 7344 6789
4  6695 6508 6509 7876
4  7267 7266 7268 6698
4  8005 7386 6525 6524
4  7933 7934 7939 7935
4  6706 8006 6798 7953
4  8007 7583 7935 7579
4  6525 8007 7387 7386
4  7933 8008 7386 6524
4  7447 7959 7442 7446
4  7449 7443 7442 7444
4  7960 7442 7769 7958
4  6272 7006 6276 6357
4  7441 7442 7960 7446
4  6530 6236 7263 7261
4  287 285 9 6778
4  8009 7397 7395 7733
4  8010 8011 6945 6943
4  8009 7609 7607 7733
4  7732 7733 7637 7605
4  8012 7397 7607 7733
4  6935 8013 6931 6836
4  916 7483 6541 6535
4  379 82 747 6602
4  8014 6935 8015 8013
4  8016 6931 8017 8013
4  361 7776 7973 6288
4  6426 8018 8019 8020
4  8021 8016 8017 8013
4  7230 7233 7615 7231
4  8022 6278 6288 8013
4  7134 7004 7064 7062
4  8023 6278 8013 6929
4  861 791 7231 7778
4  8014 6288 6938 8013
4  6400 6402 6401 8024
4  6401 6360 8024 7666
4  426 767 417 6589
4  6818 8001 6038 6727
4  6186 6360 6401 7666
4  8025 6682 6401 6031
4  8026 8027 8028 7482
4  6166 6359 6401 6360
4  7269 6400 6401 6031
4  903 6031 6401 8024
4  6953 6893 7633 7634
4  1002 8029 6764 6647
4  6953 6893 7634 6887
4  6952 7634 6953 6949
4  7088 7579 7580 7085
4  7809 7909 6393 6388
4  7639 7403 6953 6949
4  868 6355 867 6358
4  6400 6397 6113 6187
4  7638 7285 7634 6949
4  482 5 8 6022
4  7630 6952 7638 7634
4  8030 6891 6893 6892
4  8031 7429 6262 6263
4  7035 8032 7961 7033
4  7286 7630 7285 7282
4  6791 7261 6071 7118
4  7639 7633 7285 7634
4  7837 7839 7156 7155
4  8033 7357 7838 7365
4  7924 7419 7838 7923
4  7926 7357 7838 7734
4  7839 7926 7357 7838
4  320 7775 6938 6838
4  7924 7838 7889 7734
4  6627 6628 7770 7768
4  8034 7371 7285 7370
4  8035 6076 8036 6697
4  8034 6347 7371 7370
4  6951 7404 7370 6950
4  794 798 724 6352
4  8037 6006 6005 7258
4  7674 8038 8039 7221
4  6951 7370 7638 6949
4  7639 7285 7370 6949
4  6995 6996 6347 6343
4  7639 7370 7403 6949
4  6161 6983 6162 6160
4  8040 7126 7343 7127
4  7888 8041 8042 7343
4  7342 7888 8042 7343
4  8040 7126 8042 7343
4  6783 7807 6210 6785
4  8043 6782 6784 6785
4  6216 6218 6785 6340
4  8044 6218 6328 6785
4  8043 6328 6339 6340
4  8043 6785 6328 6340
4  7486 7484 7953 7485
4  7381 7755 7979 7383
4  5999 6477 5989 5990
4  6782 8045 7807 6785
4  5977 5979 6367 5980
4  5977 7179 7972 5980
4  7972 7068 6859 6877
4  5985 7972 7068 6859
4  76 75 74 5968
4  6578 7147 6583 7148
4  5977 6367 7179 5980
4  8046 7179 7972 6877
4  8047 6662 7970 7288
4  7423 7932 7864 7163
4  6973 6290 6184 6975
4  8048 6104 6293 7146
4  6664 7970 6661 6662
4  6927 6821 6659 6925
4  7475 7025 7027 7024
4  7176 6927 6656 6659
4  8047 7176 6662 7288
4  7677 6662 6663 7288
4  319 6776 6838 5972
4  8049 6910 8050 6039
4  6963 6030 8051 8052
4  6152 7486 6148 7489
4  6963 8051 7268 7881
4  7555 6963 6672 6960
4  7552 7407 6981 6863
4  6959 6963 6960 6671
4  7447 7442 7449 7443
4  7944 7444 7449 6629
4  7957 7422 7446 7417
4  7957 7422 8004 7958
4  8053 7422 7446 7958
4  7110 7112 7653 7066
4  7421 7416 7422 7419
4  7349 6225 6488 6222
4  7587 7641 7846 7585
4  8054 7938 8055 7644
4  8053 7441 7960 7446
4  7398 7900 8009 7395
4  7959 7442 7446 7958
4  826 8056 429 7479
4  6429 6436 6430 6432
4  6242 6623 7754 6239
4  8026 7877 8057 6511
4  7776 8014 8022 6288
4  6752 7524 6182 6436
4  892 6086 5972 5971
4  8058 6153 6156 6154
4  6182 6429 6512 6436
4  6752 6436 6512 6434
4  6433 6430 6434 6432
4  6752 6182 6512 6436
4  6122 6427 6349 6428
4  7342 8059 7343 7127
4  8060 8061 8062 7986
4  8063 6425 6426 6002
4  6753 6430 8056 6434
4  709 988 829 7997
4  170 167 6372 7072
4  6603 5981 6604 6601
4  746 595 6859 6601
4  748 747 746 6601
4  5981 6601 7068 6878
4  7194 7511 7082 7084
4  8064 7369 7751 6639
4  6604 6505 6600 6602
4  82 6601 747 6602
4  7368 6907 7609 7605
4  7928 8065 7100 7572
4  6871 7184 6505 6602
4  7321 6894 8066 7307
4  8041 7887 8067 7885
4  8068 8069 7154 6048
4  8070 6310 8071 7501
4  7969 7856 7153 7154
4  7695 7501 7502 7359
4  7695 8071 7501 7359
4  7696 7500 7501 7502
4  7186 6413 6833 6414
4  7504 7501 6310 6311
4  7964 7476 7474 7415
4  7964 7416 7414 7415
4  8072 7947 7474 7415
4  8073 7018 7472 6796
4  7714 8029 8074 6647
4  7714 8074 6223 6647
4  7861 7872 7472 7564
4  7104 7985 8062 7986
4  599 8060 8062 7986
4  7402 7399 7075 6306
4  6910 6038 6036 6037
4  8075 8076 8077 8074
4  84 215 680 7742
4  636 219 635 6829
4  7981 6100 6759 8078
4  6333 6334 6339 6096
4  6673 8079 6000 6700
4  599 600 8060 7986
4  8080 6772 7051 6768
4  7104 7983 7985 7986
4  8046 5986 8061 7986
4  7835 6736 6734 7141
4  8080 7707 6767 7051
4  8081 6567 6569 6053
4  8082 7817 7914 6734
4  8083 8084 8085 6734
4  8083 8085 7914 6734
4  7891 7893 7333 6652
4  251 253 252 6381
4  8086 7332 7893 7333
4  7336 7891 7892 7332
4  7349 7350 6225 6221
4  7331 7333 8087 7329
4  6010 6094 8078 6097
4  7006 6942 6357 6356
4  7331 8086 8087 7333
4  7336 6814 7333 7329
4  7852 6279 6551 6930
4  7852 6933 8088 6279
4  8066 7029 8089 6136
4  8088 8090 6279 8091
4  6278 6279 6281 6288
4  8090 6279 8091 6281
4  895 8090 8091 6281
4  7918 6279 8090 6281
4  8025 7492 7748 6684
4  934 511 509 8092
4  7918 6282 6551 6279
4  6916 6825 6447 6063
4  7851 7014 6828 6812
4  7455 8093 6835 7456
4  8094 7247 8095 8096
4  482 612 25 6779
4  7848 6081 6449 6828
4  7848 6449 6827 6828
4  6931 6929 8013 6932
4  6445 6081 6449 6406
4  6449 6446 6827 6826
4  7655 6609 6611 6610
4  7106 8097 7577 6171
4  7080 7577 6303 8097
4  6173 6176 7577 6171
4  7080 7577 8097 6171
4  361 359 667 7776
4  8014 8015 8023 8013
4  8014 7775 7458 6838
4  856 359 361 6288
4  7080 8097 6494 6171
4  7833 7643 6494 8097
4  7720 7715 7643 8097
4  7559 7394 7396 6993
4  7396 8098 7961 7397
4  8009 7607 7397 7733
4  6818 8099 8001 6727
4  8100 7961 7397 6993
4  6803 6871 6065 6697
4  5983 6697 6075 6872
4  8036 6075 5983 6697
4  6065 6066 6075 6872
4  7806 6789 8051 7391
4  6693 6696 6830 6694
4  7553 6794 6793 6977
4  6076 6075 6697 6068
4  901 960 780 6034
4  8101 8102 7598 6291
4  8036 6076 6075 6697
4  6291 7557 6271 6536
4  7451 7450 6155 6934
4  6714 7790 6257 6716
4  762 907 6271 6541
4  8048 8103 6102 7620
4  6103 7611 7561 6541
4  6291 7561 6293 6541
4  8048 6293 6104 7561
4  7459 7326 6500 7211
4  8048 6103 7611 7561
4  6103 7561 6271 6541
4  883 6380 6431 6379
4  927 6378 6377 6946
4  6504 6500 7462 6496
4  927 148 146 6946
4  6512 6429 6513 6432
4  6513 6864 6514 6435
4  6516 6433 6434 6435
4  8049 8104 8105 6039
4  7992 7894 7916 7893
4  6816 6818 8049 6039
4  482 6562 6022 6779
4  6682 6166 6939 6359
4  7993 7916 8106 7894
4  7991 7893 8086 7332
4  7991 7992 8086 7893
4  8106 7916 7685 7894
4  7578 7580 7579 7085
4  779 756 770 7237
4  7088 7580 7089 7085
4  8081 6518 7468 6567
4  7940 7938 7091 7090
4  426 888 767 6589
4  7351 6218 6210 6217
4  7086 7083 7090 7085
4  7202 7590 7221 7226
4  7287 7808 7202 7226
4  426 425 1002 8029
4  171 7231 296 7224
4  7287 7202 7203 7226
4  7610 6737 8048 8107
4  767 770 417 6487
4  7995 7996 6632 7393
4  7994 7393 7996 7535
4  6762 7820 6223 6763
4  6632 7996 6635 7393
4  7249 6451 7243 6220
4  7088 7583 7580 7579
4  7994 7694 7902 7535
4  7694 7902 7535 7273
4  6244 8085 6245 6241
4  6735 8085 6245 6736
4  8108 7914 8085 6393
4  6004 7999 6005 6128
4  6375 6128 6007 6376
4  8109 8110 8085 6241
4  6164 6157 6983 6160
4  6917 6083 7010 7013
4  488 6487 7237 8077
4  6080 6101 6081 6613
4  6082 7798 6083 7013
4  680 216 6468 6469
4  7797 7799 7012 7013
4  6917 6119 6083 6117
4  6757 6083 6119 6116
4  7012 7014 7015 7011
4  7999 8111 8112 6141
4  6917 6083 6119 7010
4  6757 6083 7798 6119
4  7047 7045 6742 6743
4  7841 7842 6666 6661
4  6989 8113 6988 7049
4  6318 6954 7842 6317
4  6318 7842 7841 6312
4  6314 6318 7841 6312
4  7741 7842 6954 6317
4  8114 6166 6691 6399
4  8114 6941 8115 6691
4  6684 6685 6689 6268
4  253 776 252 7596
4  6682 6684 6939 6691
4  488 417 770 6487
4  8114 8115 8116 6691
4  6246 7487 7488 6248
4  7795 7796 7792 7487
4  8045 7807 6833 6413
4  7486 8117 7487 7953
4  8075 8076 8003 8077
4  6152 7489 6148 6151
4  7952 7487 7486 7489
4  7952 7487 8006 7953
4  8025 7492 6682 6031
4  6443 7807 7569 6413
4  7714 7346 6223 6450
4  8025 6030 6031 7143
4  7147 7619 7413 8107
4  509 7144 6031 8024
4  6400 6401 6031 8024
4  7269 6029 6028 6031
4  509 6031 903 8024
4  8118 7426 6259 6876
4  62 6758 350 6760
4  6873 6875 6259 6876
4  620 6713 6712 6700
4  8118 6875 7672 6876
4  6874 6875 6876 7294
4  6874 7673 6875 7294
4  7295 6876 7294 7291
4  6714 6721 6715 6252
4  136 756 779 6441
4  7811 6722 7201 6715
4  7977 7980 6722 6720
4  7980 6720 6251 6252
4  7200 7813 7546 7199
4  857 856 361 7973
4  6690 6687 6686 6685
4  325 26 7918 6283
4  482 25 6562 6779
4  7200 7199 7546 7196
4  7546 7199 7198 7196
4  7977 7811 7448 7199
4  7977 7788 6715 7199
4  7977 6715 7788 6720
4  6752 6974 6184 6975
4  8119 6184 7623 6975
4  6305 6309 7593 6381
4  6290 7431 7623 6975
4  6290 6192 6184 7623
4  6191 6290 6192 6189
4  6181 6184 6183 6189
4  8120 7790 7791 7931
4  8121 8120 7791 7931
4  6404 6121 6115 6406
4  7794 7791 7890 7792
4  7237 7241 8077 6442
4  7038 7850 7037 6827
4  8122 7791 6607 7796
4  8121 8120 6607 7791
4  7751 7460 7689 6639
4  819 180 83 6142
4  8123 7338 7461 6263
4  8124 8125 7661 6139
4  271 6147 346 6146
4  8031 7338 8123 6263
4  6636 7689 7688 6637
4  7461 7338 7339 7689
4  7847 7429 8123 6263
4  7460 7461 7339 7689
4  109 875 43 8126
4  6679 6858 6674 6675
4  6213 8127 6180 6177
4  8128 7616 7778 8062
4  8080 8129 6774 6767
4  6490 6227 8055 7644
4  8130 7616 8128 7104
4  7616 7777 7778 8062
4  7615 7777 7231 7778
4  6490 7643 6489 7644
4  7233 7616 7615 7778
4  6446 6448 6748 6826
4  7850 7851 6828 6826
4  8131 7848 6089 6827
4  8132 6747 6448 6748
4  8133 7568 8134 8135
4  7850 7848 8131 6827
4  6753 6433 6430 6434
4  8057 7877 7779 6511
4  6089 6827 6092 6621
4  7348 6450 8075 7240
4  6980 5999 6517 6863
4  6433 6517 6378 6383
4  6947 6517 5995 6378
4  915 913 493 7611
4  6384 6510 6385 6383
4  555 762 702 6271
4  5996 5994 5995 6382
4  8136 6947 5995 6378
4  77 494 495 6575
4  719 6378 8136 7428
4  6970 7043 7513 7041
4  6910 8001 6911 6038
4  7313 8137 7219 6561
4  706 892 6086 5972
4  6270 7478 7524 7523
4  8136 6378 5995 7428
4  8136 5995 5993 7428
4  6586 6584 6581 6025
4  6846 6910 6037 6039
4  8138 6910 6912 6037
4  6585 6580 6037 6025
4  6910 6036 6912 6037
4  6846 6910 8138 6037
4  8139 6578 6037 6579
4  6726 8140 6911 6725
4  8135 7240 7569 6451
4  7566 7568 8133 7569
4  8141 6438 7807 7569
4  834 6404 6121 6115
4  7178 6889 6656 6657
4  6660 8142 8070 6661
4  1035 6781 6062 6115
4  6808 6991 6811 6124
4  7566 7807 8045 7569
4  6530 6531 6236 7261
4  6329 6743 6455 6330
4  7497 7183 7896 7279
4  6527 6533 7721 6528
4  6758 6761 6759 6760
4  6990 6723 6991 6363
4  7773 7300 6533 6528
4  58 693 690 6353
4  724 726 725 6118
4  8142 6954 7741 7842
4  7464 7116 6533 6531
4  7044 6749 6743 6745
4  7115 6532 7649 6533
4  7464 6527 6530 6531
4  6364 5987 6367 5979
4  6532 7773 6533 6234
4  6102 6192 7620 7623
4  6181 6192 6184 6189
4  6289 6183 6184 6189
4  551 578 171 7224
4  7987 7103 6369 5978
4  8143 7146 6192 7620
4  400 8144 7073 7222
4  7145 8143 7146 6193
4  6289 8145 6183 6189
4  6599 6740 6604 6066
4  7123 6791 6599 6066
4  8146 8110 6243 6245
4  861 998 8147 8062
4  8110 6243 6245 6241
4  8036 6072 7805 6075
4  8146 6245 6243 7507
4  8109 6393 6392 6241
4  7756 6239 6243 6241
4  7895 7899 7279 7157
4  7895 7897 7404 7159
4  7731 6870 6867 6344
4  7898 6867 7818 7278
4  7172 7117 8148 7646
4  7120 6071 6069 7261
4  997 6599 6741 6506
4  7158 7403 6996 7370
4  6792 6069 6786 6787
4  7725 8061 5986 7104
4  7404 8149 7370 6869
4  8149 6347 7370 6343
4  6348 6868 6996 6343
4  6870 8149 7404 6869
4  8150 7463 6500 6501
4  6870 8149 6869 6343
4  7029 7130 6135 7306
4  207 6284 8150 6287
4  8150 7463 6501 6287
4  325 7918 329 6281
4  203 6283 6281 6286
4  7473 7018 7474 7024
4  7021 7968 7022 7024
4  7473 7968 7021 7024
4  7871 7476 7415 7472
4  7964 7871 7476 7415
4  7906 7860 6554 6550
4  7964 7474 7947 7415
4  7968 7474 8072 7947
4  7964 7474 7967 7947
4  7044 6145 6134 6129
4  396 6031 509 7143
4  7248 7463 6285 6280
4  26 7255 7918 6283
4  6133 6374 6139 6131
4  7999 6128 6141 6146
4  6133 7999 6128 6141
4  6128 6147 6145 6132
4  8151 6138 6141 6139
4  8058 6836 6573 6154
4  8151 6141 6138 6143
4  7999 6005 6128 6146
4  7259 7257 7256 7258
4  6798 6577 6707 6557
4  6084 6708 6730 6701
4  7259 7256 8037 7258
4  7220 7213 7219 7215
4  6128 7257 6376 6147
4  339 7259 340 7257
4  340 7259 7669 7257
4  433 6306 7072 7070
4  552 167 170 7072
4  6706 7952 8006 7953
4  552 8152 400 7072
4  7655 6609 6610 6729
4  7074 7590 7589 7073
4  6185 7664 6166 6186
4  787 788 8153 7142
4  7074 7589 7075 7072
4  433 6306 167 7072
4  167 7075 6372 7072
4  903 6401 8025 6359
4  7902 7398 7393 7395
4  862 8154 1016 7666
4  7995 6632 7901 7393
4  6717 7996 6718 6338
4  6718 7996 7995 6338
4  7135 7137 8155 6397
4  6717 7994 7996 6338
4  7678 7026 7025 6474
4  6795 7472 7018 6796
4  8073 8156 7018 7020
4  862 1016 850 7666
4  7025 7026 7019 6474
4  7867 6941 6942 6687
4  7053 7019 6477 6474
4  7247 8023 8095 6929
4  898 879 320 7452
4  7053 7025 7019 6474
4  6475 7017 6477 7020
4  7853 6930 6931 6156
4  7973 8022 6285 6288
4  6475 7017 6476 6477
4  8017 7853 8157 6929
4  7956 7905 7913 6550
4  7816 6321 7744 6546
4  7743 7141 7744 7311
4  8158 7316 7457 6708
4  8083 7914 7817 6734
4  7905 7817 8083 7914
4  8093 8021 8015 8016
4  6021 6322 6017 6043
4  7906 8082 7817 7914
4  6733 7815 8082 6734
4  8017 8157 8096 6929
4  6733 7815 6734 7744
4  359 320 6938 7452
4  8023 8021 8095 8017
4  7989 7917 7916 6370
4  6369 7915 6371 6370
4  7105 6370 7916 6368
4  8137 5975 8159 6739
4  8014 7458 8015 6935
4  6086 6087 5972 5970
4  359 898 320 7452
4  7105 7916 7993 6368
4  8154 7665 8155 7666
4  7993 7916 7893 6368
4  7580 7581 7583 7089
4  7939 7934 7088 7583
4  7664 8155 7665 6186
4  862 7665 8154 7666
4  7190 7088 7700 7582
4  7133 6114 6111 6113
4  7703 7636 7582 7191
4  7700 7388 7467 7583
4  8025 6401 6682 6359
4  7388 7467 7583 7386
4  8160 8161 7135 6397
4  8154 7137 8162 7666
4  83 180 950 6142
4  8037 7076 6006 7258
4  7076 6306 7399 6453
4  83 950 951 6144
4  8007 7935 7583 7386
4  8163 8164 8151 6138
4  7047 7662 6374 6137
4  8005 7935 7386 6524
4  179 181 180 6452
4  6983 6157 6984 6159
4  7640 7467 7583 7582
4  6204 7807 6443 6413
4  7240 6790 8077 6442
4  6438 6442 6440 6211
4  6415 6204 6203 6211
4  6452 6331 7402 7399
4  7697 7698 7241 6439
4  8135 7240 8002 6438
4  8141 7698 6210 6438
4  8124 7661 6140 6139
4  344 340 7669 7257
4  7844 7772 7668 7303
4  7844 7289 7671 7668
4  7290 6420 6419 6421
4  6800 6006 8037 7076
4  7845 7667 7668 7294
4  7771 6419 7772 7668
4  7290 6419 6424 6421
4  8165 7772 6418 6424
4  6396 6114 7133 6113
4  6161 7660 6164 6163
4  7170 6716 7200 7169
4  7433 7516 7424 7169
4  6157 6159 6158 7288
4  6922 6926 6927 6925
4  6970 7041 7513 7424
4  7170 7167 6716 7169
4  8166 6924 6923 7210
4  7170 7163 7167 7165
4  6967 6968 7164 7165
4  6799 6006 6800 6988
4  7433 7170 7169 7165
4  7433 7169 7424 7165
4  8047 6157 7176 7288
4  7864 7163 7790 6716
4  7676 7048 6374 6130
4  8167 7790 8120 7931
4  271 346 8112 6146
4  7259 6005 7669 7257
4  339 753 752 7256
4  7865 7791 7790 7931
4  7259 8037 6005 7258
4  8122 7789 7791 7792
4  7789 7790 7865 7791
4  6534 6542 8140 6535
4  915 493 494 7611
4  8102 7598 6291 6292
4  7907 6257 7790 6716
4  7864 7931 7790 7163
4  6738 7711 7411 6606
4  7952 6246 7793 7487
4  7670 6875 8168 6852
4  76 77 495 6556
4  7672 6875 7673 7294
4  7622 7704 8119 7623
4  7407 6861 6864 6510
4  7670 7672 6875 7673
4  6737 6575 6738 6557
4  8168 6852 6875 6261
4  6093 5974 6701 5973
4  6706 6077 7451 6709
4  6737 6731 6560 6732
4  8169 7376 7377 7378
4  7473 7019 7018 7024
4  6051 6569 6570 6053
4  7017 7473 7019 7018
4  7475 7019 7025 7024
4  7858 7527 7749 7762
4  8170 6549 8171 6681
4  6038 6035 6727 6033
4  562 8172 7480 6437
4  7859 6854 6851 7527
4  6403 7132 8173 7133
4  7516 7169 7200 7196
4  6566 8174 8175 6466
4  7189 7191 7193 7084
4  7052 6474 7026 6773
4  8176 6464 7706 6478
4  7831 7027 7025 7026
4  8177 7378 7858 7764
4  8169 7857 7378 7764
4  7574 6274 7064 6273
4  874 6471 43 6478
4  6464 8126 6466 6478
4  8176 7706 7962 6478
4  875 8126 8178 6478
4  875 8179 874 6478
4  7549 8180 8181 7435
4  7966 8182 8066 7306
4  8036 7805 7180 5982
4  8183 8184 7094 7095
4  8103 6607 8121 7621
4  6605 6607 7794 7796
4  7710 6607 6606 7412
4  7710 8185 6607 7412
4  7710 6606 8107 7412
4  93 903 475 6360
4  7434 7065 7435 7437
4  6738 7711 6606 6608
4  7565 7096 8065 7097
4  6783 6210 6218 6785
4  8135 6438 8141 7569
4  6204 6785 7807 6833
4  8045 7807 6785 6833
4  6961 6695 7268 6789
4  6441 7599 6443 6442
4  8186 6389 6388 7384
4  7566 8141 7819 7807
4  7530 7810 7385 7384
4  7567 7569 8045 6413
4  6150 7911 7652 7532
4  7952 7451 7489 7485
4  7907 6253 6257 6252
4  8187 7377 7683 7685
4  7911 6395 7909 6388
4  8 6319 6323 6022
4  7875 7873 7682 7827
4  7684 7373 7379 7374
4  8186 6387 6395 6388
4  7200 6721 7813 6715
4  6553 6551 6552 6929
4  8188 7652 7532 6149
4  986 6726 8099 6727
4  919 700 7524 7523
4  8096 6553 6552 6929
4  8177 7377 7379 7378
4  7683 8169 7376 7377
4  7398 8009 7396 7397
4  7379 7378 7377 7374
4  7340 7033 7032 7127
4  7192 7191 7511 7084
4  8189 7981 6761 8078
4  8141 8002 7698 6438
4  7192 7317 7244 7246
4  779 770 769 6751
4  220 6099 6336 6711
4  35 351 33 8190
4  7575 6295 6302 6296
4  7036 7039 7032 6346
4  517 8191 55 8192
4  426 417 425 8074
4  8193 7032 7369 6346
4  8034 7285 7371 6643
4  6525 6524 7386 6521
4  7286 7285 8034 6643
4  7284 7639 7633 7285
4  7566 8141 7807 7569
4  6865 7124 6341 6342
4  7630 7634 7285 7282
4  620 6712 6673 6700
4  6991 7181 6428 7903
4  6781 6780 6808 6124
4  7814 7282 7286 6641
4  7181 7277 7278 7183
4  7559 7731 7560 6994
4  7729 7731 7897 6867
4  7814 7630 7286 7282
4  7286 7285 6643 6641
4  308 6724 310 6725
4  6036 6033 6026 6027
4  308 6727 6032 6033
4  6036 6724 6026 6033
4  916 310 6724 6725
4  6291 6536 6541 6537
4  454 916 7483 6541
4  8140 6535 6542 6725
4  7759 8069 6048 6049
4  6911 6542 6036 6725
4  8002 7240 8077 7241
4  8194 7060 8195 7293
4  7086 7087 6416 7083
4  6751 8196 7599 7239
4  7599 7239 6443 6442
4  6204 6833 7807 6413
4  8197 8194 8195 7293
4  8198 7060 8195 7055
4  8199 7921 8200 7922
4  8197 8195 7427 7426
4  7540 7534 7055 7536
4  7531 8186 7911 7532
4  6155 8188 7491 6149
4  7944 6630 7784 6631
4  8201 6265 6873 6259
4  8198 8195 7427 7055
4  7755 7783 6630 6631
4  6682 6684 6691 6685
4  6708 6574 6573 6085
4  6684 6683 6689 6685
4  6571 7537 6568 6569
4  6400 6113 6112 6109
4  6114 6399 6692 6398
4  7492 6682 7269 6683
4  8069 7154 6048 6049
4  6688 7782 6110 6107
4  7269 6398 6400 6109
4  8081 7468 7469 6567
4  6331 6769 6986 7399
4  7046 6332 7049 7401
4  6375 6769 7049 6332
4  6051 8081 6569 6053
4  7537 7538 7760 7539
4  6769 7049 6332 7401
4  7845 7673 7668 7302
4  7911 7909 7652 7532
4  6329 7044 6743 6332
4  7549 8181 7440 7436
4  674 867 672 6125
4  8154 8155 7135 7137
4  7045 7400 6330 6332
4  7044 6137 6373 6129
4  8114 6165 6941 6939
4  7342 7884 7888 7343
4  8041 8040 8042 7343
4  7822 7920 8194 7506
4  8041 8040 8202 8042
4  7529 7688 6853 6854
4  8203 7888 8041 8042
4  7956 6551 6550 8204
4  8203 8041 7888 7887
4  8205 8206 7338 8042
4  8203 8206 8205 8042
4  8203 8041 8206 8042
4  7149 8146 7879 7507
4  8010 7542 8011 6943
4  6244 8199 6242 6243
4  6545 6550 6282 6544
4  7140 6736 7149 7206
4  733 6944 734 6168
4  6944 6168 6943 6940
4  733 772 6944 6943
4  6939 6684 6361 6940
4  6072 6076 6073 6068
4  6586 6581 6584 6732
4  6036 6038 6033 6027
4  7613 6581 6584 6025
4  7613 6584 6583 6025
4  7600 7194 7512 6417
4  7627 6273 6267 7439
4  7977 7448 7784 7788
4  7670 6852 7375 7673
4  7747 7627 6272 6267
4  7006 6277 6687 6268
4  6937 6277 6274 6269
4  7006 6689 6267 6268
4  7747 7439 6267 6839
4  7438 7009 7007 7439
4  7748 7747 7006 6689
4  7234 7227 7743 7311
4  136 6203 128 6440
4  7228 6736 7141 7229
4  7835 7228 6736 7141
4  7368 7364 7367 7605
4  8207 7959 8004 7958
4  7153 7837 7156 7155
4  7946 7838 7419 7923
4  6205 7187 7188 6414
4  8073 8156 7475 7018
4  8084 8085 6734 6736
4  7361 7365 6913 6909
4  7835 7816 7743 7744
4  7150 7156 7974 7151
4  7139 7140 7603 7229
4  7227 7141 7311 7236
4  6733 6734 6736 7141
4  7565 7829 7097 7571
4  7096 7100 7097 7095
4  8103 6607 7621 7412
4  7735 8208 8209 7736
4  7100 7097 7094 7572
4  932 719 720 7428
4  7515 7433 7516 7424
4  7565 7097 8065 6233
4  7651 7251 7366 7254
4  6475 8136 6980 5999
4  8210 7440 8211 7098
4  6714 6721 7200 6715
4  6714 6715 7200 6716
4  7810 7908 7809 6388
4  8065 7097 7572 6233
4  8212 7643 8055 7644
4  7951 7150 7974 7152
4  7340 7341 8040 7126
4  7642 7643 8212 7644
4  7720 7643 7715 7520
4  6299 6307 6302 6298
4  8069 7151 7840 7155
4  7642 6494 7833 7643
4  7642 6489 7643 7644
4  6803 6065 6871 7184
4  8213 7937 8005 7519
4  7969 7154 7153 6048
4  7530 7908 7810 7532
4  7811 7562 7448 7199
4  995 7185 7067 7184
4  7515 7547 7514 7195
4  7979 7444 7788 6631
4  163 6505 747 6600
4  163 6506 853 6507
4  7540 7055 7056 7536
4  8031 7430 6262 7429
4  379 995 7067 7184
4  6604 6871 6505 6602
4  6390 7754 6391 6240
4  7756 7757 6624 6239
4  7249 6411 6410 7243
4  7445 7441 7446 7443
4  8203 7886 6918 7887
4  8209 7958 7769 7736
4  7840 7924 7855 7419
4  7924 7925 8004 7923
4  8203 8206 7887 7533
4  8203 7533 7887 6921
4  7979 6631 7788 7383
4  7533 7536 6958 6921
4  6957 7533 6958 6921
4  7925 7923 7734 7736
4  7770 7768 6919 7056
4  6918 8209 6920 6919
4  8059 7884 7343 6905
4  6918 7887 6957 6921
4  6369 5978 7103 6368
4  6527 6533 6528 6234
4  7355 7365 7363 6906
4  7906 8082 7815 7817
4  7031 7032 8193 6346
4  6237 6529 6233 6234
4  6529 7572 6233 6528
4  7927 7572 7303 6528
4  7648 7721 6527 6533
4  7648 7300 7721 6533
4  6265 6262 8214 6264
4  8215 7772 7572 7303
4  7773 7927 7774 7303
4  7721 7303 8215 6528
4  6074 6073 6076 6068
4  7531 6255 8186 7384
4  7491 6149 7530 7490
4  8188 7530 7491 6149
4  7898 6869 6867 7159
4  8186 6395 7911 6388
4  6918 6957 6919 6921
4  7911 6388 7909 7532
4  7810 7908 6388 7532
4  7810 7532 6388 7384
4  8188 7652 7908 7532
4  8036 5982 7180 5983
4  54 869 776 8216
4  6565 7389 7499 6520
4  5982 6075 7122 6872
4  8036 5982 5983 6075
4  54 776 253 7595
4  5981 5982 7122 6872
4  7180 5982 7805 5984
4  108 54 55 8217
4  6771 7831 7678 6773
4  5981 5984 5983 6878
4  5981 7179 5984 6878
4  7356 7606 8218 6905
4  7180 5983 5982 5984
4  6366 6367 6882 7171
4  7977 6715 7811 7199
4  7826 7827 7299 7298
4  875 8126 108 8217
4  8219 6681 6858 5991
4  513 8175 8174 8126
4  6750 6753 8056 6434
4  8220 7917 7990 7827
4  7553 6794 6977 7514
4  7874 7827 7646 7298
4  6970 7554 7043 7042
4  8148 7827 7917 7646
4  7874 7827 8148 7646
4  8221 6728 8171 8222
4  8185 7621 6607 7412
4  8120 7930 7931 7621
4  6737 8103 8107 7412
4  7806 7344 7883 6961
4  6737 8107 6606 7412
4  6792 6530 7263 7261
4  7619 7621 8185 7412
4  8103 7620 8107 7412
4  8132 7502 7504 7503
4  6444 7502 6448 7503
4  7492 6029 7269 6031
4  6824 6825 6448 7503
4  7747 6355 7006 6357
4  6942 7542 6358 6943
4  6690 6686 6692 6685
4  7344 6962 6961 7264
4  8132 6746 6747 6748
4  203 25 325 6283
4  26 612 7255 6779
4  8132 6448 6747 7502
4  7852 6930 6551 8204
4  7850 6828 6827 6826
4  8094 7248 7247 6552
4  6278 6938 6288 8013
4  6959 8051 6963 6030
4  6959 7268 6963 8051
4  7905 6545 7816 7817
4  6963 8052 7881 7142
4  885 8052 608 7391
4  885 7806 8052 7391
4  8223 8096 6553 6552
4  7918 7255 6282 6283
4  8096 8157 6553 6929
4  6030 7143 8052 7142
4  8224 8051 6030 8052
4  8224 8052 6030 7143
4  7434 7007 7063 7437
4  6266 7007 7009 6267
4  7627 6273 7439 7437
4  7105 7993 7102 6368
4  6375 7044 6332 6373
4  7747 7627 6125 6272
4  7110 8180 7549 7435
4  7549 7440 8210 7098
4  6598 6230 7310 7309
4  6744 6747 6330 7502
4  6329 6743 6330 6332
4  6749 6747 6743 6745
4  6329 6375 7044 6332
4  7867 6945 8011 6942
4  6742 6620 6743 6745
4  6742 6620 6137 6743
4  6325 6202 6297 6195
4  8225 8226 6295 6297
4  957 672 6126 6127
4  6459 7413 6609 6732
4  8183 7549 8210 7095
4  7434 8227 8228 7436
4  541 6127 854 6136
4  8116 6691 6692 6399
4  7866 6941 7867 6687
4  6324 6202 6304 6297
4  6324 6325 6202 6297
4  7971 6367 6364 7728
4  8229 5996 6549 5997
4  7963 7962 7708 6456
4  8230 7728 7179 6882
4  8230 8231 7971 6882
4  7174 5977 6371 7171
4  8073 7476 7870 7472
4  5981 7179 5977 5984
4  6366 7171 6370 5979
4  7655 6610 6730 6729
4  8232 8233 8234 8170
4  8232 6473 6483 5990
4  8137 6561 5974 5975
4  7655 7656 6708 6612
4  6058 8235 6770 6480
4  6058 6480 6770 6059
4  7313 5974 6561 6730
4  7313 8137 6561 5974
4  6857 8236 5989 6680
4  7313 6561 7213 6460
4  6476 7052 6857 5989
4  6476 5989 6477 6474
4  6560 6561 6731 6555
4  6481 6676 6777 6456
4  7706 6466 6482 8237
4  6463 7706 6479 7034
4  8130 8128 7725 7104
4  6871 6065 6505 7184
4  541 957 854 6127
4  8238 7706 6464 7034
4  7705 7706 8238 7034
4  6923 7176 6157 7177
4  6942 6356 6684 6361
4  8230 8046 7179 7728
4  997 992 6599 6600
4  7705 7706 7034 6767
4  6471 7962 6456 6478
4  6987 6158 7210 6160
4  7591 6159 7453 7288
4  6984 6159 6157 7288
4  746 6859 8239 6601
4  7659 7836 8038 7590
4  6291 6271 7561 6541
4  6799 8240 6006 8113
4  7076 6007 6988 7258
4  762 6541 6271 6536
4  6103 6104 6105 7561
4  454 7611 452 6541
4  6291 6541 6293 6537
4  713 6541 762 6536
4  452 6103 907 6541
4  7396 7397 7961 6993
4  8098 7608 7961 7607
4  8241 7397 7961 7607
4  8009 8098 7397 7607
4  6923 6927 7176 7177
4  7767 6919 7769 7736
4  7925 8004 7923 7736
4  8208 7923 7958 7736
4  7735 7923 8208 7736
4  8207 7769 7958 7736
4  6457 7655 6730 6729
4  6560 6610 6732 6729
4  6718 6011 6719 6012
4  6737 6560 6738 6732
4  6415 6441 7599 6443
4  8063 7015 7182 6428
4  6798 6610 6084 6612
4  7662 6137 6140 6139
4  6723 7904 6991 7903
4  854 957 286 6135
4  7324 7318 7319 6042
4  6609 6606 6605 6608
4  7497 7183 6805 6806
4  6609 6605 6611 6608
4  7799 7014 7013 6828
4  6824 7494 6825 7495
4  8242 8243 6619 6620
4  6798 6610 6612 6608
4  7498 7521 6196 6523
4  6848 6849 6196 6523
4  6980 6863 6978 6979
4  7693 6201 6897 6199
4  7423 7163 7170 7165
4  7690 7693 7521 6195
4  6897 6849 6196 6199
4  878 7450 6077 6078
4  6848 6523 6526 6847
4  7431 7162 7930 7432
4  7134 7004 7062 7000
4  7498 6897 6463 6849
4  7521 7518 6196 6523
4  488 770 7237 6487
4  6559 6588 6790 6487
4  6441 6440 6442 6211
4  6751 7237 6790 6442
4  799 6777 8222 6675
4  931 8236 6857 6678
4  6824 6825 7503 7495
4  6916 6825 6812 7495
4  8244 6579 6538 6292
4  6587 6026 6036 7483
4  6665 6658 6657 6659
4  8102 6291 6188 6190
4  7851 6825 6828 6826
4  8023 8015 8021 8013
4  6916 6614 6812 6825
4  6964 6962 6960 6671
4  7308 7264 6962 7309
4  6964 6960 6962 7264
4  6965 6670 6962 6671
4  8023 8021 8017 8013
4  7853 7854 8157 6930
4  8016 7853 8017 6931
4  6553 6554 7860 6550
4  8016 8058 7853 6836
4  6959 6962 6670 6671
4  7247 6285 8022 6278
4  6935 6938 6933 6932
4  6598 7308 6965 7309
4  7451 6709 6934 6154
4  7548 6708 7457 6775
4  7883 7781 6962 7309
4  7780 6959 7883 6670
4  6835 8015 6935 6836
4  8016 7456 8058 6836
4  6835 7458 6088 6710
4  7599 6411 7243 8245
4  6835 8015 7458 6935
4  8114 8115 8246 8116
4  7408 8247 8153 7142
4  5981 5983 5982 6872
4  6871 6065 6697 6872
4  6409 7567 6413 6411
4  6415 6413 6443 6411
4  6792 6235 7344 7263
4  7492 7780 6029 6030
4  7103 7893 7992 6368
4  6369 7103 7992 6368
4  7104 5987 7617 5988
4  7103 6649 6652 5988
4  6272 6277 7006 6269
4  7103 7893 6368 6652
4  7805 7172 7173 5984
4  5977 7972 5985 5980
4  6669 7782 6670 6108
4  7137 7136 8162 6402
4  7555 7268 6963 6960
4  8248 6693 7265 6074
4  6966 6669 6964 6671
4  7555 8247 7408 6963
4  903 6401 6359 6360
4  7105 6370 6368 5979
4  6923 6927 7177 6925
4  8187 7683 7990 7685
4  7202 6924 7204 7210
4  7202 6158 6924 7210
4  6922 6927 6923 6925
4  6820 6819 7203 6924
4  7287 7202 7591 6158
4  8166 6819 6922 6924
4  6696 8249 6803 6697
4  7746 7836 7659 7590
4  7105 7989 7916 6370
4  8250 7359 7970 7360
4  7320 6274 6895 7064
4  6366 7175 7105 6370
4  7971 7180 7173 6882
4  7627 7626 6272 6273
4  8130 7104 7725 7617
4  7320 7004 7003 7064
4  7987 7997 7103 7983
4  595 82 78 6877
4  6369 5978 6368 5979
4  6935 6931 8013 6932
4  7954 8130 8251 7209
4  7614 6648 7997 7618
4  6933 6279 6930 6932
4  6663 7177 6662 6659
4  6278 6929 6930 6932
4  8157 6930 7854 8204
4  7160 6955 6948 7157
4  7158 7370 6869 6950
4  8046 7972 7179 7728
4  8130 8252 8251 7208
4  7853 6929 6931 6930
4  6654 7101 6655 6651
4  8252 7725 7727 7724
4  7726 7725 8061 5986
4  6415 6443 7599 6411
4  7186 8045 6833 6413
4  6205 6833 6204 6413
4  351 220 349 6711
4  7819 8141 6783 7807
4  488 8003 8077 7241
4  6717 6718 6012 6338
4  6718 7995 7978 6338
4  6443 6442 6438 6211
4  7940 7936 7091 7938
4  7039 7341 7340 7032
4  6204 6216 6785 6833
4  6844 8253 6016 6009
4  8212 7644 7938 7941
4  6718 6013 6011 6012
4  7091 7939 7088 7579
4  7091 7579 7088 7085
4  135 365 128 6209
4  8007 7935 7937 7579
4  7580 7583 8007 7579
4  7936 7937 7935 7579
4  8254 7090 8054 7941
4  7578 7082 7580 7085
4  5974 5968 5975 6558
4  6561 6739 6576 6558
4  6990 6354 6673 6362
4  7219 6561 8137 6739
4  6134 6144 6142 6470
4  6090 7848 6101 6449
4  7047 7046 7045 6373
4  8137 5974 6093 5975
4  819 179 180 6452
4  741 5976 528 5975
4  6744 6743 6330 6747
4  741 642 8159 5975
4  6933 6279 6938 8091
4  857 203 856 6286
4  7071 8111 8151 6143
4  6501 6502 6280 6503
4  6285 8022 6278 6288
4  8163 6618 8255 6144
4  6280 6279 6282 6281
4  7463 6501 6280 7462
4  7356 7363 6909 6906
4  939 726 6118 6116
4  7356 8256 6904 6905
4  8041 7885 8067 7343
4  8041 8067 8256 7343
4  6916 6809 6315 7495
4  6454 6444 6446 6407
4  6140 8163 8151 6138
4  7371 6642 7372 6643
4  6258 8168 8118 6259
4  7355 8067 7357 6904
4  6903 6904 7884 6905
4  7660 6164 6163 7210
4  7725 5987 7724 7617
4  6655 7891 7333 6652
4  6648 6650 6649 7618
4  8257 7675 7209 6653
4  6650 7209 6653 6651
4  7101 6652 6655 6651
4  8142 6656 6889 6658
4  6813 6653 7230 6819
4  6813 6820 6822 6815
4  7331 7332 8086 7333
4  6813 6653 6814 7333
4  7852 7652 7854 8204
4  6664 6662 6661 6658
4  8258 7913 7909 7652
4  7287 7177 6663 6659
4  8259 7178 6926 7330
4  6395 6393 7909 6388
4  8086 7333 7893 6652
4  6650 6649 7104 6651
4  6371 6370 7175 7171
4  7105 7989 7993 7916
4  8188 8258 7908 7652
4  7102 6368 6652 5988
4  7334 7335 7329 7328
4  8258 7909 7908 7652
4  6155 7652 8188 6149
4  7566 8045 7567 7569
4  6155 6156 7852 7652
4  6443 6413 7569 6411
4  7852 8258 7652 8204
4  6416 7087 7189 7084
4  7677 8250 7843 7970
4  891 984 890 8260
4  7012 7010 7013 7011
4  6808 6917 6811 6812
4  6917 7010 6122 7011
4  6660 8142 6661 6658
4  6223 6588 6589 8074
4  6450 6790 6588 8077
4  6681 6680 5993 6678
4  6680 6675 6674 6677
4  6856 6680 6679 6674
4  7052 6857 5989 6680
4  7642 6219 6540 6646
4  888 6646 6589 6645
4  7052 5989 6679 6680
4  8236 5993 6680 6678
4  8236 5989 6680 5993
4  6488 6227 6490 6489
4  8196 7940 7086 7941
4  7134 7062 7066 7000
4  6225 7249 7250 6220
4  7106 8261 7107 6176
4  6762 7820 7346 6223
4  7642 6615 6540 6219
4  8054 7578 7938 7090
4  6205 7187 7651 7188
4  6479 7034 7706 6767
4  6997 7653 6998 7000
4  7724 6365 7101 5988
4  6040 6042 7319 7005
4  7174 8148 7917 7646
4  7344 6786 6961 6789
4  7847 8123 7687 6263
4  7626 7029 6272 6274
4  7310 6230 6229 6236
4  6791 6787 6071 7261
4  7320 7003 7063 7064
4  7874 7875 8148 7827
4  6997 7005 6040 7004
4  7318 7005 7002 7004
4  7138 6832 6337 6340
4  6216 6785 6833 6340
4  7677 7970 6662 7288
4  7174 8148 7175 7917
4  7119 7117 7172 7121
4  6258 8168 6259 6261
4  6218 6328 6785 6340
4  7175 7989 7105 6370
4  7752 7529 7753 6638
4  6832 7543 6833 7366
4  6409 6410 7567 6411
4  8167 7931 7930 7163
4  7964 7414 7871 7415
4  194 177 719 6378
4  6722 7201 6715 6716
4  7600 6409 6414 6412
4  6831 8045 6785 6833
4  7863 7957 7447 7446
4  7186 6832 7543 6833
4  6289 8027 8262 6183
4  6415 6205 6204 6413
4  7861 6795 6794 6796
4  7619 7624 8185 7621
4  8143 7620 6192 7623
4  7513 7709 7544 7514
4  6860 6510 6384 6383
4  7147 7146 8143 7620
4  6970 7166 6971 6968
4  7405 7406 7407 6864
4  7459 6498 6499 6044
4  6590 7345 6591 7309
4  6844 6016 6013 6009
4  7752 6636 7529 6638
4  7619 8107 7620 7412
4  6102 6192 7146 7620
4  6771 6059 6051 6570
4  7376 7859 6851 7378
4  6314 6312 7501 6311
4  8080 7051 6767 6768
4  7763 7761 7802 7335
4  6479 6767 6480 6059
4  6770 6773 6771 6768
4  7858 7749 7761 7762
4  8263 7764 7332 7335
4  6331 6330 7400 6332
4  6650 7616 7209 6651
4  7334 7765 7335 7632
4  6058 6566 6479 6056
4  6990 6780 6354 6363
4  6122 6123 6124 6363
4  6991 6122 6811 6124
4  7433 7424 6968 7165
4  7809 6393 6238 6240
4  6354 6363 6123 6120
4  8063 6428 7998 6002
4  6000 6002 6008 6003
4  6917 6119 6122 7010
4  6122 7010 6119 6427
4  7162 7163 7930 7432
4  7014 6812 6810 7011
4  6991 7183 7497 6806
4  7811 7197 7562 7199
4  7711 8121 7411 6607
4  6991 6122 6428 6811
4  7015 6427 7010 6428
4  6484 6486 6489 6222
4  6605 7710 8185 6607
4  6225 6220 6226 6222
4  6615 6219 7242 6588
4  6219 6450 7242 6588
4  7904 7729 7896 7278
4  6660 8070 7970 6661
4  6820 6928 6822 6821
4  7371 7372 6995 6347
4  8259 8030 7178 7330
4  7281 6640 6641 7283
4  7765 7753 7857 7762
4  6219 6223 6588 6646
4  7599 8245 6416 6412
4  7371 6995 6996 6347
4  7371 7639 7284 7285
4  6844 6013 6334 6095
4  7250 7243 6410 8245
4  7752 8064 6636 6639
4  8196 7941 7086 8245
4  6955 7161 6317 7157
4  6409 7512 6410 6412
4  6951 6950 6949 6886
4  7599 6411 8245 6412
4  6410 7243 6411 8245
4  8079 6336 6014 6700
4  7284 6642 6643 6641
4  6345 6643 8034 6347
4  7286 8064 7752 6641
4  7752 6641 8064 6639
4  7898 7818 7277 7278
4  7158 6869 7159 6950
4  8064 6345 7369 6643
4  8034 6643 7371 6347
4  7372 6643 6642 6639
4  7895 7279 7159 7157
4  6816 8105 6845 6039
4  6038 6039 6035 6027
4  6910 8001 6038 6039
4  7327 7628 7334 7328
4  8050 6910 6846 6039
4  7239 6438 6443 6442
4  6438 7241 6440 6442
4  7334 7632 7335 7328
4  7230 7233 7231 7224
4  7242 7239 7240 6451
4  6615 7242 6219 6226
4  7642 6484 6219 6646
4  8100 7961 8241 7397
4  6868 6869 6343 6344
4  7896 7729 7897 7278
4  7642 8260 6484 6646
4  7897 6869 7404 7159
4  6956 6317 7161 7157
4  7242 6226 7243 6220
4  7897 6867 6869 7159
4  7158 7403 7370 6950
4  8132 6744 7695 7502
4  6219 6223 6450 6588
4  6714 6716 6257 6252
4  8103 7411 6607 7412
4  6889 6657 6667 6658
4  7754 6623 7945 6625
4  7381 7383 6720 6251
4  6247 6250 6252 6249
4  6246 7488 7490 6248
4  7661 7662 6140 6139
4  6140 6138 8151 6139
4  7385 6246 7490 6249
4  7385 7490 7384 6249
4  6660 7176 6656 6662
4  8094 8264 7248 8223
4  8088 6279 6933 8091
4  6133 6130 6374 6131
4  7531 6255 7384 7490
4  7434 7065 8227 7435
4  6169 6765 6644 7654
4  6258 6260 6855 6261
4  7447 7957 7959 7446
4  7709 6796 7870 7545
4  6547 6485 6484 6224
4  6664 7970 7843 6661
4  6492 6494 6485 6486
4  7420 7856 8072 7416
4  6493 7080 7081 7576
4  7833 7080 6493 7576
4  7059 7540 8265 7055
4  7642 6484 6494 6489
4  7642 6484 7833 6494
4  6493 6494 6485 6171
4  7381 7979 7813 7788
4  6493 7080 6494 6171
4  7445 7447 7562 7199
4  6386 6862 6384 6383
4  6169 7081 6171 6170
4  7812 7441 7445 7443
4  7879 7507 7506 7508
4  7315 6093 5974 6701
4  6701 6085 6775 5973
4  7281 7749 6640 7283
4  892 5968 528 5971
4  6666 7842 6667 6658
4  7867 6277 7008 6687
4  8266 7867 7028 6277
4  6272 6276 7006 6277
4  7006 6277 6942 6687
4  7892 8177 7763 7764
4  6941 6687 6690 6691
4  7028 6277 6276 6274
4  8266 7028 6937 6277
4  6755 6352 6118 6120
4  794 882 797 6354
4  6890 6952 7630 7634
4  6917 6121 6115 6117
4  7649 7298 7116 6533
4  6122 6350 6349 6427
4  6119 6755 6118 6120
4  7915 7916 7685 7917
4  6122 6123 6363 6120
4  6118 6354 6123 6120
4  6008 6350 6349 6351
4  7174 8220 7647 7646
4  798 6354 6118 6352
4  794 6354 6352 6351
4  6000 6700 6349 6362
4  794 6673 882 6354
4  441 799 443 8222
4  8187 7377 7685 7894
4  441 5994 6678 8222
4  7774 7303 7668 7302
4  7526 7528 7749 7527
4  7670 7672 8168 6875
4  7667 7296 6419 7291
4  443 6728 8221 8222
4  7129 6041 7307 7319
4  7625 7129 7626 7064
4  8067 7885 6904 7343
4  6046 7153 7150 6049
4  7538 7023 7022 7539
4  7886 7885 7926 7734
4  6040 6050 6042 7005
4  7588 8267 7759 6047
4  7982 6050 7745 7005
4  7061 7745 6050 7005
4  6997 7005 6999 7311
4  6997 7004 6040 7128
4  8053 7421 7420 7422
4  7470 6567 7469 7390
4  7475 7967 7474 7024
4  8072 7416 7856 7947
4  7586 7760 6046 6047
4  7887 6957 7925 7736
4  7760 7469 7539 6047
4  7974 7363 7975 7151
4  7588 7759 7758 6047
4  7421 8208 7946 7923
4  7414 7418 7855 7416
4  7586 7470 7760 7469
4  8268 7767 7770 7768
4  7586 7470 7469 7466
4  7460 7750 7687 7689
4  7588 7468 7584 7466
4  7468 7584 7466 7390
4  7752 7283 6641 6638
4  6403 8269 6400 6113
4  7814 7286 7752 6641
4  6400 6398 6113 6109
4  7629 6891 7282 7632
4  7286 6643 8064 6641
4  6400 8024 7144 8270
4  7284 7285 7633 7282
4  8142 6667 7842 6658
4  7942 8209 7960 7769
4  8271 7337 7338 7339
4  7886 7926 7735 7734
4  7340 8040 8218 7127
4  8269 6028 6400 6112
4  7269 6400 6112 6109
4  83 6142 950 6144
4  950 6144 6142 6143
4  951 8164 8255 6144
4  6138 6144 6143 6132
4  8163 6138 6134 6144
4  7342 7337 7125 7126
4  83 6142 6144 6470
4  7340 7032 7126 7127
4  8163 6134 6618 6144
4  8255 6144 6618 6470
4  8032 7036 7340 7033
4  7289 7295 7672 7294
4  7942 6627 7830 7768
4  8163 8164 6138 6144
4  6134 6462 6467 6470
4  819 6462 180 6142
4  7342 7888 8205 8042
4  819 6142 83 6470
4  271 180 6147 6142
4  6627 7058 7830 7768
4  6134 6132 6138 6131
4  6134 6142 6144 6132
4  83 951 8255 6144
4  8265 7427 8195 7055
4  7693 6199 6196 6197
4  6572 6152 6154 7485
4  6706 6574 6612 6707
4  7451 6709 6154 7485
4  7349 7346 7347 6221
4  7484 6574 6612 7953
4  7484 6574 7953 7485
4  888 6646 6540 6589
4  921 685 688 7654
4  7484 6574 7656 6612
4  6702 6000 6014 6012
4  576 685 891 6644
4  7348 7714 8075 6450
4  7697 7698 8002 7241
4  6718 6012 6338 6095
4  888 1024 767 6589
4  6615 8196 7242 6226
4  6014 6338 6012 6095
4  6213 8272 8127 6177
4  576 6647 6764 6765
4  6014 6012 6009 6095
4  6010 6759 6336 6097
4  6010 6095 6094 6097
4  8079 6014 6000 6700
4  6900 6848 6057 6849
4  6014 6009 6012 6003
4  687 8273 6212 7409
4  6214 6213 8127 6215
4  8274 8272 6179 6177
4  6214 6213 8272 8127
4  8275 7354 7981 6100
4  8275 6100 7981 8078
4  6844 6009 6094 8078
4  8276 6176 6175 6177
4  6844 6094 6333 8078
4  17 8277 56 7594
4  7705 7962 7706 6481
4  7498 8174 6566 6463
4  6010 6094 6009 8078
4  6761 6759 6010 8078
4  8189 6761 6010 8078
4  7170 7163 7864 6716
4  7170 7167 7163 6716
4  8167 7163 7167 6716
4  6372 6987 7591 7589
4  8167 7162 7167 7163
4  8063 7182 7998 6428
4  8112 6141 8111 6143
4  726 6754 6118 6116
4  7123 6791 6066 6071
4  7123 6791 6071 7118
4  6604 6871 5981 6872
4  7800 6618 6134 6467
4  5982 5983 6075 6872
4  6425 6011 6013 6003
4  8278 6091 6090 6092
4  6617 6089 6091 6616
4  7123 6066 6604 7122
4  7805 6075 6072 7122
4  7805 5982 6075 7122
4  7742 6091 8278 6469
4  509 7144 8024 8270
4  8092 7276 7144 8270
4  214 216 215 8278
4  876 6454 6060 6407
4  7227 7141 7743 7311
4  117 509 8024 8270
4  117 8024 6402 8270
4  8053 8208 7422 7958
4  7136 6402 6400 8270
4  8141 6210 6783 7807
4  6790 7237 8077 6442
4  117 6402 8024 7666
4  8257 7675 7207 7209
4  7698 7351 6783 6210
4  7353 7351 7698 6439
4  6335 7138 6337 6834
4  7567 6451 7569 6411
4  8257 7209 6654 6653
4  7954 7207 7675 7209
4  7230 7233 7675 7209
4  756 128 487 6440
4  51 487 6440 6439
4  6491 8279 6762 6485
4  7208 7617 7101 6651
4  7101 6651 7617 5988
4  6037 6025 6580 6027
4  6037 6580 6039 6027
4  962 688 687 6212
4  6816 6580 6024 6027
4  6585 6586 6580 6025
4  6846 6580 6845 6039
4  6615 8196 6559 7242
4  6000 6010 6014 6003
4  6702 6014 6717 6012
4  8280 8273 6766 7409
4  6011 6001 6012 6003
4  6702 6000 8079 6014
4  94 8281 7665 6167
4  7349 6224 7346 6221
4  7349 6488 6491 6224
4  576 891 888 6645
4  7714 7820 8029 6647
4  426 576 888 6645
4  93 6167 6360 6168
4  6165 6939 6166 6168
4  7664 6165 6166 6167
4  685 6765 8273 7409
4  8277 7601 8282 7594
4  7653 7066 6998 7000
4  117 8024 6360 7666
4  6166 6401 6186 6360
4  7750 6638 6637 6639
4  6166 6939 6359 6168
4  6901 6899 8283 6201
4  475 903 6359 6360
4  475 6360 6359 6168
4  7578 7937 8213 7938
4  7526 6851 6855 6854
4  6166 6360 6167 6168
4  8284 6901 8283 6201
4  94 93 8281 6167
4  7665 6186 8155 7666
4  7693 7691 6202 6197
4  109 8175 8126 8237
4  117 903 6360 8024
4  194 5994 8285 6382
4  6465 8217 8126 8178
4  779 770 6751 7237
4  6464 6465 6466 8126
4  7481 6429 7877 7482
4  799 6728 443 8222
4  8174 6466 6465 8126
4  8174 8126 6465 8217
4  6495 6503 6497 6496
4  6041 6023 6019 6018
4  6640 7528 7750 6638
4  6040 7128 6023 6045
4  6021 6562 6022 6020
4  6322 6022 6562 6779
4  194 195 8285 8221
4  531 6023 5 6020
4  6599 6604 6740 6506
4  7052 6679 6856 6680
4  467 6741 6788 6508
4  441 6678 799 8222
4  466 853 467 6508
4  163 997 853 6506
4  6830 6509 6695 6694
4  8244 6579 6292 7148
4  466 378 6508 7391
4  7611 6293 7561 6541
4  8139 8138 8286 6912
4  8216 6465 7692 8217
4  8285 6862 6386 6382
4  6898 7692 6465 8217
4  8139 8138 6912 6037
4  7498 6897 8216 6465
4  6464 6465 8126 8178
4  8179 8178 8176 6478
4  7498 6463 6897 6465
4  8286 6912 6538 6579
4  7686 7687 7750 6637
4  8211 7829 7096 6841
4  8211 7096 7440 6841
4  7440 8228 7096 7098
4  7829 7571 6591 6841
4  8211 6592 7571 6841
4  8286 8287 8244 6538
4  7440 6841 8228 7436
4  6750 6968 7042 6969
4  7515 7514 7041 7424
4  6970 7041 7424 6968
4  7553 7514 6977 7041
4  7553 7041 6977 6978
4  7043 6977 7709 7514
4  6169 6485 7077 6171
4  7715 7719 7522 7520
4  7040 7515 7041 7424
4  7040 7515 7553 7041
4  8150 6287 6501 6563
4  6499 6042 7211 6044
4  7324 6499 6042 7211
4  7749 7528 6640 6638
4  7948 6297 7577 7716
4  6764 6766 8273 6765
4  932 720 931 8236
4  6175 7551 8127 6174
4  6497 7982 6042 6050
4  6614 6115 6406 6063
4  7405 6513 6511 6510
4  6614 6917 6083 6121
4  6917 6811 6122 6124
4  6916 6808 6812 6915
4  8229 6549 8170 5997
4  8262 6183 7482 6974
4  8262 8027 7482 6183
4  6861 6863 6864 6383
4  6289 6183 8262 6974
4  6182 7482 6183 6974
4  6181 6188 6104 6189
4  6753 6430 6433 6946
4  6182 6974 6183 6184
4  7755 7783 7383 6389
4  568 8285 6386 6382
4  6390 7755 7382 6389
4  6289 8262 6973 6974
4  441 443 195 8221
4  6387 6389 6391 6240
4  6390 6391 7755 6389
4  7385 7810 7382 7384
4  7385 7384 7382 6251
4  6452 6455 6749 7030
4  6329 7044 6375 6376
4  6452 6455 6329 6749
4  6060 6406 6405 6061
4  6452 7044 6329 6376
4  6140 6134 6138 6137
4  8186 6387 6388 6389
4  6128 6007 6376 7257
4  8186 6254 6387 6389
4  818 179 819 6452
4  6329 6331 6769 6332
4  6254 7383 6389 6251
4  7382 6389 7383 6251
4  43 6471 6456 6478
4  109 8175 513 8126
4  6466 8126 8237 6478
4  6463 7706 6464 6466
4  6566 6463 8174 6466
4  7942 7830 8209 7768
4  6479 6482 7706 6466
4  8175 6482 6466 8237
4  6084 5970 6079 6085
4  6566 6479 6463 6466
4  117 8162 6402 7666
4  119 117 6360 7666
4  117 934 509 8270
4  7385 7382 6250 6251
4  903 6401 6360 8024
4  7457 7656 6572 6573
4  6751 7599 6441 6442
4  6400 6031 7144 8024
4  6682 6401 6166 6359
4  6029 6112 6672 6108
4  7782 6107 6670 6108
4  7555 7556 6966 6672
4  7556 7270 6668 6672
4  6824 7503 7740 7495
4  8225 7948 6324 6297
4  958 959 963 7550
4  6824 7740 7494 7495
4  7494 6812 6825 7495
4  7493 7495 7496 6807
4  6447 6315 7500 7503
4  8132 6824 6448 7503
4  6315 6809 7496 7495
4  6475 8236 8136 5993
4  8288 6922 6819 6815
4  6813 6819 6820 6815
4  8257 7675 6653 6819
4  6922 6925 6819 6815
4  6820 6925 6821 6815
4  8288 6819 6653 6815
4  6650 7615 7616 7618
4  7418 7855 7416 7419
4  6820 7203 7287 6924
4  8058 6156 6836 6154
4  6835 8093 8015 6836
4  6835 7456 8093 6836
4  5996 5994 5997 5992
4  6835 6836 6935 6710
4  8015 8013 6935 6836
4  7840 7151 8033 7155
4  7853 6836 8058 6156
4  5972 5970 5969 5971
4  8016 7853 6931 6836
4  6619 6620 6742 6745
4  7044 6743 6620 6745
4  8242 7800 8243 6620
4  7044 6134 6467 6620
4  7800 6467 6134 6620
4  6560 6561 6555 6558
4  6798 7711 6738 6608
4  6467 6621 6620 6616
4  6619 6746 6621 6745
4  8017 6931 7853 6929
4  7853 8157 6929 6930
4  131 75 892 5969
4  706 892 527 6086
4  642 528 5968 5975
4  8095 8017 8096 6929
4  8150 6501 6500 6563
4  8023 8017 8095 6929
4  856 203 6281 6286
4  7725 7104 5986 5987
4  6649 7617 6651 5988
4  6686 6689 6685 6268
4  6649 7617 7104 6651
4  7459 6498 8289 6499
4  7954 7616 8130 7209
4  8130 8252 7208 7617
4  7275 7408 8153 7142
4  7724 7617 5987 5988
4  6850 6852 8168 6261
4  875 108 55 8217
4  553 933 233 6856
4  7707 7962 7705 6481
4  7847 6258 6264 6260
4  7847 6258 7425 6264
4  8214 7426 6259 6264
4  6873 8214 7426 6259
4  7825 8197 6876 7293
4  875 8178 8179 6478
4  8201 6873 6874 6875
4  6873 6259 7426 6876
4  8290 8291 7481 6183
4  8026 8028 7877 7482
4  8291 6188 8292 7477
4  108 513 869 8174
4  7597 6381 6309 6308
4  6058 6566 8175 6479
4  109 238 231 8237
4  7706 6466 8237 6478
4  854 286 387 6135
4  8028 8027 7481 7482
4  8262 7482 6515 6974
4  601 7985 7984 7986
4  7877 6429 6511 7482
4  287 9 5 6023
4  8026 6513 7573 7482
4  6830 7216 7266 7876
4  8248 6696 6693 6694
4  6074 6699 6073 6070
4  6692 6688 6110 6683
4  7573 7482 6513 6515
4  8249 8036 8293 5983
4  8158 7316 6708 6701
4  5981 5977 7179 7068
4  7655 6730 6610 6612
4  7457 6708 6573 6775
4  5968 5973 5975 5971
4  220 8294 619 6712
4  528 5975 5976 5971
4  7604 7605 7607 6908
4  6708 6573 6775 6085
4  7456 6573 6836 6775
4  7974 7151 7975 7152
4  8043 6333 6339 6328
4  6709 6836 6573 6710
4  7361 7974 6913 7365
4  6084 6730 5974 6701
4  7946 7735 7926 7734
4  7316 6730 7655 6708
4  6210 6439 6209 6211
4  6783 7351 8044 6218
4  636 365 135 6207
4  6207 7138 6829 6834
4  7352 7354 7351 6217
4  8158 6708 7548 6701
4  8158 7315 7316 6701
4  8177 7894 7377 7764
4  8106 7377 8177 7894
4  6415 6413 6411 6412
4  6790 6487 6588 8077
4  7875 7873 7684 7682
4  7697 8002 8003 7241
4  8295 7354 7352 8190
4  6246 6247 7793 6248
4  7680 7682 7374 7375
4  323 320 319 6838
4  7992 8187 7916 7894
4  7992 8187 7915 7916
4  7875 7685 7917 7827
4  7655 6708 6730 6612
4  8220 7915 7990 7917
4  76 528 75 5968
4  131 811 75 5969
4  7989 8106 7916 7685
4  6372 7453 6987 7075
4  6449 6081 6613 6406
4  6062 6447 6064 6063
4  939 966 834 6115
4  7989 7875 7685 7917
4  6014 6010 6009 6003
4  6318 7842 6312 6313
4  680 7742 6469 6470
4  6013 6012 6009 6003
4  7182 7015 6810 6811
4  551 7226 7232 7224
4  818 6452 819 6468
4  6000 6349 6008 6002
4  7899 7496 6809 6805
4  6062 6916 6447 6063
4  378 608 607 7876
4  748 8239 6603 6601
4  8018 8296 8020 6015
4  6425 6002 6001 6003
4  6879 6880 8297 6877
4  992 6603 6599 6600
4  8063 6426 6427 6002
4  6603 7123 6599 6604
4  8296 6008 6015 6009
4  8018 6016 8296 6015
4  7700 7583 7467 7582
4  7310 6230 6236 7263
4  8036 6076 6072 6075
4  7702 7582 7636 7191
4  8298 7702 7636 7191
4  7192 7193 7246 7191
4  6603 7174 5981 7068
4  7680 7380 8299 6852
4  7192 7636 7703 7191
4  6014 6095 6010 6097
4  6333 6339 6328 6096
4  8207 7767 7769 7736
4  35 33 870 7352
4  6888 6665 6667 6657
4  6844 6009 6013 6095
4  7529 6636 7688 6637
4  7955 8300 8147 7778
4  8301 7207 8302 7675
4  6814 8259 6926 6823
4  6559 6589 6588 6487
4  493 918 495 6576
4  7891 7893 7332 7333
4  7331 8087 7327 7329
4  7954 8251 8301 7207
4  7954 8301 7674 7675
4  767 6589 6559 6487
4  6648 8087 8086 7333
4  7101 7102 6655 6652
4  7134 6778 7305 7128
4  6540 6646 6588 6589
4  6588 6487 6589 8074
4  7238 7229 7236 7114
4  6598 6591 7781 6593
4  385 854 387 7306
4  6997 6319 6778 6045
4  6223 6450 6588 8074
4  6223 6588 6646 6589
4  6540 6219 6588 6646
4  6545 7255 6321 6502
4  8303 6981 6861 5998
4  6981 5999 6861 5998
4  8232 5998 8303 5997
4  6918 6957 7887 7736
4  6681 5997 5994 5992
4  8232 5991 6473 5990
4  7322 7459 8289 7211
4  6498 6504 8264 6495
4  6284 6280 7463 6287
4  8232 6483 5998 5990
4  7322 7326 7459 7211
4  5999 5990 5989 5992
4  5999 5996 6861 5998
4  5989 5991 6681 5992
4  8093 7456 8016 6836
4  8093 8016 8015 6836
4  8117 7796 7953 6608
4  6278 6938 6279 6288
4  6798 6612 7953 6608
4  7484 6612 6611 7953
4  6572 6154 6574 7485
4  7919 7214 6024 6581
4  6706 6574 6709 7485
4  642 8159 5975 6739
4  6706 6798 6612 7953
4  346 7669 8112 6146
4  344 7669 346 6146
4  344 6376 7257 6147
4  7919 7016 7454 6581
4  7613 6587 6026 6025
4  7886 7884 7926 7885
4  271 6143 6142 6132
4  6145 6147 6142 6132
4  180 6145 6147 6142
4  7839 7926 6914 7357
4  8112 6146 6141 6143
4  6961 6962 6960 7264
4  6964 6699 6960 7264
4  51 870 52 7353
4  986 308 6726 6727
4  960 8304 780 6034
4  913 7612 6026 6032
4  7919 7213 7220 7214
4  7852 6933 6279 6930
4  6573 6775 6085 6710
4  6792 6786 6069 7264
4  93 475 733 6168
4  7456 6572 8058 6573
4  7308 7310 7262 7263
4  7308 7309 7310 7263
4  7883 6961 7344 6962
4  7145 7148 6292 6193
4  6294 8287 8102 6292
4  7145 7146 7148 6193
4  6293 6292 7148 6193
4  7598 6291 6292 6537
4  8244 8287 6294 6292
4  6066 7122 6075 6872
4  8102 6292 6291 6190
4  6726 6038 6727 6033
4  829 7997 988 7985
4  310 8140 6726 6725
4  308 916 310 6724
4  599 861 7777 8062
4  6403 8269 7136 6400
4  454 913 7483 6724
4  8011 8089 7028 6276
4  6114 6113 6399 6398
4  903 8025 6401 6031
4  913 6026 6724 6032
4  6396 6399 6113 6187
4  916 6535 8140 6725
4  642 76 495 6556
4  510 7275 7142 7144
4  7556 6668 6966 6672
4  509 8092 7144 8270
4  8305 7726 8230 7728
4  8305 8230 7971 7728
4  7726 5986 8046 7728
4  7726 8061 8046 5986
4  8046 5986 7972 7728
4  6185 8160 7135 6397
4  772 773 8010 6943
4  359 7452 6938 8091
4  856 6281 8091 6288
4  8306 8307 7267 6960
4  6278 6279 6938 6932
4  898 6933 7452 8091
4  733 772 734 6944
4  607 7882 7216 7876
4  856 895 8091 6281
4  6803 7185 6065 7184
4  6669 6672 6108 6671
4  8307 6966 6964 6960
4  7267 6960 8307 6698
4  7555 6966 8306 6960
4  6959 6670 6029 6671
4  6961 6960 7268 6698
4  6694 6067 6070 6068
4  6788 6792 7344 6786
4  608 616 607 7882
4  6959 7268 6961 6960
4  7120 6071 7261 7118
4  403 787 8052 7143
4  8307 6960 6699 6698
4  7266 7268 6695 7876
4  846 746 595 6859
4  7174 8239 6371 5977
4  6604 6065 6871 6872
4  8306 6966 8307 6960
4  8253 8296 6016 6009
4  8296 6010 6008 6009
4  6928 8308 6822 6821
4  6717 6014 8079 6336
4  6799 8113 6006 6988
4  6425 6016 6015 6003
4  6830 7185 7216 6509
4  8079 6712 6336 6700
4  7232 7808 7287 7226
4  339 752 340 7259
4  8309 8039 8038 7222
4  6133 8111 7999 6141
4  6844 8189 8253 6009
4  7888 7885 8041 7343
4  662 829 861 7777
4  8248 8035 6696 6076
4  8307 6964 6699 6960
4  8232 5998 5991 5990
4  8170 6681 5991 5997
4  403 510 787 7143
4  7882 8247 7266 7881
4  8232 8170 8234 5991
4  7050 7051 6772 6472
4  608 7882 7876 7881
4  7555 8306 7267 6960
4  6858 7051 5991 6472
4  6679 6681 5989 6472
4  7110 7549 8183 7713
4  8184 8215 8165 7572
4  5991 5998 5997 5992
4  7721 8215 6529 6528
4  901 780 6032 6034
4  488 979 417 8077
4  7789 6247 6714 6257
4  7704 7432 7423 7164
4  6588 8077 6487 8074
4  6967 7164 6968 6969
4  8075 8002 7240 8077
4  417 6487 8077 8074
4  8026 7405 6513 6511
4  979 8076 417 8077
4  7162 7167 7163 7165
4  8122 7793 7789 7792
4  7616 7618 7615 7777
4  429 8056 6436 7479
4  7614 7615 7618 7777
4  7618 7985 7777 8062
4  7616 7104 7618 8062
4  7275 8092 7276 7144
4  738 885 466 7391
4  885 787 608 8052
4  7614 7618 7997 7777
4  7344 6235 7345 7309
4  6073 6699 6069 6070
4  6966 6964 6960 6671
4  7997 7618 7985 7777
4  6918 7887 7886 7734
4  7997 7618 7983 7985
4  853 467 6508 6506
4  7987 7997 7983 7985
4  7969 8072 7856 7947
4  8068 7418 7947 7154
4  7538 7022 7969 6048
4  8068 7947 7022 6048
4  7476 7018 7474 7472
4  6497 6050 6042 6043
4  6545 6321 7816 6546
4  7471 8072 7474 7415
4  7964 7967 8068 7947
4  8258 7913 7912 7909
4  7414 7957 7863 7417
4  8310 7863 7417 7564
4  7967 8068 7947 7022
4  387 6135 7131 7306
4  531 6023 6019 7645
4  532 531 8311 7645
4  7547 7563 7545 7198
4  532 8311 8182 7645
4  6513 6511 6510 6435
4  6517 6864 6863 6383
4  7563 7546 7445 7198
4  8252 7724 7208 7617
4  6517 5996 5999 5995
4  7709 8073 7870 6796
4  6433 6385 6435 6383
4  7552 6864 7407 6863
4  7407 6861 6981 6863
4  8203 7430 7533 7536
4  7552 7573 6864 6514
4  6415 6414 6413 6412
4  7251 7252 7900 7253
4  7405 7573 6513 6864
4  7107 6176 7077 6171
4  8260 7081 6493 6548
4  7651 7650 7251 7254
4  7833 6303 7080 7576
4  6173 7576 6296 6307
4  6425 6013 6016 6003
4  8260 6493 7081 7576
4  7694 7251 7902 7273
4  6205 7651 7138 7366
4  487 488 7237 7241
4  6205 6216 6204 6833
4  6205 6833 6413 6414
4  7150 7152 6047 6049
4  6058 6571 6565 6053
4  6098 6216 6100 6208
4  6829 6098 6336 6099
4  8005 7937 7935 7519
4  7933 8008 7934 7386
4  6713 6712 6700 6711
4  349 6713 6760 6711
4  6324 8312 8226 6304
4  8294 6336 8079 6712
4  7389 6567 7390 6519
4  8203 8206 8041 7887
4  6829 6336 8294 6099
4  7717 8213 8005 7519
4  220 6336 8294 6712
4  7580 7581 8007 7583
4  7991 8263 7764 7332
4  8106 7875 7684 7685
4  7379 6851 7526 7378
4  8118 7295 8197 6876
4  7845 8299 6874 7673
4  8177 7377 7378 7764
4  8210 7570 8184 7097
4  6493 6169 7081 6171
4  6766 6547 6169 6765
4  8280 6169 6180 7409
4  688 7654 7409 6215
4  7289 7672 7671 7294
4  7721 7301 8215 7303
4  685 7654 6765 7409
4  8273 6765 6766 7409
4  8313 7292 6876 7293
4  7723 7375 7673 7302
4  6180 6215 7409 6170
4  7526 7378 6851 7527
4  8169 7377 7894 7764
4  688 7654 687 7409
4  685 687 7654 7409
4  7187 7650 7651 7188
4  7699 7467 7641 7582
4  6703 7996 6635 6705
4  7078 7654 6215 6170
4  6632 6635 7394 7393
4  7187 7189 7650 7193
4  7580 7511 7581 7089
4  7244 7274 7737 7253
4  6792 6069 6787 7261
4  6212 7409 6180 6215
4  7438 7436 8228 6840
4  921 7078 7081 7654
4  6527 7721 6529 6528
4  6237 6529 7570 6233
4  685 687 688 7654
4  8006 7793 8122 7796
4  6276 6357 6942 7542
4  6255 6253 6254 6249
4  733 773 772 6943
4  8011 6942 6945 6943
4  7890 7907 6256 6257
4  6942 6357 6358 7542
4  6611 7953 6612 6608
4  7872 8310 7420 7417
4  821 7963 6777 6456
4  7421 7856 7416 7419
4  6125 6357 6127 6358
4  7471 7861 7872 7472
4  6276 6127 6357 7542
4  542 773 541 7542
4  542 8010 773 7542
4  7028 6937 6277 6274
4  6936 7028 6894 6274
4  8087 7327 7329 6823
4  6888 6665 6666 6667
4  7657 7660 7659 7204
4  6084 5968 6079 5970
4  7320 7574 6274 7064
4  6318 6884 6666 7842
4  6896 6895 7320 6274
4  7281 7761 7749 7283
4  6937 6274 7574 6269
4  7371 7284 6642 6643
4  7897 7278 6867 7159
4  6894 7029 6895 6274
4  6995 7372 7039 7369
4  7638 8034 7285 7370
4  7124 8314 7031 7033
4  7192 7194 7193 7084
4  7895 7896 7159 7279
4  6951 7638 6952 6949
4  6936 6894 6896 6274
4  761 762 804 8315
4  7372 6643 7369 6347
4  7604 7607 7606 6908
4  8241 7961 7608 7607
4  7158 6948 7403 6950
4  8012 7607 7604 7733
4  8012 7397 8241 7607
4  6992 7035 6993 6342
4  7170 7864 6714 6716
4  7396 8009 8098 7397
4  8098 8314 7961 7608
4  8310 7446 8053 7417
4  7980 7788 7383 6720
4  7447 7446 7442 7443
4  7813 6715 7788 7199
4  7200 6715 7813 7199
4  6746 6744 6747 6745
4  7037 6827 6621 6748
4  6446 6448 6747 6748
4  7445 7199 7562 7198
4  8053 8208 7421 7422
4  8053 7446 7960 7958
4  7414 7855 7957 7422
4  6744 6743 6747 6745
4  7753 7527 7762 7283
4  7871 7415 7414 7417
4  6329 6749 6455 6743
4  8209 7769 6919 7736
4  7533 7534 6958 7536
4  6092 6749 6621 6748
4  8167 7907 7790 6716
4  8167 7790 7163 6716
4  7864 7789 6714 7790
4  7789 6714 7790 6257
4  8200 7922 8316 7057
4  8208 7960 8209 7958
4  7945 6629 6631 6625
4  7447 7959 7449 7442
4  7200 6715 7201 6716
4  7170 6714 7200 6716
4  7167 7201 6716 7169
4  7907 7201 6722 6716
4  6633 6994 6635 7730
4  7942 7960 7442 7769
4  7812 7445 7813 7199
4  8207 7769 7959 7958
4  7731 6994 6865 6344
4  7035 7961 6993 6342
4  6992 6348 6342 6344
4  7559 7398 7396 7394
4  8098 7961 7397 7607
4  7035 7033 7961 6342
4  8100 7035 8241 7961
4  7396 7961 7124 6993
4  6865 6993 7124 6342
4  7761 7335 7762 7632
4  6814 7329 8259 6823
4  6972 7573 7554 6515
4  6516 6947 6433 6517
4  6750 6516 6753 6434
4  927 883 148 6377
4  8259 7329 7328 7330
4  7516 7170 7200 7169
4  825 554 562 8172
4  7624 7432 7621 7623
4  6982 5999 6477 6979
4  7040 7433 7515 7424
4  8259 7328 8030 7330
4  719 820 720 8136
4  7628 7328 7330 6892
4  26 6283 25 6779
4  6980 6517 5999 5995
4  6050 6043 6326 6320
4  482 6022 6562 6020
4  6501 6503 6280 7462
4  612 6323 7255 6779
4  7061 6997 7005 6045
4  920 6380 8317 6431
4  7043 8318 7709 6977
4  7061 6050 7745 6327
4  720 8136 8236 7428
4  820 6947 6378 6946
4  6516 6517 6514 6978
4  7324 6042 7319 7211
4  6040 6041 7319 6042
4  6322 6502 6501 6496
4  6380 6384 6461 6385
4  719 820 8136 6378
4  6335 6338 6014 6096
4  804 555 8319 7557
4  6335 7994 6717 6338
4  6335 7535 7994 6338
4  7748 7747 6355 7006
4  6703 7996 7558 6635
4  94 119 93 6167
4  8211 6592 7828 7571
4  6717 6719 6718 7996
4  7978 6337 6339 6096
4  8320 6894 7321 6895
4  6718 6334 6013 6095
4  8025 7748 6355 6356
4  6335 7535 6338 6337
4  7129 7307 6041 7131
4  6179 6169 7077 6172
4  7814 7282 7283 7632
4  7275 7276 7408 7271
4  6178 8276 8321 6177
4  6178 8274 6179 6177
4  6499 6497 6042 6044
4  7459 6499 7211 6044
4  6495 8223 6503 7462
4  6321 7255 6323 6322
4  482 8 612 6779
4  865 8150 6564 6563
4  7281 7631 7761 7632
4  6502 6546 6544 6326
4  109 108 875 8126
4  7111 6422 6423 7093
4  6495 8223 6543 6503
4  8223 6552 6553 6544
4  6073 6699 7262 6069
4  6072 7120 7119 6071
4  8223 6503 7462 6552
4  6495 7462 6503 6496
4  6497 6327 6050 6326
4  7135 8161 7132 6397
4  8092 7136 7276 8270
4  7866 6690 6941 6687
4  8269 8173 8322 6111
4  6213 6180 8127 6215
4  7550 8127 6174 6215
4  6212 6180 6213 6215
4  962 688 6212 6215
4  963 959 688 6215
4  6090 6449 6101 6408
4  7003 7001 7062 7000
4  7276 7270 7408 7271
4  7134 7004 7129 7064
4  6897 6899 6463 6902
4  7321 7307 6041 7319
4  8320 7325 6896 6895
4  8248 6694 6074 6068
4  7344 6961 6786 7264
4  6894 7029 7307 6895
4  8175 6466 8126 8237
4  8180 7435 7066 7062
4  7906 8000 7914 7913
4  8109 8085 7914 6393
4  6693 7266 7267 6698
4  7912 7914 8108 6393
4  8167 8120 7930 7931
4  8000 6393 7914 7909
4  7610 6737 8107 6584
4  7613 6581 6731 6584
4  7147 8107 7146 7620
4  6247 6257 7792 6248
4  642 6739 5975 6558
4  7816 8083 7817 6734
4  6585 6846 8139 6037
4  454 913 915 7611
4  7905 7816 8083 7817
4  6737 6738 7411 6606
4  8082 8109 6735 8085
4  7247 6285 6278 6280
4  8082 7914 8085 6734
4  7823 7508 7510 6421
4  7290 6419 7929 6424
4  7642 6219 6484 6489
4  6178 8274 8323 6179
4  7721 7300 7303 6528
4  8321 8324 8274 6177
4  8165 7771 6418 7772
4  7929 6419 7772 6424
4  7092 6424 7094 6423
4  7928 7929 7844 7772
4  8165 7928 7772 6424
4  7928 7094 7092 6424
4  7407 6864 6861 6863
4  6483 5999 6981 5998
4  108 513 8174 8126
4  6703 6635 7560 6705
4  8325 7818 6633 7730
4  7560 6705 6635 7730
4  6702 6717 6703 7996
4  6702 6719 6717 7996
4  6719 6633 6635 6705
4  7247 8095 8096 6929
4  7905 7817 7913 6550
4  8211 7440 6592 6841
4  7745 7834 7311 6327
4  7247 8096 6552 6929
4  7326 6041 8326 7645
4  7956 7852 8090 6551
4  809 8311 531 6019
4  6042 7211 6044 6018
4  8094 7247 8096 6552
4  8223 6503 6552 6544
4  6543 8223 6553 6544
4  6323 6022 6322 6779
4  7248 8223 7462 6552
4  805 6562 6563 6020
4  6604 6505 6506 6600
4  8230 7726 8046 7728
4  6564 6017 6019 6563
4  7326 6017 6500 7211
4  7670 6875 6852 7673
4  6850 6855 6851 6261
4  601 595 7972 6859
4  6850 6851 7374 6852
4  7101 6365 7102 5988
4  7380 6852 6851 6261
4  7726 7727 7725 5987
4  8201 6852 7380 6261
4  8201 8299 7380 6852
4  7946 7923 7735 7734
4  6366 7971 7173 6882
4  7915 7916 8187 7685
4  7614 7615 6650 7618
4  7725 7727 7724 5987
4  7726 7725 5986 5987
4  5977 5985 5978 5980
4  6881 5983 7180 6882
4  6365 6368 7102 5988
4  7855 7422 7419 7923
4  7855 8004 7422 7923
4  7548 6835 6088 6775
4  7887 7925 7734 7736
4  8207 8004 7925 7736
4  6798 6738 6610 6608
4  7837 7419 7838 7155
4  7313 7219 7213 6561
4  7837 7419 7946 7838
4  7421 7422 8208 7923
4  6983 6985 6162 6160
4  7453 6159 6986 7401
4  7484 6611 8117 7953
4  7484 7656 6611 6612
4  8327 7213 6458 6460
4  7655 6610 6611 6612
4  8158 7315 7314 7316
4  6986 6162 7076 6988
4  6586 6582 6584 6025
4  7313 7213 8327 6460
4  6586 6582 7413 6584
4  6983 6159 6985 6160
4  8014 6935 6938 6838
4  6799 6802 8113 6988
4  6800 7076 6162 6988
4  6551 6278 6552 6929
4  8014 6938 6935 8013
4  6079 6078 6709 6710
4  6802 6162 6983 6985
4  6238 6242 7754 6239
4  7349 6224 6221 6222
4  7910 6150 7911 7652
4  7910 7909 7913 7652
4  6219 6489 6226 6222
4  7247 8022 8023 6278
4  6284 7973 6285 6286
4  8157 6554 6553 6551
4  8083 8084 8108 8085
4  6191 7145 6294 6193
4  7610 7613 6587 7612
4  7598 6536 6291 6537
4  7213 6561 7219 7215
4  8328 6762 7346 6224
4  6219 6450 6223 6221
4  8139 6912 8286 6579
4  6762 6223 7346 6224
4  6585 8139 6578 6037
4  8328 6491 6762 6224
4  6693 6830 7266 6695
4  7262 6069 7264 7263
4  6842 6841 7436 6840
4  7260 6229 6532 6236
4  7350 6225 6221 6220
4  6791 6531 6530 7261
4  7275 7408 7142 7271
4  7120 6073 7262 6069
4  7276 6400 6028 7144
4  7260 7115 7120 7261
4  7136 6400 7276 8270
4  510 511 7275 7144
4  6400 6031 6028 7144
4  511 509 8092 7144
4  7852 6156 7854 7652
4  7260 7120 7262 7261
4  7345 6235 7828 6230
4  25 6562 6779 6287
4  8157 6554 6551 8204
4  7434 8227 7436 7435
4  6997 7134 7004 7128
4  7956 7913 8258 8204
4  7627 7625 6273 7437
4  6126 6125 7541 6127
4  7627 7625 6126 7626
4  7063 6273 7064 7437
4  7065 7435 7437 7062
4  8258 7913 7652 8204
4  7627 8181 7625 7437
4  7626 7307 7029 6895
4  7910 7906 6554 7913
4  7910 8000 7913 7909
4  7956 7852 6551 8204
4  7061 7005 6050 6045
4  6842 7440 8181 7436
4  7821 7296 7293 6420
4  8194 8265 8195 7060
4  8183 7713 7549 7095
4  8329 8313 8195 7293
4  8194 7506 7060 7293
4  7007 7574 7063 6273
4  6842 6592 7440 6841
4  7825 6876 7295 7291
4  8244 6538 8287 6292
4  6238 6240 6393 6241
4  8119 6184 6192 7623
4  8121 8120 7931 7621
4  8329 7292 8313 7293
4  7431 7432 7623 6975
4  7704 6967 6752 6975
4  7423 7432 7163 7164
4  7974 7975 7950 7152
4  7587 7846 7975 7152
4  8119 7704 6752 6975
4  329 7918 8090 6281
4  6290 8143 6192 7623
4  7846 7585 7950 7152
4  7951 7585 7465 7152
4  7951 7465 7586 7152
4  7870 6796 7472 7545
4  7588 7587 8267 7152
4  7588 7587 7152 7466
4  7951 7586 7150 7152
4  7471 8072 7968 7474
4  7801 7022 7023 7539
4  8298 7636 7246 7191
4  7192 7245 7703 7636
4  7635 7364 7368 7637
4  7831 7023 7026 6570
4  8298 7635 7252 7246
4  194 719 932 7428
4  7976 7635 7702 7636
4  7043 6977 7041 6978
4  7559 7396 6865 6993
4  6335 7138 7694 6337
4  8100 7397 7394 6993
4  7251 7650 7252 7254
4  8325 7818 7730 7903
4  7976 7702 7701 7636
4  7392 6632 6634 7394
4  7703 7785 7701 7636
4  7245 7786 7364 7637
4  7786 7367 7364 7605
4  6829 7138 6335 6834
4  6291 6293 6292 6537
4  7470 6568 7760 7469
4  7699 7700 7465 7467
4  6718 6719 7995 7996
4  8139 8286 8244 6579
4  8325 6633 6705 7730
4  7182 7181 7998 6428
4  7181 7277 7818 7278
4  6587 6583 6293 7148
4  6525 7387 6518 6519
4  7350 6451 7249 6220
4  7703 7785 7641 7701
4  6578 6583 6579 7148
4  8330 7499 8008 6521
4  6036 6579 6037 6025
4  8054 7090 7938 7941
4  921 688 959 7078
4  8054 8213 8055 7938
4  8193 7125 7337 7032
4  7039 7032 7369 7339
4  7511 7582 7089 7191
4  7521 8330 7518 6523
4  7341 7461 7338 7339
4  8193 7369 7032 7339
4  6522 7518 6524 6523
4  7640 7583 7467 7386
4  7086 7091 7087 7085
4  7751 7460 7339 7689
4  8005 7935 8007 7386
4  7460 7687 7461 7689
4  8005 7937 8007 7935
4  7039 7369 7460 7339
4  7187 6416 7189 6417
4  856 895 359 8091
4  7269 6028 6029 6112
4  7080 7081 7576 6170
4  959 7550 7079 6215
4  7086 7940 7091 7090
4  8054 7578 8213 7938
4  7786 7362 7785 7364
4  585 7576 652 7078
4  7940 8212 7936 7938
4  921 652 7576 7078
4  921 688 7078 7654
4  8331 8261 7575 6176
4  7718 8055 8213 7938
4  8211 7570 7097 7571
4  7803 7505 7206 7508
4  6173 7576 7078 6170
4  6598 6228 7310 6230
4  585 7787 6307 7079
4  7345 7828 6592 6591
4  6965 6962 7781 7309
4  6532 6531 6236 6234
4  799 821 1008 6777
4  6792 6530 6235 7263
4  7773 6232 6528 6234
4  6422 7094 8165 6424
4  799 6676 6777 6675
4  8210 8211 7570 7097
4  6055 6051 6059 6054
4  948 6471 7963 6456
4  7964 8068 7418 7947
4  7588 7152 8267 6047
4  7588 6047 7469 7466
4  7679 6570 6770 6773
4  6771 6570 7831 6773
4  6481 6482 6676 6456
4  7679 7026 7023 6570
4  8073 7475 7476 7018
4  7708 7962 6481 6456
4  7708 6858 8171 8222
4  1008 821 7963 6777
4  7027 7023 7022 7024
4  7021 7968 7538 7022
4  8068 7154 7947 6048
4  7832 7023 6570 6569
4  6084 6079 5968 6707
4  642 5968 76 6556
4  6571 6570 7537 6569
4  892 75 5968 5969
4  6066 6075 6071 6068
4  6072 7122 6075 6071
4  8035 8036 8249 6697
4  6696 6076 8035 6697
4  7625 7064 7437 7062
4  7129 7319 6895 7004
4  6782 6831 8045 6785
4  51 6217 7353 6439
4  7063 7437 7064 7062
4  7512 7083 8254 8245
4  7578 7580 7937 7579
4  7580 7511 7089 7085
4  7936 7933 7939 7935
4  7738 7473 7021 7024
4  7003 7064 7004 7062
4  7434 7439 7007 7437
4  7007 7439 6273 7437
4  6842 7436 8181 7439
4  7438 7439 7436 6840
4  8180 8181 7435 7437
4  6804 7181 7182 6806
4  7418 8069 7840 7154
4  8069 7151 7155 6049
4  6804 7277 7183 7279
4  7356 6905 6904 6906
4  7581 7640 7583 7582
4  7832 8081 7758 6569
4  7758 7759 7801 7539
4  7588 7758 7468 7469
4  8081 7469 6569 6567
4  6242 8200 6623 6624
4  7059 7060 7922 7057
4  7497 7183 7279 6805
4  8186 6254 6389 7384
4  7896 7183 7278 7279
4  7784 7788 6631 7383
4  7904 7278 7896 7183
4  7150 7151 7974 7152
4  7584 7467 7466 7390
4  7606 7608 6905 6908
4  7729 7903 7730 7278
4  6415 6416 7187 6417
4  6723 6991 6428 7903
4  7904 7903 7278 7183
4  7498 8330 6523 6521
4  7785 7950 7701 7364
4  7189 7087 7190 7084
4  6986 7401 6159 6985
4  7591 6158 6987 6159
4  7700 7088 7934 7583
4  6987 6158 7202 7210
4  7580 8007 7937 7579
4  7387 8007 7640 7386
4  7939 7583 7088 7579
4  7388 7390 7387 6519
4  7387 7640 7467 7386
4  7591 6987 7453 6159
4  7687 7689 6637 6263
4  6987 6163 6162 6160
4  7461 7338 7689 6263
4  6986 6985 6159 6160
4  6986 7074 7076 6162
4  7076 6007 6769 6988
4  6262 6263 7429 6264
4  8201 6853 6265 6261
4  7825 7293 6876 7291
4  6444 6455 6747 7502
4  8278 6092 6060 6469
4  8271 7338 8031 6263
4  358 6060 6454 6468
4  7540 7770 6958 7056
4  7755 6630 7783 6391
4  6958 7536 6919 6921
4  6449 6060 6446 6407
4  7756 6391 7757 6239
4  7140 6736 7206 7229
4  7059 8265 7060 7055
4  6064 6063 6447 6407
4  6454 6468 6060 7030
4  7058 8316 7054 7057
4  6452 6454 6455 7030
4  6113 6399 6398 6187
4  7269 6107 6683 6109
4  7563 7863 7564 7198
4  8310 7441 8053 7446
4  6682 6939 6684 6359
4  7863 7957 7446 7417
4  8268 7768 6628 6629
4  6626 7770 7540 7056
4  7664 6186 7665 6167
4  8114 6166 6165 6939
4  7945 6623 6627 6625
4  8114 6166 6939 6691
4  7767 6957 6958 6919
4  6939 6687 6684 6940
4  8203 7430 8031 7429
4  6185 6166 8114 6399
4  8207 7958 8004 7736
4  7214 7217 6576 7215
4  8203 6920 7536 6921
4  6561 7214 6731 6555
4  6024 7612 7217 6032
4  7767 6957 6919 7736
4  7220 6024 7214 7217
4  7220 7217 7214 7215
4  918 783 7218 7217
4  8207 6957 7767 7736
4  8053 7960 8208 7958
4  780 8304 783 7217
4  8203 6920 7430 7536
4  6502 6282 6280 6544
4  7837 7946 7839 7838
4  426 6589 417 8074
4  6178 8323 8332 7077
4  426 8074 8029 6647
4  6492 6485 6494 6171
4  6180 6177 6174 6172
4  8332 6492 7077 6485
4  8075 7240 6450 8077
4  426 425 8029 8074
4  6178 7077 7107 6176
4  417 6589 6487 8074
4  797 6780 1009 6123
4  8002 6438 7240 7241
4  6223 8074 6589 6647
4  426 6589 8074 6647
4  8243 7662 7047 6137
4  7044 6467 6749 6620
4  425 8076 8029 8074
4  215 7742 8278 6469
4  7714 8075 6450 8074
4  7851 6812 6828 6825
4  6447 6825 6445 6063
4  6844 6334 6333 6094
4  351 349 350 6760
4  62 350 349 6760
4  834 966 6404 6115
4  6008 6353 6350 6351
4  6782 7807 6783 6785
4  8133 8135 8141 7569
4  7354 8044 7351 6218
4  6119 6118 6116 6117
4  6780 6991 6124 6363
4  939 6123 6115 6117
4  898 8088 6933 8091
4  51 870 7353 6217
4  6782 8045 7566 7807
4  7568 8134 8135 6451
4  724 6118 6755 6352
4  979 425 417 8076
4  6350 6352 6755 6120
4  6080 6121 6083 6116
4  8141 7698 6783 6210
4  8075 8003 8002 8077
4  7242 6450 7240 6790
4  6178 8321 8274 6177
4  8225 8226 8333 6295
4  6666 7842 6885 6667
4  7948 6325 6324 6297
4  6884 6666 6885 6887
4  6888 6892 6667 6887
4  6664 6661 6666 6658
4  6665 6667 6657 6658
4  8070 8142 7842 6661
4  8321 8272 8324 6177
4  7654 7409 6215 6170
4  8142 6885 6954 7842
4  7186 6409 8045 6413
4  8019 8334 8335 6427
4  8063 6427 7015 6428
4  6324 6304 8226 6297
4  7948 7522 6325 6195
4  6492 6494 7108 6171
4  6169 7409 7654 6170
4  8335 7010 7015 6427
4  6723 6349 6362 6002
4  8020 6008 6350 6015
4  6517 6514 6864 6435
4  6426 8019 8335 6427
4  8119 6752 6184 6975
4  7695 7501 7504 7502
4  7240 8077 7241 6442
4  8026 8028 8057 7877
4  6719 8325 6633 6705
4  7695 7502 6330 7359
4  7843 7501 8071 7359
4  8250 7843 7970 7359
4  6516 6947 6753 6433
4  568 175 177 6386
4  8139 6037 6912 6579
4  7358 7970 8071 7359
4  6331 7359 8250 7360
4  428 6430 6753 6946
4  7558 7394 6635 7393
4  6547 6647 6765 6763
4  6764 6647 7820 6763
4  6169 6644 6548 7654
4  8119 6184 6181 6192
4  8336 6294 8287 8102
4  685 570 8273 6765
4  576 570 685 6765
4  6366 6370 7105 5979
4  6371 7988 5978 5985
4  7987 5978 5985 7983
4  7103 7997 6649 7983
4  6179 6213 8280 6180
4  601 7984 7972 7986
4  576 1002 570 6764
4  5986 5985 7972 5980
4  5978 5986 5985 7983
4  8303 6861 8229 5997
4  6723 7998 6428 6002
4  8232 6483 8303 5998
4  8335 8334 7010 6427
4  8303 6981 7407 6861
4  8303 8337 8229 6861
4  8303 6483 6981 5998
4  8338 8335 8334 7010
4  7014 6810 7015 7011
4  8056 7524 6436 7479
4  7779 6384 6860 6510
4  8026 7877 6511 7482
4  6917 6811 6812 7011
4  6185 6396 8160 6397
4  6810 6811 6812 6807
4  6916 6812 6808 6807
4  6804 6806 6810 6807
4  7849 6082 7848 6828
4  8338 7012 8335 7010
4  7867 6941 6945 6942
4  6939 6361 6168 6940
4  8025 6682 6684 6359
4  6479 7034 6767 6059
4  94 862 119 7665
4  8238 7034 6464 6899
4  7270 6028 6112 6672
4  8339 8129 8340 7034
4  6318 6954 6884 7842
4  6315 6311 7496 6313
4  509 7143 6031 7144
4  6114 6113 6398 6109
4  8116 6692 6114 6399
4  6403 7133 6113 6397
4  7739 7161 7496 6313
4  6955 7741 6317 6313
4  6314 6316 6318 6313
4  6318 6317 7842 6313
4  6316 6956 6317 7161
4  7610 6583 7613 6584
4  6816 6039 6580 6027
4  7613 6583 6587 6025
4  624 986 999 6727
4  7214 7612 6555 6576
4  7016 6586 6581 6580
4  220 6336 6712 6711
4  7218 7220 7219 7215
4  62 6394 6758 6760
4  780 8304 7217 6034
4  6000 6014 6010 6700
4  6829 6098 6099 6208
4  7239 6443 7569 6411
4  6702 6719 7996 6705
4  6102 6181 6104 6192
4  58 6353 6394 6760
4  8049 6818 8099 8001
4  62 58 6394 6760
4  7203 7230 7233 7675
4  7230 6653 7675 6819
4  7674 7204 7221 7675
4  7203 7233 7221 7675
4  8166 7204 8302 7675
4  8257 8166 7675 6819
4  916 711 310 8140
4  7954 7207 8301 7675
4  6809 6805 7496 6807
4  6804 7493 7280 6805
4  901 8341 6034 6727
4  7740 7739 7493 7496
4  8292 7480 6188 7557
4  8336 8102 8291 6190
4  761 711 713 6534
4  6916 6809 7495 6807
4  7899 7280 7496 6805
4  7740 7503 6311 7495
4  7739 7496 6311 6313
4  6316 7496 7899 7161
4  6028 6030 6029 7271
4  788 7275 8153 7142
4  7568 8135 7569 6451
4  6758 6394 6761 6760
4  794 620 6673 6351
4  6702 8079 6717 6014
4  6781 6808 6916 6915
4  6335 6717 6014 6338
4  7276 7144 6028 7271
4  787 7881 8052 7142
4  8247 6963 7268 7881
4  6335 6717 8294 6336
4  8247 7881 8153 7142
4  6104 6293 6291 7561
4  351 349 6760 6711
4  6100 6218 6216 6340
4  35 7352 870 6217
4  8295 6758 7981 6759
4  8295 7981 7354 8190
4  7800 8163 6140 6134
4  6036 6539 7483 6535
4  6270 6103 6105 6271
4  7045 6330 6743 6332
4  7949 7076 7256 7070
4  8342 7949 8037 7256
4  6542 6539 6535 6537
4  339 340 344 7257
4  6133 7880 8124 6139
4  344 340 346 7669
4  6007 6453 7257 7258
4  7661 6374 7662 6139
4  6539 6293 7483 6541
4  7044 6134 6137 6129
4  6452 6329 6331 6769
4  761 713 762 6536
4  761 8315 6534 6536
4  876 6064 6454 6407
4  7808 7589 7202 7226
4  6614 6917 6121 6115
4  6082 6083 6081 7013
4  7353 6217 7351 6439
4  35 51 365 6208
4  33 351 350 8295
4  834 6756 835 6116
4  756 487 488 7237
4  979 8003 8076 8077
4  51 487 128 6440
4  7037 6827 6089 6621
4  6204 6216 6218 6785
4  6122 7010 6428 6811
4  7590 7226 8152 7222
4  7949 7069 7836 7073
4  6122 7010 6427 6428
4  6888 6890 7628 6892
4  8342 8037 7259 7256
4  6987 7202 7590 6163
4  6916 6447 6825 7495
4  433 434 753 7070
4  7038 6827 7037 6748
4  6444 6448 6447 7503
4  7038 6824 7851 6826
4  6757 6119 6755 6116
4  339 752 7259 7256
4  753 7256 6306 7070
4  6122 6349 6350 6120
4  434 752 753 8342
4  6757 6119 8343 6755
4  7868 8343 6350 6755
4  709 7614 7997 7777
4  731 8344 7868 6755
4  6119 6118 6755 6116
4  726 6754 725 6118
4  7746 7590 7659 6163
4  7674 7221 8039 7233
4  7659 7590 7221 7204
4  6987 7074 7589 7075
4  663 171 7225 7231
4  7725 8128 8061 7104
4  550 552 170 7808
4  6984 8047 7360 7288
4  7614 6813 6648 6650
4  599 8062 7985 7986
4  7674 8302 7204 7675
4  7173 6882 5984 7171
4  8249 8036 5983 6697
4  6984 7360 6159 7288
4  6740 6507 6065 6067
4  7591 7677 6663 7288
4  861 863 791 7778
4  662 861 791 7231
4  6369 6371 7988 5978
4  7591 7288 6663 7177
4  8047 7176 6660 6662
4  7677 8250 7970 7360
4  51 52 487 6439
4  8047 6660 7970 6662
4  756 488 770 7237
4  8047 7970 7360 7288
4  8241 7608 7606 7607
4  8241 7961 8032 7608
4  8345 8059 7608 6905
4  5986 7104 6649 5988
4  7987 6369 7988 5978
4  8060 8346 8061 7986
4  8345 6905 7608 6908
4  8314 8059 7127 7608
4  8032 7033 7127 7608
4  87 78 82 6879
4  7076 6769 6007 6453
4  753 6453 6306 7256
4  6007 6453 6376 7257
4  8346 8046 8061 7986
4  379 87 82 6602
4  7076 6453 6007 7258
4  846 5985 7988 6859
4  6005 6007 7257 7258
4  6604 6600 6601 6602
4  6603 6601 6604 6600
4  7076 6306 6453 7256
4  809 531 805 6019
4  7061 6323 6319 6320
4  7949 7076 8037 7256
4  287 6778 9 6023
4  531 287 5 6023
4  286 285 287 7131
4  753 8342 752 7256
4  752 8342 7259 7256
4  6879 6877 6602 6878
4  7324 7982 7318 6042
4  6883 6871 6803 5983
4  6803 5983 6871 6697
4  6415 6203 6441 6211
4  6881 8249 8293 5983
4  6881 8293 7180 5983
4  131 319 879 6078
4  6490 6489 6227 7644
4  6490 8055 7643 7644
4  6615 7644 8212 7941
4  131 892 319 5969
4  319 320 879 6078
4  131 878 6077 6078
4  7091 7090 7938 7579
4  8212 8055 7938 7644
4  7515 7516 7547 7195
4  7642 7718 8212 7643
4  7751 7460 7369 7339
4  8064 8034 6345 6643
4  7286 7638 8034 7285
4  8344 6757 8343 6755
4  7039 7460 7341 7339
4  6329 7044 6749 6743
4  6345 6346 7369 6347
4  6995 7369 7039 6346
4  818 358 876 6454
4  7039 7369 7032 6346
4  7166 7168 7167 7165
4  8017 8013 6931 6929
4  7513 7041 7514 7424
4  8015 8016 8021 8013
4  8157 6551 6929 6930
4  136 756 6441 6440
4  6935 8013 6938 6932
4  6709 6574 6573 6154
4  6709 6573 6836 6154
4  6155 6150 6156 7652
4  6934 6836 6156 6154
4  6153 6156 6154 6151
4  6152 6148 6153 6151
4  6706 6709 7451 7485
4  7978 6338 7535 6337
4  136 128 756 6440
4  6934 6709 6836 6154
4  33 351 8295 8190
4  7981 6759 6100 8190
4  35 33 7352 8190
4  7581 7641 7640 7582
4  7354 6100 6218 8190
4  7981 6100 7354 8190
4  6100 6208 6218 8190
4  846 7988 5985 7984
4  8039 7221 8038 7222
4  7174 7172 7175 8148
4  7955 7233 8039 7223
4  7172 7175 7173 7171
4  7592 7595 8192 7594
4  7692 7595 8217 8192
4  7592 7595 7692 8192
4  56 8192 7595 7594
4  517 8277 8191 8192
4  6404 6613 6406 6405
4  6082 6101 7848 6081
4  531 387 287 7131
4  939 834 6116 6115
4  8089 7029 6276 6136
4  1020 834 313 6613
4  8320 7321 7323 7325
4  7513 7043 7514 7041
4  7322 8289 7323 7324
4  7190 7087 7088 7089
4  313 6408 6613 6405
4  834 6404 6613 6121
4  532 8182 387 7645
4  7322 7321 8326 6041
4  6756 6613 6080 6121
4  644 918 783 7218
4  783 8304 7218 7217
4  8158 7457 7548 6708
4  6963 6672 6029 7271
4  608 7391 8052 7881
4  8304 6817 7220 6034
4  787 8052 7143 7142
4  624 960 901 8341
4  6818 6817 8341 6035
4  7408 6963 8247 7142
4  624 308 986 6727
4  8247 7268 7266 7881
4  787 616 608 7881
4  787 8153 616 7881
4  454 916 913 6724
4  8229 6860 5996 6861
4  6517 5996 5995 6383
4  568 6386 177 6382
4  194 7428 5994 6382
4  7003 7065 7063 7062
4  6322 6496 6043 6326
4  8285 5994 6549 6382
4  7322 7323 7321 7319
4  7134 8180 7066 7062
4  6021 6045 6050 6018
4  6549 5994 5996 6382
4  6319 6021 6023 6045
4  5995 7428 6378 6382
4  482 5 6022 6020
4  5 6023 9 6022
4  6386 6384 6379 6383
4  8048 6583 8107 7146
4  6102 6192 6104 7146
4  8048 6102 6104 7146
4  8119 6192 6102 7623
4  531 5 805 6020
4  6104 7146 6192 6193
4  6500 6017 6496 6044
4  6495 6497 6499 6044
4  6497 7212 6327 6326
4  6191 6192 8143 6193
4  7714 6450 6223 8074
4  6766 6547 6765 6763
4  805 482 866 6562
4  7326 6564 6017 6019
4  8280 6766 6169 7409
4  6079 6087 5972 6710
4  6088 6086 6087 5972
4  706 319 892 5972
4  135 128 6203 6209
4  7939 7934 7583 7935
4  426 6647 576 6645
4  7714 6223 7820 6647
4  426 1002 576 6647
4  296 7223 7222 7224
4  6989 7401 6988 6985
4  576 1002 6764 6647
4  6402 6401 8024 7666
4  6028 6031 6030 7143
4  6813 7230 6820 6819
4  7955 7778 7233 7223
4  7987 7983 7984 7985
4  790 791 8300 7223
4  6402 6186 6401 7666
4  6185 6399 6396 6187
4  296 790 401 8309
4  8155 7137 6186 6397
4  6403 6402 7137 6397
4  7137 6402 8162 7666
4  6403 6113 6400 6397
4  6335 6014 6336 6096
4  6673 6712 8079 6700
4  693 7868 6353 6352
4  620 619 6673 6712
4  6928 6659 6821 6925
4  6822 8308 7330 6821
4  6822 6821 6823 6815
4  6822 7330 6823 6821
4  6928 6657 6821 6659
4  7230 7616 7233 7209
4  861 7778 7777 8062
4  8288 6655 6814 6653
4  7955 7616 7233 7778
4  8301 8302 7674 7675
4  6426 8020 6427 6015
4  296 791 790 7223
4  6000 6008 6010 6003
4  6648 7103 7997 6649
4  6371 7171 5977 5979
4  861 998 863 8147
4  8296 6761 6008 6010
4  8257 6653 8288 6819
4  6366 6367 7971 6882
4  6366 6364 7971 6367
4  8020 6008 7869 6350
4  7189 8298 7193 7191
4  7726 6364 5987 7728
4  6364 6365 7724 5987
4  7650 8298 7246 7193
4  6364 6367 5987 7728
4  551 296 7226 7224
4  846 595 601 6859
4  7511 7703 7581 7582
4  5977 7179 6367 6882
4  7192 7511 7194 7084
4  7272 7273 7253 7254
4  6205 7366 7543 7188
4  7600 7193 7194 6417
4  8046 7972 5986 7986
4  7600 7317 7194 7193
4  6205 7543 6833 6414
4  6416 7189 6417 7084
4  6372 7402 7075 6306
4  8130 7616 7104 7617
4  7949 7836 7746 7074
4  109 513 108 8126
4  43 8237 8126 6478
4  7882 7266 7216 7876
4  608 616 7882 7881
4  7794 8120 7890 7791
4  8347 6464 8176 8178
4  8103 7411 8121 6607
4  6897 6464 6463 6899
4  8176 8178 6464 6478
4  7548 6701 6708 6775
4  8167 7907 7890 7790
4  6253 6252 6251 6249
4  6179 6213 6180 6177
4  6173 7079 6174 6170
4  7531 7488 6255 7490
4  6572 7656 7484 6574
4  958 585 959 7079
4  7711 6607 6606 6608
4  7890 7791 7790 7792
4  6415 6205 6203 6204
4  35 365 635 6208
4  51 6209 6208 6217
4  6175 6174 8127 6177
4  6491 6485 6224 6486
4  8127 6174 6180 6177
4  135 128 136 6203
4  365 51 128 6209
4  6203 6440 6441 6211
4  6335 7694 7994 7535
4  351 635 220 6099
4  6205 7138 6216 6833
4  7052 6770 6679 6773
4  6473 7050 6772 6472
4  7052 6770 6856 6679
4  7499 7389 8008 6519
4  891 921 6548 6644
4  7537 6570 7023 6569
4  6901 6200 6198 6201
4  688 7078 7654 6215
4  7240 7241 6438 6442
4  6900 8339 6901 6899
4  8284 8312 6200 8348
4  7499 6519 8008 6521
4  6565 6571 6568 6053
4  7939 7935 7583 7579
4  6180 6174 6215 6170
4  6571 6770 7679 6570
4  6813 7333 6814 6823
4  7081 7654 7078 6170
4  8127 6180 6174 6215
4  6371 7915 8220 7917
4  8066 7029 6136 7306
4  7103 8086 7992 7893
4  6648 6652 6649 6651
4  6655 7102 7891 6652
4  7344 6235 7309 7263
4  7966 8066 6136 7306
4  8011 8089 6276 7542
4  7965 6136 8089 7542
4  7773 6528 6533 6234
4  7858 7378 7527 7762
4  7178 6821 7330 6657
4  7029 6135 7541 6136
4  855 854 7966 6136
4  7991 8086 7331 7332
4  855 7966 7965 6136
4  702 987 6270 6271
4  6655 6814 6653 7333
4  7091 7936 7939 7579
4  6813 8087 7333 6823
4  8130 7617 7208 7209
4  6928 8308 6821 6657
4  7336 6814 7891 7333
4  7883 7345 6590 7309
4  8224 7806 7883 8051
4  6188 6105 6291 7557
4  6598 6591 6228 6230
4  6203 6205 6207 6206
4  6595 6598 7781 6593
4  6102 6104 6181 6105
4  7440 8228 7098 7436
4  6270 6181 7478 6105
4  7009 6688 6689 6839
4  8211 7096 7829 7097
4  6481 6482 6674 6676
4  6052 6567 8081 6053
4  6480 6858 6481 6674
4  8008 7389 7388 6519
4  6058 8235 6480 6482
4  6480 6767 7051 6768
4  6771 6773 6772 6768
4  6479 6481 7706 6482
4  6530 6237 6235 6236
4  7708 6481 6777 6456
4  6480 6481 6858 7051
4  6922 6926 6925 6815
4  6648 6813 8087 7333
4  6648 6653 6813 7333
4  6229 6232 6234 6231
4  7649 7304 7298 7300
4  7565 6232 6229 6231
4  6791 7464 6531 7118
4  6822 7327 6823 7330
4  7327 7329 6823 7330
4  7825 7293 7291 6420
4  8259 6926 6823 7330
4  8087 7329 7333 6823
4  6956 7161 7899 7157
4  6884 6885 6954 6886
4  7371 6996 7403 7370
4  7336 8259 6814 7329
4  7895 6951 6956 7157
4  7639 6953 7633 7634
4  7371 7403 7639 7370
4  6467 6462 6468 6470
4  7898 6868 6867 6869
4  84 8255 7742 6470
4  7158 6996 6868 6869
4  7898 7158 6868 6869
4  7899 7161 7279 7157
4  7160 7158 7898 7159
4  6092 6749 6467 6621
4  6618 6467 6469 6470
4  6618 6091 6469 6616
4  8308 7628 7330 6892
4  7895 7404 6951 6950
4  6948 7157 6955 6886
4  7895 7159 7404 6950
4  7160 7279 7161 7157
4  8073 7472 7870 6796
4  6926 7330 7178 6821
4  6926 6823 7330 6821
4  8259 7802 8030 7328
4  7872 7417 7415 7564
4  7871 7870 7476 7472
4  7629 7628 6890 6891
4  7334 7629 7632 7328
4  709 829 662 7777
4  8087 6822 7327 6823
4  6820 6819 6925 6815
4  7281 7284 7633 7282
4  6948 6953 7403 6949
4  901 8341 960 6034
4  6865 6341 6870 6344
4  6026 6033 6032 6027
4  7124 6993 7961 6342
4  6341 7031 6346 6342
4  6341 7031 6345 6346
4  8214 6262 7430 6264
4  6024 6034 6035 6027
4  780 7217 6032 6034
4  6817 6024 7220 6034
4  8304 7220 7217 6034
4  7908 7909 7809 6388
4  7035 7036 7033 6342
4  6952 7638 7634 6949
4  8149 6347 8034 7370
4  7036 7039 7340 7032
4  7809 7912 6393 7909
4  7286 8034 8064 6643
4  8000 8109 7914 6393
4  8000 6395 8109 6393
4  8193 7751 7369 7339
4  7372 7460 7369 6639
4  8064 6641 6643 6639
4  8108 6393 8085 6241
4  6996 6869 7370 6343
4  8109 6392 8110 6241
4  8100 6634 6992 6993
4  8108 6238 6393 6241
4  7809 8108 6238 6393
4  6395 6387 6392 6240
4  6992 6348 7035 6342
4  8149 8034 7638 7370
4  8186 6388 7532 7384
4  6623 7058 6626 6624
4  8349 7922 6243 6624
4  6626 7540 7059 7057
4  7059 8265 8194 7060
4  599 7777 7985 8062
4  5986 7983 7104 7986
4  7140 7141 6736 7229
4  6418 7667 7296 6419
4  861 8147 7778 8062
4  8329 8195 7060 7293
4  998 8060 8147 8062
4  8128 8061 7104 8062
4  7887 7533 6957 6921
4  8128 7104 7616 8062
4  7341 8202 8040 7126
4  7954 7955 8130 7616
4  7036 6346 7033 6342
4  7590 7226 7589 8152
4  791 7231 7778 7223
4  7955 8300 7778 7223
4  8309 7223 8039 7222
4  8205 7338 7126 8042
4  6913 6914 6903 6906
4  7812 7443 7448 7444
4  8218 7127 7343 6905
4  7812 7943 7441 7444
4  8268 7449 7442 6629
4  8218 8040 8256 7343
4  7441 7442 7446 7443
4  8032 7033 7340 7127
4  8032 8218 7606 7608
4  7540 7534 8265 7055
4  7448 7784 7788 7444
4  7979 7945 7943 6631
4  7830 6919 7768 7056
4  7054 7430 6920 7536
4  8329 8195 8198 7060
4  8316 7055 7054 7057
4  7054 6920 7830 7056
4  7830 6920 8209 6919
4  7058 7054 7830 7056
4  7944 7444 6629 6631
4  7784 7788 7444 6631
4  7099 7093 7092 7095
4  5989 6477 6474 5990
4  6982 6477 8156 7020
4  6476 7017 7738 7019
4  7053 6477 6483 5990
4  8183 7094 7093 7095
4  7017 7019 6477 7020
4  7712 7312 7113 7112
4  8283 8238 6464 6899
4  932 720 8236 7428
4  8285 8221 6549 5994
4  820 6947 8136 6378
4  7110 7112 7712 7713
4  7110 8183 7111 7093
4  7679 7023 7537 6570
4  7712 7713 8227 7435
4  8227 7713 7098 7435
4  7549 7713 7098 7095
4  379 747 6505 6602
4  6603 8239 7068 6601
4  6603 7068 5981 6601
4  8 5 9 6022
4  6603 7123 6604 5981
4  7269 6028 6400 6031
4  163 747 992 6600
4  805 5 482 6020
4  8331 7575 6175 6176
4  8321 8276 8331 6175
4  8321 6175 8272 6177
4  163 6506 6505 6600
4  6744 6330 7695 7502
4  8132 7504 6824 7503
4  6315 6311 7503 7495
4  7843 8071 7970 7359
4  7707 8219 7708 6858
4  7695 8071 7504 7501
4  7504 7502 7501 7503
4  6444 7500 7502 7503
4  6455 7696 6330 7502
4  7942 7768 8268 6629
4  8080 8350 7707 7051
4  6918 6919 6957 7736
4  6473 5990 5991 6472
4  55 8192 8191 8178
4  7767 6958 7770 6919
4  7705 7962 8176 7706
4  6471 7962 7963 6456
4  8209 7768 6919 7769
4  8008 7386 6524 6521
4  8268 7767 7768 7769
4  8283 8351 8348 6898
4  19 6308 586 6301
4  6325 6194 6198 6197
4  949 951 950 8164
4  7662 7663 6140 6137
4  6648 6650 6813 6653
4  7058 7768 7770 7056
4  6627 7770 7058 7768
4  7942 7768 8209 7769
4  475 8025 478 6361
4  6355 6356 6358 6361
4  8025 6684 6356 6361
4  868 6358 773 6361
4  6939 6361 6359 6168
4  8025 6359 6684 6361
4  83 6144 8255 6470
4  6375 6332 7049 6373
4  475 6359 6361 6168
4  7954 7675 7233 7209
4  6140 6134 8163 6138
4  8243 7663 7662 6137
4  8242 7663 8243 7800
4  7674 7659 7221 7204
4  7616 7617 7209 6651
4  861 8147 863 7778
4  6561 5974 5975 6558
4  863 8147 8300 7778
4  7955 8128 7616 7778
4  8147 8128 7778 8062
4  6650 7104 6649 7618
4  861 7231 7777 7778
4  7799 7013 6082 6828
4  7457 6572 7456 6573
4  7316 6730 6708 6701
4  6820 7230 7203 6819
4  6560 6610 6084 6557
4  6293 7148 7146 6193
4  7553 6793 6980 6977
4  7044 6620 6749 6745
4  700 6270 7524 7523
4  8028 8027 8290 7481
4  6452 6749 6462 7030
4  761 6534 713 6536
4  6752 6750 8056 6434
4  919 702 700 7523
4  8145 8336 8290 8291
4  6385 6511 6431 6432
4  6467 6462 6749 7030
4  6130 6129 6137 6131
4  7044 6137 6620 6743
4  6141 6138 6132 6131
4  7265 8307 6074 6698
4  6141 6139 6138 6131
4  7047 6742 6137 6743
4  6374 6137 7662 6139
4  7919 7454 7213 6581
4  7265 7267 8307 6698
4  8292 8319 7480 7557
4  7878 7480 8172 6437
4  6538 6542 7598 6537
4  8352 6845 7016 6580
4  562 7480 7479 6437
4  487 7237 6440 7241
4  7878 6429 7477 6437
4  6188 7478 7523 7480
4  6316 6956 6318 6317
4  6316 7496 7161 6313
4  7895 6956 7899 7157
4  6014 6010 6336 6097
4  7348 7346 6450 6221
4  7350 7249 6225 6220
4  6416 8245 7083 6412
4  7160 7159 7279 7157
4  6208 6217 6209 6206
4  6316 6809 7899 7496
4  7978 7525 6832 6337
4  7739 6955 7161 6313
4  7899 7280 7279 7161
4  7277 7159 7278 7279
4  7065 7066 7712 7435
4  7525 7995 7901 7535
4  7549 7098 7713 7435
4  7110 7549 7713 7435
4  7110 7712 7066 7435
4  8135 8075 8002 7240
4  7348 8075 8135 7240
4  8227 7098 7436 7435
4  7046 7048 8113 7049
4  6561 6576 6555 6558
4  7047 7048 7046 6373
4  6800 6006 7076 6988
4  7047 6374 7048 6130
4  8137 6561 5975 6739
4  495 6575 6576 6556
4  493 7612 780 6576
4  8248 6693 6074 6694
4  6133 7676 7880 6374
4  642 495 6576 6556
4  6133 6374 7880 6139
4  780 7217 7612 6032
4  918 6576 780 7217
4  6305 6303 6309 6298
4  6900 7766 8339 6902
4  586 6307 6299 6301
4  377 163 853 6507
4  7766 6774 6767 6059
4  585 6308 7576 6307
4  6296 6303 6309 7576
4  6898 6465 6464 8178
4  7498 6566 7499 6847
4  6526 6525 6518 6521
4  7498 6196 6849 6523
4  6848 6526 6057 6847
4  6200 6325 6198 6197
4  7690 7596 7693 7593
4  8332 8323 8279 7410
4  19 6381 251 6308
4  6848 6198 6194 6196
4  6900 6198 6848 6199
4  8110 6245 8085 6241
4  6495 6543 6497 6503
4  8260 6309 7576 6308
4  585 652 7576 6308
4  7743 7311 7744 6327
4  8188 7852 8258 7652
4  7570 8184 7097 7572
4  8000 6395 6393 7909
4  7570 6529 7572 6233
4  7928 7100 7094 7572
4  7473 7474 7968 7024
4  7100 8065 7097 7572
4  7738 7679 7052 7026
4  6476 7738 7052 6474
4  7831 6570 7026 6773
4  8165 7572 8215 7772
4  8184 8165 7094 7572
4  7927 7928 7844 7772
4  6529 8215 7572 6528
4  7737 7786 7245 7637
4  7272 7901 7274 7273
4  6415 6204 6443 6413
4  8044 6218 6100 6328
4  8303 7407 8337 6861
4  7272 7543 7525 7366
4  6831 7186 8045 6833
4  7573 6513 6514 6515
4  8101 7598 8315 6536
4  6512 6513 6429 7482
4  6972 8262 6515 6974
4  7554 6515 6514 7042
4  6750 6516 6515 7042
4  7624 7431 7432 7623
4  6072 6071 6075 6068
4  6452 6468 6454 7030
4  7544 7197 7168 7195
4  7423 7170 7433 7165
4  6967 7433 6968 7165
4  7123 7647 7464 7116
4  818 819 358 6468
4  7873 7375 7682 7299
4  216 8278 6060 6469
4  216 6060 6468 6469
4  7805 6072 7119 7122
4  6791 6530 6792 7261
4  216 6060 358 6468
4  7117 7874 7646 7298
4  7464 7116 6531 7118
4  819 6468 6462 6470
4  6128 6376 6145 6147
4  344 346 6147 6146
4  6329 6375 6769 6376
4  7805 7119 7172 7121
4  7065 7066 7435 7062
4  7001 6998 7312 7112
4  7238 7236 7235 7114
4  6452 6329 6769 6376
4  8248 6076 6696 6068
4  6452 6769 7399 6453
4  6603 7174 7123 5981
4  7212 7815 7834 7744
4  7626 6895 7029 6274
4  6276 7541 6357 6127
4  7212 7860 7815 6546
4  286 957 956 6135
4  854 7966 6136 7306
4  7029 7307 7130 7306
4  7307 7645 7131 7306
4  7993 7892 7891 7893
4  6648 8086 7103 6652
4  6126 7541 6135 6127
4  854 6135 387 7306
4  6181 6182 7477 6183
4  8288 6814 6926 6815
4  6648 6655 7333 6652
4  6185 6396 6397 6187
4  6182 7477 6429 6436
4  6512 6436 6429 6432
4  7517 7933 7936 7519
4  7578 7938 7090 7579
4  6289 6183 6974 6184
4  7878 7477 7480 6437
4  6304 8348 7592 6202
4  7691 6297 6195 7716
4  8002 8077 8003 7241
4  7239 7569 6451 6411
4  7438 7434 8228 7436
4  7239 6438 7240 7569
4  6590 7345 6592 6591
4  6688 6594 6596 6839
4  8181 7439 7436 7437
4  6590 6592 6843 6593
4  7549 7440 7098 7436
4  8211 7571 7829 6841
4  7438 8228 6597 6840
4  6598 7781 6591 7309
4  6450 7240 6790 8077
4  6688 6683 6689 6596
4  7348 7240 8135 6451
4  7238 7602 7803 7510
4  7134 7064 7625 7062
4  7815 7817 6734 7744
4  7348 6450 7240 6451
4  180 6462 6145 6142
4  7139 7311 7141 7236
4  7149 6736 6245 7206
4  8349 7756 7757 6624
4  7065 7001 7712 7066
4  8199 8200 6242 6243
4  7920 7922 7060 7506
4  8199 7505 7921 7507
4  8082 8085 6735 6734
4  180 6452 6145 6462
4  7906 8000 8082 7914
4  6733 8082 6735 6734
4  7742 6618 6469 6470
4  8109 6395 6392 6393
4  7860 6550 7817 6546
4  7754 6239 6391 6240
4  6663 6664 6665 6658
4  6663 6665 6928 6659
4  6111 6106 6668 6112
4  6064 6444 6454 6407
4  680 7742 215 6469
4  8030 7631 6893 6891
4  7038 6748 6448 6826
4  6884 6885 6666 7842
4  818 6454 6452 6468
4  7080 6173 7577 6171
4  8070 8142 7741 7842
4  7833 6493 8260 7576
4  921 8260 7081 7576
4  6305 6381 7594 6301
4  8260 6309 6303 7576
4  8132 6746 6744 6747
4  555 7523 7480 7557
4  6955 6317 7161 6313
4  8008 6519 7386 6521
4  713 6541 6536 6535
4  7934 7583 7935 7386
4  8007 7581 7640 7583
4  7934 7388 7583 7386
4  7907 6253 6256 6257
4  6250 6721 6714 6252
4  6254 7980 7383 6251
4  6247 6250 6714 6252
4  6722 6720 7980 6252
4  7755 6631 6630 6625
4  8101 6291 7598 6536
4  916 7483 6535 6724
4  6247 6257 6248 6249
4  7794 8185 8120 6607
4  8101 8292 6188 7557
4  804 762 555 7557
4  804 8315 762 7557
4  7588 7584 7587 7466
4  8067 7885 7357 6904
4  7588 7469 7468 7466
4  7355 8256 8067 6904
4  8267 7151 8069 6049
4  7355 7357 7365 6906
4  7586 7150 7152 6047
4  8267 8069 7759 6049
4  7926 7884 6914 7357
4  7584 7641 7587 7585
4  7946 7926 7839 7838
4  7840 8033 7924 7838
4  6046 7150 6047 6049
4  8267 6047 7152 6049
4  7902 7251 7900 7273
4  6816 6035 6039 6027
4  8100 7394 6634 6993
4  6818 6038 8001 6039
4  6818 6035 6038 6039
4  7599 7086 6416 8245
4  6911 6036 6038 6725
4  6416 6417 7083 7084
4  6910 6911 6036 6038
4  308 6726 6727 6033
4  8267 7587 7975 7152
4  6726 6911 6038 6725
4  6818 6038 6035 6727
4  7613 6024 6581 6025
4  680 6469 6468 6470
4  313 216 6408 6405
4  7584 7467 7641 7585
4  7976 7701 7950 7364
4  7786 7367 7362 7364
4  7609 7607 7605 6908
4  7252 7732 7253 7637
4  6449 6060 6406 6405
4  7822 7506 8194 7293
4  7798 6119 6083 7010
4  6449 6408 6060 6405
4  6449 6406 6060 6407
4  8349 6626 7059 7057
4  6444 6446 6445 6448
4  6446 6748 6827 6826
4  6403 8173 8269 6113
4  6614 6115 6121 6406
4  7921 8329 7060 7506
4  6445 6448 6446 6826
4  876 6407 6060 6061
4  358 876 6454 6060
4  8310 7863 7446 7417
4  7812 7443 7445 7199
4  8059 7343 7127 6905
4  6907 6903 8345 6908
4  6627 6628 6626 7770
4  7810 7809 6390 6388
4  8268 8207 7767 7769
4  6873 7292 6874 6876
4  6682 6939 6166 6691
4  8197 8194 8265 8195
4  8345 6903 6905 6908
4  8118 8197 7426 6876
4  7825 8194 8197 7293
4  7606 7608 8218 6905
4  7750 7687 7689 6637
4  7847 7425 7429 6264
4  7356 7606 6905 6908
4  8059 6903 7884 6905
4  8256 7343 6904 6905
4  7825 8197 7295 6876
4  7290 7291 6419 6420
4  8218 7608 7127 6905
4  7946 7838 7923 7734
4  8218 7343 8256 6905
4  8203 7429 8031 8206
4  7420 7422 7416 7417
4  8252 7725 7724 7617
4  7414 7422 7957 7417
4  7887 7925 7889 7734
4  8207 7925 6957 7736
4  7964 7418 7416 7947
4  7420 7421 7856 7416
4  8203 6918 6920 6921
4  7957 8004 7959 7958
4  8202 7126 7338 8042
4  8198 7427 8195 7426
4  8203 7430 7429 7533
4  8004 7958 7923 7736
4  8203 7887 6918 6921
4  693 731 7868 6352
4  6426 8020 8019 6427
4  8053 7422 7420 7417
4  769 6559 6751 6487
4  8334 6119 7010 6427
4  6808 6811 6917 6124
4  724 8344 731 6755
4  6559 7242 8196 6790
4  8196 7242 7239 6790
4  6445 6446 6449 6826
4  6450 8077 6588 8074
4  6559 6790 6751 6487
4  767 6559 769 6487
4  7575 7577 6173 6176
4  724 725 731 8344
4  264 876 358 6060
4  6275 8278 6090 6408
4  6754 6080 6757 6116
4  7080 6303 6296 7576
4  6303 7577 6297 7716
4  7106 7577 8097 7716
4  7714 7346 7820 6223
4  7349 8328 7347 7346
4  6762 6766 7820 6763
4  6295 6297 6296 7577
4  35 51 6208 6217
4  35 870 51 6217
4  6305 6297 6303 6298
4  350 6758 8295 6759
4  6010 6009 6094 6095
4  6204 6443 6210 6211
4  8333 6295 7575 7577
4  8225 6295 8333 7577
4  8235 6482 8175 8237
4  6464 8178 8126 6478
4  821 238 8237 6676
4  238 8235 8237 6676
4  8174 8175 6466 8126
4  6299 6302 6300 6298
4  6017 6563 6562 6020
4  5 6023 6022 6020
4  7693 6202 7592 6201
4  6322 6283 6779 6287
4  6021 6322 6043 6320
4  167 6372 7075 6306
4  245 7402 491 6306
4  8282 8348 8351 7592
4  517 55 56 8192
4  6900 8339 6899 6902
4  8230 8046 6880 7179
4  167 6306 7075 7072
4  7402 7399 6306 6453
4  245 7402 6306 6453
4  35 635 6099 6208
4  8145 8290 8027 6183
4  6098 6100 6099 6208
4  6578 7147 6582 6583
4  8291 8292 7481 7477
4  6429 6431 6511 6432
4  8028 7481 7877 7482
4  6098 6216 6208 6834
4  8145 8291 8290 6183
4  8048 6102 6103 6104
4  746 82 595 6601
4  6169 6547 6548 6644
4  888 6540 1024 6589
4  417 8076 425 8074
4  756 7237 6441 6440
4  6751 8196 7239 6790
4  8225 8261 7106 7577
4  6547 6647 6644 6765
4  417 8077 8076 8074
4  52 7353 7697 6439
4  767 417 6589 6487
4  7892 7764 7763 7332
4  6542 6539 6036 6535
4  7611 6026 6587 7483
4  7892 7894 7764 7332
4  7991 8169 8187 7894
4  8106 7685 7377 7894
4  960 783 780 8304
4  8244 7145 6578 7148
4  624 901 308 6727
4  7327 7334 7329 7328
4  7857 7753 7527 7762
4  7613 6026 6024 6025
4  8263 7857 8169 7764
4  6879 6883 6880 6878
4  7667 6874 7292 7294
4  8346 7972 8046 7986
4  8263 7857 7764 7762
4  8177 7379 7858 7378
4  8169 7378 7377 7764
4  6385 6510 6435 6383
4  6649 7104 7617 5988
4  8060 8061 8128 8062
4  8174 6463 6465 6466
4  441 5994 7428 6678
4  441 7428 932 6678
4  7521 7693 6897 6196
4  8136 5993 8236 7428
4  719 8136 720 7428
4  19 253 251 6381
4  5999 6861 5996 6863
4  7690 7521 7517 7518
4  511 8092 7275 7144
4  55 8217 8192 8178
4  108 869 54 8217
4  194 6378 7428 6382
4  54 55 8217 7595
4  253 776 7596 7595
4  7592 7692 6898 8192
4  56 8277 8192 7594
4  6305 6381 7593 7594
4  6518 7387 7390 6519
4  6404 6613 6121 6406
4  19 56 6381 7594
4  6559 7242 6790 6588
4  6615 7242 6559 6588
4  6219 6450 6221 6220
4  214 216 8278 6408
4  6227 6226 7250 7941
4  818 358 6454 6468
4  7349 6221 6225 6222
4  7642 6615 6219 6489
4  6227 6489 6226 7644
4  6454 6060 6446 7030
4  8043 6831 6785 6340
4  8043 8044 6328 6785
4  8353 8044 8275 6328
4  6328 6094 6096 6097
4  488 417 6487 8077
4  7138 6216 6833 6340
4  939 1009 1035 6781
4  724 725 8344 6118
4  8043 8353 6333 6328
4  6062 6781 6916 6915
4  8275 6328 6100 8078
4  214 313 216 6408
4  6702 6717 6719 6012
4  6605 7710 6607 6606
4  8048 8107 8103 7620
4  7622 7620 7621 7623
4  7147 8143 7619 7620
4  7710 7413 7619 8107
4  7610 8107 8048 6583
4  6582 8107 7413 6584
4  7147 8107 6582 6583
4  7125 7032 7033 7127
4  8314 7125 7033 7127
4  8098 8314 7124 7961
4  7029 6135 6136 7306
4  7732 7609 7733 7605
4  7036 6346 7032 7033
4  8314 7127 7033 7608
4  957 672 956 6126
4  7603 7804 7109 7510
4  7625 7305 6126 7130
4  7139 7141 7140 7229
4  7238 7803 7229 7510
4  7602 7510 6423 6421
4  62 349 58 6760
4  6810 7494 7493 6807
4  7804 7879 7509 7508
4  7803 7508 7206 7510
4  7602 7823 7803 7510
4  7803 7823 7508 7510
4  7610 8048 6293 6583
4  8048 6293 6583 7146
4  7610 8107 6583 6584
4  349 220 6713 6711
4  6582 6583 8107 6584
4  8063 6426 8335 6427
4  794 58 620 6351
4  7610 6587 7613 6583
4  6008 6350 6015 6002
4  6816 8352 7919 6580
4  6880 7179 6877 6878
4  6578 6583 6582 6025
4  377 379 163 6505
4  7610 6293 6587 6583
4  908 8191 8179 8178
4  6695 6508 6789 6067
4  8191 8192 8347 8178
4  8347 8351 6898 8192
4  517 908 55 8191
4  56 55 7595 8192
4  6463 6479 7706 6466
4  8179 8176 6471 6478
4  7498 8216 8174 6465
4  54 56 55 7595
4  819 680 6468 6470
4  6898 8217 6465 8178
4  8339 7034 6899 6902
4  6897 6463 6464 6465
4  6449 6406 6613 6405
4  7038 6448 6824 6826
4  6090 6092 6449 6408
4  6444 6447 7500 7503
4  6948 6955 6954 6886
4  7850 7848 6827 6828
4  7843 8070 7501 6312
4  7741 7842 6317 6313
4  6375 7049 6128 6373
4  779 6441 756 7237
4  6751 6441 7237 6442
4  6897 6464 6898 6465
4  8339 7766 7034 6902
4  6522 7717 6524 7518
4  8196 7243 7941 8245
4  7086 7090 7083 8245
4  6559 8196 6751 6790
4  8330 8008 7933 6524
4  8330 8008 6524 6521
4  8005 8007 6525 7386
4  7221 7223 7233 7224
4  8007 7583 7640 7386
4  8257 8302 7207 7675
4  6926 7178 6927 6821
4  7949 7073 7074 7070
4  434 7069 8342 7070
4  246 6452 7402 6453
4  8166 7204 6819 6924
4  7517 6524 7519 7518
4  7104 7985 7618 8062
4  7178 6821 6657 6659
4  7517 7933 7519 6524
4  7690 7716 6195 7520
4  6813 6822 8087 6823
4  8038 7221 7590 7222
4  7591 6987 7202 7589
4  6800 6162 6802 6988
4  6650 7104 7616 6651
4  595 78 8297 6877
4  7123 6599 6604 6066
4  8346 8297 8046 7972
4  7722 7671 7673 7302
4  7720 7715 7716 7520
4  7715 7643 7719 7520
4  7683 7376 7680 7374
4  6366 7173 7175 7171
4  7948 7577 7106 7716
4  7833 6303 7720 8097
4  7068 6601 6859 6877
4  7174 7172 8148 7646
4  601 7972 8346 7986
4  7175 8148 7989 7917
4  8061 7104 8062 7986
4  644 7218 8159 6739
4  7218 8304 7220 7217
4  6972 6974 6515 6969
4  7040 6750 6968 7042
4  741 8159 5976 5975
4  6512 6515 7482 6974
4  6752 6512 6182 6974
4  6798 6610 6738 6557
4  7313 7315 5974 6730
4  7454 7016 6458 6581
4  8291 7477 7481 6183
4  8180 7437 7435 7062
4  562 7479 409 6437
4  7251 7900 7273 7253
4  7902 7395 7393 7273
4  7901 7395 7274 7273
4  850 8154 8162 7666
4  119 7665 862 7666
4  862 850 117 7666
4  7392 7394 8100 7397
4  7392 8100 8012 7397
4  8012 7395 7397 7733
4  434 8342 753 7070
4  7900 8009 7395 7733
4  7900 7733 7395 7253
4  7949 7074 7076 7070
4  600 8346 8060 7986
4  790 791 863 8300
4  7031 8193 6345 6346
4  6345 8193 7369 6346
4  595 8297 8346 7972
4  7320 7318 7003 7004
4  6992 6342 6993 6344
4  7035 7036 8032 7033
4  7372 6642 7460 6639
4  6995 7372 7369 6347
4  599 998 861 8062
4  6995 7036 6348 6346
4  6995 6346 6348 6343
4  8149 6345 6347 6343
4  8070 7741 6310 6312
4  8149 6341 6345 6343
4  7272 7366 7273 7254
4  7650 7252 7254 7246
4  7244 7637 7245 7246
4  7244 7737 7245 7637
4  7274 7273 7395 7253
4  6951 6952 6884 6886
4  7694 7273 7535 7366
4  6314 6318 6312 6313
4  7900 7252 7732 7253
4  7900 7732 7733 7253
4  8142 6885 7842 6667
4  6314 7841 7843 6312
4  7737 7253 7733 7637
4  7274 8012 7737 7733
4  7498 8174 6463 6465
4  7522 7518 6195 7520
4  6813 6650 7230 6653
4  6198 6199 6201 6197
4  6565 6568 7389 6567
4  6566 6847 6056 6054
4  6052 6518 6567 6520
4  6648 6649 7997 7618
4  829 7985 599 7777
4  709 7997 829 7777
4  7235 7111 7114 7112
4  7835 7228 8084 6736
4  709 662 7614 7777
4  7110 7235 7653 7112
4  6516 6517 6433 6435
4  866 6562 6287 6563
4  7028 6276 7029 6274
4  719 927 820 6378
4  148 6377 6430 6946
4  6896 7325 7320 6895
4  7061 7311 7743 6327
4  7234 7653 7235 6998
4  6380 6385 6431 6379
4  7653 7134 7066 7000
4  6461 6385 6511 6431
4  7693 6202 6201 6197
4  7693 6195 7691 6197
4  8312 8348 6304 6202
4  8348 7592 6202 6201
4  6200 8348 8312 6202
4  826 7524 8056 7479
4  7200 6716 7201 7169
4  6304 7592 6305 6202
4  8226 6304 6295 6297
4  8167 7167 7907 6716
4  6500 6501 6017 6563
4  245 491 167 6306
4  7677 7360 7970 7288
4  7046 7049 6332 6373
4  325 329 895 6281
4  856 8091 359 6288
4  6664 7843 7841 6661
4  7414 7416 7855 7422
4  8208 7422 7958 7923
4  8132 6448 7502 7503
4  8310 8053 7420 7417
4  8053 7446 7422 7417
4  7871 7417 7863 7564
4  6660 8070 8071 7970
4  7871 7414 7863 7417
4  7872 8310 7417 7564
4  6664 6666 6665 6658
4  7677 6664 6663 6662
4  7677 7843 6664 7970
4  8310 7563 7863 7564
4  6889 8030 6893 6892
4  7872 7420 8072 7415
4  7420 7416 8072 7415
4  6888 6666 6884 6887
4  296 7223 8309 7222
4  296 7231 7223 7224
4  6889 6892 6667 6657
4  6664 7841 6666 6661
4  663 7225 7614 7231
4  7178 8030 6889 6892
4  8142 6889 6885 6667
4  7208 7209 7617 6651
4  8142 6889 6667 6658
4  7225 7203 7230 7224
4  7017 6795 7473 7018
4  7738 7019 7473 7024
4  7968 7474 7022 7024
4  8156 7019 7018 7020
4  7017 6793 6795 7020
4  7475 7474 7018 7024
4  7109 7824 6423 6421
4  8199 7922 6243 7507
4  7505 7821 7921 7506
4  662 171 663 7231
4  7228 7803 7205 7206
4  7509 7508 6420 6421
4  7821 7296 7292 7293
4  7289 7290 7825 7291
4  7109 7510 7509 6421
4  320 7452 6078 6838
4  6935 6837 7452 6838
4  320 7452 879 6078
4  7139 7229 7603 7236
4  7803 7823 7505 7508
4  6077 6709 6079 6078
4  811 6077 6797 6079
4  6733 6736 7140 7141
4  6640 6638 7750 6639
4  7722 7673 7375 7302
4  662 861 7231 7777
4  662 7614 7615 7231
4  967 988 7987 7985
4  8220 7990 7826 7827
4  5986 7972 7984 7986
4  7684 7374 7377 7682
4  7376 7859 7380 6851
4  601 6859 7972 7984
4  7683 7680 7681 7682
4  967 7984 601 7985
4  7616 7618 7777 8062
4  829 988 967 7985
4  7420 7416 7415 7417
4  6648 6655 6653 7333
4  7101 6652 6651 5988
4  7476 7474 7415 7472
4  7445 7447 7863 7562
4  6648 7333 8086 6652
4  8241 7606 7604 7607
4  7103 8086 7893 6652
4  6341 6342 6346 6343
4  7102 7993 7893 6368
4  7102 7993 7891 7893
4  8149 7370 6869 6343
4  7731 6870 7897 6867
4  6648 7103 6649 6652
4  7371 7285 7284 6643
4  6995 7369 6346 6347
4  8149 6345 8034 6347
4  8164 8151 6138 6143
4  7609 6907 8345 6908
4  6133 6141 6128 6131
4  7604 7367 7786 7605
4  7976 7701 7364 7636
4  8256 8067 6904 7343
4  8009 7609 8098 7607
4  7737 7604 7786 7605
4  8124 6140 8151 6139
4  7732 7368 7609 7605
4  7368 6907 7367 6909
4  8111 6141 8151 6143
4  7565 7829 7096 7097
4  7839 7838 7357 7365
4  8211 7097 7829 7571
4  8268 7944 7449 6629
4  7979 7943 7444 6631
4  7945 6627 6629 6625
4  359 320 7775 6938
4  7828 7570 7571 6231
4  7570 7565 7097 7571
4  6597 7829 6228 6591
4  6597 6841 6591 6840
4  8193 7032 7337 7339
4  6597 7829 6591 6841
4  7828 7571 6591 6230
4  8271 8031 6262 6263
4  8031 8206 8123 7338
4  8123 8202 7461 7338
4  865 866 207 8150
4  6636 7751 8271 7689
4  7341 7461 8202 7338
4  6235 7828 6230 6231
4  6228 7565 6229 6231
4  8214 7430 7427 6264
4  8316 7060 7055 7057
4  8316 8198 7054 7055
4  7430 7534 7533 7536
4  7622 7932 7432 7621
4  8121 7791 7865 7931
4  8313 8214 8198 7426
4  8167 7890 8120 7790
4  8198 8214 7430 7427
4  7054 7055 7430 7536
4  7296 7291 7293 6420
4  7407 7406 6860 6510
4  8120 7790 7890 7791
4  8318 7020 6977 6979
4  7053 8156 6982 6477
4  441 8221 5994 8222
4  5999 5993 5995 5992
4  7864 7865 7790 7931
4  8317 6461 7878 6437
4  7932 7865 7864 7931
4  454 452 907 6541
4  6294 6292 8102 6190
4  8167 7930 7162 7163
4  6181 6188 7478 6105
4  8167 7790 7931 7163
4  8342 7949 7256 7070
4  7402 6986 7075 7399
4  6289 8145 8027 6183
4  6799 6800 6802 6988
4  7076 7399 6769 6453
4  8291 8101 8292 6188
4  478 8025 6355 6361
4  6669 6670 6965 6671
4  909 478 475 8025
4  6007 6769 6988 7049
4  7450 8088 6933 7452
4  1018 7806 8224 8052
4  1069 7450 879 7452
4  119 117 903 6360
4  6933 6938 7452 8091
4  7270 8322 6668 6112
4  6935 7452 6938 6838
4  6699 6698 7264 6070
4  359 898 7452 8091
4  403 396 510 7143
4  319 320 6078 6838
4  8014 8022 6288 8013
4  8023 6278 8022 8013
4  320 6938 7452 6838
4  7776 6938 8014 6288
4  8247 6963 7881 7142
4  8269 8322 7270 6112
4  6935 6837 6933 7452
4  8269 8173 6111 6113
4  7307 6041 7131 7645
4  8182 7645 8326 7306
4  6396 8116 6114 6399
4  6041 6023 7131 7645
4  6778 6023 7131 7128
4  6403 7133 8173 6113
4  8326 7307 8066 7306
4  7029 7130 7541 6135
4  385 387 8182 7306
4  385 8182 7966 7306
4  6452 7044 6145 6462
4  6452 6145 7044 6376
4  181 180 6376 6147
4  271 950 6142 6143
4  6141 6138 6143 6132
4  7678 7831 7026 6773
4  6004 7048 7676 6130
4  7880 7661 8125 6139
4  5991 5990 5998 5992
4  7052 6679 5989 6472
4  7053 7019 8156 6477
4  7053 7025 8156 7019
4  6476 7019 7738 6474
4  7350 7347 8134 7348
4  7350 7347 7348 6221
4  7738 7026 7052 6474
4  6476 7052 5989 6474
4  7350 7568 7249 6451
4  7610 7611 6731 7612
4  6024 6580 6025 6027
4  308 913 6724 6032
4  6024 7612 7214 7217
4  7086 7083 6416 8245
4  6541 6536 6535 6537
4  7512 7083 8245 6412
4  8075 8077 6450 8074
4  6227 8054 8055 7644
4  6324 8312 6304 6202
4  913 493 7612 6032
4  454 7483 7611 6541
4  921 7081 6548 7654
4  6178 7077 6176 6172
4  7833 6494 7080 8097
4  6188 6104 6291 6105
4  8260 6493 6484 6548
4  585 6307 7576 7078
4  7080 6296 6303 7577
4  959 7078 688 6215
4  7044 6749 6467 6462
4  7551 7550 6174 7079
4  6622 6089 6617 6616
4  6064 6447 6444 6407
4  6178 6176 6177 6172
4  8260 6484 6646 6548
4  6089 7848 6090 6449
4  576 6644 6647 6765
4  7799 7850 7851 6828
4  7015 6811 7010 7011
4  6101 6449 6613 6408
4  576 6647 6644 6645
4  313 834 966 6404
4  6081 6121 6613 6406
4  6619 6622 6617 6616
4  891 6548 6646 6645
4  891 8260 6646 6548
4  891 6540 888 6646
4  891 890 888 6540
4  7867 6276 7028 6277
4  542 772 773 8010
4  773 6358 7542 6943
4  8011 7542 6942 6943
4  7748 6684 7006 6356
4  6266 6268 6277 6269
4  7748 7006 6355 6356
4  6355 7006 6357 6356
4  6396 6113 7133 6397
4  772 8010 6944 6943
4  6942 6357 6356 6358
4  7866 8115 6941 6690
4  8114 7664 6165 6166
4  6686 6688 6692 6685
4  733 475 868 6361
4  6194 7717 6522 7518
4  6939 6684 6359 6361
4  921 959 585 7078
4  8031 8205 8206 7338
4  7134 7625 8180 7062
4  8271 7751 7337 7339
4  7110 7112 7713 7093
4  7318 7319 7005 7004
4  7653 7134 8180 7066
4  7212 7834 7745 6327
4  8271 7339 7338 7689
4  8206 8202 7338 8042
4  7342 8205 7337 7126
4  7342 8205 7126 8042
4  7110 7653 8180 7066
4  7341 7338 8202 7126
4  7341 7338 7126 7339
4  7001 6999 7312 6998
4  7234 6997 7653 6998
4  6543 6544 6546 6326
4  6296 7576 6308 6307
4  253 7595 7596 6381
4  7129 6040 6041 7319
4  287 285 6778 7131
4  891 685 921 6644
4  6762 7410 6547 6485
4  6296 6309 6303 6298
4  585 586 6308 6307
4  654 7597 8260 6308
4  652 8260 7576 6308
4  8260 7597 7720 6309
4  251 7597 654 6308
4  7600 7188 6417 6414
4  7250 8254 8054 7941
4  8196 7599 7243 8245
4  7186 6833 7543 6414
4  7272 7274 7244 7253
4  15 7601 19 6301
4  7808 7589 7226 8152
4  8234 8350 7050 8219
4  6770 6059 6480 6768
4  6858 5991 6681 6472
4  7053 7678 7025 6474
4  7589 8152 7072 7073
4  799 553 6676 6677
4  433 7072 400 7073
4  550 552 7808 8152
4  6051 7832 7831 6570
4  6058 6056 6059 6054
4  6463 6899 7034 6902
4  7202 7589 7590 7226
4  7590 8152 7589 7073
4  400 8152 296 7222
4  7719 8213 7717 7519
4  7833 7720 7643 8097
4  339 6453 753 7256
4  6490 7643 6494 6489
4  6194 7522 7717 7518
4  875 8126 8217 8178
4  7746 6161 6162 6163
4  6986 7076 7075 7399
4  7287 7808 7591 7202
4  6007 6769 6376 6453
4  6178 8332 7107 7077
4  181 6376 6452 6453
4  7955 8147 8128 7778
4  246 7402 245 6453
4  7560 7731 7729 7730
4  8100 8241 8012 7397
4  6452 6376 6769 6453
4  7512 8254 6410 8245
4  6800 7076 7949 7074
4  7512 7082 8254 7083
4  8254 7082 7578 7090
4  7091 7090 7579 7085
4  7087 7084 7083 7085
4  7511 7582 7581 7089
4  7192 7246 7636 7191
4  7650 8298 7252 7246
4  7245 7786 7785 7364
4  6452 6769 6331 7399
4  7453 6986 6331 7401
4  6597 6228 6598 6591
4  7260 7262 7310 7263
4  6737 7611 6575 6555
4  7611 6555 6731 7612
4  6228 6229 7310 6230
4  8183 8210 8184 7095
4  6597 8228 7829 6841
4  8211 7828 7570 7571
4  6590 6591 7781 7309
4  6598 7310 7308 7309
4  6688 6594 6595 6596
4  495 6575 494 6576
4  780 6576 7612 7217
4  6928 6665 6657 6659
4  6984 6157 8047 7288
4  918 7218 6739 7217
4  6737 6560 6731 6555
4  6737 6731 7611 6555
4  6561 7214 6555 6576
4  7149 7879 7804 7206
4  6532 6232 7773 6234
4  6997 7004 7134 7000
4  7834 7139 6999 7311
4  7099 7113 7092 7093
4  7712 7099 8227 7713
4  6560 6731 6561 6460
4  6561 5975 6739 6558
4  7549 7098 8210 7095
4  7712 7001 7112 7066
4  7602 7510 7114 6423
4  7653 7112 6998 7066
4  550 7808 7232 8152
4  7603 7229 7510 7114
4  7312 7236 7603 7114
4  401 8309 8144 7222
4  7233 7223 7231 7224
4  7526 6850 6855 6851
4  296 8152 7226 7222
4  6265 6853 6260 6261
4  8168 7672 8118 6875
4  296 790 8309 7223
4  8309 8300 8039 7223
4  7723 7375 8299 7673
4  8144 8038 7073 7222
4  296 8309 401 7222
4  7376 7378 6851 7374
4  7076 7075 6306 7070
4  7683 7377 7376 7374
4  7858 7764 7378 7762
4  6801 7746 6161 6162
4  7453 7402 6986 7075
4  6164 7210 6158 6160
4  6989 6984 7401 6985
4  8008 7388 7934 7386
4  6737 7413 6584 6732
4  8008 7388 7386 6519
4  7468 7387 7584 7390
4  7312 7236 7114 7112
4  7603 7109 7113 7114
4  7109 7114 7510 6423
4  6737 6555 6575 6557
4  7219 6561 6739 7215
4  6561 6731 7214 6460
4  7110 7713 8183 7093
4  7603 7510 7109 7114
4  8227 7099 7098 7713
4  7092 7109 7824 6423
4  6253 7980 6254 6251
4  6722 7980 6253 6252
4  7811 7199 6715 7196
4  6392 6391 7756 6239
4  6459 6460 6732 6729
4  6028 7143 6030 7271
4  7381 7813 6721 7788
4  6387 7783 6391 6389
4  8025 6030 7492 6031
4  7812 7788 7979 7444
4  6238 6244 6242 6241
4  8025 8224 7780 6030
4  6254 7980 7783 7383
4  8200 6243 7922 6624
4  7492 6030 6029 6031
4  6106 6107 7782 6108
4  8146 6243 7922 7507
4  6028 6029 6672 7271
4  6392 6391 6239 6240
4  6238 6239 7754 6240
4  6392 6239 7756 6241
4  7980 7784 7783 7383
4  6627 6623 6626 6625
4  8083 8085 8108 7914
4  7269 6400 6028 6112
4  6395 6393 6388 6240
4  7905 7912 8258 7913
4  7906 6554 7913 6550
4  7956 7905 8258 7913
4  6692 6683 6691 6685
4  7591 7453 7677 7288
4  7823 7821 7508 6420
4  7919 6581 6024 6580
4  8341 6035 6034 6727
4  6818 6035 8341 6727
4  6816 7919 6817 6024
4  8347 6898 8283 6464
4  8354 8238 8283 6899
4  7054 7056 7055 7536
4  7855 7419 7924 7923
4  6901 8354 8283 6899
4  8283 6899 6898 6201
4  7855 7924 8004 7923
4  7960 7769 8209 7958
4  7887 7889 8067 7885
4  7946 8208 7735 7923
4  7355 7356 8256 6904
4  6918 8209 6919 7736
4  7766 6059 7034 6056
4  8031 8123 7429 6263
4  7687 7461 7689 6263
4  8271 7751 7339 7689
4  8031 7429 8123 8206
4  6265 7688 6262 6260
4  6445 6406 6449 6407
4  8339 7034 8238 6899
4  6897 6898 6464 6899
4  6057 6056 6849 6847
4  6964 7308 6699 7264
4  7806 6961 7883 8051
4  8242 6619 6622 6617
4  7806 6789 6961 8051
4  7882 7266 7876 7881
4  6617 6091 6618 6616
4  6699 6960 7264 6698
4  8260 7720 6303 6309
4  570 6764 8273 6765
4  8199 6243 6245 7507
4  7205 7507 6245 7206
4  688 7409 6212 6215
4  6179 6180 6169 6172
4  8108 8084 6244 8085
4  8082 8109 8085 7914
4  7756 8146 8110 6243
4  8199 8200 6243 7922
4  6041 7211 6042 6018
4  963 6214 7550 6215
4  7982 6042 6050 7005
4  809 6564 6019 6563
4  6212 8280 6213 6180
4  7322 6041 7326 7211
4  7046 7049 6989 7401
4  794 693 58 6351
4  693 731 690 7868
4  6040 6023 6041 6018
4  6122 6119 6350 6427
4  962 6214 1001 6215
4  6212 8280 6180 7409
4  636 6829 635 6208
4  6394 7869 6761 6353
4  6203 6211 6204 6206
4  135 6203 6207 6209
4  7012 7015 8335 7010
4  6216 6218 6208 6206
4  6203 6209 6211 6206
4  135 6207 365 6209
4  7729 7730 7731 6867
4  8334 8343 6119 6350
4  6008 6349 6350 6002
4  6673 6362 6354 6351
4  6122 6350 6119 6120
4  761 762 8315 6536
4  7477 6429 6436 6437
4  8291 8102 8101 6188
4  8244 6294 7145 6292
4  8343 6119 6350 6755
4  58 6353 6713 6351
4  6935 6836 6709 6710
4  7458 6838 6776 6710
4  554 804 555 8319
4  8317 7878 8172 6437
4  6947 6433 6517 6378
4  8337 7407 7406 6860
4  7455 7457 7456 6573
4  7160 7277 7280 7279
4  7455 6835 7548 6775
4  733 6361 773 6943
4  7853 8058 6153 6156
4  6934 6935 6709 6837
4  5995 6382 6378 6383
4  6079 5972 6078 6710
4  7450 6934 6837 6933
4  6981 6861 5999 6863
4  6155 7450 8088 6933
4  8026 7573 8262 7482
4  6155 6934 7450 6933
4  7451 6077 7450 6837
4  8105 6846 6845 6039
4  6155 6933 7852 6156
4  6846 8138 8139 6037
4  6934 6935 6933 6932
4  542 7965 8010 7542
4  7074 7589 7072 7073
4  6963 8052 8051 7881
4  8139 8244 6578 6579
4  7883 6959 6961 6962
4  6911 6542 6912 6036
4  6585 6586 7016 6580
4  6587 6583 6579 6025
4  8049 8050 8104 6039
4  7268 8051 6789 7391
4  8224 7883 6959 8051
4  454 713 916 6541
4  6538 7598 8102 6292
4  6026 6724 6032 6033
4  986 308 310 6726
4  916 6541 713 6535
4  6911 8140 6542 6725
4  6961 6789 7268 8051
4  7883 6961 6959 8051
4  6788 6789 7806 7391
4  6433 6377 6385 6379
4  6010 8078 6759 6097
4  7006 6684 6942 6356
4  6276 7006 6942 6357
4  868 475 478 6361
4  8025 6684 7748 6356
4  510 788 787 7142
4  850 934 117 8162
4  7555 6672 6966 6960
4  850 1016 8154 7666
4  6669 6106 7782 6108
4  8224 7806 8051 8052
4  7806 8051 8052 7391
4  8025 8224 6030 7143
4  8224 8051 6959 6030
4  8094 8223 7248 6552
4  6545 7255 6502 6282
4  6204 6210 6443 7807
4  6203 6207 6209 6206
4  8332 6491 6492 6485
4  891 921 984 8260
4  963 962 1001 6215
4  8157 6551 6553 6929
4  685 570 687 8273
4  6479 6481 6480 6767
4  7551 7550 8127 6174
4  7410 6169 6547 6485
4  921 652 984 8260
4  7690 7720 7716 7520
4  7715 8055 7719 7643
4  7948 7715 7522 7716
4  6058 6479 8175 6482
4  238 8235 231 8237
4  8235 6482 8237 6676
4  642 528 76 5968
4  6058 6480 6479 6482
4  8355 8275 8189 8078
4  799 8222 6678 6675
4  6679 6681 6858 6675
4  799 6676 6675 6677
4  5976 5975 6093 5973
4  6457 6730 6460 6729
4  8235 6674 6480 6482
4  799 6678 905 6677
4  8235 6856 6674 6676
4  7218 6739 7217 7215
4  741 642 644 8159
4  6316 7899 6956 7161
4  7843 8070 6312 6661
4  6666 6661 7842 6658
4  6835 7456 6836 6775
4  8142 7842 6661 6658
4  8070 7842 6312 6661
4  8070 7842 7741 6312
4  798 797 1009 6123
4  6008 6002 6015 6003
4  7843 8071 8070 7970
4  7843 7970 8070 6661
4  882 6673 6990 6354
4  6990 6673 6723 6362
4  6008 6349 6700 6351
4  6660 6662 6656 6658
4  620 349 220 6713
4  6702 6719 6011 6012
4  620 58 349 6713
4  6660 6656 8142 6658
4  798 726 724 6118
4  939 6781 1035 6115
4  6660 6661 7970 6662
4  6990 6991 6780 6363
4  7848 6101 6449 6081
4  7677 7970 6664 6662
4  6942 6361 6684 6940
4  8020 6350 8334 6427
4  8281 6165 6167 6168
4  1026 271 346 8112
4  7160 7280 6955 7161
4  753 8342 7256 7070
4  6361 6943 6168 6940
4  6944 6165 6168 6940
4  7363 8033 7151 7365
4  271 344 346 6147
4  7839 6914 6913 7365
4  7839 7357 6914 7365
4  8033 7357 7889 7838
4  7355 7357 8033 7365
4  8033 7838 7155 7365
4  7355 8033 7363 7365
4  429 6436 6430 7479
4  429 6436 8056 6430
4  8119 6181 6182 7478
4  7092 6423 7094 7093
4  6270 6105 7478 7523
4  7289 7929 7290 6419
4  8119 6270 6181 7478
4  6490 7108 6494 7643
4  7715 7108 7643 8097
4  6804 7280 7277 7279
4  968 7987 7988 7984
4  7915 8187 7990 7685
4  6547 6646 6548 6645
4  1024 6540 6559 6589
4  379 747 163 6505
4  7045 7400 6744 6330
4  6488 6490 6492 6486
4  6375 6376 7044 6129
4  7044 6376 6145 6129
4  6374 6130 6137 6131
4  819 6452 6462 6468
4  6986 6988 6769 7401
4  7610 6731 7613 7612
4  6656 6658 6662 6659
4  6133 7999 6004 6128
4  7919 8352 7016 6580
4  6984 7358 7400 7360
4  6452 6329 7044 6749
4  819 6452 180 6462
4  6036 6725 6724 6033
4  8132 6747 6744 7502
4  6275 6090 6101 6408
4  214 8278 6275 6408
4  6817 6035 6024 6034
4  6599 6604 6506 6600
4  377 6509 994 7184
4  8341 6035 6817 6034
4  493 780 7612 6032
4  7611 6587 6026 7612
4  308 901 6032 6727
4  7106 6176 7107 6171
4  6214 8127 7550 6215
4  6169 7654 7081 6170
4  6926 6823 6821 6815
4  829 7997 7985 7777
4  7410 7077 6169 6485
4  7548 6088 6093 6701
4  6087 6085 5970 5973
4  7218 7219 8159 6739
4  6088 6775 6087 5973
4  7455 7548 7457 6775
4  6547 6646 6484 6548
4  7080 7576 6173 6170
4  741 527 528 5976
4  892 528 527 5971
4  6488 6486 6224 6222
4  7081 7078 7576 6170
4  892 75 528 5968
4  6088 6086 6093 5973
4  6223 6646 6547 6645
4  6169 6765 7654 7409
4  8197 8265 7427 8195
4  5976 8159 8137 5975
4  8198 8214 7427 7426
4  741 528 642 5975
4  8118 8197 7425 7426
4  8118 7426 7425 6259
4  6873 8313 7292 6876
4  6040 6041 6023 7131
4  6873 7426 8313 6876
4  8010 6945 6944 6943
4  387 7645 8182 7306
4  854 6136 6135 7306
4  8266 6937 7008 6277
4  385 7966 854 7306
4  8168 6875 6259 6261
4  531 387 7131 7645
4  6944 6945 6165 6940
4  286 956 7305 6135
4  7318 7982 7002 7005
4  7134 7305 7130 7128
4  868 478 6355 6361
4  8266 7008 7867 6277
4  286 287 387 7131
4  531 6019 8311 7645
4  6265 8214 6259 6264
4  6004 8240 7676 7048
4  6371 5978 5977 5985
4  5977 7171 6367 5979
4  8239 6371 5977 5985
4  867 6355 6125 6358
4  6375 6007 6128 7049
4  8239 5985 7068 6859
4  8106 8177 7892 7894
4  8239 5985 5977 7068
4  8164 6138 6144 6143
4  5977 7972 7179 7068
4  8220 7917 7827 7646
4  7174 6371 8220 7917
4  6801 6161 6802 6162
4  6814 6823 6926 6815
4  7117 7298 7646 7116
4  7657 7674 8301 8302
4  7174 7172 7646 7121
4  7172 7117 7646 7121
4  7647 7646 7116 7121
4  8211 7096 7097 7098
4  8211 7440 7096 7098
4  551 296 400 8152
4  7203 7221 7233 7224
4  7657 7659 7674 7204
4  8210 8211 7097 7098
4  7659 7590 8038 7221
4  7232 7287 6820 7203
4  8124 8151 8111 6139
4  7047 6137 6130 6373
4  180 6145 6452 6376
4  271 950 180 6142
4  271 180 344 6147
4  7099 7098 7713 7095
4  6065 6697 6075 6068
4  8228 8227 7096 7098
4  7440 7096 8228 6841
4  6955 7741 6954 6317
4  7549 8181 7436 7435
4  8228 8227 7098 7436
4  8227 7099 7096 7098
4  898 1069 879 7452
4  5976 8137 6093 5975
4  7853 6931 6836 6156
4  8157 7854 6554 8204
4  7451 6155 7491 6151
4  6155 8088 7852 6933
4  898 6933 8088 7452
4  7952 6246 7487 7489
4  6148 7488 7490 7489
4  7952 7451 7491 7489
4  7088 7583 7582 7089
4  7385 6247 6246 6249
4  6155 7852 8188 7652
4  7699 7467 7465 7585
4  8188 7532 7530 6149
4  6237 6527 6529 6234
4  6791 7464 6530 6531
4  7260 6532 7115 6531
4  7260 7263 6236 7261
4  7367 7362 7364 6909
4  7700 7934 7388 7583
4  7584 7585 7587 7466
4  7174 7917 8220 7646
4  7989 8148 7875 7917
4  7190 7702 8298 7191
4  6369 6370 6371 5979
4  6366 6367 7171 5979
4  7468 7466 7469 7390
4  7647 7646 7826 7298
4  7874 7299 7827 7298
4  7117 7874 8148 7646
4  7990 7917 7685 7827
4  7470 7465 7388 7390
4  7387 7467 7584 7390
4  6371 5977 5978 5979
4  8180 7625 7437 7062
4  6936 6937 7028 6274
4  7541 6135 6127 6136
4  6321 6502 6322 6326
4  287 6778 6023 7131
4  286 7305 285 7131
4  7434 7063 7065 7437
4  7115 7649 7117 7116
4  7123 7647 7116 7121
4  7119 7115 7117 7118
4  7388 7387 7467 7386
4  6532 6236 6229 6234
4  7179 7068 7972 6877
4  7120 7261 7115 7118
4  5981 7068 7179 6878
4  8046 6880 7179 6877
4  595 8297 7972 6877
4  6798 6577 6797 6707
4  78 82 6879 6877
4  7932 7931 7864 7163
4  7244 7253 7637 7246
4  7614 7225 6813 7615
4  6549 8171 6681 8222
4  6728 7708 8222 6777
4  194 568 177 6382
4  7176 6662 7177 6659
4  7629 6891 7632 7328
4  6893 6892 6891 6887
4  5999 5989 5993 5992
4  8039 7233 7221 7223
4  6681 5994 5993 5992
4  8229 6862 6549 5996
4  8236 7428 5993 6678
4  6928 6665 8308 6657
4  8108 8085 6244 6241
4  7860 7817 7815 6546
4  6942 6358 6356 6361
4  5989 6681 5993 5992
4  7854 7910 6554 8204
4  7547 7198 7545 7195
4  7544 7545 7862 7198
4  7861 7563 7872 7564
4  6942 6358 6361 6943
4  7445 7863 7447 7446
4  6475 6476 8236 5989
4  6475 5989 8236 5993
4  6858 6681 8222 6675
4  6857 8236 6680 6678
4  6475 8136 5999 5993
4  8168 6875 8118 6259
4  7858 7379 7526 7378
4  8169 7857 7376 7378
4  8187 7685 7916 7894
4  7815 7817 8082 6734
4  776 8216 7596 7595
4  7139 7141 7229 7236
4  7521 7693 7596 7692
4  7801 7759 8068 6048
4  7832 7801 7023 7539
4  8068 7759 8069 6048
4  8174 6465 8216 8217
4  93 733 734 6168
4  6897 6898 7692 6465
4  7521 6897 7693 7692
4  7586 6047 7152 7466
4  7465 7700 7388 7467
4  7586 7152 7465 7466
4  6702 6000 6012 6001
4  8308 6888 7628 6892
4  599 967 601 7985
4  220 219 8294 6099
4  7686 7528 6855 6854
4  7858 7526 7749 7527
4  6207 6829 6208 6834
4  6100 6099 6208 8190
4  6100 6759 6099 8190
4  8263 7331 7334 7335
4  7529 6636 6637 6638
4  7763 7764 7858 7762
4  7281 7761 7283 7632
4  8084 6245 8085 6736
4  8189 6010 6009 8078
4  7505 7821 7506 7508
4  219 6829 8294 6099
4  6334 6338 7978 6096
4  6634 6993 7394 6994
4  7392 7901 7393 7395
4  6633 6866 6634 6994
4  6633 6866 6994 7730
4  7448 7449 7944 7444
4  7441 7943 7442 7444
4  7447 7449 7448 7443
4  7943 7442 7444 6629
4  7994 7558 7996 7393
4  7337 8205 7338 7126
4  7994 7558 6703 7996
4  8206 8041 8202 8042
4  7889 7357 8067 7885
4  231 8235 8175 8237
4  6704 6705 7560 7730
4  233 6856 8235 6676
4  6702 6011 6705 6001
4  6719 6633 6632 6635
4  6719 6635 7996 6705
4  7760 6569 7539 7469
4  6058 8175 8235 6482
4  6728 7963 7708 6777
4  7067 7185 6803 7184
4  7900 7732 8009 7733
4  7709 8318 8073 6796
4  6793 6796 6795 7020
4  6475 6793 7020 6979
4  8156 6477 7019 7020
4  8073 8318 8156 7020
4  177 6382 6386 6379
4  8036 7805 5982 6075
4  6881 7179 6880 6878
4  325 25 26 6283
4  6065 6075 6697 6872
4  6065 6067 6694 6068
4  6604 6601 5981 6602
4  43 821 238 8237
4  6692 6399 6691 6398
4  7492 7748 6683 6596
4  7748 7747 6689 6839
4  878 879 1069 7450
4  7918 6551 8090 6279
4  6686 6266 7009 6268
4  6686 7009 6689 6268
4  7627 7439 8181 7437
4  7134 7305 7625 7130
4  7438 7007 7434 7439
4  7627 6842 8181 7439
4  7780 6596 7781 6593
4  7747 6842 7627 7439
4  7320 7063 7574 7064
4  6166 6691 6399 6398
4  6939 6684 6687 6691
4  6942 6684 6687 6940
4  7831 7027 7026 7023
4  7322 8326 7326 6041
4  6504 6500 6496 6044
4  7324 6499 7982 6042
4  8182 8326 8066 7306
4  8321 8276 6175 6177
4  7738 7021 7026 7024
4  7738 7021 7679 7026
4  7575 7551 6175 6173
4  253 7596 252 6381
4  6178 7107 8276 6176
4  7537 7023 7539 6569
4  7969 7022 7947 6048
4  8332 6492 7107 7077
4  7027 7022 7967 7024
4  7537 7021 7538 7023
4  7021 7022 7538 7023
4  7265 7267 8306 8307
4  7149 7507 7879 7206
4  7879 7506 7822 7508
4  7322 8289 7324 7211
4  7879 7920 7822 7506
4  7248 8264 6504 7462
4  6244 7205 8199 6245
4  6497 6043 6496 6326
4  6504 7462 6495 6496
4  7061 6319 6997 6045
4  6735 6245 7149 6736
4  8199 7921 7922 7507
4  7921 7922 7507 7506
4  8146 7922 7920 7507
4  6471 8176 7962 6478
4  6780 6991 6808 6124
4  6000 6010 6008 6700
4  6010 6700 6336 6711
4  6917 6124 6122 6117
4  6761 6010 6759 6760
4  620 220 619 6712
4  7981 6759 6761 8078
4  6016 8296 6015 6009
4  8295 6759 7981 8190
4  351 6099 6759 8190
4  6010 6336 6759 6711
4  939 834 726 6116
4  351 6759 8295 8190
4  6336 6099 6759 6711
4  6122 6120 6119 6117
4  6426 6425 6016 6015
4  7629 7814 7765 7632
4  7629 7282 7814 7632
4  7749 7761 7762 7283
4  7814 7282 6641 7283
4  7629 7628 6891 7328
4  7334 7628 7629 7328
4  7802 7761 7631 7632
4  7802 7335 7761 7632
4  8263 7334 7765 7335
4  8263 7765 7762 7335
4  6762 6223 6224 6763
4  6223 6547 6484 6224
4  6972 6515 7042 6969
4  8332 8323 7410 7077
4  6290 7623 6184 6975
4  6179 8272 6213 6177
4  8337 6860 8229 6861
4  6972 6515 7554 7042
4  7274 7733 7737 7253
4  8026 8262 8027 7482
4  7106 7108 8097 6171
4  8119 6752 6182 6184
4  6289 6974 6973 6184
4  6289 6973 6290 6184
4  6493 7081 7080 6171
4  8101 8319 8292 7557
4  8119 6182 7524 7478
4  6169 6180 7409 6170
4  7438 6594 7009 6839
4  7747 7439 6839 6840
4  6959 6963 7268 6960
4  8332 8279 6491 6485
4  7826 7646 7827 7298
4  7123 7122 5981 7121
4  8269 6111 8322 6112
4  7270 6963 7408 7271
4  7269 6112 6108 6109
4  6668 6669 6966 6672
4  7123 7122 7121 7118
4  6961 7264 6960 6698
4  7123 7121 7116 7118
4  7648 7116 7298 6533
4  8269 7276 6400 6028
4  93 8281 6167 6168
4  8116 6690 6692 6691
4  6185 7664 8114 6166
4  7123 5981 7174 7121
4  7805 7121 7172 5984
4  6989 7049 6988 7401
4  344 7257 7669 6146
4  6111 6114 6106 6109
4  7664 8281 6165 6167
4  6029 6108 6672 6671
4  8155 6186 7137 7666
4  6444 6446 6448 6747
4  6004 6128 6005 6007
4  7047 6374 6130 6137
4  245 753 339 6453
4  433 7073 7069 7070
4  6746 6621 6745 6748
4  6004 6128 6007 7049
4  6004 6007 6006 7049
4  821 6676 8237 6456
4  8242 6619 6617 6620
4  8243 7047 6742 6137
4  6005 6007 6128 7257
4  6452 6749 7044 6462
4  8120 6607 8185 7621
4  7498 7499 8330 6521
4  6737 6732 6738 6606
4  6798 7953 8006 6608
4  6578 7145 7147 7148
4  7498 7499 6521 6847
4  7315 6730 7316 6701
4  6458 6586 6459 6581
4  6525 7386 6519 6521
4  6522 6524 6525 6521
4  7498 7521 6897 6196
4  7611 6575 6555 6576
4  6804 6810 7493 6807
4  6804 6805 7183 6806
4  7182 7181 6428 6806
4  7904 7903 7729 7278
4  7498 6897 6849 6196
4  6848 6196 6194 6523
4  6194 7518 6522 6523
4  7851 7494 6812 6825
4  7494 7495 7493 6807
4  7182 6428 7015 6811
4  7799 7851 7014 6828
4  7521 8330 7517 7518
4  6804 7182 6810 6806
4  8330 6524 6523 6521
4  238 233 8235 6676
4  6549 6681 5994 8222
4  6754 6757 6755 6116
4  798 6118 724 6352
4  6808 6806 6805 6807
4  8296 8189 6010 6009
4  636 6207 6829 6208
4  7568 7569 7567 6451
4  8045 7569 7807 6413
4  6205 7188 7543 6414
4  8043 6831 6782 6785
4  7239 6411 6451 7243
4  7599 6411 7239 7243
4  8275 8044 6100 6328
4  35 635 351 6099
4  76 5968 6577 6556
4  7992 7893 7916 6368
4  7249 6451 6411 7243
4  7102 6368 7893 6652
4  6366 7105 6365 5979
4  8196 7599 7239 7243
4  7599 6443 7239 6411
4  8187 8169 7683 7377
4  6751 6790 7239 6442
4  8286 6538 8244 6579
4  7611 6587 6293 7483
4  7373 7374 7682 7375
4  8048 6104 6103 7561
4  762 6271 7557 6536
4  7379 7373 6850 7374
4  6538 6912 6539 6579
4  6587 6036 6539 7483
4  7050 8219 7051 5991
4  8080 7050 8350 7051
4  8181 7436 7435 7437
4  8183 7093 7713 7095
4  6237 7570 7828 6231
4  7707 6481 6767 7051
4  8175 6482 6479 6466
4  6679 6768 7051 6472
4  8080 6767 6774 6768
4  7712 7113 7099 7713
4  7100 7094 7097 7095
4  6830 6803 7185 6065
4  7110 7713 7712 7435
4  7763 7858 7761 7762
4  6065 6075 6066 6068
4  6696 6803 6830 6694
4  7120 6071 6073 6069
4  6791 6792 6787 7261
4  7708 6858 8222 6777
4  7336 7802 8259 7329
4  6865 7396 7124 6993
4  8314 7033 7961 7608
4  7559 6865 7731 6994
4  7559 6635 7394 6994
4  8170 6549 6681 5997
4  933 6857 6856 6677
4  8100 6992 7035 6993
4  7398 7394 7393 7395
4  7609 7607 7733 7605
4  7902 7900 7398 7395
4  7392 7394 7397 7395
4  8012 8241 7604 7607
4  8219 8171 6858 6681
4  5989 6681 6680 5993
4  7035 8032 8241 7961
4  7396 8098 7124 7961
4  8098 8345 7608 7607
4  6681 5993 5994 6678
4  7322 7324 7319 7211
4  6956 6951 6884 6886
4  6318 6956 6884 6886
4  7494 7740 7493 7495
4  7895 6950 6951 7157
4  7321 7307 8326 6041
4  7160 7158 7159 7157
4  7326 8311 6019 7645
4  7326 6019 6041 7645
4  6955 7157 6317 6886
4  6318 6954 6317 6886
4  6041 6019 6023 7645
4  7942 7960 7943 7442
4  8268 7770 6628 7768
4  8268 7449 7959 7442
4  7812 7441 7443 7444
4  7942 7943 6627 6629
4  6276 6942 7006 6277
4  7441 7943 7960 7442
4  475 6359 8025 6361
4  733 6943 6944 6168
4  8011 6276 6942 7542
4  8268 6628 7944 6629
4  6125 6355 6357 6358
4  6628 6630 6629 6625
4  6627 6626 6628 6625
4  8349 8146 7756 6243
4  6945 6942 6941 6940
4  7158 7370 6996 6869
4  7898 7158 6869 7159
4  7404 8149 7638 7370
4  6870 6341 8149 6343
4  6868 6869 6996 6343
4  7867 8011 6276 6942
4  6945 6943 6942 6940
4  6951 7404 7638 7370
4  7630 7638 7285 7634
4  6021 6043 6050 6320
4  6543 7860 7212 6546
4  7361 7363 7974 7365
4  7587 7585 7846 7152
4  8267 7975 7151 7152
4  7976 7699 7951 7701
4  6551 6282 6280 6279
4  6500 6501 7462 6496
4  7247 6278 8023 6929
4  6543 6503 8223 6544
4  7363 7365 6909 6906
4  6543 6553 7860 6544
4  6551 6280 6282 6544
4  6278 6288 6281 6286
4  6543 6497 6503 6326
4  7356 7363 7367 6909
4  7956 6551 7918 6282
4  8349 6243 7756 6624
4  7846 7362 7975 7950
4  6392 6240 6239 6241
4  7156 7839 6913 7365
4  6907 6913 6903 6906
4  7156 7155 7839 7365
4  7839 7155 7838 7365
4  7754 6239 6623 6625
4  7156 6913 7974 7365
4  8069 7840 7154 7155
4  7421 7419 7422 7923
4  8349 6624 6626 7057
4  7058 6624 8200 7057
4  7356 8218 8256 6905
4  8041 8256 8040 7343
4  8040 7126 8202 8042
4  6623 8200 7058 6624
4  6914 7357 6904 6906
4  7757 6239 6391 6625
4  7757 6628 6626 6625
4  7342 8059 7884 7343
4  7884 6904 7343 6905
4  6092 6467 6469 6616
4  84 7742 680 6470
4  8020 8296 7869 6008
4  6426 6016 8018 6015
4  8020 6350 6427 6015
4  6433 6430 6377 6946
4  6334 6338 6096 6095
4  7800 6134 6140 6137
4  6467 6621 6749 6620
4  6618 6144 6134 6470
4  6089 6621 6092 6616
4  6618 6469 6467 6616
4  6008 6700 6353 6351
4  6844 8355 8189 8078
4  6844 8189 6009 8078
4  6426 8018 8020 6015
4  6349 6427 6350 6002
4  6649 7618 7104 7983
4  5986 6649 7104 7983
4  8147 8060 8128 8062
4  8296 8189 6761 6010
4  8253 8018 6016 8296
4  599 601 600 7986
4  7724 5987 6365 5988
4  6365 5988 5987 5979
4  6655 7891 6814 7333
4  6333 6328 8275 8078
4  6648 6653 6655 6651
4  7103 5978 6649 5988
4  7614 6650 6648 7618
4  8130 7725 8252 7617
4  8288 6653 6814 6815
4  7250 6226 7243 7941
4  7566 8133 7819 8141
4  8196 7243 6226 7941
4  7242 7239 6451 7243
4  6782 7819 6783 7807
4  6782 7566 7819 7807
4  7512 8245 6410 6412
4  8141 6438 6210 7807
4  8274 8324 8272 6177
4  8272 6175 8127 6177
4  6174 7079 6215 6170
4  175 6386 6380 6379
4  7249 6451 7567 6411
4  7936 7935 7937 7519
4  194 195 568 8285
4  7718 7938 8213 7519
4  7718 7936 8212 7938
4  7718 7519 7719 7520
4  7690 7517 7718 7520
4  7718 8213 7719 7519
4  7717 7519 8005 6524
4  8232 7050 6473 5991
4  6513 6510 6864 6435
4  7631 7632 6891 7328
4  493 495 494 6576
4  8356 7705 8129 6767
4  8221 6549 5994 8222
4  441 905 799 6678
4  7178 6892 6889 6657
4  8308 6892 7330 6657
4  7327 7628 7328 7330
4  8219 8171 7708 6858
4  8171 6858 6681 8222
4  554 8172 8319 7480
4  8308 7628 7327 7330
4  6890 6952 7634 6887
4  7477 7479 7478 7480
4  8292 8172 7878 7480
4  6889 6893 6885 6887
4  8308 6888 6892 6657
4  7904 7896 7497 7183
4  6808 6991 7497 6806
4  7160 7159 7277 7279
4  7160 7898 7277 7159
4  7998 7903 8325 6001
4  6704 7730 7729 7903
4  825 8317 8172 6437
4  8284 6901 8354 8283
4  7613 6024 7214 6581
4  43 6456 8237 6478
4  7818 6866 7730 6867
4  7898 6866 7818 6867
4  7898 6867 7278 7159
4  7729 6867 7897 7278
4  875 908 874 8179
4  7944 7784 7444 6631
4  7812 7813 7979 7788
4  7977 7784 7980 7788
4  7980 7788 7784 7383
4  8129 7705 8340 7034
4  6898 7692 8217 8192
4  8191 8351 8347 8192
4  454 7483 916 6724
4  6482 8237 6676 6456
4  948 1008 821 7963
4  7945 6629 7943 6631
4  7979 7755 6631 7383
4  7521 8216 6897 7692
4  875 55 908 8178
4  7813 6721 7788 6715
4  7707 7708 7962 6481
4  8284 8283 8348 6201
4  762 907 702 6271
4  7381 7788 6721 6720
4  6480 6674 6481 6482
4  919 700 826 7524
4  8292 8319 8172 7480
4  8234 8170 8219 5991
4  7481 8292 7878 7477
4  109 231 8175 8237
4  948 7963 821 6456
4  7145 8143 7147 7146
4  8341 6817 8304 6034
4  6858 6676 6674 6675
4  7962 7706 6481 6456
4  916 711 8140 6535
4  6291 6105 6271 7557
4  454 913 7611 7483
4  6681 6678 8222 6675
4  6585 6578 6582 6025
4  6560 6460 6730 6729
4  6934 6935 6931 6836
4  319 6838 6078 5972
4  109 43 238 8237
4  8014 7458 6935 6838
4  6935 6933 6938 7452
4  433 753 167 6306
4  6800 8037 7949 7076
4  8144 7836 7069 7073
4  7746 7074 7590 6163
4  6088 6776 5972 6710
4  6934 6935 6837 6933
4  323 6776 7775 6838
4  7287 6158 7591 7177
4  181 344 6376 6453
4  323 319 6776 6838
4  7242 7240 6450 6451
4  8135 7240 6438 7569
4  7239 7569 7240 6451
4  7242 6450 6790 6588
4  433 512 434 7069
4  8196 7239 7242 7243
4  308 6032 6724 6033
4  916 6724 6535 6725
4  7242 6451 6450 6220
4  6291 6292 6293 6193
4  713 6534 711 6535
4  913 780 493 6032
4  6846 6037 6580 6039
4  433 512 7069 7073
4  7350 6221 6451 6220
4  8196 7242 6226 7243
4  433 400 512 7073
4  6493 6485 6494 6486
4  846 6859 601 7984
4  7105 7102 6365 6368
4  6980 6978 6977 6979
4  17 517 56 8277
4  6793 6794 6796 6977
4  7706 8237 6456 6478
4  7555 7267 8247 7268
4  7709 6977 6796 7514
4  6475 6980 6793 6979
4  553 6856 233 6676
4  6185 8155 7664 6186
4  475 903 8025 6359
4  390 8025 396 7143
4  6982 6477 7020 6979
4  396 903 509 6031
4  6794 6796 6977 7514
4  8247 7267 7266 7268
4  7040 6516 6750 7042
4  8318 6796 6977 7020
4  948 43 874 6471
4  6204 6211 6210 6206
4  136 6441 6203 6440
4  51 7353 52 6439
4  93 119 6360 6167
4  779 6751 6441 7237
4  770 6790 6751 7237
4  6280 6283 6287 6286
4  8023 8013 8017 6929
4  6934 6933 6156 6932
4  7853 6153 7854 6156
4  747 6600 6505 6602
4  8080 8356 8129 6767
4  377 853 378 6507
4  6604 7122 6066 6872
4  6789 7391 6508 7876
4  7852 8090 6551 6279
4  7854 7652 7910 8204
4  7852 7854 6930 8204
4  452 7611 6103 6541
4  619 8294 8079 6712
4  8025 6356 6355 6361
4  6028 7144 7143 7271
4  636 635 365 6208
4  396 8025 6031 7143
4  8294 6717 8079 6336
4  7492 7748 6684 6683
4  35 6099 351 8190
4  7313 6457 7314 6730
4  8043 6339 6831 6340
4  7614 7225 7615 7231
4  8269 6112 6400 6113
4  6030 7143 7142 7271
4  6372 7402 7453 7075
4  7202 7204 7590 6163
4  510 7143 509 7144
4  7178 7330 6892 6657
4  7099 7713 7093 7095
4  6422 7094 6424 6423
4  8184 7094 7097 7572
4  6422 7094 6423 7093
4  7099 7092 7100 7095
4  8289 6499 7324 7211
4  482 25 866 6562
4  8210 7097 8184 7095
4  6284 6285 7463 6280
4  8230 6881 8231 6882
4  868 478 867 6355
4  6185 8246 8160 6396
4  8114 8116 8246 6399
4  553 6856 6676 6677
4  8115 6690 8116 6691
4  8114 6939 6941 6691
4  8293 8036 7180 5983
4  6881 6882 7179 6878
4  6945 6941 6165 6940
4  6879 6602 6883 6878
4  6883 6871 5983 6878
4  194 6378 719 7428
4  5993 7428 5994 6678
4  8115 6941 6690 6691
4  932 8236 931 6678
4  932 7428 8236 6678
4  7002 6999 7001 7000
4  6499 6497 7982 6042
4  6770 6856 6679 6674
4  532 387 531 7645
4  6285 6288 6278 6286
4  7956 8090 7918 6551
4  6681 6680 6678 6675
4  8094 8096 8223 6552
4  905 931 6857 6678
4  6278 6930 6279 6932
4  7451 7485 6154 6151
4  6545 7918 7255 6282
4  6284 6280 6287 6286
4  7061 6321 6323 6320
4  6278 8013 6929 6932
4  7776 8022 7973 6288
4  6152 6154 7485 6151
4  879 7450 6837 7452
4  359 8091 6938 6288
4  1069 8088 7450 7452
4  6279 8091 6281 6288
4  6938 8091 6279 6288
4  6565 6567 6520 6053
4  7658 7746 7659 6163
4  7468 6518 7387 7390
4  7203 7675 7204 6819
4  7468 6567 6518 7390
4  6004 6006 8240 7049
4  8081 7758 6569 7469
4  6133 6128 6004 6130
4  6568 6569 7469 6567
4  8130 7208 8251 7209
4  6565 6568 6567 6053
4  6104 6293 7146 6193
4  7470 6568 7469 6567
4  8119 6270 6102 6181
4  6737 7411 8103 7412
4  8120 8185 7930 7621
4  7470 7389 6567 7390
4  54 8216 776 7595
4  7624 7431 7930 7432
4  7622 8103 8121 7621
4  6290 7431 7624 7623
4  8216 8217 7692 7595
4  7596 7692 7693 7593
4  8129 7705 7034 6767
4  7718 8055 8212 7643
4  6488 6225 6227 6222
4  869 8174 8216 8217
4  8351 7592 8192 7594
4  54 869 8216 8217
4  7600 7543 7188 6414
4  6415 7599 6416 6412
4  171 7225 7231 7224
4  6409 7567 8045 6413
4  7780 6670 7883 7781
4  6964 6965 7308 6962
4  6788 7344 7806 6789
4  8051 8052 7391 7881
4  799 1008 6728 6777
4  6668 6106 6669 6108
4  7780 6590 6843 6593
4  6102 6270 6103 6105
4  8228 7436 6841 6840
4  8251 7208 7207 7209
4  6820 7225 7203 7230
4  7780 6843 7748 6596
4  7354 6100 8044 6218
4  365 6208 51 6209
4  7993 8106 7892 7894
4  6369 7992 7916 6368
4  7989 8106 7993 7916
4  7354 6218 6217 8190
4  6369 7992 7915 7916
4  7989 7875 8106 7685
4  7892 7894 8177 7764
4  7993 7894 7892 7893
4  6831 6832 7186 6833
4  6829 6098 6335 6336
4  7990 7685 7683 7682
4  6831 6833 6785 6340
4  7718 8055 7719 8213
4  7592 7593 7595 7594
4  6615 7940 8196 7941
4  6227 8054 7644 7941
4  6832 6339 6337 6340
4  6098 6328 6100 6340
4  7741 6312 7842 6313
4  6334 6096 6094 6095
4  7138 6216 6834 6206
4  7739 7741 6955 6313
4  7075 7072 6306 7070
4  7899 7496 7280 7161
4  6916 6808 6809 6807
4  7590 8152 7073 7222
4  7280 7496 7739 7161
4  7591 7202 7808 7589
4  7949 7069 7073 7070
4  7497 7899 6809 6805
4  6808 7497 6809 6805
4  170 6372 7808 7072
4  7808 7589 8152 7072
4  6372 7589 7808 7072
4  6980 5999 8136 5995
4  409 8317 6437 6431
4  6916 6315 6447 7495
4  7493 7739 7280 7496
4  6000 6012 6001 6003
4  7481 7477 6429 7482
4  7524 7478 6182 6436
4  7407 6860 6861 6510
4  7392 7274 7901 7395
4  7481 7477 7878 6429
4  6750 6515 6516 6434
4  8337 7407 6860 6861
4  7978 7535 7525 6337
4  6433 6379 6385 6383
4  7525 7535 7901 7273
4  8296 6761 7869 6008
4  8020 8296 6008 6015
4  6980 6947 6517 5995
4  7812 7448 7788 7444
4  8317 6461 6437 6431
4  146 428 6753 6946
4  6752 6750 6512 6974
4  7979 7755 7945 6631
4  7812 7979 7943 7444
4  6752 8056 6436 6434
4  7449 7444 7442 6629
4  7448 7944 7784 7444
4  7812 7788 7448 7199
4  6204 6210 6218 6206
4  7641 7785 7846 7701
4  7976 7364 7635 7636
4  6218 6208 6217 8190
4  662 663 7614 7231
4  6640 6641 7283 6638
4  6098 6096 6336 6097
4  7802 7632 7631 7328
4  7529 7859 7753 7527
4  7138 6834 6216 6340
4  7138 6833 6832 6340
4  8263 7765 7857 7762
4  6832 7525 7543 7366
4  7138 6832 6833 7366
4  6098 6328 6096 6097
4  7978 6338 6337 6096
4  6335 7694 7535 6337
4  7138 7366 7694 6337
4  8259 7329 7802 7328
4  7994 7535 7996 6338
4  7752 6638 6641 6639
4  7631 7282 7633 6891
4  6814 7333 7329 6823
4  6927 6659 7177 6925
4  6822 8308 7327 7330
4  7331 7327 7334 7329
4  7978 7995 7525 7535
4  8310 7863 7445 7446
4  6461 6429 6437 6431
4  7563 7445 7863 7198
4  919 7479 562 7523
4  6433 6377 6430 6432
4  8292 7878 7477 7480
4  7857 7753 7859 7527
4  7765 7283 7762 7632
4  7878 6461 6429 6437
4  562 554 555 7480
4  6188 7477 7478 7480
4  6972 6971 6973 6969
4  825 562 409 6437
4  825 8172 562 6437
4  7181 8325 7998 7903
4  6425 6001 6011 6003
4  6723 6001 7998 6002
4  6633 6635 6705 7730
4  8313 7426 8197 6876
4  6719 6011 8325 6705
4  6627 6623 7058 6626
4  6873 8214 8313 7426
4  8313 8195 8197 7426
4  8329 8313 8198 8195
4  7821 7292 8329 7293
4  8313 6876 8197 7293
4  7671 7672 7673 7294
4  6702 6705 6704 6001
4  8313 8197 8195 7293
4  6723 6704 7903 6001
4  905 932 931 6678
4  6723 6702 6001 6362
4  6088 6087 6775 6710
4  8015 8016 8013 6836
4  6934 6709 6935 6836
4  7456 8058 6836 6573
4  8058 6572 6152 6154
4  6706 6079 6077 6709
4  6706 6079 6709 6085
4  6706 6709 6574 6085
4  6706 7953 6574 7485
4  8276 8331 6175 6176
4  8261 7577 7575 6176
4  8276 8261 8331 6176
4  8163 8255 8164 6144
4  6970 7513 7166 7424
4  1023 1026 7071 6143
4  146 6753 6947 6946
4  286 7131 387 6135
4  7061 6997 7234 7311
4  949 1026 1023 6143
4  7061 7234 7743 7311
4  6543 6546 7212 6326
4  7326 6019 6017 7211
4  6997 6778 7134 7128
4  7071 8151 8164 6143
4  7002 7001 7003 7000
4  7318 7002 7003 7004
4  950 8164 6144 6143
4  6276 6136 6127 7542
4  7999 6141 8112 6146
4  1026 271 8112 6143
4  949 8164 950 6143
4  7567 7569 6413 6411
4  7627 6126 6125 7541
4  8232 8303 8233 5997
4  51 6440 128 6209
4  6204 6218 6216 6206
4  762 7557 8315 6536
4  8229 6860 6862 5996
4  6516 6980 6947 6517
4  6976 8318 7043 6977
4  6784 6783 8044 6785
4  488 8077 7237 7241
4  7353 7698 7697 6439
4  7353 7352 7351 6217
4  6783 6210 7351 6218
4  6783 6218 8044 6785
4  6603 8239 7174 7068
4  7123 7174 7647 7121
4  7174 7646 7647 7121
4  6883 6803 8249 5983
4  8233 8303 8337 8229
4  7805 7122 7121 5984
4  6084 6610 6730 6612
4  6611 8117 7953 6608
4  8006 7487 7796 7953
4  8101 8315 7557 6536
4  8350 7050 8219 7051
4  8291 6190 6188 6183
4  6305 6309 6301 6298
4  587 586 585 6307
4  19 7594 6381 6301
4  7575 6295 6296 7577
4  7313 7315 8137 5974
4  6480 6858 6679 7051
4  7707 8219 6858 7051
4  8080 6772 7050 7051
4  7706 8237 6482 6456
4  6504 8264 6495 7462
4  7248 8223 8264 7462
4  6302 6307 6296 6298
4  6299 6301 6307 6298
4  587 585 7787 6307
4  7868 6350 7869 6353
4  7459 6504 6498 6044
4  6498 6504 6495 6044
4  6504 6500 7463 7462
4  7248 6504 7463 7462
4  8264 8223 6495 7462
4  6425 7998 6001 6002
4  8063 6427 6428 6002
4  7459 6499 8289 7211
4  6723 6349 6428 6363
4  6000 6001 6362 6002
4  8253 8189 8296 6009
4  6761 6008 6010 6353
4  731 6755 7868 6352
4  6119 6350 6755 6120
4  7015 6428 7010 6811
4  8080 7707 8356 6767
4  8145 6294 8336 6190
4  7897 6867 6870 6869
4  7181 7818 8325 7903
4  6723 6428 7998 7903
4  6000 6362 6349 6002
4  6335 6337 6338 6096
4  6792 7344 7264 7263
4  6897 6201 6899 6199
4  7693 6898 6897 6201
4  6065 6694 6697 6068
4  6961 6786 6695 6789
4  6074 8307 6699 6698
4  7266 7268 7876 7881
4  6530 6236 6235 7263
4  6900 6902 6899 6199
4  8283 6898 8348 6201
4  8348 6898 7592 6201
4  8284 8348 6200 6201
4  7038 8132 6448 6748
4  6619 6746 7037 6621
4  8336 6294 8102 6190
4  562 8172 554 7480
4  6964 6962 7308 7264
4  8145 8336 8291 6190
4  6104 6193 6192 6189
4  6188 6190 6104 6189
4  8278 6092 6090 6408
4  7800 6617 6618 6467
4  180 6145 6376 6147
4  7663 7800 6140 6137
4  7521 7596 8216 7692
4  6104 6190 6193 6189
4  6304 8282 6300 6305
4  7601 6300 8282 6301
4  6185 8246 6396 6399
4  7438 6597 6594 6840
4  6843 7747 7748 6839
4  7748 7006 6684 6689
4  7438 7009 7439 6839
4  6114 6692 6110 6109
4  7492 7780 7748 6596
4  7492 7269 6107 6683
4  6692 6683 6110 6109
4  7007 7574 6273 6269
4  119 6167 7665 7666
4  921 585 652 7078
4  6396 6114 6113 6399
4  8114 6691 8116 6399
4  7801 7759 6048 7539
4  7801 8068 7022 6048
4  7715 6490 8055 7643
4  6225 7250 6227 6226
4  7538 6046 7760 7539
4  7832 7758 7539 6569
4  7969 7947 7154 6048
4  8068 8069 7418 7154
4  6046 6048 7153 6049
4  6046 7969 7153 6048
4  7406 7779 6860 6510
4  555 762 6271 7557
4  6982 7020 8318 6979
4  6982 8156 8318 7020
4  7968 7969 7538 7022
4  7027 7801 7022 7023
4  6473 7678 7053 6474
4  7001 7066 7062 7000
4  6972 6970 6971 6969
4  8180 7625 8181 7437
4  6967 7423 7433 7165
4  7166 7167 7162 7165
4  7065 7712 8227 7435
4  7110 7712 7112 7066
4  6991 7181 7183 6806
4  6704 6705 7730 7903
4  8325 7903 6705 6001
4  7001 6998 7066 7000
4  6997 7134 7653 7000
4  7712 7001 7312 7112
4  7110 7066 8180 7435
4  7968 8072 7969 7947
4  7964 7418 7414 7416
4  7999 8112 7669 6146
4  7475 7967 7476 7474
4  8242 6617 7800 6620
4  7471 7872 8072 7415
4  7047 7045 6743 6373
4  6331 6332 7400 7401
4  6017 6501 6322 6562
4  7872 7563 8310 7564
4  8310 7445 7441 7446
4  7872 7420 7415 7417
4  7471 6795 7861 7472
4  865 866 8150 6563
4  7129 6040 7319 7004
4  6778 6319 6023 6045
4  6321 6326 6322 6320
4  6042 6044 6043 6018
4  7794 7795 8117 7796
4  6153 6150 7854 6156
4  6934 6836 6931 6156
4  7002 7004 7005 7000
4  7745 6999 7005 7311
4  7491 7530 6246 7490
4  8025 7780 7492 6030
4  7952 7491 6246 7489
4  811 74 75 6797
4  7795 7792 6256 6248
4  390 396 403 7143
4  6959 6963 6029 6030
4  7233 7778 7231 7223
4  7497 7279 7899 6805
4  6991 7904 7497 7183
4  7497 7896 7899 7279
4  7513 7195 7168 7424
4  7043 6977 7514 7041
4  7232 7287 7203 7226
4  7168 7201 7169 7196
4  7862 7863 7562 7198
4  551 7232 7226 8152
4  171 791 296 7231
4  662 791 171 7231
4  7202 7203 7221 7204
4  8310 7563 7445 7863
4  8026 6511 6513 7482
4  7871 7863 7862 7564
4  7862 7562 7197 7198
4  7547 7546 7563 7198
4  6793 6977 7020 6979
4  7709 7545 7544 7514
4  6976 6981 6982 6979
4  7553 6980 6516 6978
4  6483 6982 6981 5999
4  7704 7932 7423 7432
4  8121 7865 7932 7931
4  8121 7931 7932 7621
4  7622 8121 7932 7621
4  7624 7930 8185 7621
4  6475 5999 5989 5993
4  7693 6201 6199 6197
4  403 8052 8224 7143
4  7932 7931 7163 7432
4  7622 7932 7704 7432
4  7932 7931 7432 7621
4  8121 6607 8122 7791
4  7711 8122 6607 7796
4  510 787 7143 7142
4  6605 8185 7794 6607
4  7470 7388 7389 7390
4  7470 7389 6568 6567
4  6052 6518 8081 6567
4  6722 6715 6720 6252
4  6464 6466 7706 6478
4  787 788 616 8153
4  7811 6715 7201 7196
4  6253 7980 6251 6252
4  6566 8175 6479 6466
4  7783 7784 6630 6631
4  6948 6953 6949 6886
4  6770 6679 6480 6674
4  6481 6674 6858 6676
4  8235 6674 6482 6676
4  7168 7195 7197 7196
4  7515 7195 7514 7424
4  7513 7168 7166 7424
4  7907 6716 6722 6252
4  6774 6767 6059 6768
4  7948 6195 6297 7716
4  921 7081 8260 6548
4  7757 6630 6628 6625
4  7755 7945 6631 6625
4  7821 7506 7822 7293
4  7575 6302 7551 6173
4  7242 7240 7239 6790
4  7111 7602 7114 6423
4  7720 7715 8097 7716
4  7602 6418 7823 6421
4  7823 6420 7508 6421
4  7511 7703 7582 7191
4  7244 7253 7737 7637
4  6308 6307 6301 6298
4  8225 7948 6297 7577
4  8298 7246 7193 7191
4  8313 8198 8195 7426
4  8197 7427 7425 7426
4  7833 7080 6303 8097
4  7430 7427 7429 7534
4  7429 7425 7427 6264
4  8203 7536 7533 6921
4  6178 6179 8323 7077
4  8349 7059 7922 7057
4  8260 7597 6309 6308
4  7642 6540 8260 6646
4  84 83 951 8255
4  7540 7056 7055 7057
4  8198 7427 7430 7055
4  7054 8198 7430 7055
4  7430 7427 7534 7055
4  8265 7534 7427 7055
4  7800 6618 8163 6134
4  6619 8243 6742 6620
4  6756 6080 6754 6116
4  8316 7060 8198 7055
4  7350 6221 7348 6451
4  7797 7012 8338 7798
4  7797 7849 7799 6082
4  7249 7568 7567 6451
4  6219 6226 7242 6220
4  7038 7037 6746 6748
4  6790 7237 6487 8077
4  6275 6101 6613 6408
4  724 8344 6755 6118
4  834 6121 6756 6116
4  986 8099 999 6727
4  8049 6818 8001 6039
4  8049 8001 6910 6039
4  8099 6726 8001 6727
4  6032 6727 6034 6033
4  308 901 913 6032
4  901 780 913 6032
4  6726 6038 8001 6727
4  624 8099 8341 6727
4  6036 6038 6725 6033
4  624 8341 901 6727
4  7245 7637 7636 7246
4  7635 7368 7732 7637
4  7737 7733 7604 7605
4  6679 6858 6681 6472
4  7737 7786 7637 7605
4  8221 8171 6549 8222
4  6770 6480 6679 6768
4  6907 7605 7367 6908
4  7368 7367 6907 7605
4  7604 7606 7367 6908
4  6903 6905 6908 6906
4  19 56 253 6381
4  7690 7691 7693 6195
4  7690 7718 7720 7520
4  7274 7395 7733 7253
4  7732 7609 8009 7733
4  8282 6305 7594 6301
4  8191 8277 8351 8192
4  652 586 251 6308
4  19 7601 7594 6301
4  587 7787 6299 6307
4  6295 6300 6302 6298
4  8282 6300 6305 6301
4  7693 7692 7592 7593
4  8351 7592 6898 8192
4  8282 7592 8351 7594
4  8347 8192 6898 8178
4  17 56 19 7594
4  17 19 7601 7594
4  6797 6577 5968 6707
4  359 6938 7776 6288
4  6798 6084 6610 6557
4  6706 6612 6574 7953
4  6084 6079 6707 6085
4  6560 5974 6084 6730
4  6084 6612 6708 6085
4  6706 6612 6798 6707
4  6036 6535 6724 6725
4  8315 7598 6534 6536
4  510 511 788 7275
4  8356 7707 7705 6767
4  6188 7523 6105 7557
4  6102 6181 6270 6105
4  6578 6579 6583 6025
4  916 713 711 6535
4  6534 6536 7598 6537
4  6294 7145 6292 6193
4  8101 6188 8102 6291
4  1020 6275 6756 6613
4  939 6118 6123 6117
4  555 7480 8319 7557
4  725 6754 8344 6118
4  6182 6429 7477 7482
4  8291 6188 7477 6183
4  6754 6757 8344 6755
4  6446 6749 6092 6748
4  8035 8293 8249 8036
4  8101 8315 8319 7557
4  726 835 725 6754
4  6756 6101 6080 6613
4  6104 6190 6291 6193
4  313 834 6404 6613
4  6080 6081 6083 6121
4  966 6404 6115 6061
4  8027 7481 7482 6183
4  6980 8136 6947 5995
4  8292 7477 6188 7480
4  6380 6461 8317 6431
4  6380 6386 6384 6379
4  8291 8102 6188 6190
4  6622 7037 6089 6621
4  8143 6192 7146 6193
4  8145 6191 6190 6189
4  883 409 6377 6431
4  883 175 920 6380
4  6752 8056 7524 6436
4  6436 6430 7479 6437
4  7038 6746 8132 6748
4  6089 7848 6449 6827
4  6467 6468 6462 7030
4  883 920 409 6431
4  825 409 920 8317
4  882 6990 797 6354
4  939 1009 6781 6123
4  6619 6742 6746 6745
4  8278 6060 6092 6408
4  794 797 798 6354
4  6101 6449 6081 6613
4  7059 7060 7920 7922
4  8265 8195 7060 7055
4  8329 8198 8316 7060
4  7540 6958 7534 7536
4  7059 7540 7055 7057
4  7921 7821 8329 7506
4  8329 7060 7506 7293
4  194 8221 8285 5994
4  8285 6549 6862 6382
4  8232 8233 8170 5997
4  8233 8229 8170 5997
4  238 233 231 8235
4  6914 7365 7357 6906
4  7405 7779 7406 6510
4  6476 6857 8236 5989
4  8316 7922 7060 7057
4  7524 7478 7479 7523
4  8144 8309 8038 7222
4  433 753 6306 7070
4  748 746 847 8239
4  512 8144 7069 7073
4  8297 6880 8046 6877
4  6984 6159 7401 6985
4  400 8144 512 7073
4  551 7226 296 8152
4  7648 7298 7297 7300
4  601 595 8346 7972
4  7297 7826 7299 7298
4  601 749 600 8346
4  8230 6880 6881 7179
4  829 967 599 7985
4  5978 6649 5986 7983
4  7649 7773 7304 7300
4  6530 6531 6527 6234
4  8257 7207 6654 7209
4  7647 8220 7826 7646
4  8220 7827 7826 7646
4  7464 7116 7648 6533
4  7119 7117 7121 7118
4  7117 7649 7298 7116
4  7117 7649 7874 7298
4  8303 5998 6861 5997
4  400 7072 8152 7073
4  552 7808 8152 7072
4  441 195 194 8221
4  7178 6656 6927 6659
4  7178 7330 8030 6892
4  6888 6890 6892 6887
4  8308 6665 6888 6657
4  6888 6667 6892 6657
4  6656 6657 6889 6658
4  8308 7330 6821 6657
4  8150 6284 7463 6287
4  203 6284 6287 6286
4  857 856 7973 6286
4  857 207 203 6284
4  6278 6938 8013 6932
4  8030 7330 7328 6892
4  6036 6037 6038 6027
4  7613 6026 6587 7612
4  856 6288 7973 6286
4  7899 7279 7280 6805
4  6080 6082 7798 6083
4  7012 7010 7798 7013
4  7182 6428 6811 6806
4  6808 6811 6991 6806
4  798 939 726 6118
4  6881 8293 8231 7180
4  7613 7214 6024 7612
4  379 6505 7184 6602
4  7119 7122 6071 7118
4  7174 7121 5981 5984
4  7213 6581 6458 6460
4  7613 7214 6731 6581
4  6817 7919 7220 6024
4  8269 7270 6028 6112
4  7610 7613 6731 6584
4  7780 8224 7883 6959
4  6539 6541 6535 6537
4  7147 8107 6583 7146
4  7147 7619 8107 7620
4  8050 8138 6846 6910
4  8105 8104 8050 6039
4  6816 6845 8352 6580
4  6587 6036 6026 6025
4  6038 6035 6033 6027
4  6737 7413 8107 6584
4  6912 6037 6036 6579
4  8105 8050 6846 6039
4  6816 8049 8105 6039
4  6542 6912 6036 6539
4  8244 6578 6579 7148
4  7318 6042 7982 7005
4  7626 6272 7029 7541
4  285 7305 6778 7131
4  6816 8105 8352 6845
4  7919 8352 7454 7016
4  7248 7463 6280 7462
4  8160 6396 7132 6397
4  8326 6041 7307 7645
4  8160 7132 8161 6397
4  6185 7135 8155 6397
4  6185 8114 8246 6399
4  7323 7325 7321 7319
4  7326 8311 6564 6019
4  7028 8089 7029 6276
4  7029 6276 6272 6274
4  7006 6268 6267 6269
4  8101 6188 6291 7557
4  8246 8116 6396 6399
4  7029 6272 6276 7541
4  7747 6272 6125 6357
4  6126 7541 7626 7130
4  7574 7064 7063 6273
4  7455 7456 6835 6775
4  6266 7574 7007 6269
4  7866 7867 8266 7008
4  6125 6272 7541 6357
4  8320 6896 6894 6895
4  8025 6682 7492 6684
4  7063 7065 7437 7062
4  6186 6167 6360 7666
4  7780 6959 6029 6030
4  868 867 674 6358
4  8320 6936 6894 6896
4  7780 6029 6959 6670
4  6668 6669 6672 6108
4  7627 7625 7626 6273
4  6896 7574 6937 6274
4  6111 6106 6112 6109
4  825 409 8317 6437
4  855 7965 541 6136
4  6894 8089 8066 7029
4  6690 7008 6686 6687
4  7747 6125 6355 6357
4  733 6361 6943 6168
4  7269 6108 6107 6109
4  8305 7727 7726 6364
4  7455 7548 8158 7457
4  749 595 78 8297
4  601 595 749 8346
4  5977 5985 7972 7068
4  748 746 8239 6601
4  6871 6602 5981 6878
4  6604 5981 6871 6602
4  5986 7972 5985 7984
4  493 494 7611 6576
4  749 8346 595 8297
4  6883 8249 6881 5983
4  595 6601 82 6877
4  8230 7179 6881 6882
4  746 747 82 6601
4  6141 6143 6146 6132
4  8239 7988 5985 6859
4  7174 8239 5977 7068
4  8239 6859 7068 6601
4  6133 8111 6141 6139
4  7720 7691 6303 6309
4  7071 8111 8124 8151
4  7880 8125 8124 6139
4  7833 8260 6303 7576
4  7709 8318 6796 6977
4  8073 6796 8318 7020
4  949 950 271 6143
4  7515 7547 6794 7514
4  7709 7870 7544 7545
4  6980 6977 6793 6979
4  7718 7517 7936 7519
4  7522 7719 7717 7520
4  6179 8280 6169 6180
4  7718 8212 8055 7938
4  6223 6224 6484 6222
4  8073 7018 6796 7020
4  7516 7546 7195 7196
4  7870 7564 7862 7545
4  8073 7018 7476 7472
4  7861 6796 6794 7545
4  7861 7472 6795 6796
4  7260 7310 6236 7263
4  7907 7167 7201 6716
4  7423 7864 7170 7163
4  7433 7170 7516 7169
4  6719 6632 7995 7996
4  6011 8325 6705 6001
4  6703 7558 7560 6635
4  7558 6635 7996 7393
4  7995 7996 7535 6338
4  6011 7998 8325 6001
4  7260 7310 6229 6236
4  6702 7996 6703 6705
4  351 6759 6099 6711
4  6237 7828 6235 6231
4  6237 6233 7570 6231
4  7260 6236 6531 7261
4  351 350 8295 6759
4  7123 7116 7464 7118
4  6673 8079 6702 6000
4  7994 7902 7558 7393
4  6717 7994 6703 7996
4  6529 6528 6233 6234
4  6530 6527 6237 6234
4  6532 6229 6232 6234
4  6843 7747 6839 6840
4  6791 6531 7261 7118
4  7681 7827 7682 7299
4  7684 7377 7685 7682
4  8232 5991 5998 5997
4  7833 8260 6493 6484
4  6522 7717 8005 6524
4  6897 6902 6849 6199
4  8005 7519 7935 6524
4  6473 7053 6483 5990
4  6901 6899 6201 6199
4  652 251 654 6308
4  6848 6194 6522 6523
4  6681 6678 5994 8222
4  6325 7522 6194 6195
4  6770 8235 6856 6674
4  8229 6861 5996 5997
4  6483 5999 5998 5990
4  7178 6927 6821 6659
4  6461 6511 6429 6431
4  7052 6856 6857 6680
4  7099 7713 7113 7093
4  719 177 927 6378
4  6663 6658 6665 6659
4  7969 7947 7856 7154
4  7840 7419 7154 7155
4  7421 7837 7856 7419
4  7856 7947 7416 7154
4  7696 7501 7843 7359
4  6329 6455 6331 6330
4  8047 6660 8071 7970
4  7529 6853 7859 6854
4  7688 6637 6263 6260
4  8106 7684 7377 7685
4  8047 8071 7358 7970
4  7379 6850 6851 7374
4  7672 7295 6876 7294
4  7381 7382 7755 7383
4  6254 7783 6387 6389
4  8047 7970 7358 7360
4  7453 8250 7677 7360
4  6255 7490 6248 6249
4  7754 7945 7755 6625
4  6390 7754 7755 6391
4  7453 6159 7360 7288
4  7921 7060 8316 7922
4  6392 6387 6391 6240
4  7921 8316 8200 7922
4  6390 6388 7809 6240
4  7755 6391 7783 6389
4  6636 8271 7688 7689
4  7847 6264 6263 6260
4  8194 7920 7060 7506
4  7059 8194 7920 7060
4  6242 6243 8200 6624
4  8123 7461 7687 6263
4  6242 6243 6624 6239
4  7765 7814 7283 7632
4  8030 7631 6891 7328
4  8349 7920 8146 7922
4  7765 7814 7753 7283
4  8349 8146 6243 7922
4  7505 7921 7507 7506
4  7340 7126 8040 7127
4  7803 7505 7205 7206
4  8314 8059 7125 7127
4  8066 7307 7029 7306
4  6894 7029 8066 7307
4  957 6126 6135 6127
4  7966 8066 8089 6136
4  7627 6125 6272 7541
4  6266 6277 6937 6269
4  7766 8129 7034 6767
4  8048 6102 7146 7620
4  6291 6105 7561 6271
4  6900 6057 7766 6902
4  6293 6583 7146 7148
4  919 429 562 7479
4  919 555 702 7523
4  454 915 452 7611
4  7622 8103 7621 7620
4  919 7524 7479 7523
4  109 8126 43 8237
4  8048 7146 8107 7620
4  6560 6084 5974 6558
4  7230 7616 6650 7615
4  148 429 428 6430
4  6188 6291 6104 6190
4  8166 6923 6164 7210
4  6967 6975 7164 6969
4  7955 8039 8300 7223
4  8048 7611 6293 7561
4  7710 7413 8107 6606
4  7949 7836 7074 7073
4  7657 8302 7660 7204
4  8039 7223 7221 7222
4  7660 6163 7204 7210
4  7948 7106 7715 7716
4  6295 6304 6300 6298
4  6309 6308 6301 6298
4  7551 6302 7787 7079
4  8276 7107 8261 6176
4  6923 6924 6158 7210
4  7715 7108 6490 7643
4  7593 6381 7595 7594
4  7601 8282 7594 6301
4  7203 6819 7204 6924
4  8166 7660 7204 7210
4  8173 7133 6111 6113
4  8269 6111 6112 6113
4  6114 6110 6106 6109
4  7780 6107 6029 6670
4  8162 6402 7136 8270
4  799 6728 8222 6777
4  7596 8216 7692 7595
4  7028 8089 6894 7029
4  7867 8011 7028 6276
4  6403 6400 7136 6402
4  919 562 555 7523
4  7008 6266 6686 6268
4  8347 6898 6464 8178
4  875 43 8126 6478
4  8191 8347 8179 8178
4  8348 8351 7592 6898
4  8266 7028 6936 6937
4  54 8217 8216 7595
4  7747 7627 6267 7439
4  7006 6277 6268 6269
4  8277 8351 8192 7594
4  6848 6196 6849 6199
4  6566 6849 6056 6847
4  6463 6056 6849 6902
4  6445 6825 6448 6826
4  6444 6455 6446 6747
4  6089 6449 6090 6092
4  6756 6275 6101 6613
4  8118 6259 6875 6876
4  8299 6852 6875 7673
4  7723 7680 8299 7375
4  6455 6749 6446 6747
4  6447 6315 7503 7495
4  6314 7843 7500 7501
4  7373 7670 6852 7375
4  7289 7671 7668 7294
4  7038 8132 6824 6448
4  6331 7696 8250 7359
4  7695 7400 7358 6330
4  7844 7671 7774 7668
4  7671 7668 7673 7302
4  7301 7723 7845 7302
4  7722 7670 7375 7673
4  8261 8333 7575 7577
4  7722 7671 7670 7673
4  847 7988 8239 6859
4  8279 7410 6762 6485
4  7108 6494 8097 6171
4  595 7972 6859 6877
4  8331 8261 8333 7575
4  8297 8046 7972 6877
4  7174 5977 5981 7068
4  847 8239 746 6859
4  108 8126 8174 8217
4  6459 6586 7413 6732
4  6737 8107 7413 6606
4  7268 6789 6695 7876
4  553 233 238 6676
4  6480 6679 6858 6674
4  8121 8122 7865 7791
4  8006 7796 7711 6608
4  905 933 553 6677
4  562 429 409 7479
4  6609 7710 6605 6606
4  6772 7051 6768 6472
4  6134 6138 6137 6131
4  8048 6737 8103 8107
4  7710 8107 7619 7412
4  6455 6743 6749 6747
4  214 6275 313 6408
4  264 6060 6405 6061
4  6473 7678 6474 6472
4  6770 6480 8235 6674
4  6058 6479 6480 6059
4  6699 7308 7262 7264
4  6060 6468 6469 7030
4  7555 6963 7270 6672
4  7308 6962 6965 7309
4  313 966 264 6405
4  6402 6186 6397 6187
4  6403 7132 7133 6397
4  6148 6150 6153 6151
4  6148 7531 6150 6149
4  6155 6149 7491 6151
4  7451 6154 6155 6151
4  119 6360 6167 7666
4  6455 6330 6747 7502
4  7045 6744 6742 6743
4  6455 7696 6331 6330
4  7046 7400 7045 6332
4  7276 6400 7144 8270
4  7045 6744 6743 6330
4  6916 7495 6812 6807
4  6444 7696 6455 7502
4  7696 7843 8250 7359
4  7956 6550 7913 8204
4  409 7479 6430 6437
4  8157 6551 6930 8204
4  7135 6403 7137 6397
4  6150 7531 7532 6149
4  6605 7794 8117 7796
4  8000 8109 8082 7914
4  7766 6056 7034 6902
4  6605 7796 8117 6608
4  6565 7499 6566 6520
4  7486 8117 7795 7487
4  6058 6565 6566 6054
4  6057 6526 6052 6847
4  8117 7796 7487 7953
4  6058 6566 6056 6054
4  6057 6056 6847 6054
4  7794 6607 7791 7796
4  7711 8122 8121 6607
4  6522 8005 6525 6524
4  7794 7890 7795 7792
4  6565 6567 7389 6520
4  7499 6520 7389 6519
4  7272 7253 7244 7254
4  7651 7251 7694 7366
4  7789 6247 6257 7792
4  8006 7793 7796 7487
4  7392 7901 6632 7393
4  7558 7398 7394 7393
4  7392 8012 7274 7395
4  8122 7793 7792 7796
4  55 8217 7595 8192
4  7995 7393 7901 7535
4  7138 7651 7694 7366
4  7600 7543 7317 7188
4  7693 6898 7592 7692
4  6898 8192 8217 8178
4  7693 6196 6195 6197
4  8347 8283 8238 6464
4  7597 7596 7593 6381
4  8148 7875 7917 7827
4  7115 6532 6533 6531
4  7721 6533 7300 6528
4  7991 8169 7894 7764
4  7690 7720 7691 7716
4  7991 7331 8263 7332
4  8106 7684 8177 7377
4  7684 7379 8177 7377
4  7833 8260 7720 6303
4  6200 6202 6325 6197
4  7457 6708 7656 6573
4  7711 7796 6607 6608
4  8121 6607 8120 7621
4  8006 8122 7711 7796
4  7691 6195 6202 6197
4  919 7524 826 7479
4  8072 7416 7947 7415
4  7964 7476 7967 7474
4  7968 7474 7947 7022
4  7538 7969 6046 6048
4  7096 7099 7100 7095
4  7570 6529 8184 7572
4  7693 7691 7592 6202
4  7690 6195 7521 7518
4  6959 6960 6962 6671
4  6959 6961 7268 8051
4  7565 8065 6232 6233
4  7555 8247 6963 7268
4  7928 7100 7092 7094
4  6963 6030 8052 7142
4  6963 6029 6030 7271
4  7268 7391 7876 7881
4  7140 7804 7603 7229
4  7228 7238 7803 7229
4  7804 7509 7109 7510
4  7368 7637 7364 7605
4  7252 7635 7732 7637
4  7274 7395 8012 7733
4  7624 7432 7930 7621
4  7704 7164 6967 6975
4  7650 7246 7254 7193
4  7604 7733 7607 7605
4  6973 6971 6975 6969
4  8298 7636 7635 7246
4  6752 6974 6182 6184
4  7622 6102 8103 7620
4  7192 7317 7246 7193
4  7284 7285 7282 6641
4  8103 7621 7620 7412
4  6893 6891 7634 6887
4  7630 7634 7282 6891
4  7629 6890 7630 6891
4  6893 7631 7633 6891
4  8119 6181 6102 6192
4  7629 7630 7814 7282
4  6191 6193 6190 6189
4  7281 7633 7631 7282
4  8143 7624 7620 7623
4  6290 7624 8143 7623
4  6889 6667 6892 6887
4  7628 6891 7328 6892
4  6884 6952 6890 6887
4  6888 6884 6890 6887
4  7857 7859 7376 7378
4  7857 7859 7378 7527
4  7756 6243 8110 6241
4  7804 7229 7206 7510
4  7688 6854 6637 6260
4  7227 7238 7228 7229
4  7149 6245 8146 7507
4  7526 6855 7528 6854
4  6918 7886 7735 7734
4  8056 6430 6436 6434
4  7680 7374 7380 6852
4  7886 7888 7884 7885
4  7684 7373 7374 7682
4  6853 6851 7859 6854
4  6853 7380 7859 6851
4  7976 7361 7368 7364
4  6850 8168 6855 6261
4  8201 6265 6259 6261
4  6372 7453 7591 6987
4  8098 8345 8314 7608
4  7356 7367 6908 6909
4  8345 6903 8059 6905
4  8059 7127 7608 6905
4  6801 6800 7746 6162
4  8218 8040 7343 7127
4  6164 6163 7210 6160
4  7688 8271 6262 6263
4  6855 6260 6854 6261
4  6986 6769 7076 7399
4  7659 7204 7660 6163
4  8166 7660 8302 7204
4  7039 7341 7032 7339
4  7658 7659 7660 6163
4  8271 7689 7338 6263
4  7847 7429 6263 6264
4  6986 6162 6985 6160
4  8166 6164 7660 7210
4  6333 6094 6328 8078
4  811 6077 6079 5969
4  6088 7458 6776 6710
4  811 6079 75 5969
4  7656 6573 6708 6574
4  6078 5972 6838 6710
4  6080 7798 6757 6083
4  8338 8335 8019 8334
4  5976 6093 6086 5973
4  6088 6776 6086 5972
4  6375 7044 6373 6129
4  8243 6742 6620 6137
4  8063 8335 7015 6427
4  8334 6350 6119 6427
4  1020 6756 834 6613
4  8334 6757 7798 6119
4  181 344 180 6147
4  8338 7798 7012 7010
4  6802 6989 8113 6988
4  6375 6769 6007 7049
4  6080 6613 6081 6121
4  834 6613 6756 6121
4  181 339 344 6453
4  8240 6006 8113 7049
4  339 7256 7259 7257
4  6123 6124 6115 6117
4  7014 7013 6812 7011
4  6614 6917 6812 7011
4  7797 7012 7798 7013
4  7038 7851 7850 6826
4  7047 6743 6137 6373
4  8240 8113 7048 7049
4  711 6534 8140 6535
4  713 907 762 6541
4  6104 6291 6105 7561
4  6004 7049 7048 6130
4  8119 7524 6270 7478
4  6290 6184 6192 6189
4  804 8319 8315 7557
4  8027 8290 7481 6183
4  7046 8113 6989 7049
4  8183 7094 6422 7093
4  7109 7114 6423 7093
4  7238 7111 7602 7114
4  8176 6464 8238 7706
4  8339 8238 8354 6899
4  8339 8354 6901 6899
4  8283 6464 6898 6899
4  8284 6200 6901 6201
4  8347 8351 8283 6898
4  7312 7114 7113 7112
4  7602 6422 6418 6421
4  19 251 586 6308
4  7691 6303 6305 6297
4  7691 6305 6303 6309
4  6200 8312 6324 6202
4  6304 8348 8282 7592
4  7742 8255 6618 6470
4  6422 6424 6418 6421
4  7092 7824 6424 6423
4  7602 6423 6422 6421
4  7109 7509 7824 6421
4  7342 7126 7125 7127
4  7342 7125 8059 7127
4  819 83 680 6470
4  7036 7032 7340 7033
4  6619 6617 6620 6616
4  216 6060 8278 6408
4  8278 6091 6092 6469
4  84 680 83 6470
4  215 8278 216 6469
4  6619 7037 6622 6621
4  7342 8042 7126 7343
4  8032 7127 8218 7608
4  8032 7340 8218 7127
4  7124 7961 8314 7033
4  846 7988 847 6859
4  8314 8345 8059 7608
4  7031 7125 7032 7033
4  7102 7893 7891 6652
4  7031 8314 7125 7033
4  7766 6057 6056 6902
4  6718 6338 6334 6095
4  6425 7998 6011 6001
4  6723 6362 6001 6002
4  6227 7644 6226 7941
4  7991 7764 7894 7332
4  7250 7941 7243 8245
4  968 846 967 7984
4  7250 6410 8254 8245
4  8054 7938 7644 7941
4  6615 8212 7940 7941
4  7086 7940 7090 7941
4  7086 7941 7090 8245
4  599 7985 601 7986
4  8254 7578 8054 7090
4  968 967 988 7987
4  988 7997 7987 7985
4  599 8060 998 8062
4  8254 7082 7090 7083
4  6459 6732 6609 6729
4  599 600 998 8060
4  642 495 918 6576
4  601 8346 600 7986
4  916 8140 310 6725
4  308 310 6726 6725
4  644 642 918 6739
4  7219 8137 8159 6739
4  6560 6555 6557 6558
4  528 5968 5975 5971
4  77 6575 495 6556
4  7071 8112 8111 6143
4  7800 6617 6467 6620
4  8111 8151 6141 6139
4  6918 7735 8209 7736
4  7830 6919 8209 7768
4  7942 8268 7768 7769
4  7232 7226 7203 7224
4  8208 7958 8209 7736
4  709 662 663 7614
4  8004 7958 7422 7923
4  8268 7959 8207 7769
4  488 489 979 8003
4  8268 7442 7959 7769
4  7942 8268 7442 6629
4  595 6859 6601 6877
4  8305 8230 8231 7971
4  466 467 6788 6508
4  6604 6505 6740 6506
4  7942 7442 8268 7769
4  378 7216 6509 7876
4  378 7391 608 7876
4  6963 6030 7142 7271
4  901 6034 6032 6727
4  493 780 918 6576
4  918 780 783 7217
4  8158 7548 7315 6701
4  403 885 1018 8052
4  7555 7408 7270 6963
4  865 805 866 6563
4  531 805 6019 6020
4  6695 6509 6508 6067
4  787 608 8052 7881
4  8232 8170 5991 5997
4  6858 8222 6777 6675
4  6564 8150 6500 6563
4  7326 8326 8311 7645
4  799 553 821 6676
4  378 6509 6508 7876
4  7268 7391 6789 7876
4  6728 7708 8171 8222
4  441 5994 194 7428
4  6964 6669 6965 6671
4  6055 6771 6774 6059
4  6289 6290 6191 6189
4  7325 7318 7320 7319
4  8010 7965 8011 7542
4  674 867 6125 6358
4  8011 7965 8089 7542
4  403 787 885 8052
4  787 8153 7881 7142
4  541 674 957 6127
4  93 119 903 6360
4  7883 7344 7345 7309
4  6400 6402 8024 8270
4  850 8162 117 7666
4  960 8341 8304 6034
4  756 487 7237 6440
4  119 862 117 7666
4  117 6402 8162 8270
4  8154 8155 7137 7666
4  6255 6256 6253 6249
4  6910 6038 6037 6039
4  6818 8341 8099 6727
4  770 6790 7237 6487
4  7794 7791 7792 7796
4  7793 6247 7789 7792
4  7795 7487 7792 6248
4  93 734 8281 6168
4  6255 7490 7488 6248
4  6152 7485 7489 6151
4  7966 8089 7965 6136
4  7866 7867 7008 6687
4  7795 6256 7488 6248
4  6944 6165 8281 6168
4  6473 6772 7678 6472
4  7664 7665 8281 6167
4  94 7665 119 6167
4  773 7542 8010 6943
4  7008 6937 6266 6277
4  7123 6604 5981 7122
4  379 7067 87 6602
4  7548 6093 7315 6701
4  6463 6464 7706 7034
4  8137 7315 6093 5974
4  5983 5984 6882 6878
4  7705 8176 8238 7706
4  6786 6069 7264 6070
4  8248 6074 6076 6068
4  6786 7264 6698 6070
4  6479 7034 6059 6056
4  377 7184 6505 6507
4  8080 6774 6772 6768
4  8339 7766 8129 7034
4  6566 6463 6479 6056
4  7287 7203 7202 6924
4  400 401 512 8144
4  7402 6331 6986 7399
4  7766 6774 8129 6767
4  400 401 8144 7222
4  6738 6575 6577 6557
4  7610 7611 6737 6731
4  6737 6584 6731 6732
4  7919 7213 7214 6581
4  7268 8051 7391 7881
4  466 378 853 6508
4  510 7275 788 7142
4  510 509 511 7144
4  493 7611 7612 6576
4  6457 6459 7655 6729
4  6458 7016 6586 6581
4  934 8162 8092 8270
4  7214 6731 6581 6460
4  791 863 8300 7778
4  6654 7209 7208 6651
4  6459 6581 6586 6732
4  791 7778 8300 7223
4  8061 5986 7104 7986
4  8014 8023 8022 8013
4  7230 7209 7675 6653
4  7776 7775 8014 6938
4  6752 6974 6975 6969
4  6973 6971 7431 6975
4  361 359 7776 6288
4  6973 7431 6290 6975
4  409 920 8317 6431
4  856 325 895 6281
4  6752 6967 6750 6969
4  359 895 898 8091
4  6883 6881 6880 6878
4  820 146 6947 6946
4  82 6879 6877 6602
4  6744 7400 7695 6330
4  6447 6445 6825 6448
4  7179 6882 5984 6878
4  7174 7172 5984 7171
4  6444 7500 7696 7502
4  7835 7743 7227 7141
4  8230 7971 7728 6882
4  7179 7068 6877 6878
4  6366 7175 6370 7171
4  6553 6552 6551 6544
4  7139 7603 7312 7236
4  7091 7088 7087 7085
4  7511 7084 7089 7085
4  7511 7191 7089 7084
4  866 6287 8150 6563
4  7703 7245 7785 7636
4  7192 7703 7511 7191
4  7815 7817 7744 6546
4  7247 6552 6278 6929
4  6545 6282 6502 6544
4  8326 7645 7307 7306
4  7991 8263 8169 7764
4  7802 7329 7335 7328
4  7763 8177 7858 7764
4  7531 8186 7532 7384
4  7530 7385 6246 7490
4  6246 7488 7487 7489
4  8186 6255 6254 7384
4  8219 8170 6681 5991
4  6246 6248 7490 6249
4  8219 8170 8171 6681
4  6473 5991 7050 6472
4  6055 7766 6057 6056
4  6992 6866 6868 6344
4  7897 6870 7404 6869
4  6866 6994 6867 6344
4  7052 6773 6679 6472
4  6390 7809 6238 6240
4  7835 7227 7228 7141
4  8109 8085 6393 6241
4  7290 7822 7825 6420
4  7290 7509 7822 6420
4  7825 7822 8194 7293
4  7821 8329 7506 7293
4  7834 7744 6733 7141
4  6733 7744 6734 7141
4  7835 8084 8083 6734
4  8349 7922 6624 7057
4  7140 7149 7804 7206
4  7921 8329 8316 7060
4  7140 7206 7804 7229
4  7228 7205 8084 6736
4  7058 6626 6624 7057
4  8084 7205 6245 6736
4  7852 6930 7854 6156
4  6150 7531 7911 7532
4  8199 6245 7205 7507
4  6931 6930 6929 6932
4  6735 8085 8110 6245
4  7956 7918 6545 6282
4  6554 6550 6551 8204
4  6072 6073 7120 6071
4  7405 8057 7406 7779
4  7115 7261 6531 7118
4  6786 6698 6695 6070
4  8262 7482 7573 6515
4  6461 6384 7779 6511
4  6073 6070 6069 6068
4  82 6877 6601 6602
4  7316 7656 7457 6708
4  6792 7263 6069 7261
4  76 74 6577 5968
4  131 6078 6077 5969
4  7313 6457 6730 6460
4  7555 7267 7268 6960
4  8327 7213 7454 6458
4  6699 7262 6069 7264
4  8327 6458 6457 6460
4  7313 8327 6457 6460
4  8080 8350 8356 7707
4  6699 7264 6069 6070
4  738 466 6788 7391
4  8339 8340 8354 8238
4  6051 7832 6570 6569
4  6051 8081 7832 6569
4  6571 7679 7537 6570
4  7831 7832 7027 7023
4  8081 7468 7758 7469
4  6568 6569 7760 7469
4  7538 6048 6046 7539
4  6386 6382 6862 6383
4  7554 6514 6978 7042
4  6475 6477 5999 6979
4  7832 7539 7023 6569
4  6480 7051 6679 6768
4  7537 7760 6568 6569
4  6516 6980 6517 6978
4  7537 7539 7760 6569
4  7372 7369 6643 6639
4  148 6430 428 6946
4  6512 6435 6434 6432
4  7751 7369 7460 6639
4  7227 7229 7141 7236
4  7304 7299 7298 7300
4  6319 6022 6021 6320
4  7304 7722 7873 7299
4  7990 7681 7826 7827
4  7816 6321 7743 7744
4  6543 7212 6497 6326
4  7061 6327 6321 6320
4  6907 7361 6913 6909
4  6497 7745 7982 6050
4  6913 6909 7365 6906
4  7361 7974 7363 7950
4  7978 6832 6339 6337
4  6802 6983 6989 6985
4  7053 6982 6483 6477
4  6227 7250 8054 7941
4  8254 7090 7941 8245
4  6976 6982 8318 6979
4  6475 7020 6477 6979
4  6051 6052 8081 6053
4  7647 7648 7464 7116
4  6058 6051 6059 6570
4  6058 6059 6051 6054
4  6055 6052 6051 6054
4  6416 7083 6417 6412
4  7249 7567 6410 6411
4  7464 7648 6527 6533
4  7648 7298 7300 6533
4  8196 7086 7599 8245
4  8254 7083 7090 8245
4  6837 6078 7452 6838
4  7956 6545 7905 6550
4  7906 7815 7860 7817
4  131 6077 811 5969
4  6997 6999 7005 7000
4  6502 6544 6503 6326
4  7061 7745 7311 6327
4  74 6797 6577 5968
4  551 171 296 7224
4  7392 6634 8100 7394
4  6024 6026 7612 6032
4  7558 7398 7559 7394
4  7558 7902 7398 7393
4  6632 6634 7394 6635
4  6605 6607 7796 6608
4  8006 7953 7796 6608
4  7655 6459 6609 6729
4  6706 7451 7952 7485
4  6605 8117 6611 6608
4  642 5975 5968 6558
4  8084 7205 6244 6245
4  8282 6305 7592 7594
4  7927 7772 7844 7303
4  7106 8097 7715 7716
4  6325 6202 6195 6197
4  8165 7094 7928 6424
4  7773 6232 7927 6528
4  7927 8065 7928 7572
4  921 7576 7081 7078
4  8184 7097 7094 7095
4  908 55 8191 8178
4  7649 7304 7874 7298
4  6232 8065 7572 6233
4  8210 7098 7097 7095
4  6228 6230 7571 6231
4  7773 7303 7774 7300
4  874 8179 6471 6478
4  7096 7100 8065 7097
4  7475 7027 7967 7024
4  7873 7722 7375 7299
4  7801 8068 7967 7022
4  8156 7019 7475 7018
4  8299 7375 6852 7673
4  7873 7682 7827 7299
4  7473 6795 7471 7018
4  7473 7471 7968 7474
4  7453 7401 6331 7360
4  7373 7722 7670 7375
4  7648 7826 7297 7298
4  7757 6391 6630 6625
4  7304 7873 7874 7299
4  7680 6852 8299 7375
4  7649 7300 7298 6533
4  7570 6233 7565 6231
4  7680 7376 7380 7374
4  6615 8196 6226 7941
4  7379 6850 7526 6851
4  7297 7681 7723 7299
4  7373 6850 7374 6852
4  7723 7681 7680 7375
4  6225 7250 6226 6220
4  7723 8299 7845 7673
4  7688 7689 8271 6263
4  7250 8254 7941 8245
4  7249 6410 7250 7243
4  8193 7337 7751 7339
4  6265 6853 7688 6260
4  6445 6449 6081 6828
4  8064 8193 7751 7369
4  6622 7037 8131 6089
4  8064 6345 8193 7369
4  7031 7125 8193 7032
4  6178 6179 7077 6172
4  995 994 7185 7184
4  377 995 379 7184
4  6303 8097 7577 7716
4  6986 7076 6769 6988
4  6164 6923 6157 6158
4  635 6829 219 6099
4  220 219 619 8294
4  117 509 903 8024
4  8328 6491 8279 6762
4  6028 6031 7143 7144
4  8162 7136 8092 8270
4  934 8092 509 8270
4  7877 6461 7779 6511
4  8145 6191 6294 6190
4  8243 6620 7800 6137
4  6134 6145 6142 6132
4  6133 8124 8111 6139
4  7905 7817 7914 7913
4  8000 7911 6395 7909
4  6444 6747 6448 7502
4  7044 6467 6134 6462
4  7805 5982 7122 5984
4  58 349 6713 6760
4  6883 7067 6803 6871
4  6100 6759 8078 6097
4  8248 6696 6694 6068
4  33 8295 7352 8190
4  8322 6111 6668 6112
4  7136 8269 7276 6400
4  6185 6166 6399 6187
4  117 8162 934 8270
4  35 7352 6217 8190
4  962 6212 6214 6215
4  551 7232 578 7224
4  891 890 6540 8260
4  585 7078 959 7079
4  6304 7592 8282 6305
4  652 654 8260 6308
4  6181 6104 6188 6105
4  7522 6195 7716 7520
4  7642 7720 7718 7643
4  6188 7480 7523 7557
4  7108 6494 7643 8097
4  6492 6490 7108 6494
4  7642 8260 7833 6484
4  6534 7598 6542 6537
4  8287 6538 8102 6292
4  8145 6190 8291 6183
4  6538 6579 6539 6292
4  426 8029 1002 6647
4  6491 6224 6488 6486
4  8029 7820 6764 6647
4  674 672 957 6127
4  7714 8029 8076 8074
4  680 215 216 6469
4  868 674 773 6358
4  216 264 358 6060
4  541 773 674 6358
4  6746 6742 6744 6745
4  680 216 358 6468
4  396 909 903 8025
4  7747 6272 7006 6267
4  921 652 8260 7576
4  734 6944 8281 6168
4  674 6125 6127 6358
4  790 8300 8309 7223
4  400 296 401 7222
4  296 7231 791 7223
4  6173 7078 6307 7079
4  6302 6173 6296 6307
4  7232 6820 7225 7203
4  400 7073 8152 7222
4  6857 6678 6680 6677
4  441 932 905 6678
4  905 931 933 6857
4  958 7787 585 7079
4  7106 7577 8261 6176
4  7678 7831 7025 7026
4  6771 7678 6772 6773
4  663 171 578 7225
4  7706 6482 6481 6456
4  441 443 8221 8222
4  799 905 553 6677
4  905 6857 933 6677
4  6173 6171 6170 6172
4  7078 6215 7079 6170
4  7405 6511 7779 6510
4  109 231 513 8175
4  8037 7256 7076 7258
4  43 821 8237 6456
4  1008 7963 6728 6777
4  909 475 903 8025
4  6166 6360 6186 6167
4  7551 7787 7550 7079
4  963 7550 959 6215
4  644 8159 642 6739
4  885 7806 1018 8052
4  378 6508 7391 7876
4  390 909 396 8025
4  6394 7868 7869 6353
4  58 690 6394 6353
4  7181 7998 6428 7903
4  724 6755 731 6352
4  7912 7914 6393 7909
4  8186 6388 7911 7532
4  738 6788 7806 7391
4  6228 7829 7565 7571
4  7345 7828 6591 6230
4  6843 6592 6842 6840
4  7780 8224 6959 6030
4  396 509 510 7143
4  6597 8228 6841 6840
4  8228 7096 7829 6841
4  7453 6331 8250 7360
4  616 8153 7882 7881
4  7882 8153 8247 7881
4  7270 6112 6668 6672
4  7046 6989 7400 7401
4  6984 8047 7358 7360
4  6062 6115 6063 6061
4  7622 6102 7620 7623
4  8143 7624 7619 7620
4  1020 313 6275 6613
4  6449 6092 6446 6060
4  403 1018 8224 8052
4  738 7806 885 7391
4  7710 7619 8185 7412
4  6182 6512 6429 7482
4  8026 7405 7573 6513
4  6972 8262 7573 6515
4  6180 6174 6170 6172
4  552 400 433 7072
4  7316 6457 7655 6730
4  7314 7316 7315 6730
4  6798 6738 6577 6557
4  7656 6574 6708 6612
4  6572 6573 7656 6574
4  913 493 7611 7612
4  706 6086 6776 5972
4  8134 7348 8135 6451
4  7350 8134 7568 6451
4  528 5976 527 5971
4  541 6136 7965 7542
4  8038 7590 7073 7222
4  7627 6272 7626 7541
4  6272 6276 7541 6357
4  6004 8240 7048 7049
4  6006 6988 8113 7049
4  542 541 7965 7542
4  541 6127 6136 7542
4  6706 6797 6077 6079
4  878 879 7450 6078
4  8201 6874 8299 6875
4  642 6556 6576 6558
4  7313 8327 7314 6457
4  8201 6873 6875 6259
4  7316 7655 7656 6708
4  6850 7670 8168 6852
4  8299 6875 6874 7673
4  7373 7670 6850 6852
4  7951 7699 7465 7585
4  7699 7641 7701 7582
4  6813 6823 6814 6815
4  7232 7808 7226 8152
4  8130 7616 7617 7209
4  8213 7938 7937 7519
4  7718 7936 7938 7519
4  8280 6766 7410 6169
4  7714 8076 8075 8074
4  7239 6790 7240 6442
4  6491 6488 6492 6486
4  6219 6484 6489 6222
4  6615 6226 6489 7644
4  6169 6171 7077 6172
4  7820 6647 6223 6763
4  7642 8212 6615 7644
4  6615 6226 7644 7941
4  7940 8212 7938 7941
4  6488 6227 6489 6222
4  7190 7582 7702 7191
4  8298 7702 7635 7636
4  6100 6216 6218 6208
4  7694 7366 7535 6337
4  7835 7744 7743 7141
4  7902 7393 7535 7273
4  6831 6339 6832 6340
4  7834 7141 7139 7311
4  7835 8083 7816 6734
4  6334 7978 6339 6096
4  6844 6333 8355 8078
4  7978 7995 7535 6338
4  6100 8078 6328 6097
4  7864 7790 6714 6716
4  6735 6734 8085 6736
4  7228 7205 6736 7206
4  7907 6257 6716 6252
4  7795 7890 6256 7792
4  7389 6520 6567 6519
4  6052 6526 6518 6520
4  6848 6522 6526 6523
4  6522 6525 6526 6521
4  8084 6244 8085 6245
4  7586 7465 7470 7466
4  7699 7641 7467 7585
4  7190 7700 7702 7582
4  8070 6310 7501 6312
4  578 7232 7225 7224
4  8244 6292 7145 7148
4  6816 6035 6818 6039
4  624 999 8099 6727
4  7832 7801 7027 7023
4  7832 7758 7801 7539
4  7679 7021 7537 7023
4  6585 6846 6037 6580
4  7610 8048 7611 6293
4  553 933 6856 6677
4  8101 7557 6291 6536
4  7027 7801 7967 7022
4  7760 7539 6046 6047
4  7147 7413 6582 8107
4  7610 6731 6737 6584
4  8345 7608 7607 6908
4  8012 7604 7737 7733
4  7398 8009 7397 7395
4  6741 6792 6788 6787
4  6829 6335 8294 6336
4  35 6208 6099 8190
4  7928 7092 7824 6424
4  8165 8215 7771 7772
4  636 365 6207 6208
4  7771 7772 8215 7303
4  6418 7772 6419 6424
4  6989 6983 6984 6985
4  7845 7667 7771 7668
4  951 950 8164 6144
4  84 83 8255 6470
4  7686 6637 6854 6260
4  7847 7686 6258 6260
4  6258 8118 7425 6259
4  6232 7572 7927 6528
4  7688 6263 6262 6260
4  6265 8214 6873 6259
4  8214 7427 7426 6264
4  7976 7950 7361 7364
4  7951 7974 7361 7950
4  7785 7362 7846 7950
4  7703 7641 7581 7582
4  7976 7368 7635 7364
4  7924 7889 7925 7734
4  7421 7946 7837 7419
4  7363 7362 7367 6909
4  7368 7364 7361 6909
4  7151 8033 7155 7365
4  7924 8033 7889 7838
4  7355 7363 7356 6906
4  7361 7950 7362 7364
4  7976 7951 7361 7950
4  7723 7673 7845 7302
4  7722 7774 7671 7302
4  7304 7774 7722 7302
4  7297 7826 7681 7299
4  8201 6259 6875 6261
4  8118 7672 7295 6876
4  7845 7668 7673 7294
4  7301 7845 7771 7668
4  7845 7673 6874 7294
4  7297 7723 7301 7302
4  7304 7773 7774 7300
4  8215 7303 7572 6528
4  6232 8065 7927 7572
4  6529 8215 8184 7572
4  8032 7961 7033 7608
4  6914 7357 7884 6904
4  6913 7365 6914 6906
4  7886 7887 7885 7734
4  7355 8067 7889 7357
4  6903 6914 7884 6904
4  7356 6908 6905 6906
4  7181 7818 7903 7278
4  7531 7532 6149 7490
4  7355 7889 8033 7357
4  7854 6150 7910 7652
4  7854 6156 6150 7652
4  7956 8258 7852 8204
4  7910 7911 8000 7909
4  7910 7652 7913 8204
4  7795 7488 7487 6248
4  7952 7793 8006 7487
4  8203 8031 8205 8206
4  8271 8205 8031 7338
4  8123 8206 8202 7338
4  7492 7269 6029 6107
4  7861 6794 7547 7545
4  8269 7270 7276 6028
4  8271 7337 8205 7338
4  7884 7885 7888 7343
4  6106 6108 6112 6109
4  7125 7337 7032 7126
4  7627 7626 6126 7541
4  7321 7325 6895 7319
4  7322 7321 6041 7319
4  7322 7324 7323 7319
4  8016 6931 8013 6836
4  6738 6610 6560 6557
4  898 8088 1069 7452
4  7451 6709 6077 6837
4  7238 7235 7111 7114
4  8187 8169 7377 7894
4  8119 6752 7524 6182
4  7622 8119 6102 7623
4  8119 6182 6181 6184
4  6973 6184 6974 6975
4  6289 6191 8145 6189
4  8119 7623 7704 6975
4  8263 7332 7331 7335
4  7991 8187 7992 7894
4  6152 7486 7489 7485
4  6702 6012 6011 6001
4  6572 7484 6152 7485
4  957 6126 956 6135
4  7003 7001 7065 7062
4  7134 7625 7129 7130
4  7326 6041 6019 7211
4  6708 6775 6701 6085
4  6871 5981 5983 6878
4  8249 5983 6803 6697
4  7852 8088 8090 6279
4  6740 6508 6506 6507
4  8058 6573 6572 6154
4  6155 6934 6933 6156
4  6512 6513 7482 6515
4  6879 7067 6883 6602
4  379 995 87 7067
4  6972 6973 8262 6974
4  8257 8166 8302 7675
4  8257 6654 8288 6653
4  856 361 7973 6288
4  6813 7225 6820 7230
4  8166 6922 6923 6924
4  7954 8039 7955 7233
4  359 320 667 7775
4  359 667 7776 7775
4  856 203 325 6281
4  7973 6288 6285 6286
4  329 8090 895 6281
4  7954 8251 7207 7209
4  8257 6922 8166 6819
4  7203 7230 7675 6819
4  7954 7674 8039 7233
4  7556 7270 8322 6668
4  220 8294 6336 6099
4  619 8079 6673 6712
4  7555 7556 8306 6966
4  6717 6012 6014 6338
4  6173 7576 6307 7078
4  7720 7597 7691 6309
4  6490 6489 6494 6486
4  7349 6491 8328 6224
4  8355 6333 8353 8275
4  8043 8044 8353 6328
4  688 687 6212 7409
4  8332 7077 7410 6485
4  8332 7410 8279 6485
4  891 8260 6540 6646
4  7349 8328 7346 6224
4  8058 6152 6153 6154
4  835 6756 6754 6116
4  6152 7484 7486 7485
4  7835 8084 6734 6736
4  7208 7724 7101 7617
4  8083 8108 7912 7914
4  7809 7912 8108 6393
4  7954 7233 7616 7209
4  6110 7782 6106 6107
4  6204 6218 6210 6785
4  35 6217 6208 8190
4  6207 7138 6834 6206
4  7780 6107 7782 6596
4  6686 7009 6688 6689
4  8355 6333 8275 8078
4  6592 6593 6591 6840
4  6896 7320 7574 6274
4  8089 6136 6276 7542
4  7747 7006 6272 6357
4  7320 7319 7318 7004
4  8320 7321 7325 6895
4  7321 8066 8326 7307
4  7344 6962 7264 7309
4  7625 7064 6273 7437
4  7780 7883 6590 7781
4  6272 6267 6273 6269
4  8201 6875 8299 6852
4  6669 7782 6965 6670
4  6595 6598 6965 7781
4  7780 6843 6596 6593
4  8201 6875 6852 6261
4  6597 6598 6595 6593
4  6594 6593 6839 6840
4  6014 6336 6010 6700
4  6853 7380 6851 6261
4  6688 6595 7782 6596
4  6590 7781 6591 6593
4  6148 7486 7488 7489
4  6971 6968 7164 6969
4  7952 7486 7487 7953
4  7704 7423 6967 7164
4  8117 7796 7795 7487
4  6150 7532 7652 6149
4  8188 7908 7530 7532
4  7908 7912 7809 7909
4  6554 7913 6550 8204
4  7530 7532 7384 7490
4  6709 6574 6154 7485
4  882 620 619 6673
4  7189 8298 7650 7193
4  7189 7190 8298 7191
4  8020 7869 8343 6350
4  7317 7254 7246 7193
4  7192 7245 7636 7246
4  6335 6014 6717 6336
4  323 667 320 7775
4  296 7222 7226 7224
4  7976 7702 7699 7701
4  8038 7590 7836 7073
4  7951 7699 7585 7701
4  7371 7639 7285 7370
4  491 170 167 6372
4  7286 7630 7638 7285
4  6885 6953 6886 6887
4  428 429 8056 6430
4  7927 7572 7772 7303
4  7771 6419 6418 7772
4  7844 7929 7289 6419
4  428 8056 6753 6430
4  8165 7928 7572 7772
4  6422 8165 6418 6424
4  883 409 148 6377
4  7804 7206 7508 7510
4  826 428 429 8056
4  409 429 148 6430
4  7774 7668 7671 7302
4  7301 7771 8215 7303
4  7297 7301 7721 7300
4  7868 8343 7869 6350
4  7977 7448 7788 7199
4  6247 6714 6257 6252
4  7977 6722 7811 6715
4  7928 7824 7929 6424
4  7824 6424 6423 6421
4  1020 835 834 6756
4  726 835 6754 6116
4  8267 7759 6047 6049
4  8267 7152 7151 6049
4  7363 7975 7362 7950
4  7156 7974 7151 7365
4  6723 6428 6991 6363
4  8349 7059 7920 7922
4  8349 7757 6626 6624
4  6126 7541 7130 6135
4  8200 6624 7922 7057
4  819 680 358 6468
4  271 6142 6147 6132
4  286 956 285 7305
4  956 6126 7305 6135
4  8243 7800 7663 6137
4  6134 6142 6462 6470
4  179 246 181 6452
4  487 7697 489 7241
4  7698 6438 7241 6439
4  308 913 916 6724
4  6762 7410 6766 6547
4  738 466 467 6788
4  466 6789 6788 7391
4  6484 6494 6489 6486
4  7352 7354 6217 8190
4  6185 8155 6186 6397
4  6204 6210 7807 6785
4  8043 6784 8044 6785
4  6754 6755 8344 6118
4  875 908 8179 8178
4  6830 6695 6509 7876
4  517 56 8277 8192
4  466 885 608 7391
4  8219 6858 7051 5991
4  7149 8110 8146 6245
4  8199 7205 7505 7507
4  8146 7920 7879 7507
4  7168 7424 7195 7169
4  6679 7051 6858 6472
4  8233 8303 8229 5997
4  8232 8234 7050 5991
4  8234 8219 7050 5991
4  6549 5994 6681 5997
4  441 8221 194 5994
4  809 865 6564 6563
4  532 385 387 8182
4  7168 7197 7201 7196
4  6737 6606 7411 7412
4  6191 6290 8143 6192
4  7320 6895 7004 7064
4  7129 7130 7307 7131
4  7325 7324 7318 7319
4  532 531 809 8311
4  7321 6894 7307 6895
4  8257 8288 6922 6819
4  8288 6654 6655 6653
4  94 93 734 8281
4  7287 6924 7177 6925
4  7592 6305 7691 7593
4  15 586 6299 6301
4  6820 6924 7287 6925
4  6299 6300 7601 6301
4  8288 6926 6922 6815
4  7690 7720 7597 7691
4  907 6103 987 6271
4  700 702 6270 7523
4  8203 7888 7886 7887
4  8203 7429 8206 7533
4  8203 8205 7888 8042
4  6299 7787 6302 6307
4  587 6299 586 6307
4  246 245 181 6453
4  6331 6986 6769 7401
4  7667 7292 7296 7291
4  8342 7069 7949 7070
4  452 987 907 6103
4  454 907 713 6541
4  685 8273 687 7409
4  7823 6418 7296 6420
4  7109 6423 7510 6421
4  7974 7363 7151 7365
4  7946 7926 7838 7734
4  488 489 8003 7241
4  7840 7924 7419 7838
4  7840 8033 7838 7155
4  488 8003 979 8077
4  8069 7155 7154 6049
4  487 52 489 7697
4  7874 7873 7875 7827
4  7380 7374 6851 6852
4  7990 7682 7681 7827
4  7834 7815 6733 7744
4  7834 7744 7311 6327
4  7834 6733 7139 7141
4  963 688 962 6215
4  7234 7227 7311 7236
4  6804 7277 7181 7183
4  7690 7518 7517 7520
4  6212 8273 8280 7409
4  6169 6547 6644 6765
4  7690 7596 7521 7693
4  7642 7833 7720 7643
4  6325 6195 6194 6197
4  8330 6524 7517 7518
4  7719 7519 7717 7520
4  8156 7025 7475 7019
4  963 1001 6214 6215
4  390 403 1018 8224
4  6475 6793 7017 7020
4  7017 7473 7738 7019
4  8231 7180 7971 6882
4  738 1018 885 7806
4  6881 7180 8231 6882
4  8305 6364 7726 7728
4  323 319 706 6776
4  8305 7971 6364 7728
4  798 1009 939 6123
4  8014 6938 7775 6838
4  7775 6776 7458 6838
4  797 6990 6780 6354
4  181 245 339 6453
4  339 6453 7256 7257
4  181 180 6452 6376
4  6366 6365 6364 5979
4  967 846 601 7984
4  829 599 861 7777
4  968 847 846 7988
4  8239 7988 6371 5985
4  883 6378 177 6379
4  809 6564 8311 6019
4  8136 5999 5993 5995
4  194 177 6378 6382
4  8182 8311 8326 7645
4  203 207 866 6287
4  6041 6019 7211 6018
4  7459 6500 6504 6044
4  194 8285 568 6382
4  857 6284 203 6286
4  177 6386 175 6379
4  6295 6297 6304 6298
4  866 207 8150 6287
4  78 6879 8297 6877
4  6696 8035 8249 6697
4  8225 6324 8226 6297
4  7691 6305 6202 6297
4  6741 6740 6508 6506
4  7174 5981 5977 5984
4  271 6146 8112 6143
4  1026 8112 7071 6143
4  7106 7577 6176 6171
4  8225 8333 8261 7577
4  949 7071 8164 6143
4  6128 7257 6147 6146
4  181 6376 344 6147
4  7553 7515 6794 7514
4  6516 7041 6978 7042
4  313 264 216 6405
4  7040 6750 6967 6968
4  6808 6917 6812 6915
4  8131 6089 7037 6827
4  6976 8318 6977 6979
4  7040 7553 6516 7041
4  7850 8131 7037 6827
4  6970 7424 7166 6968
4  6970 7041 6968 7042
4  7849 7799 6082 6828
4  7849 7850 7799 6828
4  7516 7195 7424 7169
4  7553 7515 7514 7041
4  7740 6310 7739 6311
4  8179 8347 8176 8178
4  8277 8282 8351 7594
4  7498 7521 8216 6897
4  8330 6524 7518 6523
4  6200 8348 6202 6201
4  54 253 56 7595
4  6900 6901 6198 6199
4  7693 6897 6196 6199
4  6314 6312 6311 6313
4  8330 7933 7517 6524
4  6526 6521 6520 6847
4  7498 6523 6849 6847
4  7504 8071 6310 7501
4  7486 7484 8117 7953
4  7486 7795 7488 7487
4  7740 7504 6310 6311
4  7794 6607 8120 7791
4  8122 7789 7865 7791
4  8122 7792 7791 7796
4  7740 7504 6311 7503
4  7952 7486 7953 7485
4  6314 7500 6315 6311
4  6255 7488 6256 6248
4  6246 7793 7487 6248
4  6255 7384 7490 6249
4  6824 7504 7740 7503
4  7789 6257 7790 7792
4  6798 8006 7711 6608
4  8258 7912 7908 7909
4  7910 8000 7906 7913
4  6372 7075 7589 7072
4  8130 7955 8128 7616
4  7895 7896 7897 7159
4  8166 7204 6924 7210
4  8145 6190 6183 6189
4  6191 8143 7145 6193
4  7898 6868 6866 6867
4  6587 6539 6036 6579
4  6733 6735 7140 6736
4  7658 6161 7746 6163
4  7657 7674 8302 7204
4  7905 8083 7912 7914
4  6735 8110 7149 6245
4  7910 7913 6554 8204
4  8064 6643 7369 6639
4  7460 6642 7750 6639
4  7674 7659 8038 7221
4  7372 7460 7039 7369
4  7337 7032 7126 7339
4  7936 7933 7935 7519
4  652 654 984 8260
4  7821 7293 7822 6420
4  7879 7822 7509 7508
4  7810 6390 7382 6389
4  7381 6250 7382 6251
4  7821 7822 7508 6420
4  8165 7928 7094 7572
4  7823 6418 6420 6421
4  7824 7509 7290 6421
4  7824 7290 7929 6424
4  8183 8184 6422 7094
4  8184 8165 6422 7094
4  7845 6874 7667 7294
4  7671 7673 7668 7294
4  7771 7667 6418 6419
4  8201 7380 6853 6261
4  7672 6876 6875 7294
4  7289 7825 7295 7291
4  8183 6422 7111 7093
4  7289 7294 6419 7291
4  7113 7109 7092 7093
4  7356 6909 6908 6906
4  7111 6422 7602 6423
4  8241 8032 7606 7608
4  7334 7629 7765 7632
4  7392 7397 8012 7395
4  7609 8345 7607 6908
4  8098 7609 8345 7607
4  8100 7035 7961 6993
4  7058 8200 8316 7057
4  6627 6626 7058 7770
4  8030 7328 6891 6892
4  7649 6532 7773 6533
4  251 252 654 7597
4  7703 7701 7641 7582
4  7190 7088 7582 7089
4  7648 7297 7721 7300
4  7718 7719 8055 7643
4  7690 7597 7596 7593
4  7875 7684 7685 7682
4  7684 7873 7373 7682
4  576 6764 570 6765
4  7693 6897 6898 7692
4  585 586 652 6308
4  7498 8330 7521 6523
4  7990 7683 7681 7682
4  7647 7826 7648 7298
4  8216 6897 7692 6465
4  7693 7592 6898 6201
4  7499 6520 6521 6847
4  108 8174 869 8217
4  7773 7303 7300 6528
4  7990 7685 7682 7827
4  7304 7299 7874 7298
4  7200 7169 7201 7196
4  6752 6975 6967 6969
4  6493 6169 6547 6548
4  552 170 7808 7072
4  8063 7998 6425 6002
4  8144 8038 7836 7073
4  7849 8131 7850 7848
4  8323 6179 7410 7077
4  6987 7590 7202 7589
4  6179 8280 7410 6169
4  7833 6493 7080 6494
4  6492 7108 7107 6171
4  6175 6173 7551 6174
4  8344 8343 7868 6755
4  8338 8334 7798 7010
4  8334 6119 7798 7010
4  8019 8020 8334 6427
4  8020 8343 8334 6350
4  551 400 552 8152
4  8334 8343 6757 6119
4  6161 6164 6983 6160
4  7106 7108 7715 8097
4  6178 6176 8276 6177
4  551 550 7232 8152
4  891 921 8260 6548
4  6223 6547 6647 6645
4  551 552 550 8152
4  6055 6774 7766 6059
4  6771 6772 6774 6768
4  6181 6188 7477 7478
4  554 8319 555 7480
4  494 6575 7611 6576
4  8350 8219 7707 7051
4  7766 6767 7034 6059
4  8339 8340 8238 7034
4  8340 7705 8238 7034
4  642 6576 918 6739
4  6679 5989 6681 6680
4  8356 8340 8129 7705
4  7214 7612 6576 7217
4  7481 7878 7877 6429
4  6182 6512 7482 6974
4  7405 8057 7779 6511
4  7696 7500 7843 7501
4  7695 7358 8071 7359
4  6517 6864 6514 6863
4  8026 8057 7405 6511
4  6976 7043 7554 6978
4  8043 6784 8353 8044
4  7244 7254 7253 7246
4  6333 8353 8275 6328
4  7600 7186 7543 6414
4  7600 7188 7317 7193
4  7192 7194 7317 7193
4  7600 6409 7186 6414
4  6844 8355 8253 8189
4  6410 8245 6411 6412
4  7600 7512 6409 6412
4  8275 8044 7354 6100
4  8275 7981 8189 8078
4  7287 6663 6928 6659
4  7176 6662 7288 7177
4  246 491 245 7402
4  6328 8078 6094 6097
4  8166 7204 7675 6819
4  7280 7739 6955 7161
4  6316 6315 6809 7496
4  6314 6315 6316 6313
4  7686 7528 6854 6637
4  6169 6548 7081 7654
4  6809 7496 7495 6807
4  6315 7496 6311 7495
4  7749 7283 7527 6638
4  7740 6311 7739 7496
4  7731 6865 6870 6344
4  6634 6992 6993 6994
4  6992 6868 6348 6344
4  6633 6634 6635 6994
4  7460 7750 7689 6639
4  8064 7751 6636 6639
4  6704 7560 7729 7730
4  7558 7394 7559 6635
4  6719 6632 7996 6635
4  7392 6632 7394 7393
4  7750 6637 7689 6639
4  7802 7631 8030 7328
4  8259 6823 7329 7330
4  8263 7762 7764 7335
4  6244 8199 6243 6245
4  6392 7756 8110 6241
4  6258 6855 8168 6261
4  7529 7688 6854 6637
4  8108 6244 6238 6241
4  7445 7562 7863 7198
4  6735 8109 8110 8085
4  17 7601 8277 7594
4  7888 7887 8041 7885
4  6948 6954 6953 6886
4  6952 6949 6953 6886
4  7926 7884 7357 7885
4  6723 6428 6349 6002
4  313 6275 6613 6408
4  6890 7634 6891 6887
4  6951 7157 6950 6886
4  7167 7168 7201 7169
4  7516 7200 7546 7196
4  7544 7862 7197 7198
4  7811 7201 7197 7196
4  7927 7844 7774 7303
4  8133 7568 8135 7569
4  6237 6234 6233 6231
4  7350 7348 8134 6451
4  7566 8133 8141 7569
4  8135 8002 8141 6438
4  17 19 15 7601
4  587 585 958 7787
4  6723 6702 6704 6001
4  7818 6866 6633 7730
4  7904 6704 7729 7903
4  8225 7106 7948 7577
4  7720 8097 6303 7716
4  15 19 586 6301
4  958 7550 7787 7079
4  8225 6297 6295 7577
4  6723 6704 7904 7903
4  8347 8238 8176 6464
4  875 8217 55 8178
4  7818 7730 7903 7278
4  6634 7394 6635 6994
4  8325 7730 6705 7903
4  6704 6703 7560 6705
4  390 403 8224 7143
4  7843 8070 8071 7501
4  7696 7502 7501 7359
4  8132 7695 7504 7502
4  6447 6448 6825 7503
4  396 8025 903 6031
4  7883 6962 7344 7309
4  390 8224 8025 7143
4  7870 7862 7544 7545
4  6316 7161 6317 6313
4  7552 7554 7573 6514
4  7405 7407 7552 6864
4  587 15 586 6299
4  7405 7552 7573 6864
4  1031 8357 1037 264
4  8357 6061 1037 264
4  1037 6061 876 264
4  8357 8358 8359 6061
4  8358 6115 8359 6061
4  8359 6115 6062 6061
4  1032 1034 8358 966
4  1034 1035 8358 966
4  8358 1035 6115 966
4  1034 8359 8358 1035
4  8359 6062 6115 1035
4  8358 8359 6115 1035
4  8357 8359 8360 6061
4  8359 6062 8360 6061
4  8360 6062 6064 6061
4  8357 1032 8358 6061
4  1032 966 8358 6061
4  8358 966 6115 6061
4  966 264 6061 8361
4  8357 1031 1032 8361
4  1032 1031 966 8361
4  264 966 1031 8361
4  1031 8357 264 8361
4  6061 264 8357 8361
4  8357 1032 6061 8361
4  966 6061 1032 8361
4  8357 8360 1037 6061
4  8360 6064 1037 6061
4  1037 6064 876 6061
4  1059 8362 8363 898
4  8362 8091 8363 898
4  8363 8091 8088 898
4  1065 1066 8364 895
4  1066 329 8364 895
4  8364 329 8090 895
4  1059 1065 8362 898
4  1065 895 8362 898
4  8362 895 8091 898
4  8362 8364 8363 8091
4  8364 8090 8363 8091
4  8363 8090 8088 8091
4  1065 8364 8362 895
4  8364 8090 8091 895
4  8362 8364 8091 895
4  1067 1059 8363 1069
4  1059 898 8363 1069
4  8363 898 8088 1069
4  8365 1103 1108 1102
4  1103 8365 1108 1031
4  8365 8357 1108 1031
4  1108 8357 1037 1031
4  8366 8365 8367 1102
4  8365 8366 8367 8357
4  8366 8358 8367 8357
4  8367 8358 8359 8357
4  1107 1104 8366 1102
4  1104 1107 8366 1032
4  1107 1034 8366 1032
4  8366 1034 8358 1032
4  8367 1107 8366 1102
4  1107 8367 8366 1034
4  8367 8359 8358 1034
4  8366 8367 8358 1034
4  8367 8365 8368 1102
4  8365 8367 8368 8357
4  8367 8359 8368 8357
4  8368 8359 8360 8357
4  1104 8365 8366 1102
4  8365 1104 8366 8357
4  1104 1032 8366 8357
4  8366 1032 8358 8357
4  1104 1103 8365 1102
4  1032 1031 8357 8369
4  8365 1103 1104 8369
4  1104 1103 1032 8369
4  1031 1032 1103 8369
4  1103 8365 1031 8369
4  8357 1031 8365 8369
4  8365 1104 8357 8369
4  1032 8357 1104 8369
4  8368 8365 1108 1102
4  8365 8368 1108 8357
4  8368 8360 1108 8357
4  1108 8360 1037 8357
4  8370 1139 8371 1141
4  1139 8370 8371 1059
4  8370 8362 8371 1059
4  8371 8362 8363 1059
4  1145 1144 8372 1141
4  1144 1145 8372 1065
4  1145 1066 8372 1065
4  8372 1066 8364 1065
4  1144 1139 8370 1141
4  1139 1144 8370 1059
4  1144 1065 8370 1059
4  8370 1065 8362 1059
4  8372 8370 8371 1141
4  8370 8372 8371 8362
4  8372 8364 8371 8362
4  8371 8364 8363 8362
4  8372 1144 8370 1141
4  1144 8372 8370 1065
4  8372 8364 8362 1065
4  8370 8372 8362 1065
4  1139 1147 8371 1141
4  1147 1139 8371 1067
4  1139 1059 8371 1067
4  8371 1059 8363 1067
4  8373 8374 8375 8376
4  7752 8377 8378 8376
4  6636 8379 8377 8376
4  7752 6636 8377 8376
4  8379 8380 8381 8376
4  8382 8377 8381 8376
4  7421 8383 8053 8384
4  8385 8386 8387 8384
4  8385 8386 8388 8387
4  7420 8389 8386 8384
4  8390 8386 8385 8384
4  8390 8385 8391 8384
4  6046 8392 8393 8394
4  8392 8395 8396 8394
4  8393 8396 8397 8394
4  8393 8397 8398 8394
4  7926 8399 8400 8401
4  8400 8401 8399 8402
4  8403 8404 8405 8406
4  8400 8402 8403 8406
4  8407 8408 8409 8410
4  7699 8411 8412 8410
4  8413 8409 8408 8410
4  7699 7702 8411 8410
4  4466 4488 8414 8415
4  7702 7700 7190 8413
4  8416 8417 8413 8418
4  8413 8417 8409 8418
4  8416 8419 8417 8418
4  8420 8421 8419 8418
4  7190 8409 7088 8418
4  8422 8409 8417 8418
4  1587 8423 8419 8417
4  1294 8408 1264 8417
4  1294 8419 8422 8417
4  8413 8423 8408 8417
4  1452 1613 1454 8424
4  4301 329 8425 8426
4  8427 8428 8429 8430
4  4301 8425 8431 8426
4  8432 8431 8433 8426
4  8432 8433 8434 8426
4  8435 8432 8434 8426
4  7111 7602 8436 8437
4  7238 7235 8438 8437
4  8439 8440 8441 8442
4  8316 8440 8443 8442
4  1798 8444 8445 8442
4  8439 8446 8440 8442
4  8447 8448 8393 8396
4  1468 8449 8450 8451
4  8452 8453 8454 8455
4  4440 8452 8456 8455
4  1801 1673 8444 8457
4  6235 8458 7828 8459
4  6575 7411 6738 8460
4  4321 4249 4435 8461
4  8462 8463 8464 8465
4  1412 8466 8467 8465
4  8462 8468 8469 8465
4  8470 8471 8472 8473
4  8474 8475 8476 8473
4  8477 8478 8479 8473
4  8474 8476 8471 8473
4  1334 1615 8476 8473
4  8477 8472 8478 8473
4  4404 8480 8453 8481
4  8482 8483 8452 8484
4  7803 8485 8486 8484
4  7602 8480 8487 8481
4  7602 8480 8481 8484
4  7602 7823 8482 8484
4  8488 8489 8490 8491
4  8492 8493 8494 8491
4  8492 8495 8488 8491
4  7718 7690 7720 7597
4  6951 7638 8489 8496
4  8488 8495 8496 8491
4  7404 8497 8498 8491
4  7404 8489 7638 8491
4  8499 8500 8435 8501
4  8502 8503 8435 8501
4  7530 8503 8502 8501
4  6741 8504 6530 8505
4  7530 8500 8506 8501
4  4506 4438 4508 8507
4  1292 8508 8509 8510
4  8511 8512 8508 8510
4  8511 8399 8508 8512
4  4147 8513 8514 8515
4  4190 4147 8516 8515
4  4511 8517 4512 8515
4  8518 8398 8519 8394
4  8520 8521 8522 8523
4  7586 8398 8518 8394
4  7951 8412 8524 8398
4  8424 8519 8524 8398
4  8525 8397 8526 8398
4  8525 8526 8527 8398
4  8528 8529 8530 8531
4  8532 8533 8438 8531
4  4432 4418 8534 8532
4  7816 8529 8535 8531
4  4432 8533 8532 8531
4  7835 8535 8532 8531
4  8534 8532 8535 8531
4  8477 8479 8475 8473
4  6913 8536 8537 8538
4  7934 7388 8539 8540
4  6913 8541 8536 8538
4  7331 8087 8086 8542
4  8543 8537 8544 8538
4  6907 8545 8541 8538
4  8545 8546 8541 8538
4  4249 4244 4435 8547
4  8414 8548 8549 8550
4  8087 8551 8542 8550
4  6822 8552 8553 8550
4  8414 8549 8542 8550
4  4297 8551 7614 8550
4  7934 8540 8554 8418
4  7934 8409 8540 8418
4  8407 8540 8422 8555
4  8556 8557 8558 8559
4  8407 8408 8422 8409
4  7700 8540 7934 8409
4  7088 8409 7934 8418
4  7190 8416 8413 8418
4  7700 8409 8413 8410
4  8554 8540 8422 8418
4  7939 8554 8420 8418
4  7190 8413 8409 8418
4  8560 8561 8562 8563
4  7720 8260 7833 8564
4  7731 8565 8566 8563
4  7731 8566 8567 8563
4  1243 8568 8569 8570
4  1243 8571 8569 8568
4  1243 1309 8568 8570
4  1243 8569 1312 8570
4  1243 1639 1312 8569
4  8569 8567 8561 8570
4  8401 8404 8402 8406
4  1549 8572 8403 8402
4  1545 1549 8403 8402
4  8511 8403 8400 8402
4  8511 8399 8573 8402
4  8573 8399 8574 8402
4  7301 8575 8576 8577
4  7301 8576 8578 8577
4  8579 8580 8581 8577
4  8579 8578 8580 8577
4  8558 8581 8580 8577
4  8558 8580 8575 8577
4  8582 8583 8584 8585
4  8462 8464 8463 8585
4  1261 8464 1263 8585
4  1635 8586 8582 8585
4  1261 8584 8463 8585
4  8587 8576 8588 8575
4  1501 8589 8590 8591
4  7524 8592 8593 8591
4  1500 8590 8594 8591
4  1450 74 6797 8582
4  8595 8594 8590 8591
4  826 1500 8056 8591
4  826 8056 7524 8591
4  8313 8596 8597 8598
4  8214 8597 8599 8598
4  8600 8597 8601 8598
4  8602 8601 8596 8598
4  8602 8596 8603 8598
4  8600 8604 8599 8598
4  8557 8580 8588 8575
4  8605 8547 8606 8575
4  7301 7297 8575 8577
4  8606 8547 8576 8575
4  8557 8588 8605 8575
4  7721 7297 8558 8575
4  8258 8434 8432 8433
4  7905 8258 8432 8433
4  8432 8431 8607 8433
4  8431 8425 8433 8426
4  329 8090 7918 8426
4  4187 4402 8608 8609
4  8610 8611 8612 8609
4  4419 8610 8612 8609
4  4439 8612 8613 8609
4  4419 4187 8614 8609
4  8615 8547 8612 8616
4  8613 8617 8612 8616
4  8587 8588 8576 8616
4  8618 8576 8617 8616
4  8615 8612 8617 8616
4  7721 6529 8215 8576
4  1543 8466 1412 8465
4  1543 8619 8620 8466
4  8467 8466 8468 8465
4  7170 8621 7200 8466
4  7170 8467 8622 8466
4  1412 8621 8622 8466
4  7385 6250 8623 8469
4  8624 8469 8468 8465
4  6250 8468 8623 8469
4  8625 8610 8626 8627
4  6250 8462 6714 8468
4  8462 8467 8468 8465
4  7810 7908 8503 8628
4  7810 8628 8503 8629
4  7738 7679 7021 8470
4  8630 8631 8632 8628
4  8630 8632 8633 8628
4  8633 8634 8628 8629
4  513 8174 8175 8635
4  8636 8637 8638 8635
4  6566 7499 8636 8635
4  6566 8636 8175 8635
4  1344 8638 8635 8639
4  7622 8121 8103 8640
4  7499 8174 8641 8635
4  8329 8316 8441 8440
4  7921 8642 8200 8440
4  8643 8439 8441 8442
4  8200 8642 8443 8440
4  8316 8643 8441 8442
4  4479 8644 8645 8646
4  4479 8647 8648 8646
4  1445 77 74 8649
4  4479 8648 8650 8646
4  8651 8652 8653 8646
4  4160 8650 8653 8646
4  4221 8653 8652 8646
4  8651 8654 8655 8646
4  4219 4350 8656 8657
4  4466 8517 8414 8549
4  4466 4350 8657 8549
4  8542 8517 8658 8549
4  8659 8658 8660 8657
4  8661 8662 8663 8664
4  8665 8663 8662 8664
4  6314 8666 6318 8663
4  7381 8468 8667 8668
4  8619 8669 8670 8668
4  8667 8468 8619 8668
4  8671 8669 8672 8668
4  6947 8673 8674 8675
4  6980 8136 8676 8675
4  7553 8676 8677 8675
4  7553 8677 8673 8675
4  8615 8612 8611 8617
4  4439 4528 4244 8612
4  8678 8617 8613 8616
4  4244 8612 8547 8616
4  8615 8547 8679 8612
4  4439 8613 8612 8616
4  4244 8679 8547 8612
4  1670 1663 8680 8681
4  1640 8574 8682 8681
4  1663 8683 8680 8681
4  8682 8684 8683 8681
4  7884 8404 8401 8406
4  8400 8403 8536 8406
4  7342 7884 8405 8404
4  8403 8572 8405 8404
4  8537 8685 8686 8524
4  1290 8544 8686 8524
4  8412 8424 8686 8524
4  8518 8687 8519 8524
4  7951 8537 7974 8524
4  8544 8537 8686 8524
4  7974 8537 8687 8524
4  8688 8475 8479 8473
4  8476 8475 8689 8473
4  1574 1445 1635 8649
4  1629 8690 8691 8689
4  1245 8688 1249 8689
4  1629 1334 8690 8689
4  4289 8534 7255 8529
4  7918 8433 8425 8426
4  4301 4264 8431 8425
4  8064 7751 8193 8377
4  26 7255 4264 8425
4  7793 8692 8693 8583
4  8006 7793 8693 8583
4  8693 8584 8694 8583
4  8582 8694 8584 8583
4  8122 8695 8692 8583
4  8006 8693 8694 8583
4  8696 8478 8697 8479
4  7471 7968 8696 8477
4  7471 8477 8696 8479
4  8390 8697 8386 8479
4  8390 8385 8386 8697
4  8390 8696 8697 8479
4  8072 8390 8386 8479
4  8698 8699 8700 8701
4  8235 8699 8701 8639
4  6571 8702 6770 8701
4  1476 8702 8698 8701
4  6770 8702 6856 8701
4  6571 8699 8702 8701
4  1592 8703 8704 8705
4  8703 8706 8704 8705
4  8707 8708 8467 8622
4  8707 8709 8708 8622
4  1653 8707 1412 8622
4  6721 8710 8667 8466
4  1412 8620 8621 8466
4  1412 8464 8467 8622
4  8707 8467 8464 8622
4  8196 7940 8711 8712
4  8196 6751 8712 8713
4  8714 8428 8715 8716
4  8717 8711 8712 8713
4  6751 8718 8712 8713
4  1484 1427 8717 8713
4  1484 8717 8718 8713
4  1427 6559 8717 8713
4  1648 8716 8719 8720
4  8721 8716 8722 8430
4  8405 8723 8722 8716
4  8715 8428 8723 8716
4  8714 8429 8428 8430
4  8714 8721 8716 8720
4  8715 8724 1527 8716
4  8714 8716 1648 8720
4  1824 8725 8665 8726
4  1035 6781 1824 8726
4  8548 8552 8553 8727
4  8308 8553 8552 8727
4  6928 8728 8553 8727
4  6888 8729 8655 8727
4  6928 6665 8728 8727
4  8308 8729 6888 8727
4  1450 811 8584 8694
4  6706 6797 6798 8694
4  1450 8584 8582 8694
4  6797 8695 6798 8694
4  8695 8694 8582 8583
4  8730 8731 8732 8733
4  4329 8732 8661 8733
4  4329 8661 8734 8733
4  8735 8734 8733 8736
4  7843 8731 8737 8733
4  8730 8737 8733 8736
4  7843 8735 8733 8736
4  7389 8636 8641 8738
4  7389 8739 8636 8738
4  7388 8740 8525 8738
4  7470 7388 8525 8738
4  7470 8525 8739 8738
4  6335 6717 7994 8741
4  8742 8743 8741 8744
4  7558 8743 8706 8741
4  7994 8741 6717 8744
4  8589 8745 8746 8593
4  6270 8747 8748 8593
4  8119 8592 7622 8747
4  8119 8592 8747 8593
4  8119 7524 8592 8593
4  8592 8589 8746 8593
4  8749 8579 8581 8750
4  8520 8579 8749 8750
4  7680 8579 8520 8750
4  8751 8581 8752 8750
4  7814 8375 7286 8753
4  8754 8504 8505 8461
4  4249 8755 8547 8461
4  6820 7232 7225 8553
4  8754 8756 8504 8461
4  8756 8547 8606 8461
4  8714 8715 1595 8716
4  4481 8757 8758 8759
4  7331 8760 8263 8658
4  7327 7334 8659 8658
4  8517 8658 8660 8761
4  7327 8659 8552 8658
4  8542 8517 8760 8658
4  8542 8415 8760 8517
4  8517 8657 8658 8549
4  8659 8658 8657 8549
4  4488 4190 4503 8762
4  8715 8429 1309 8428
4  1431 1489 1552 8763
4  8188 8502 8258 8434
4  8258 8502 8432 8434
4  8088 8502 8188 8434
4  8764 8623 8765 8629
4  7385 8506 6246 8469
4  6250 8468 8764 8623
4  6250 8764 7382 8623
4  135 1318 6207 8766
4  136 1389 135 8766
4  6205 7651 7187 8767
4  1318 8768 8769 8766
4  7187 8767 8770 8766
4  6205 6207 7651 8767
4  6207 8769 8767 8766
4  7292 7296 8771 8772
4  7292 8771 8596 8772
4  8561 8567 8773 8570
4  8774 8603 8775 8772
4  8452 8771 8483 8772
4  4288 8452 8776 8772
4  1344 8638 1310 8635
4  8699 8700 8701 8639
4  6058 8699 8235 8639
4  8700 8636 8638 8639
4  6565 8699 6058 8639
4  6565 8636 8699 8639
4  8314 8777 8722 8723
4  6918 8203 8778 8779
4  6918 8778 8401 8779
4  8203 8780 8781 8779
4  8680 8781 8780 8779
4  8574 8680 8782 8779
4  8574 8782 8401 8779
4  7809 8633 8628 8629
4  8783 8784 8765 8629
4  700 987 1380 6270
4  8503 8634 8765 8629
4  6390 7382 8784 8629
4  4446 8650 8648 8785
4  4524 4446 8734 8785
4  4204 6126 672 8786
4  4379 8662 4376 8785
4  7936 8554 7933 8787
4  1595 1527 8724 8716
4  8763 8554 8788 8787
4  8763 8789 8790 8787
4  8791 8789 8788 8787
4  7936 8792 8791 8787
4  6627 7830 8793 8794
4  8795 8796 8797 8794
4  7830 8684 8793 8794
4  8797 8793 8683 8794
4  1356 8740 8422 8798
4  1275 1356 8740 8555
4  8407 8422 8540 8409
4  8740 8525 8526 8555
4  7388 8740 8540 8555
4  1482 8721 8799 8430
4  7388 8527 8525 8555
4  8661 8662 8666 8663
4  4379 8662 8661 8664
4  8800 8665 8726 8664
4  8800 8801 8732 8664
4  1261 1257 1258 8463
4  6341 8802 8799 8568
4  7124 6341 8777 8568
4  8721 8722 8803 8430
4  7031 8722 8777 8430
4  1258 8463 8624 8465
4  7124 6341 7031 8777
4  6341 8799 8803 8430
4  6865 7396 8567 8804
4  6865 7124 7396 8804
4  7124 8777 8098 8804
4  8428 8777 8568 8804
4  8098 8777 8805 8804
4  8773 8570 8567 8804
4  8708 8746 8586 8806
4  8121 8460 8640 8806
4  8122 8692 8695 8806
4  8640 8649 8745 8806
4  8695 8649 8460 8806
4  6527 6529 7721 8606
4  8388 8807 8808 8389
4  8310 8053 7441 8389
4  8193 8809 7337 8720
4  7125 8810 8722 8720
4  8810 8811 8719 8720
4  8193 8812 8809 8720
4  8721 8722 8716 8720
4  8721 8803 8722 8812
4  1595 8724 8405 8716
4  8560 8742 8813 8563
4  8561 8813 8567 8563
4  8517 8660 8658 8657
4  8513 8517 8761 8515
4  8814 8516 8514 8515
4  8513 8517 8660 8761
4  8263 8760 8169 8761
4  4147 4512 8513 8515
4  8760 8761 8517 8515
4  8587 8578 8580 8815
4  8816 8817 8818 8815
4  8587 8819 8578 8815
4  8816 8603 8775 8815
4  7845 8819 8603 8815
4  6592 8820 8821 8822
4  8823 8824 8825 8822
4  8625 8825 8458 8822
4  6592 8821 8211 8822
4  8610 8821 8823 8822
4  7821 8454 7921 8771
4  7921 8454 8440 8771
4  4468 8456 8439 8455
4  8439 8440 8446 8455
4  8441 8601 8596 8771
4  8456 8596 8601 8771
4  8439 8771 8440 8455
4  1726 8719 1675 8826
4  8827 8828 8829 8826
4  1946 1768 8499 8435
4  8829 8811 8830 8826
4  1726 8827 8830 8826
4  8439 8456 8601 8771
4  8602 8456 8596 8601
4  4463 8602 8600 8601
4  4463 4462 8600 8602
4  8439 8601 8441 8771
4  4468 8439 8456 8601
4  4468 8456 4463 8601
4  7933 8790 8554 8798
4  1726 1675 1807 8826
4  8025 7780 8224 6843
4  8831 8539 8637 8798
4  8831 8790 8539 8798
4  8740 8540 8422 8798
4  7934 8540 8539 8798
4  8554 8422 8540 8798
4  1507 1454 8832 8411
4  1644 1515 1642 8448
4  8685 8833 8832 8411
4  7677 8834 8735 8736
4  7470 6568 7389 8739
4  8735 8834 8835 8736
4  1309 1312 8836 8570
4  8735 8734 8666 8733
4  8737 8837 8834 8736
4  6540 8260 8451 8564
4  8791 8711 8450 8564
4  7718 8449 7597 8564
4  7642 6615 8212 8564
4  8212 6615 8711 8564
4  7718 8791 8449 8564
4  8554 8420 8421 8788
4  8791 8789 8450 8788
4  1427 8717 8450 8788
4  8420 8791 8711 8788
4  8791 8450 8711 8788
4  6952 8653 7638 8495
4  4250 4259 4258 8587
4  8488 8496 8489 8491
4  8650 8653 8654 8495
4  8827 8830 8829 8838
4  8379 8830 8381 8838
4  8809 8381 8379 8830
4  8271 8809 7751 8379
4  8193 7751 8809 8377
4  8193 8722 8812 8720
4  4466 4297 4350 8414
4  4466 8657 8517 8549
4  8542 8658 8552 8549
4  8656 8548 8552 8549
4  8667 8670 8619 8710
4  7813 8667 6721 8710
4  8619 8710 8620 8466
4  6318 6884 6956 8839
4  8667 8710 8619 8466
4  7200 8840 8620 8621
4  7200 8620 8841 8710
4  7720 7833 7642 8564
4  1468 8789 8450 8449
4  8260 7597 8451 8564
4  252 7597 8449 8451
4  890 984 654 8260
4  890 8260 654 8451
4  252 654 7597 8451
4  7558 8742 8743 8741
4  6717 8741 8294 8744
4  6717 8294 8079 8744
4  1238 8294 8741 8744
4  1238 8743 8560 8744
4  1238 8560 8842 8744
4  8560 8743 8742 8744
4  8079 8842 8742 8744
4  4256 8678 8613 8616
4  8618 8617 8678 8616
4  8165 7771 8215 8618
4  8165 8618 8215 8617
4  6529 8576 8615 8617
4  8613 8611 8612 8617
4  8184 8615 8611 8617
4  6529 8615 8184 8617
4  8165 8611 8613 8617
4  4374 4237 8835 8843
4  7232 8844 8728 8843
4  8728 8727 8845 8843
4  8835 8728 8845 8843
4  8210 8211 8846 8627
4  8610 8611 8627 8612
4  8184 8611 8615 8627
4  7570 8184 8615 8627
4  8210 8846 8611 8627
4  4338 4514 4502 8816
4  8203 8847 8205 8780
4  8829 8828 8780 8826
4  4192 8751 8752 8848
4  8814 8849 8750 8848
4  8849 8415 8762 8848
4  8849 8762 8750 8848
4  8814 8750 8520 8848
4  1520 8850 1515 8397
4  8448 8393 8396 8397
4  1520 8526 8850 8397
4  8850 8526 8525 8397
4  8519 8398 8397 8394
4  7872 8479 8386 8851
4  7872 8386 7563 8851
4  7471 8475 8479 8851
4  7861 8852 8475 8851
4  1322 8853 1578 8808
4  1569 8854 8855 8808
4  1578 8853 8856 8808
4  8857 8387 8389 8384
4  8807 8855 8854 8808
4  8856 8388 8808 8389
4  8310 8807 8386 8389
4  8386 8807 8388 8389
4  8390 8385 8858 8391
4  8859 8860 8383 8391
4  1627 8860 1313 8391
4  8859 8391 8383 8384
4  8053 8857 8389 8384
4  1627 8387 8860 8391
4  4145 4143 8516 8523
4  8520 8817 8521 8523
4  4514 8757 8759 8523
4  4514 4145 8757 8523
4  4515 8749 8751 8523
4  1662 8683 8861 8445
4  6265 8201 6873 8818
4  7054 8443 8793 8442
4  7054 8643 8444 8781
4  7054 6920 8781 8445
4  8793 8861 8445 8442
4  8677 8862 8863 8864
4  8677 8863 8862 8865
4  8673 8863 8674 8864
4  1420 1629 8690 8864
4  1629 8691 8690 8864
4  8673 8864 8674 8675
4  1420 8864 8690 8675
4  1390 1587 8866 8867
4  1484 8718 1587 8867
4  1390 8866 8766 8867
4  8866 8770 8766 8867
4  136 1390 6203 6441
4  1484 6751 8718 8867
4  7845 7667 6874 8603
4  8868 8869 8770 8867
4  6751 8869 8718 8867
4  4324 663 7225 8548
4  8853 8870 8807 8841
4  8807 8841 8871 8855
4  8821 8872 8820 8786
4  1534 1536 1661 8862
4  6126 8873 7627 8786
4  6842 8873 8821 8786
4  7627 8873 6842 8786
4  8873 8874 8821 8786
4  6315 6447 7500 8800
4  6315 6062 6447 8800
4  6064 8875 8731 8801
4  6062 8801 8800 8726
4  8800 8665 8725 8726
4  4331 8732 8875 8801
4  663 7614 7225 8550
4  7305 7134 8180 8876
4  285 8877 4308 8876
4  4308 8877 8878 8876
4  6778 7134 7305 8876
4  8877 8879 8880 8876
4  285 7305 8877 8876
4  7110 8881 7235 8437
4  4430 4185 8481 8882
4  8530 8533 8438 8882
4  4430 8533 4456 8882
4  8528 8533 8530 8882
4  8878 8528 8881 8882
4  8878 8881 8883 8882
4  1651 8884 1596 8858
4  1348 1596 8885 8858
4  7969 8859 8390 8447
4  8390 8696 8447 8858
4  8390 8697 8696 8858
4  8859 8884 8390 8858
4  1238 8741 8743 8744
4  1593 8561 1590 8743
4  8560 8742 8842 8744
4  1590 8560 1238 8743
4  1317 8703 8743 8741
4  1593 1317 8703 8743
4  1432 8717 8421 8419
4  8421 8422 8419 8418
4  8422 8417 8419 8418
4  7549 7440 8181 8873
4  1587 1264 8423 8417
4  1587 8423 8718 8419
4  8373 8374 8758 8514
4  4151 8757 4147 8514
4  4151 4145 4147 8757
4  4489 8513 8373 8514
4  4489 4147 8513 8514
4  8886 8490 8498 8887
4  8888 8889 8566 8887
4  8888 8566 8569 8887
4  8886 8498 8889 8887
4  1280 8638 8850 8740
4  4488 8890 8762 8891
4  968 7988 7987 8891
4  7987 8892 8893 8891
4  968 4319 4349 8891
4  8136 8894 8676 8675
4  8676 8894 8690 8675
4  1420 8690 1333 8675
4  7553 6980 8676 8675
4  1366 8476 8471 8894
4  8476 8690 8676 8894
4  6590 6843 6592 8824
4  7987 8893 8890 8891
4  8597 8643 8439 8441
4  6648 7103 8086 8551
4  8890 8542 8893 8551
4  4318 4297 8414 8551
4  8414 8542 8551 8550
4  709 7997 7614 8551
4  4318 8414 8890 8551
4  4503 4362 8895 8752
4  4503 4190 4192 8752
4  8896 8895 8581 8752
4  8896 8849 8762 8750
4  8896 8762 8752 8750
4  8757 8758 8521 8522
4  4147 8757 8516 8514
4  8516 8520 8522 8523
4  7380 8521 7859 8522
4  7380 8520 8521 8522
4  8294 8842 8079 8744
4  7553 7040 6516 8673
4  619 8079 8294 8842
4  882 1363 1479 8842
4  619 882 6673 8842
4  8640 8748 8649 8897
4  494 7611 6575 8897
4  6737 7411 6575 8897
4  8640 8747 8748 8897
4  8103 8640 7411 8897
4  6575 7411 8460 8897
4  7611 6103 8048 8897
4  6103 8748 8747 8897
4  7228 8898 7205 8485
4  8532 8438 8899 8485
4  7238 8438 7228 8485
4  7238 8438 8485 8481
4  8486 8485 8453 8484
4  7553 6516 6980 6947
4  8485 8481 8453 8484
4  7803 8481 8485 8484
4  252 7596 8789 8792
4  252 8449 1468 8451
4  7718 7642 8212 8564
4  7720 7597 8260 8564
4  8791 8450 8449 8564
4  8791 8450 8789 8449
4  8613 8611 8900 8609
4  4187 8883 4205 8900
4  6422 8436 8613 8611
4  1417 6753 428 8594
4  74 6577 8582 8649
4  8614 8900 8611 8609
4  8763 8554 8421 8788
4  8717 8718 8712 8419
4  8554 8421 8420 8418
4  1294 8421 8422 8419
4  8420 8421 8717 8419
4  1432 8421 8717 8788
4  1294 8421 1552 8422
4  6529 8576 8606 8615
4  8576 8547 8615 8616
4  8576 8547 8588 8575
4  4344 8588 4244 8547
4  4301 8431 8631 8426
4  4264 8534 8431 8425
4  7905 8432 8607 8433
4  7918 7905 8425 8433
4  8431 8425 8607 8433
4  8431 8534 8607 8425
4  6545 7905 7816 8425
4  4301 26 4264 8425
4  7337 8809 8811 8720
4  6422 8487 8165 8613
4  8901 8811 8809 8720
4  8064 8193 8902 8377
4  8064 8902 8378 8377
4  8809 8379 8381 8377
4  7205 8199 8486 8898
4  8901 8381 8809 8830
4  6246 8463 8462 8469
4  8764 8672 8468 8668
4  8619 8468 8672 8668
4  1628 8624 8672 8468
4  8667 8619 8468 8466
4  7200 8621 8620 8466
4  1258 8624 1628 8465
4  4432 8528 8533 8531
4  7255 8535 8534 8425
4  4264 612 4289 7255
4  6244 8903 8199 8898
4  4289 8529 8528 8531
4  6323 7255 7816 8529
4  612 6323 4289 7255
4  4289 6323 8528 8529
4  6323 6319 8528 8529
4  7331 8086 8893 8542
4  8762 8893 8890 8415
4  8849 8893 8762 8415
4  8893 8542 8415 8760
4  8849 8893 8415 8760
4  6809 6781 6916 8726
4  7991 7992 8187 8893
4  4514 8816 8817 8759
4  8757 8521 8759 8523
4  4336 4514 8816 8817
4  4466 8415 8414 8517
4  6918 8778 8904 8401
4  6205 6203 6207 8766
4  4190 8848 8415 8515
4  8730 8732 8731 8875
4  4466 4511 8415 8517
4  7735 8209 8208 8904
4  7286 8494 7630 8753
4  7286 8375 8378 8753
4  8314 8777 8723 8546
4  8715 8723 8428 8546
4  8715 8428 1309 8546
4  8428 8777 8805 8546
4  8541 8723 8724 8546
4  8345 8723 8541 8546
4  8482 8487 8480 8905
4  4257 8819 8776 8905
4  4171 8487 8678 8905
4  8482 8480 8776 8905
4  8774 8776 8819 8905
4  8670 8841 8906 8710
4  7381 8667 7813 8668
4  7979 8670 8671 8668
4  7200 8710 6721 8466
4  8619 8670 8906 8710
4  7813 8670 7979 8668
4  8802 8571 8907 8568
4  6865 8567 8568 8804
4  6865 8567 8802 8568
4  6865 8568 7124 8804
4  6341 8777 8568 8430
4  8571 8567 8569 8568
4  8209 8684 8795 8908
4  1583 8683 8682 8908
4  1602 8683 1583 8908
4  8909 8910 8911 8908
4  8795 8684 8683 8908
4  1583 8682 8910 8908
4  8877 8878 8880 8883
4  4308 8877 4375 8878
4  8877 8880 8878 8876
4  8912 8880 8877 8879
4  7305 8913 8877 8879
4  8673 8677 8863 8864
4  1536 8862 8691 8864
4  1489 1356 1552 8763
4  8691 8862 8677 8864
4  1497 1661 8863 8914
4  1417 8674 8594 8863
4  1536 8863 1661 8862
4  1417 1536 8674 8863
4  7549 7110 8912 8880
4  1393 6077 8915 8584
4  8210 8846 8912 8611
4  8846 8874 8873 8912
4  8873 8912 8874 8913
4  7440 8873 8846 8821
4  7651 7694 7251 8769
4  8210 8846 7440 8912
4  8916 8917 8918 8919
4  8920 8921 8839 8496
4  8665 8839 8725 8921
4  8920 8839 8921 8919
4  7896 7899 8920 8919
4  8725 8918 8917 8919
4  74 77 6577 8649
4  8640 8748 8745 8649
4  1555 6575 8649 8897
4  1574 8748 1555 8649
4  6903 8541 8405 8406
4  7810 7382 6390 8629
4  7926 8400 6914 8406
4  6913 8400 8508 8536
4  7839 8508 8400 8399
4  7839 8400 7926 8399
4  6913 6914 8400 8536
4  8703 8769 8706 8741
4  8768 8767 8769 8766
4  636 6207 1318 8769
4  7651 7251 8767 8769
4  7677 8735 7843 8736
4  7138 6207 6829 8769
4  8480 8453 8481 8484
4  7238 8438 8481 8437
4  7334 7629 8659 8660
4  8513 8922 8923 8660
4  8659 8660 8652 8657
4  4218 8652 8660 8657
4  7629 8923 8924 8660
4  6246 8693 7793 8462
4  8444 8680 8781 8457
4  1673 8828 1674 8680
4  1670 1674 8782 8680
4  8574 8778 8680 8779
4  8574 8680 8778 8681
4  8444 8781 8680 8445
4  1035 6062 6781 8726
4  8680 8778 8683 8445
4  8682 8399 8573 8925
4  1624 8682 8926 8910
4  1315 8682 8573 8925
4  6788 8504 8754 8927
4  6741 8754 6788 8504
4  4323 8927 8754 8756
4  4323 8754 4435 8756
4  4321 4435 8754 8461
4  8504 8756 8606 8461
4  6741 8754 8504 8505
4  8271 6262 8829 8838
4  8827 8829 8928 8838
4  7688 8929 8928 8838
4  7688 8929 8599 8928
4  6265 7688 8929 8599
4  8783 8784 8930 8765
4  8630 8633 8783 8634
4  1772 8634 8783 8765
4  1953 8783 8930 8765
4  1772 8783 1953 8765
4  7680 8299 8520 8579
4  8816 8818 8817 8759
4  7845 8603 6874 8815
4  7380 8521 8520 8817
4  8602 8603 8775 8931
4  8816 8931 8818 8759
4  4502 4284 8816 8931
4  4336 8580 8749 8815
4  8603 8819 8775 8815
4  8749 8579 8817 8815
4  4336 8816 4338 8815
4  8857 8910 8926 8911
4  8795 8683 8684 8794
4  6315 6062 8800 8726
4  8795 8797 8683 8794
4  7942 8932 8795 8794
4  8909 8911 8795 8908
4  7943 8911 8795 8933
4  7942 8795 8209 8684
4  8478 8697 8479 8473
4  7969 8447 8390 8696
4  8447 8478 8885 8858
4  8859 8390 8884 8391
4  4508 6599 992 8507
4  1348 8478 8697 8858
4  7969 8859 7856 8390
4  8390 8385 8697 8858
4  4321 8505 8755 8461
4  4323 4498 8927 8756
4  1310 8637 8831 8635
4  4498 4528 8625 8756
4  8756 8679 8606 8547
4  4435 4244 8679 8547
4  8459 8615 8606 8679
4  8756 8459 8606 8679
4  4435 4528 8756 8679
4  1671 8488 8886 8490
4  1485 8571 8490 8887
4  8498 8490 8571 8887
4  6205 7187 6415 6203
4  1669 8888 8886 8889
4  1485 1639 8569 8887
4  8920 8498 8886 8489
4  1990 1671 8886 8490
4  8934 8935 8936 8833
4  8937 8832 8685 8833
4  7976 7368 8937 8833
4  7702 8934 7635 8833
4  1398 8543 8938 8832
4  8939 8832 8935 8833
4  7976 8937 8685 8833
4  8938 8940 8935 8833
4  8543 8686 8685 8832
4  8670 8853 8911 8933
4  8856 8911 8853 8933
4  8670 8853 8870 8911
4  8208 8904 8209 8926
4  8857 8856 8910 8911
4  8909 8795 8911 8933
4  7960 8911 8926 8908
4  7396 8805 8773 8804
4  8715 1528 8724 8546
4  8098 8345 7609 8545
4  7396 8009 8773 8805
4  997 4321 467 6741
4  8636 8637 8641 8738
4  7389 8641 8539 8738
4  8831 8790 8641 8539
4  8831 8637 8641 8635
4  7498 8174 8216 8641
4  7498 7499 8174 8641
4  8034 8941 8494 8902
4  8799 8803 8721 8902
4  1647 8902 8721 8812
4  8382 8902 8381 8377
4  8494 8382 8378 8902
4  1482 8493 8799 8902
4  8774 8775 8603 8819
4  6203 8766 8770 8867
4  7845 8774 8603 8819
4  6318 8666 6666 8942
4  6666 8655 8942 8648
4  8650 8654 8655 8942
4  8650 8839 8496 8942
4  8650 8496 8654 8942
4  7839 8399 7946 8512
4  7837 8383 8512 8925
4  7421 8383 7837 8925
4  7837 8508 7839 8512
4  8313 8597 8214 8598
4  8816 8775 8603 8931
4  4288 8775 8602 8772
4  8774 8775 8776 8772
4  4288 8776 4175 8775
4  8313 8329 8441 8596
4  8673 8677 8864 8675
4  1420 6947 8674 8675
4  6753 8674 8943 8594
4  1417 8594 1497 8863
4  8943 8863 8677 8865
4  8802 8799 8907 8497
4  8802 8907 8571 8490
4  8427 1241 8571 8907
4  8427 8799 8907 8568
4  8802 8497 8907 8490
4  8941 8493 8799 8497
4  8493 8907 8799 8497
4  1482 8799 8493 8907
4  4279 4238 491 8837
4  8904 8574 8399 8401
4  8403 8572 8404 8402
4  8400 8401 8402 8406
4  7886 7888 8847 8401
4  7888 8847 8401 8404
4  7926 7735 8399 8401
4  7926 8401 8400 8406
4  8762 8890 8893 8891
4  7987 8890 8893 8551
4  8187 8892 8849 8893
4  7915 8187 8892 8944
4  8896 8762 8892 8891
4  7331 8542 8893 8760
4  8847 8572 8401 8404
4  8203 8847 8780 8779
4  8810 8572 8847 8404
4  7888 8810 8847 8404
4  8205 8847 8810 8811
4  8810 8847 8719 8811
4  7451 7952 7491 8945
4  8782 8719 8847 8826
4  8946 8935 8947 8948
4  1592 8768 1444 8948
4  8768 8949 8950 8948
4  1444 8768 8950 8948
4  6798 7711 8006 8695
4  8950 8936 8935 8948
4  8949 8936 8948 8704
4  8088 7450 6155 7491
4  8088 7450 8500 8951
4  7751 8379 8809 8377
4  8950 8934 8935 8936
4  8298 8934 8949 8936
4  8940 8947 8935 8936
4  1413 8950 8935 8948
4  8947 8935 8936 8948
4  7900 8947 8936 8704
4  7900 7732 7252 8936
4  1564 8946 8836 8705
4  1557 8935 8939 8832
4  1266 8950 8939 8935
4  1557 8938 8946 8935
4  1413 8950 1266 8935
4  8428 8568 8777 8430
4  1309 8805 8428 8804
4  8940 8946 8947 8805
4  8836 8773 8805 8804
4  8098 8805 8777 8546
4  8098 8345 8545 8546
4  8938 8946 8940 8805
4  8428 8777 8722 8430
4  8098 8777 8314 8546
4  8715 1528 1527 8724
4  8428 8722 8723 8716
4  8703 8743 8706 8705
4  7398 8813 8773 8705
4  1312 8561 8836 8570
4  1593 1564 8561 8705
4  8813 8706 8743 8705
4  8121 8746 7865 8806
4  8947 8773 8836 8705
4  1402 8836 8946 8805
4  1402 1564 8946 8836
4  8947 8836 8773 8805
4  8859 8884 8860 8391
4  8859 8860 8509 8512
4  1651 1313 8884 8391
4  1624 8910 8926 8387
4  1315 8925 8573 8510
4  1640 8573 8682 8574
4  7549 8880 8912 8879
4  1651 8884 8858 8391
4  8926 8387 8383 8925
4  1627 1624 8860 8387
4  1413 8935 8946 8948
4  8950 8949 8936 8948
4  8938 8940 8946 8935
4  1402 8946 8938 8805
4  1413 8946 1564 8948
4  1402 1557 8938 8946
4  4222 6355 8824 8872
4  867 6125 6355 8872
4  8823 8821 8874 8872
4  4272 4222 4517 8872
4  8874 8872 8821 8786
4  4272 4394 867 8872
4  6315 6809 6916 8726
4  8258 8502 7908 8432
4  8088 7852 8090 8434
4  8499 8435 8503 8501
4  7530 8502 8500 8501
4  8088 8500 8502 8951
4  4222 8025 390 8224
4  7813 8841 8670 8710
4  1772 1289 1768 8634
4  8108 6238 6244 8952
4  8620 8906 8840 8841
4  1824 1480 1821 8917
4  8840 8841 8906 8855
4  1570 8862 8906 8855
4  8853 8906 8841 8855
4  6577 8695 8582 8649
4  8862 8840 8906 8855
4  8871 8841 8840 8855
4  7546 8840 8871 8841
4  8620 8906 8841 8710
4  1323 8670 8853 8906
4  1322 1323 8853 8906
4  1657 8620 1323 8906
4  1657 8862 8620 8906
4  8853 8855 8807 8808
4  7823 7296 8482 8483
4  7821 8483 8454 8771
4  8456 8596 8771 8772
4  6636 8374 7529 8379
4  8382 8378 8377 8376
4  8373 8375 8382 8376
4  8492 8382 8494 8902
4  8492 8494 8493 8902
4  8193 8812 8902 8377
4  8494 8941 8493 8902
4  1647 8381 8902 8812
4  6345 8803 8941 8902
4  8749 8580 8579 8815
4  8587 8575 8580 8577
4  7808 6663 8834 8728
4  7287 6663 7808 8728
4  8835 8845 8647 8843
4  7287 6928 6663 8728
4  7232 8728 8844 8553
4  1337 8698 1642 8700
4  8699 8700 8636 8739
4  8700 8638 8739 8850
4  8698 8700 8699 8953
4  1642 8700 8698 8448
4  8699 8953 8700 8739
4  8700 8739 8448 8850
4  7932 8592 8709 8746
4  8707 8709 8589 8746
4  8640 8745 8746 8806
4  8707 8589 8745 8746
4  1359 1507 8408 8411
4  7976 7702 8833 8411
4  1454 8686 1400 8832
4  1507 8832 8939 8411
4  8413 8408 8939 8411
4  1266 8950 8423 8939
4  1264 1266 8423 8939
4  1264 8423 8408 8939
4  8413 8408 8423 8939
4  4328 8730 4279 8954
4  4328 8875 8730 8954
4  7696 8737 8731 8954
4  4329 8732 8730 8875
4  4331 8732 4329 8875
4  6314 7843 7841 8666
4  7696 8731 6454 8954
4  4331 876 6064 8875
4  876 6454 6064 8875
4  1656 8797 8909 8796
4  1662 8797 1672 8861
4  8797 8955 8956 8861
4  1656 1672 8797 8796
4  1662 1602 8797 8683
4  8797 8956 8955 8796
4  7091 8420 8791 8711
4  8420 8711 8717 8788
4  7940 8791 8212 8711
4  1431 8450 8789 8788
4  7718 8212 8791 8564
4  8791 8792 8789 8787
4  7718 8791 8792 8449
4  8412 8685 8686 8411
4  8543 8686 8537 8685
4  8939 8935 8934 8833
4  1454 8686 8832 8411
4  1290 8544 1291 8686
4  8271 7688 6262 8838
4  1400 1291 8543 8686
4  1390 6441 6751 8867
4  8420 8712 8416 8419
4  8420 8717 8712 8419
4  7500 6064 8731 8801
4  1587 8718 8423 8867
4  8416 8869 8868 8867
4  8416 8868 8423 8867
4  1390 1587 1265 8866
4  8717 8712 8718 8713
4  8957 8742 8560 8563
4  7559 8813 7560 8563
4  8566 8569 8567 8563
4  8957 8560 8562 8563
4  8569 8562 8561 8563
4  8571 8569 8566 8887
4  8498 8566 8889 8887
4  7897 8566 8565 8889
4  7897 8498 6870 8566
4  8782 8780 8828 8826
4  1674 8782 8828 8826
4  8271 7337 8809 8811
4  8271 8829 8031 8811
4  8829 8780 8811 8826
4  8901 8811 8719 8830
4  8847 8719 8811 8826
4  8827 8829 8830 8826
4  8592 8746 8747 8593
4  7865 8708 8692 8806
4  7622 8121 8640 8746
4  1607 1608 8707 8589
4  8188 7491 7530 8500
4  1607 8589 8709 8590
4  1501 8589 1607 8590
4  8592 8589 8709 8746
4  8569 8561 8567 8563
4  8802 8566 8571 8567
4  7124 8568 8777 8804
4  8427 1309 8428 8568
4  7396 8773 8567 8804
4  7559 7396 8773 8567
4  7559 7731 8567 8563
4  8482 8452 8480 8484
4  8480 8452 8453 8484
4  4440 4404 8452 8453
4  4430 4424 8899 8453
4  8958 8486 8899 8453
4  8462 8469 8463 8465
4  1661 8862 8914 8621
4  1628 8624 8468 8465
4  7170 6714 8467 8466
4  7516 8840 7200 8621
4  7516 8865 8840 8621
4  8862 8620 8840 8621
4  8862 8865 8914 8621
4  8494 8378 8382 8753
4  8492 8494 8382 8753
4  8149 8494 8497 8491
4  8492 8490 8493 8491
4  8494 8493 8497 8491
4  8149 8494 8941 8497
4  1673 8444 8680 8445
4  6737 8103 7411 8897
4  8793 8683 8684 8445
4  1673 8680 8444 8457
4  1673 8828 8680 8457
4  8782 8680 8828 8780
4  8782 8780 8847 8779
4  8203 7430 8781 8780
4  6920 8684 8778 8445
4  1413 1444 8950 8948
4  8768 8767 8704 8769
4  1592 8768 8704 8769
4  8770 8767 8768 8766
4  1318 8769 6207 8766
4  8866 8768 8770 8949
4  8866 8950 8768 8949
4  8506 8765 8499 8624
4  8506 8623 8624 8469
4  7810 7530 8506 8503
4  8506 8500 8499 8501
4  8506 8499 8500 8463
4  6246 8506 8463 8469
4  4419 8614 8610 8609
4  8615 8679 8627 8612
4  4419 8610 4528 8612
4  8615 8627 8611 8612
4  4244 8547 8588 8616
4  4528 8610 8679 8612
4  8459 8615 8679 8627
4  8606 8679 8615 8547
4  8751 8581 8559 8752
4  4344 8605 8588 8547
4  8403 8541 8724 8536
4  1456 8403 8724 8536
4  1565 8572 1549 8402
4  1545 1456 8511 8403
4  1549 8403 8405 8724
4  1549 8405 8403 8572
4  4502 8959 8931 8759
4  1275 1358 1356 8555
4  1309 1312 1564 8836
4  4502 8931 8816 8759
4  8201 8929 8521 8818
4  7380 8818 8521 8817
4  4502 8816 4514 8759
4  8521 8817 8818 8759
4  4284 8775 8816 8931
4  6820 6928 7232 8553
4  7054 8444 8643 8442
4  8956 8443 8446 8861
4  1792 1798 8861 8442
4  1792 8861 8446 8442
4  8316 8441 8440 8442
4  6874 8818 8299 8815
4  8602 8603 8931 8598
4  4175 8775 8776 8819
4  4284 8602 8775 8931
4  1555 6575 77 8649
4  4288 4284 8602 8775
4  4338 8775 8819 8815
4  4259 4338 4175 8819
4  8625 8459 8756 8679
4  8613 8612 8611 8609
4  8210 8611 8184 8627
4  8625 8679 8610 8627
4  4279 491 7402 8837
4  4329 4495 4238 8730
4  4238 8837 8730 8736
4  4297 8414 8551 8550
4  170 6372 4238 8835
4  491 6372 7402 8837
4  6372 8834 8737 8837
4  8482 8776 8774 8905
4  8482 8480 8452 8776
4  6418 8774 8618 8905
4  4171 4257 8776 8905
4  4171 8776 8480 8905
4  4404 8480 4170 8452
4  4404 4402 8480 8608
4  4402 8487 8480 8608
4  6873 8596 8313 8598
4  6873 8931 8603 8598
4  4288 8602 8456 8772
4  6813 6820 7225 6822
4  4462 8602 4284 8604
4  6873 8603 8596 8598
4  8600 8601 8602 8598
4  4288 8602 4463 8456
4  4284 8604 8602 8931
4  7599 6441 6416 8869
4  7189 8868 7087 8869
4  6441 8770 8869 8867
4  6416 8770 7189 8869
4  8693 8945 8584 8463
4  1257 8584 8915 8463
4  1450 1261 8582 8584
4  1261 8584 1257 8463
4  8561 8813 8743 8705
4  7559 8567 8813 8563
4  7559 8773 8813 8567
4  1593 8561 8743 8705
4  8560 8813 8561 8563
4  7558 8742 7560 8813
4  8560 8813 8742 8743
4  1312 8569 1639 8562
4  7398 8813 7559 8773
4  8888 8957 8562 8563
4  6318 6884 8839 8942
4  7902 7558 8813 8706
4  1564 8836 8561 8705
4  8561 8773 8836 8570
4  1590 8561 8560 8743
4  1312 8561 1564 8836
4  8565 8957 8960 8916
4  7729 8565 8960 8961
4  8565 8916 8961 8889
4  7896 8565 7729 8961
4  8916 8918 8961 8889
4  7896 8961 7497 8918
4  4434 8962 8532 8899
4  7238 8485 7803 8481
4  7228 8438 8532 8485
4  4432 8532 8533 8899
4  8532 8438 8533 8899
4  8625 8927 8458 8825
4  1018 7806 738 8825
4  4229 738 8927 8825
4  1506 1657 1661 8621
4  7806 8824 8458 8825
4  7951 8524 8518 8398
4  1454 8424 8686 8411
4  7699 8412 7465 8527
4  7086 6751 7599 8869
4  8412 8407 8424 8527
4  8543 8937 8537 8538
4  7361 8937 8537 8685
4  8508 8537 8544 8687
4  7951 7361 8537 8685
4  8508 8544 8537 8536
4  6907 6913 8537 8538
4  8959 8604 8599 8928
4  8959 8599 8929 8928
4  6265 6873 8599 8931
4  8600 8599 8597 8598
4  8600 8599 8928 8457
4  7430 8829 6262 8457
4  8214 7430 6262 8457
4  1312 8569 8561 8570
4  8960 8957 8742 8842
4  8960 8742 8957 8563
4  1312 8561 8569 8562
4  1312 1590 8561 8562
4  8888 8569 8566 8563
4  1590 1605 8957 8562
4  1590 8957 8560 8562
4  1290 8687 8544 8524
4  1454 8424 1290 8686
4  8544 8687 8537 8524
4  7699 7951 8412 8685
4  8543 8537 8937 8685
4  8666 8942 8662 8785
4  8734 8666 8661 8785
4  8839 8942 8662 8663
4  6666 8942 8666 8648
4  8800 8725 8665 8663
4  6318 8666 8942 8663
4  8666 8662 8942 8663
4  4379 8661 8662 8785
4  4524 8734 8661 8785
4  1249 8689 8688 8473
4  8470 8474 8471 8473
4  1334 8689 1249 8473
4  7473 8477 7471 8475
4  1334 8476 8689 8473
4  8688 8851 8475 8689
4  6795 8475 7861 8852
4  4434 8532 4432 8899
4  8533 8481 8438 8882
4  4430 4432 8533 8899
4  8436 8882 8883 8437
4  4432 4289 8528 8531
4  8881 8528 8530 8882
4  4430 8481 8533 8882
4  7721 8606 8576 8575
4  8610 8627 8679 8612
4  4439 8612 4244 8616
4  4344 8755 8605 8547
4  4344 4249 8755 8547
4  7547 7563 7546 8871
4  8427 8429 8714 8430
4  8901 8812 8721 8720
4  1482 8721 1647 8902
4  1482 8427 8714 8430
4  8799 8721 8803 8430
4  8735 8734 8845 8648
4  4374 8647 4479 8645
4  8647 8655 8645 8727
4  8844 8645 8727 8843
4  8506 8503 8765 8623
4  1953 1289 8765 8624
4  1953 8765 8672 8624
4  1289 1258 8463 8624
4  1289 8463 8499 8624
4  6246 8462 6247 8469
4  8463 8469 8624 8465
4  8499 8915 8500 8463
4  8915 8584 8945 8463
4  1261 1258 8464 8463
4  8693 8463 8584 8585
4  1289 1257 8499 8463
4  811 6797 6077 8694
4  4288 8776 8775 8772
4  8774 8776 8775 8819
4  4171 8480 8487 8905
4  8452 8483 8776 8772
4  4288 8452 4170 8776
4  8482 8483 8774 8776
4  8447 8696 8478 8858
4  8688 8479 8475 8851
4  7968 8447 7969 8696
4  7471 8696 8072 8479
4  6314 7841 6318 8666
4  7086 7087 8712 8869
4  7234 7743 7227 8530
4  1432 8718 8717 8419
4  9 4307 8 6319
4  1432 1587 8718 8419
4  8920 8488 8921 8496
4  478 4272 867 6355
4  8630 8632 8431 8963
4  8083 7912 8108 8632
4  7570 8184 6529 8615
4  4434 8958 8962 8899
4  6545 7918 7956 7905
4  1815 8886 8488 8919
4  7895 8920 8839 8496
4  7638 8489 8496 8491
4  6884 8654 8496 8942
4  6956 8839 6884 8496
4  8886 8489 8498 8490
4  8498 8497 8490 8491
4  8386 8388 8807 8854
4  7404 8498 8489 8491
4  8149 7638 8494 8491
4  7404 8149 8497 8491
4  6952 7638 8496 8495
4  7638 8496 8495 8491
4  7991 8187 8849 8893
4  8513 8660 8923 8761
4  8814 8761 8760 8515
4  8659 8657 8656 8549
4  1782 1777 8964 8930
4  4498 4435 4528 8756
4  8814 8513 8923 8761
4  8814 8513 8761 8515
4  8760 8658 8517 8761
4  8965 8724 8546 8538
4  1520 1452 1275 8526
4  8814 8848 8516 8515
4  4218 4512 8517 8660
4  7563 8386 8807 8851
4  4512 8517 8513 8515
4  8452 8771 8456 8455
4  7251 7900 7252 8704
4  1604 1515 1520 8850
4  8329 8441 8596 8771
4  7296 8483 8771 8772
4  4440 8456 4468 8455
4  4288 4440 8452 8456
4  1657 1323 1570 8906
4  7296 8774 8483 8772
4  1389 8866 8768 8766
4  7650 8770 8767 8949
4  6415 6203 7187 8770
4  1348 8478 1249 8697
4  7189 8770 7650 8949
4  8764 8624 8765 8623
4  8103 6103 8747 8897
4  8868 8866 8770 8949
4  6415 7187 6416 8770
4  7189 8770 8868 8869
4  8511 8544 8508 8536
4  1456 1292 8511 8544
4  7553 6793 6794 8676
4  1292 8509 8508 8687
4  8959 8929 8380 8838
4  4414 4462 4502 8604
4  8937 8938 8832 8833
4  1358 1359 1294 8422
4  1452 1513 1613 8526
4  1456 1291 8544 8536
4  1291 8544 8543 8686
4  1786 8956 8966 8446
4  8446 8861 8443 8442
4  4218 4215 4512 8660
4  1648 1726 8901 8719
4  1672 8797 8956 8861
4  1792 8956 1786 8446
4  7622 8746 8640 8747
4  8586 8695 8692 8806
4  4512 8513 8517 8660
4  4439 4258 4256 8616
4  7411 8640 8460 8897
4  7411 8640 8121 8460
4  7622 8640 8103 8747
4  6853 8201 6265 8929
4  8640 8460 8649 8806
4  8795 8932 8796 8794
4  1824 6781 1009 6780
4  8967 8968 8955 8932
4  1385 1292 1290 8687
4  1432 1431 1552 8788
4  8967 8671 8968 8932
4  8967 8669 8671 8932
4  8416 8413 8423 8868
4  7190 8416 7087 8868
4  8868 8950 8866 8949
4  8413 8423 8868 8934
4  8298 7190 8868 8934
4  7103 7987 6369 7992
4  8298 8868 8949 8934
4  6663 8728 6665 8845
4  8868 8950 8949 8934
4  1436 1311 1489 8831
4  1536 8863 8862 8864
4  8686 8685 8832 8411
4  8413 8939 8423 8934
4  1264 8408 1507 8939
4  8700 8638 8636 8739
4  4297 4324 4350 8548
4  8308 7327 7628 8729
4  4379 4376 4446 8785
4  8086 7992 8893 8551
4  1359 8407 1454 8411
4  1359 8422 8407 8408
4  1294 8422 1359 8408
4  8395 8519 8396 8394
4  4479 4446 8650 8648
4  8447 8393 8392 8396
4  8885 8392 8395 8396
4  8962 8969 8534 8532
4  8208 8904 8926 8925
4  7421 8208 8926 8925
4  8383 8387 8860 8925
4  7421 8926 8383 8925
4  8383 8860 8387 8391
4  1257 8915 8499 8463
4  8090 8434 8258 8433
4  1624 1315 8860 8925
4  7017 8474 6793 8894
4  1313 8860 8884 8391
4  8508 8512 8509 8510
4  8881 8882 8438 8437
4  8859 8383 8860 8512
4  7856 8859 7837 8383
4  8859 8884 8509 8860
4  1322 1570 1323 8906
4  1953 1628 1289 8624
4  7946 8512 8399 8925
4  7837 8512 7946 8925
4  8810 8405 8722 8716
4  7810 7385 7382 8623
4  7765 8923 8660 8761
4  4338 8775 4175 8819
4  7602 7823 6418 8482
4  8405 8724 8541 8723
4  4307 6319 8878 8528
4  7380 8520 8299 8817
4  8345 8059 8405 8723
4  8427 8568 8428 8430
4  8098 8545 8805 8546
4  6865 6341 7124 8568
4  8428 8722 8777 8723
4  4288 4440 4170 8452
4  8059 8722 8405 8723
4  7752 7529 6636 8374
4  4511 4190 4488 8415
4  1484 1427 1432 8717
4  7505 8483 7823 8484
4  8958 8486 8903 8898
4  8958 8903 8486 8970
4  4430 8453 8899 8481
4  8480 8608 8487 8481
4  8958 8970 8486 8453
4  7861 7547 8852 8871
4  7921 8486 8642 8454
4  7505 8486 7921 8454
4  7234 8881 8528 8530
4  6319 7234 8881 8528
4  4432 8532 8534 8531
4  4506 4518 4364 8971
4  997 4508 4321 8505
4  8528 8530 8533 8531
4  6323 7061 6319 7743
4  8 6319 4307 8528
4  8165 8678 8618 8617
4  4498 8625 8927 8756
4  7227 8532 8438 8531
4  8 4307 4289 8528
4  7342 8810 7888 8404
4  4484 4480 4151 8380
4  4515 4513 4192 8751
4  7884 7888 8401 8404
4  1595 1675 8719 8572
4  1675 8782 8719 8572
4  1595 8405 1549 8572
4  8896 8892 8944 8891
4  7696 8737 7843 8731
4  8619 8906 8620 8710
4  7334 8660 8658 8761
4  4506 6603 4518 8971
4  1630 1578 8856 8808
4  1617 1323 1503 8853
4  8751 8749 8581 8750
4  7516 7547 7546 8840
4  1503 1323 8670 8853
4  4190 4192 8752 8848
4  7297 7723 8579 8577
4  4318 4488 8890 8414
4  1617 8856 8853 8933
4  7516 7546 7200 8840
4  8940 8936 8935 8833
4  7696 7843 7500 8731
4  1444 8768 8866 8950
4  4514 8759 8817 8523
4  8423 8950 8868 8934
4  4466 4350 4218 8657
4  6664 6665 6666 8845
4  6314 7500 7843 8731
4  4372 4219 4350 8656
4  8770 8768 8767 8949
4  8423 8866 8868 8950
4  8886 8488 8489 8490
4  8866 8770 8768 8766
4  8823 8820 8824 8822
4  6822 8552 8308 8553
4  6592 8824 8820 8822
4  4218 4350 4219 8657
4  8214 8643 7430 8457
4  8444 8781 8643 8457
4  1485 8569 8571 8887
4  8299 8818 8817 8815
4  8846 8873 8874 8821
4  8846 8874 8610 8821
4  8211 8846 8626 8821
4  6842 8821 6592 8820
4  7331 7327 8542 8658
4  8211 8821 8626 8822
4  4259 4338 8819 8815
4  4435 8547 8756 8461
4  8762 8893 8892 8891
4  7170 7200 6714 8466
4  6788 6235 6792 8504
4  4472 8453 4440 8455
4  7200 6721 6714 8466
4  4469 8903 8972 8962
4  4187 4205 8614 8900
4  8958 8898 8962 8899
4  4469 4434 8958 8962
4  4389 4344 4438 8557
4  7951 7361 7974 8537
4  4439 8613 4402 8609
4  7553 6980 6793 8676
4  8790 8789 8792 8787
4  7596 8790 8789 8792
4  7699 8527 7700 8410
4  1468 1431 8450 8789
4  1489 8831 8763 8789
4  4389 4513 4336 8580
4  1431 1489 8763 8789
4  8930 8764 8672 8765
4  8784 8764 8765 8629
4  7810 8506 7385 8623
4  4145 4143 4147 8516
4  4515 4192 4143 8751
4  4204 8874 8913 8786
4  8823 8820 8821 8872
4  4517 8823 8610 8874
4  4203 4205 8874 8614
4  8846 8614 8874 8912
4  7529 8374 7859 8758
4  7529 8380 8374 8758
4  8373 8923 8513 8375
4  7753 8814 8374 8923
4  8814 8923 8513 8514
4  4151 8373 8758 8514
4  7683 8896 7681 8750
4  7753 8814 7859 8374
4  7337 8811 8810 8720
4  7497 6991 6808 6780
4  8828 8680 8457 8780
4  8379 8381 8380 8838
4  1317 636 1318 8769
4  6888 6884 6666 8655
4  7688 8928 6262 8838
4  8810 8719 8572 8716
4  8809 8381 8812 8377
4  6888 8729 8651 8655
4  7287 7232 6928 8728
4  7902 8704 8706 8705
4  1593 8703 1592 8705
4  7694 8769 6829 8741
4  7251 8704 8767 8769
4  8560 8561 8813 8743
4  219 1317 1238 8741
4  1569 1322 1630 8808
4  8703 8704 8706 8769
4  7902 7251 8706 8704
4  1592 8704 8948 8705
4  7900 8947 8704 8705
4  8946 8948 8947 8705
4  8 6323 6319 8528
4  8502 8435 8432 8434
4  8492 8488 8490 8491
4  7286 8034 8494 8378
4  7810 6390 7809 8629
4  8407 8540 8527 8409
4  1655 7450 1069 8951
4  1380 6270 8748 8593
4  8511 8508 8400 8536
4  7839 6913 8400 8508
4  8330 8216 8790 8641
4  7974 8537 8508 8687
4  8544 8537 8536 8538
4  6914 8536 8541 8406
4  6913 8541 6914 8536
4  6793 6980 8136 8676
4  1456 8536 8724 8538
4  1432 1294 1587 8419
4  8330 8008 7499 8641
4  8904 8778 8684 8681
4  1602 8909 8683 8908
4  8682 8684 8904 8908
4  8682 8926 8910 8908
4  7500 6447 6064 8801
4  1275 1452 1358 8555
4  7837 7839 7946 8512
4  8800 8726 8801 8664
4  8952 8963 8962 8969
4  6314 8800 8666 8663
4  8666 8732 8800 8731
4  6314 8800 7500 8731
4  285 4211 4308 8877
4  1627 1624 1313 8860
4  6315 8800 6316 8725
4  7821 8329 7292 8771
4  700 6270 1380 8593
4  1502 1543 1628 8672
4  8962 8969 8963 8534
4  6476 8236 6857 8471
4  1366 720 1333 8894
4  1478 1615 8472 8471
4  931 8236 1366 8471
4  7465 7470 7388 8525
4  1478 931 1366 8471
4  219 636 1317 6829
4  8250 8737 7696 8954
4  4328 6454 8875 8954
4  179 246 6452 8954
4  179 6452 818 8954
4  1359 1454 1507 8411
4  818 6454 4328 8954
4  8730 8875 8737 8954
4  6951 7638 7404 8489
4  6452 6455 6454 8954
4  246 4279 7402 8954
4  8239 8556 8220 8944
4  4518 6603 8239 8971
4  7553 6516 6947 8673
4  1238 1317 8743 8741
4  7538 7969 7968 8447
4  7086 7087 7091 8712
4  4518 7988 4349 8895
4  1344 1310 513 8635
4  4362 8971 8895 8559
4  1436 8216 8174 8831
4  4518 4362 8971 8895
4  1275 1311 1280 8740
4  1444 1265 1266 8950
4  8971 8895 8556 8944
4  1275 1356 1311 8740
4  4518 8239 7988 8971
4  1454 1290 1400 8686
4  6853 7859 8521 8758
4  1454 1613 1290 8424
4  8959 8758 8929 8759
4  1507 8939 8408 8411
4  7814 8923 8374 8375
4  8757 8521 8758 8759
4  7529 6853 8929 8758
4  1241 8907 1711 8490
4  7936 7939 7933 8554
4  7651 7138 7694 8769
4  7529 8379 8374 8380
4  7529 8929 8379 8380
4  8739 8393 8850 8525
4  8448 8850 8739 8393
4  7760 8953 8739 8393
4  1310 8831 8174 8635
4  1337 8235 8701 8639
4  1317 6829 636 8769
4  1484 1432 1587 8718
4  7952 6246 7491 8945
4  6319 7743 7234 8529
4  1594 1627 1651 8385
4  8930 8764 8671 8672
4  8310 7420 8053 8389
4  1317 6829 8769 8741
4  7994 8742 7558 8741
4  6077 8945 8584 8694
4  7932 7864 7865 8708
4  7558 8813 8706 8743
4  219 6829 1317 8741
4  7553 6947 6980 8675
4  1543 8620 1412 8466
4  1657 1412 8620 8621
4  1596 8884 8885 8858
4  8299 8579 8578 8815
4  1412 8467 8464 8465
4  7200 8620 8710 8466
4  6126 8913 8873 8786
4  636 6829 6207 8769
4  7301 7297 7721 8575
4  6126 8873 8913 8879
4  7549 8873 8181 8879
4  6842 8873 7440 8821
4  8850 8525 8740 8738
4  7940 7091 7936 8791
4  8973 8472 8470 8702
4  8763 8831 8790 8789
4  6704 6702 6673 8079
4  1595 1549 1565 8572
4  7538 8447 7968 8973
4  8478 8973 8974 8472
4  8477 8470 8973 8472
4  7968 8696 8477 8973
4  6244 6242 8199 8903
4  8088 8951 8502 8434
4  4456 8883 4185 8882
4  8447 8478 8973 8974
4  7845 8299 8578 8815
4  8959 8929 8931 8759
4  7859 8521 8758 8522
4  6874 8603 8818 8815
4  8201 8521 7380 8818
4  6853 8201 8929 8521
4  8196 7940 6615 8711
4  8450 8717 8711 8788
4  8502 8951 8435 8434
4  6545 6321 7255 7816
4  6540 8450 6559 8711
4  6126 7625 7627 8181
4  4456 4375 4185 8883
4  9 4308 4307 8878
4  8212 8711 8791 8564
4  7227 8438 8530 8531
4  8196 6751 7086 8712
4  8196 8712 8711 8713
4  8196 7086 7940 8712
4  4380 4489 4215 8922
4  1959 1953 8930 8672
4  8188 7908 8258 8502
4  8513 8923 8922 8375
4  7956 8258 7905 8433
4  4469 4433 4434 8962
4  4215 8922 8513 8660
4  8169 8814 7857 8761
4  8088 8500 8188 8502
4  8922 8653 8924 8652
4  26 329 7918 8425
4  4218 4221 4215 8922
4  8923 8924 8922 8375
4  8972 8962 8952 8963
4  6369 7988 6371 7915
4  7331 8542 8760 8658
4  4434 4424 8958 8899
4  8952 8962 8903 8898
4  4433 4418 8962 8963
4  8962 8898 8532 8899
4  4318 7997 709 8551
4  4229 8927 4498 8825
4  4517 8625 8610 8823
4  4498 8625 4517 8823
4  8625 8927 8756 8459
4  4528 8625 8756 8679
4  4450 8625 4528 8610
4  7402 8737 8250 8954
4  7402 8250 6331 8954
4  7843 8735 8666 8733
4  6331 7696 6455 8954
4  6372 7453 7402 8250
4  4238 8835 8837 8736
4  7987 7988 8892 8891
4  7677 8737 8834 8736
4  709 663 4297 7614
4  8730 8837 8737 8736
4  6372 7677 7453 8250
4  7895 7404 7897 8489
4  7331 7334 7327 8658
4  4237 170 4238 8835
4  6341 8799 8941 8803
4  6372 7591 7453 7677
4  6928 6822 8308 8553
4  4469 8958 8903 8962
4  6341 8149 8941 8497
4  550 7232 7808 8843
4  7225 8553 8548 8550
4  6341 8149 6345 8941
4  8271 8031 8205 8811
4  8498 8497 8802 8490
4  8498 8490 8489 8491
4  6870 8802 8498 8497
4  6870 6341 8802 8497
4  7629 8924 8651 8652
4  8651 8645 8644 8646
4  4410 8922 4221 8653
4  6341 7031 8777 8430
4  8651 8653 8654 8646
4  8651 8924 8653 8652
4  6888 8651 6890 8654
4  882 1479 797 6990
4  8959 8599 8604 8931
4  8602 8931 8604 8598
4  4502 8604 4284 8931
4  8730 8731 8737 8875
4  4502 8959 8604 8931
4  4297 663 4324 8548
4  663 7225 8548 8550
4  4440 8453 8452 8455
4  8548 8552 8549 8550
4  4466 8414 4350 8549
4  7979 7943 8932 8933
4  7979 8932 8671 8933
4  1503 8670 8669 8933
4  1337 1604 1344 8700
4  8967 8930 8671 8669
4  1959 8967 1676 8669
4  8669 8932 8796 8933
4  1344 1280 1310 8638
4  1386 8885 8395 8396
4  1676 8669 8967 8796
4  8330 7498 7521 8216
4  8856 8853 8870 8808
4  8857 8387 8856 8389
4  7940 7936 8212 8791
4  6571 6770 8235 8701
4  8388 8807 8854 8808
4  1337 8700 1344 8639
4  8386 8688 8388 8854
4  1386 1387 1385 8395
4  6323 7816 7743 8529
4  8083 7816 8607 8535
4  7905 8607 7816 8425
4  4264 7255 8534 8425
4  1417 146 6753 8674
4  7227 8530 7743 8531
4  1476 6857 1478 8472
4  8474 8471 8476 8894
4  7255 8535 7816 8529
4  1476 1478 1643 8472
4  8607 8534 8535 8425
4  1337 1476 1642 8698
4  8271 8829 8830 8838
4  7586 7150 6046 8394
4  7816 8607 8535 8425
4  1385 1290 1613 8687
4  7537 7538 8973 8953
4  4264 4289 4418 8534
4  6793 8676 8136 8894
4  8447 8448 8974 8953
4  8447 8974 8973 8953
4  6571 6770 6058 8235
4  1344 8700 1604 8638
4  7969 8447 6046 8392
4  8859 8885 8447 8392
4  7969 8859 8447 8392
4  8447 8885 8974 8396
4  4185 8608 8481 8882
4  9 6778 4308 8878
4  6778 7234 7653 8881
4  6046 8392 8447 8393
4  6527 6237 6529 8606
4  6951 7895 6956 8496
4  6778 6319 6997 7234
4  1669 8889 8886 8919
4  6323 7255 6321 7816
4  8183 8436 6422 8611
4  8912 8877 8880 8900
4  7821 7921 8329 8771
4  4257 4256 4258 8678
4  8665 8662 8839 8921
4  8920 8489 8488 8496
4  1536 8674 8863 8864
4  1501 1608 1607 8589
4  7515 8943 8673 8677
4  7515 7433 8943 8865
4  1497 8594 8590 8863
4  6753 8943 8056 8594
4  6967 7433 8595 8943
4  1607 1653 1506 8622
4  720 8236 8136 8894
4  8693 8584 8583 8585
4  826 1500 428 8056
4  8119 8747 6270 8593
4  6750 8056 6753 8943
4  1607 1608 1653 8707
4  7952 8006 7793 8693
4  1417 8674 6753 8594
4  7591 7808 6663 8834
4  7843 8733 8737 8736
4  8730 8737 8731 8733
4  7932 7423 7864 8709
4  1450 811 1393 8584
4  6372 8737 7402 8837
4  4329 8734 4495 8730
4  6809 6808 6916 6781
4  8083 8607 8632 8969
4  7677 7843 8250 8737
4  8647 8727 8645 8843
4  6664 7841 7843 8735
4  7677 8834 6663 8845
4  6372 7677 8250 8737
4  6372 8835 7808 8834
4  7591 6663 7677 8834
4  8735 8835 8734 8736
4  4238 8835 6372 8837
4  6664 6666 7841 8735
4  7402 8837 8737 8954
4  4279 8730 8837 8954
4  1607 8589 8707 8709
4  8748 8747 8745 8593
4  1500 8590 1497 8594
4  8595 8590 8594 8863
4  8590 8863 8865 8914
4  4323 4435 4498 8756
4  6527 6530 6237 8606
4  7721 8558 8605 8575
4  7297 7723 7681 8579
4  1497 8863 8590 8914
4  7470 7586 7760 8393
4  4439 4419 4528 8612
4  7549 8181 8180 8879
4  4222 4229 8823 8825
4  8436 8613 8611 8900
4  867 6125 8872 8786
4  7110 8436 8880 8437
4  8880 8436 8883 8437
4  4205 8883 8877 8900
4  8436 8481 8882 8437
4  4185 8883 8608 8882
4  7345 6592 7828 8822
4  8608 8883 8436 8882
4  7238 8481 7602 8437
4  4222 8824 8224 8825
4  8881 8883 8882 8437
4  7345 7828 6235 8458
4  8608 8436 8883 8900
4  7110 7111 8436 8437
4  8650 8839 8662 8921
4  6318 6666 6884 8942
4  7704 8595 8592 8591
4  8673 8943 8674 8863
4  7841 6666 6318 8666
4  8595 8590 8863 8865
4  6752 8056 8595 8591
4  8592 8590 8589 8591
4  4372 8844 4325 8843
4  8056 8594 8595 8591
4  428 6753 8056 8594
4  6809 8725 6781 8726
4  1500 1501 8590 8591
4  7423 7433 7170 8865
4  6793 8474 8676 8894
4  6752 7524 8056 8591
4  1322 1570 8906 8855
4  233 6856 1476 8701
4  7704 8119 6752 7524
4  1500 428 8056 8594
4  6571 7537 7679 8702
4  7017 6475 6476 8236
4  1275 1280 8850 8740
4  7200 8620 8840 8841
4  1607 8590 8709 8914
4  1627 8388 1630 8387
4  8477 8475 8474 8473
4  8696 8477 8478 8479
4  1334 1249 1615 8473
4  1412 8622 8467 8466
4  7021 7537 8973 8702
4  1323 8620 8619 8906
4  8709 8590 8865 8914
4  1380 8745 8589 8593
4  8707 8586 8708 8746
4  1574 1380 8748 8745
4  7752 8378 8375 8376
4  8880 8883 8881 8437
4  7814 8924 8375 8753
4  1685 1946 1655 8951
4  7754 7945 6623 8968
4  7228 7205 7803 8485
4  7563 8386 8310 8807
4  4430 4424 4434 8899
4  7752 8378 7286 8375
4  4481 4414 4502 8959
4  4380 8375 8922 8753
4  8382 8378 8375 8753
4  748 4518 4506 6603
4  8922 8375 8924 8753
4  8220 7826 7990 8556
4  1358 8422 1356 8555
4  8412 8411 8407 8410
4  8416 8423 8413 8417
4  4318 4297 4466 8414
4  7225 6822 8553 8550
4  8413 8408 8411 8410
4  7951 7974 7150 8518
4  7174 6371 8239 8220
4  7828 8459 8458 8822
4  8975 8507 8505 8605
4  1432 8717 1427 8788
4  4380 8382 8373 8375
4  7376 8814 8520 8522
4  7723 8299 7680 8579
4  7683 7680 7376 8750
4  7683 7376 8169 8849
4  4481 8758 8959 8759
4  7680 7380 7376 8520
4  8420 8419 8416 8418
4  7752 8375 8374 8376
4  1674 8828 8782 8680
4  7915 8187 7992 8892
4  8680 8781 8457 8780
4  8308 6888 6665 8727
4  6371 8220 7915 8944
4  1801 8828 1673 8457
4  6571 6565 6568 8699
4  1515 8850 8448 8397
4  7872 8072 7420 8386
4  1807 1674 8828 8826
4  8970 8440 8454 8455
4  8329 8440 8441 8771
4  6545 7255 7918 8425
4  8600 8597 8643 8439
4  6951 6956 6884 8496
4  8714 1595 1648 8716
4  8597 8441 8439 8601
4  882 1479 6990 6673
4  1402 1564 1413 8946
4  1590 1605 1363 8957
4  8970 8446 8642 8440
4  7897 8920 8498 8889
4  8642 8446 8443 8440
4  619 8294 1238 8842
4  7968 7969 8072 8696
4  8763 8422 8554 8798
4  8966 8976 8642 8446
4  7125 7342 8059 8810
4  7388 8740 8539 8540
4  8444 8439 8643 8442
4  6913 6903 6914 8541
4  1485 1671 1990 8490
4  7404 7638 8149 8491
4  7054 8793 8445 8442
4  1639 1665 8888 8887
4  1815 1821 1669 8919
4  6873 8818 8603 8931
4  8600 8602 8604 8598
4  8597 8596 8601 8598
4  4414 4502 8959 8604
4  8829 8828 8928 8457
4  8956 8955 8443 8861
4  4481 4502 4514 8759
4  6666 8666 8735 8648
4  6341 8803 7031 8430
4  4484 4151 4489 8373
4  1590 1363 1238 8560
4  8149 7638 8034 8494
4  8149 8034 6345 8941
4  8443 8861 8793 8442
4  8600 8643 8444 8439
4  4414 8604 8959 8928
4  7368 7609 6907 8545
4  8912 8877 8913 8879
4  4394 4204 672 8786
4  1264 1507 1266 8939
4  4205 8877 8912 8900
4  7635 8936 8940 8833
4  285 4308 6778 8876
4  1520 1275 1280 8850
4  1294 1359 1264 8408
4  7305 8879 8877 8876
4  1294 1264 1587 8417
4  1472 7596 1436 8831
4  7653 8880 8180 8876
4  8880 8881 8878 8876
4  6126 8181 8873 8879
4  8198 8214 8597 8643
4  7789 8462 8692 8467
4  6126 8913 7305 8879
4  8964 8903 8966 8976
4  8715 8724 8723 8546
4  8964 8976 8966 8967
4  8964 8968 8930 8784
4  8964 8968 8967 8930
4  1380 1608 8589 8745
4  7945 6627 6623 8955
4  7423 8709 8592 8595
4  7810 7530 7385 8506
4  1656 1504 1676 8796
4  8592 8595 8709 8590
4  7932 8592 7423 8709
4  6706 8006 7952 8694
4  7942 8684 7830 8794
4  7888 8810 8205 8847
4  6853 6265 7688 8929
4  7932 8709 8708 8746
4  7622 8592 7932 8746
4  1501 8593 8589 8591
4  8518 8687 8977 8394
4  7150 8977 8392 8394
4  7886 7884 7888 8401
4  8064 8034 7286 8378
4  8392 8977 8395 8394
4  7361 6913 7974 8537
4  8508 8687 8509 8977
4  1385 8509 1292 8687
4  1385 1314 1292 8509
4  8955 8793 8443 8861
4  8696 8697 8478 8858
4  8959 8929 8599 8931
4  7342 7337 8205 8810
4  1624 8387 8926 8925
4  4389 4344 8557 8580
4  8383 8860 8512 8925
4  8884 8390 8858 8391
4  8383 8391 8387 8384
4  8386 8479 8688 8851
4  4259 4257 4258 8587
4  1627 8385 8387 8391
4  7694 7994 8706 8741
4  8618 8587 8578 8576
4  7301 8215 7771 8618
4  6335 6829 8294 8741
4  7301 8618 7771 8578
4  6237 6529 8606 8615
4  619 1238 1363 8842
4  4439 4256 8613 8616
4  4258 8588 8587 8616
4  8587 8576 8575 8577
4  1655 878 7450 8915
4  1452 8424 1454 8407
4  219 1238 619 8294
4  7951 8518 7586 8398
4  7700 8527 8540 8409
4  7700 8527 8409 8410
4  1452 8526 8407 8555
4  1366 8471 8236 8894
4  8205 8847 8811 8780
4  8782 8847 8719 8572
4  1565 8574 1670 8782
4  1565 8782 8572 8402
4  7886 8401 8847 8779
4  7886 8847 8203 8779
4  1432 1427 1431 8788
4  8031 8811 8829 8780
4  4374 8647 8645 8843
4  8734 8647 8845 8648
4  8845 8647 8655 8648
4  8729 8645 8655 8727
4  6666 8845 8655 8648
4  6242 8976 8200 8642
4  1433 6559 6540 8450
4  779 1390 136 6441
4  8416 8718 8869 8867
4  8970 8642 8454 8440
4  8200 8443 8316 8440
4  8486 8970 8642 8454
4  8199 8486 8903 8642
4  8903 8966 8976 8642
4  769 6751 6559 8713
4  8486 8970 8903 8642
4  8486 8898 8899 8485
4  233 1337 231 8235
4  8966 8642 8970 8446
4  8439 8441 8440 8771
4  8439 8456 8771 8455
4  7515 8677 7516 8865
4  1337 1344 231 8639
4  1476 1643 1642 8698
4  7110 8880 8881 8437
4  7110 8880 8436 8900
4  8690 8691 8677 8864
4  1506 8621 8914 8622
4  4375 8877 4205 8883
4  4187 8608 4185 8883
4  7017 7738 7473 8474
4  1476 6856 933 6857
4  6571 7679 6770 8702
4  8880 8878 8881 8883
4  8565 8916 8960 8961
4  1479 8960 8916 8961
4  8957 8560 8742 8842
4  1605 8888 8957 8562
4  1639 8569 8888 8562
4  1479 8916 1480 8961
4  6704 6673 6990 8960
4  700 1501 826 7524
4  7904 7729 8960 8961
4  7560 7729 8565 8960
4  7560 8960 8565 8563
4  8896 8895 8762 8891
4  6371 7988 8239 8944
4  7990 8556 8896 8944
4  7990 8896 8187 8944
4  8239 7988 8971 8944
4  6371 8239 8220 8944
4  7921 8440 8329 8771
4  7292 8329 8596 8771
4  8483 8774 8776 8772
4  7292 8596 8603 8772
4  4472 8970 8453 8455
4  7704 6967 7423 8595
4  7704 7932 7622 8592
4  1500 1607 1497 8590
4  7803 8486 7505 8484
4  1420 146 1417 8674
4  4229 4323 4498 8927
4  7515 6794 7547 8677
4  1459 8543 1291 8538
4  7837 8512 8859 8977
4  8541 8724 8536 8538
4  7974 8687 8518 8524
4  8846 8610 8611 8627
4  7974 8687 8508 8977
4  6913 8508 8537 8536
4  8610 8874 8823 8821
4  4272 6355 4222 8872
4  7153 7837 8859 8977
4  1313 8509 8860 8510
4  1292 8511 8508 8510
4  7627 8181 6842 8873
4  6125 7627 6842 8786
4  6843 6592 8824 8820
4  478 4222 4272 6355
4  7500 6447 6444 6064
4  6355 6843 8824 8820
4  8211 7570 8626 8627
4  7747 6842 6843 8820
4  7058 7054 8316 8443
4  8314 8059 8345 8723
4  6355 8820 8824 8872
4  1069 7450 8088 8951
4  1673 8683 1662 8445
4  6125 6842 7747 8820
4  4498 4450 4517 8625
4  8873 8912 8913 8879
4  8667 8619 8670 8668
4  8619 8672 8669 8668
4  8964 8930 8783 8784
4  7755 8671 8784 8764
4  1782 8967 1959 8930
4  8930 8784 8764 8765
4  6843 6842 6592 8820
4  6590 6592 7345 8824
4  4498 8625 8823 8825
4  4394 867 8872 8786
4  1502 1503 8619 8669
4  8671 8932 8669 8933
4  7421 7837 7946 8925
4  1583 8682 1624 8910
4  6422 8613 8165 8611
4  1585 8909 1583 8910
4  8857 8910 8856 8387
4  1624 8926 8682 8925
4  1624 8860 8387 8925
4  4321 8755 4249 8461
4  8857 8926 8910 8387
4  8053 7960 8857 8926
4  8209 8926 8904 8908
4  8857 8383 8387 8384
4  8734 8648 8666 8785
4  6237 8504 8459 8606
4  4518 8239 847 7988
4  988 709 4318 7997
4  7677 6664 7843 8735
4  4495 8730 8734 8736
4  4518 847 4349 7988
4  709 7614 4297 8551
4  988 7987 7997 8890
4  6331 6329 6452 8954
4  8734 8661 8666 8733
4  4495 8835 8734 8647
4  4477 4329 4331 8732
4  170 7808 6372 8835
4  4329 8734 8730 8733
4  8800 8663 8665 8664
4  8666 8732 8731 8733
4  6316 8800 6314 8663
4  6447 6062 6064 8801
4  550 170 4237 7808
4  4372 4479 4219 8645
4  4477 8661 4329 8732
4  8661 8800 8732 8664
4  7205 8898 8486 8485
4  179 818 246 8954
4  8737 8875 8731 8954
4  4374 4372 4325 8843
4  7228 7227 8532 8438
4  7835 8969 8084 8532
4  4372 8656 8548 8645
4  8064 6345 8034 8902
4  8486 8485 8899 8453
4  4479 4446 4376 8650
4  8561 8836 8773 8705
4  8084 8969 8898 8532
4  6648 7997 7103 8551
4  4151 8758 8757 8514
4  4250 4389 4336 8580
4  8958 8486 8898 8899
4  8165 6418 7771 8618
4  4288 4284 4463 8602
4  6914 8400 8536 8406
4  1565 1545 8574 8402
4  8810 8716 8722 8720
4  4145 4515 4143 8523
4  7602 7803 7823 8484
4  8520 8749 8817 8523
4  8757 8758 8522 8514
4  1309 8428 8805 8546
4  8345 8405 8541 8723
4  8345 8405 6903 8541
4  6372 7677 8737 8834
4  8059 8810 7342 8405
4  7342 8405 8810 8404
4  7530 8506 8503 8501
4  233 933 1476 6856
4  1946 8499 1257 8915
4  233 1337 8235 8701
4  7738 7052 7679 6856
4  8506 8499 8463 8624
4  7679 8470 6856 8702
4  6247 8462 6250 8469
4  7789 8692 8708 8467
4  7932 7864 8708 8709
4  1643 1644 1642 8974
4  933 931 1478 6857
4  7864 7789 8708 8467
4  1500 8594 8056 8591
4  4328 4331 4329 8875
4  7423 8595 7433 8865
4  8103 6103 6102 8747
4  7704 7423 8592 8595
4  1607 1497 8590 8914
4  8592 8595 8590 8591
4  8637 8539 8641 8738
4  7694 7902 7251 8706
4  7470 7760 8739 8393
4  1815 1990 1671 8886
4  1241 1671 1485 8490
4  7389 8539 7388 8738
4  7465 8525 7388 8527
4  1669 8917 8916 8919
4  6951 8489 7895 8496
4  8525 8527 8526 8555
4  8850 8525 8393 8397
4  1459 1456 8724 8538
4  8193 7337 7125 8720
4  8965 8937 8543 8538
4  8511 8400 8399 8402
4  8920 8921 8488 8919
4  1456 8544 8511 8536
4  6335 7694 6829 8741
4  6704 6702 6723 6673
4  6907 8541 6913 8538
4  1565 8574 8782 8402
4  7886 6918 8401 8779
4  882 1479 6673 8842
4  8782 8847 8572 8401
4  6704 7729 7560 8960
4  1545 8511 8573 8402
4  8403 8541 8536 8406
4  7926 7884 8401 8406
4  7946 7735 8904 8399
4  1593 1317 1592 8703
4  8573 8399 8512 8925
4  1413 1592 1444 8948
4  8511 8573 8399 8512
4  8498 8571 8802 8566
4  1545 8511 1540 8573
4  1545 1315 1640 8573
4  1484 8718 6751 8713
4  1315 8860 8925 8510
4  7940 7086 7091 8712
4  8682 8573 8399 8574
4  8196 6559 6751 8713
4  7091 7087 8416 8712
4  8638 8740 8637 8738
4  8632 8607 8431 8963
4  4433 8962 8972 8963
4  4434 8962 4418 8532
4  8958 8903 8962 8898
4  8632 8432 8431 8607
4  8431 8963 8607 8534
4  1635 1450 1261 8582
4  4501 4418 8963 8534
4  8708 8692 8464 8467
4  8597 8596 8441 8601
4  7711 8121 8122 8695
4  7821 7296 8483 8771
4  7864 8708 8709 8622
4  8600 8643 8597 8457
4  8640 8745 8748 8747
4  6797 6577 8695 8582
4  8600 8597 8599 8457
4  4338 8816 8775 8815
4  6706 8945 6077 8694
4  8198 8643 8597 8441
4  4328 876 4331 8875
4  1427 769 1024 6559
4  1433 1427 6559 8450
4  8196 6615 6559 8711
4  8405 8724 8723 8716
4  7337 8205 8810 8811
4  1472 8831 1489 8789
4  776 8216 1436 7596
4  7125 7337 8810 8720
4  8059 8810 8405 8722
4  7125 8810 8059 8722
4  6663 8834 8728 8845
4  8640 8649 8460 8897
4  1501 7524 8593 8591
4  8586 8692 8695 8583
4  7232 6928 8728 8553
4  8656 8552 8548 8727
4  8121 8695 8460 8806
4  7232 8844 7225 8553
4  1609 1635 1263 8586
4  1348 1249 1594 8697
4  7969 7856 8072 8390
4  4297 663 8548 8550
4  1627 1651 8385 8391
4  6822 8087 8552 8550
4  7471 8072 7872 8479
4  7225 8844 8548 8553
4  4324 8548 7225 8844
4  1644 8448 8974 8396
4  1348 1596 1644 8885
4  1249 1246 1594 8697
4  6447 8800 6062 8801
4  6813 8087 6822 8550
4  1786 1672 1676 8956
4  8930 8671 8669 8672
4  6820 7225 6822 8553
4  8856 8909 8910 8911
4  8783 8634 8633 8629
4  4325 4324 578 8844
4  8845 8655 8647 8727
4  6918 6920 8209 8778
4  7808 8728 8835 8843
4  8308 8552 8729 8727
4  7421 8053 7420 8384
4  1534 1570 8854 8862
4  1569 1630 8388 8808
4  4325 578 7232 8844
4  1318 1444 1592 8768
4  8477 8470 8472 8473
4  7017 7738 8474 8471
4  1366 8476 1615 8471
4  7021 8973 8470 8702
4  6856 8470 6857 8472
4  6856 8470 8472 8702
4  6857 8472 8470 8471
4  7810 7809 7908 8628
4  8698 8448 8700 8953
4  7537 8702 8699 8953
4  1337 231 8235 8639
4  6997 6319 7061 7234
4  4308 8878 6778 8876
4  6058 8235 8175 8639
4  8702 8699 8698 8701
4  7334 7765 8660 8761
4  4218 8922 8660 8652
4  7110 8180 7653 8880
4  4380 8373 4489 8375
4  8373 8923 8374 8514
4  6778 8881 7653 8876
4  7859 8522 8758 8514
4  6842 8181 7440 8873
4  8846 8610 8874 8614
4  8516 8757 8522 8514
4  7549 7110 8183 8912
4  8373 8380 8374 8376
4  4151 4489 8373 8514
4  8545 8965 8546 8538
4  6903 6914 8541 8406
4  4279 8730 4238 8837
4  6903 7884 6914 8406
4  4329 4238 4279 8730
4  6372 7591 7677 8834
4  7951 8412 8685 8524
4  7677 6663 6664 8845
4  1291 8544 8536 8538
4  4446 4495 8734 8647
4  1528 8965 1459 8724
4  8403 8541 8405 8724
4  8214 8599 8597 8457
4  4462 8600 8602 8604
4  6788 7806 8458 8927
4  6873 8214 8599 8598
4  4508 4249 4321 8755
4  6873 7292 8596 8603
4  8749 8581 8579 8580
4  4514 8817 8749 8523
4  6788 7344 6235 8458
4  8557 8558 8559 8580
4  478 8025 4222 6355
4  4222 8224 1018 8825
4  6741 6788 6792 8504
4  8751 8749 8559 8581
4  8520 8749 8751 8750
4  7806 7345 7344 8458
4  8757 8522 8521 8523
4  7806 7883 7344 7345
4  7648 7464 6527 8605
4  8579 8580 8578 8815
4  7123 6599 6791 7464
4  748 4518 6603 8239
4  7380 8299 8818 8817
4  7630 8494 7638 8653
4  1821 8917 1669 8919
4  1479 1480 6990 8961
4  1824 6781 6780 8918
4  6064 6454 8731 8875
4  6956 7895 8839 8496
4  6873 8818 6874 8603
4  6316 6318 6956 8839
4  1824 8725 6781 8918
4  1786 8967 8966 8956
4  7497 6781 6809 8918
4  8200 8642 8976 8443
4  6956 7895 7899 8839
4  7385 6246 6247 8469
4  8006 7711 8122 8695
4  7793 8122 7789 8692
4  8121 7865 8122 8806
4  8976 8446 8956 8443
4  7610 7611 8048 8897
4  1685 8435 8951 8434
4  8506 8765 8624 8623
4  6262 8829 8599 8457
4  1772 1777 1953 8783
4  7430 8643 8781 8457
4  7382 7381 7755 8764
4  7430 8031 8829 8780
4  8088 8188 7852 8434
4  6262 8599 8829 8928
4  7430 8457 8781 8780
4  8600 8444 8643 8457
4  700 1501 7524 8593
4  8827 8829 8828 8928
4  1450 74 811 6797
4  6529 8184 8215 8617
4  4344 4249 4438 8755
4  4503 4192 4362 8752
4  4514 8749 4515 8523
4  4515 8751 4143 8523
4  467 6788 6741 8754
4  4145 8516 4147 8757
4  7376 7859 8814 8522
4  8814 8514 8513 8515
4  8520 8749 8579 8817
4  4508 4438 4249 8755
4  6853 8521 8929 8758
4  4513 8751 8749 8559
4  7376 8520 8814 8750
4  8751 8750 8752 8848
4  8556 8559 8558 8581
4  7990 8896 8556 8581
4  7990 7681 8896 8581
4  7683 8849 8896 8750
4  8971 8556 8895 8559
4  4349 4503 4362 8895
4  4364 8971 4362 8559
4  8749 8559 8581 8580
4  7648 7826 8556 8558
4  7174 6603 7123 7647
4  4518 8971 7988 8895
4  997 992 4508 6599
4  8971 8557 8556 8559
4  4506 8971 4364 8557
4  4389 8557 4364 8559
4  8086 8542 8087 8551
4  8692 8464 8462 8585
4  8586 8464 8692 8585
4  6842 7440 6592 8821
4  7748 6355 7747 6843
4  8626 8846 8610 8821
4  4203 4204 4394 8874
4  1263 8707 8586 8464
4  8693 8462 8463 8585
4  1258 1412 8464 8465
4  7134 7653 8180 8876
4  1258 8464 8463 8465
4  6737 6738 6575 7411
4  4204 8913 6126 8786
4  7305 8180 7625 8879
4  6126 7625 8181 8879
4  7381 8764 8468 8668
4  1289 1258 1257 8463
4  6714 8462 8467 8468
4  6250 8462 8468 8469
4  6126 8181 7627 8873
4  1628 8468 1543 8465
4  4506 992 6603 8507
4  1261 8463 8464 8585
4  4506 6603 8975 8507
4  4250 4344 4389 8580
4  6235 8504 8458 8459
4  8783 8633 8784 8629
4  7945 8968 8671 8932
4  7647 7826 8220 8556
4  1782 8964 8967 8930
4  7945 8955 8968 8932
4  6791 6530 7464 8505
4  4506 4364 4438 8557
4  1445 74 1450 8582
4  8976 8956 8967 8955
4  8966 8967 8976 8956
4  700 1380 1501 8593
4  1786 1782 8966 8967
4  1786 1676 8967 8956
4  8006 8694 8695 8583
4  1504 8669 1676 8796
4  4215 4489 4512 8513
4  6559 8450 8717 8711
4  6797 6577 6798 8695
4  6540 8451 8450 8564
4  4372 4324 4325 8844
4  4374 4237 4495 8835
4  4374 4479 4372 8645
4  890 1468 1433 8451
4  6928 8308 6665 8727
4  4374 4446 4479 8647
4  7936 7091 8420 8791
4  7718 8791 7936 8792
4  1427 8450 1431 8788
4  8414 8517 8542 8549
4  8607 8534 8969 8535
4  8969 8535 8534 8532
4  4289 8534 8529 8531
4  1953 1502 1628 8672
4  6737 7611 7610 8897
4  1946 1768 1289 8499
4  7861 8871 8852 8851
4  7912 8432 8632 8607
4  8083 7912 8632 8607
4  8088 6155 8188 7491
4  7908 7809 7912 8628
4  1647 8901 8381 8812
4  7943 7960 8795 8911
4  1655 1946 8915 8951
4  8881 8530 8438 8882
4  7979 8670 7812 8933
4  7809 8108 7912 8632
4  26 7918 7255 8425
4  1585 1578 1617 8856
4  1585 8856 1617 8933
4  8258 7908 7912 8432
4  7473 7968 7471 8477
4  7968 8447 8696 8973
4  1585 1656 8909 8933
4  1515 8448 8396 8397
4  7969 6046 7153 8392
4  7979 8671 8670 8933
4  1504 1503 8669 8933
4  7441 7960 7943 8911
4  1617 8670 1503 8933
4  8856 8870 8853 8911
4  1656 1504 8796 8933
4  8691 8854 8871 8862
4  1959 8669 1502 8672
4  7251 8706 8704 8769
4  8482 8452 8483 8776
4  8475 8851 8852 8689
4  7823 8483 8482 8484
4  4404 8480 8452 8453
4  1245 1246 1249 8688
4  7296 8482 8483 8774
4  7629 6890 7628 8651
4  7991 8893 8849 8760
4  8600 8597 8439 8601
4  4503 8762 8895 8891
4  4143 8751 4192 8848
4  4190 4143 4192 8848
4  8169 7376 7857 8814
4  4468 4463 8439 8601
4  8890 8414 8542 8551
4  4318 4466 4488 8414
4  7835 8535 8969 8532
4  4432 8534 4289 8531
4  4430 4434 4432 8899
4  4430 4432 4456 8533
4  1513 8519 8526 8397
4  7702 7190 8298 8934
4  1290 8686 8424 8524
4  4418 8962 8963 8534
4  8973 8698 8702 8953
4  8083 8969 7835 8535
4  7586 6046 7760 8393
4  8631 8431 8432 8426
4  8632 8432 8631 8431
4  7918 8090 8433 8426
4  8412 8424 8524 8398
4  1459 1291 1456 8538
4  8630 8634 8631 8628
4  8395 8509 8687 8977
4  7951 7150 7586 8518
4  8435 8634 8503 8628
4  8435 8432 8631 8628
4  1768 8435 8631 8634
4  4514 4515 4145 8523
4  8651 8729 8644 8645
4  6888 8654 6884 8655
4  7857 7859 7753 8814
4  8814 8516 8522 8514
4  4160 8653 8650 8495
4  4481 4514 4145 8757
4  8316 7054 8198 8643
4  6890 6952 8654 8653
4  4221 8652 8644 8646
4  8650 8654 8653 8646
4  8446 8443 8440 8442
4  8084 6244 7205 8898
4  7803 7505 7823 8484
4  6890 8924 7630 8653
4  8199 7921 7505 8486
4  7255 7816 8535 8425
4  6884 8654 6952 8496
4  4249 8547 4435 8461
4  4435 8679 8756 8547
4  8755 8606 8547 8461
4  4435 8756 8754 8461
4  4344 8755 8557 8605
4  6242 6623 8200 8976
4  7205 8199 7505 8486
4  4424 8958 8899 8453
4  1777 8972 8964 8783
4  6530 8505 8504 8606
4  8507 8755 8505 8605
4  8200 6623 7058 8443
4  8199 8200 7921 8642
4  8755 8606 8605 8547
4  8505 8605 8755 8606
4  8199 6242 8200 8642
4  1569 1570 1322 8855
4  1627 1630 1601 8387
4  1627 1601 1624 8387
4  8557 8558 8580 8575
4  6527 8505 6530 8606
4  7946 8904 8208 8925
4  7150 8518 8977 8394
4  8424 8526 8519 8398
4  1617 8856 1578 8853
4  8682 8904 8399 8925
4  7563 8310 7445 8807
4  8413 8939 8934 8411
4  1613 8687 1290 8524
4  1385 8519 8395 8687
4  8541 8546 8724 8538
4  7812 8670 8911 8933
4  8395 8687 8519 8394
4  1583 8910 8909 8908
4  8053 8208 7960 8926
4  7156 7974 8508 8977
4  1545 8403 8511 8402
4  1585 1583 1601 8910
4  1613 8424 8519 8524
4  8768 8949 8948 8704
4  8939 8832 8833 8411
4  7342 7888 7884 8404
4  1385 1613 8519 8687
4  6452 6329 6455 8954
4  7402 6331 6452 8954
4  7951 7974 8518 8524
4  1604 1280 8638 8850
4  1604 8448 1515 8850
4  1515 8396 1513 8397
4  8448 8739 8953 8393
4  4389 8557 8559 8580
4  8587 8588 8580 8575
4  7500 8800 6447 8801
4  4506 4438 8507 8557
4  8661 8800 8666 8732
4  7648 7721 8558 8605
4  8557 8605 8558 8575
4  1035 1009 1824 6781
4  8975 8558 8557 8605
4  7721 8605 8606 8575
4  1479 6990 8960 8961
4  4344 8755 4438 8557
4  1344 8175 231 8639
4  8565 8888 8957 8916
4  8556 8557 8975 8558
4  1670 1545 1640 8574
4  1489 1311 1356 8798
4  6615 6540 8711 8564
4  1432 1552 1294 8421
4  1476 933 1478 6857
4  7547 8677 8871 8840
4  7052 6770 7679 6856
4  7433 8595 8943 8865
4  8871 8862 8854 8855
4  7516 8865 8677 8840
4  8330 7498 8216 8641
4  7516 7170 8865 8621
4  7547 8871 7546 8840
4  8330 7499 7498 8641
4  8849 8760 8415 8515
4  8330 7521 7517 8216
4  4511 4190 8415 8515
4  8216 8831 8790 8641
4  7331 8893 7991 8760
4  7991 8849 8169 8760
4  4488 8890 8414 8415
4  8814 8760 8849 8515
4  8169 8849 8814 8760
4  7334 8660 8659 8658
4  4147 8514 8516 8515
4  8923 8922 8924 8660
4  8651 8644 8659 8652
4  7718 8792 7597 8449
4  4380 8922 4410 8753
4  7629 8660 8924 8652
4  4430 4404 4424 8453
4  8644 8656 8659 8657
4  8644 8659 8652 8657
4  6238 6242 6244 8903
4  4218 8644 4221 8652
4  6244 8199 7205 8898
4  4501 8630 8431 8963
4  8946 8836 8947 8805
4  8782 8847 8780 8826
4  6242 7754 6623 8976
4  8972 8903 8952 8962
4  8574 8401 8782 8402
4  6636 8271 7751 8379
4  7899 8839 8920 8919
4  7609 8545 8940 8805
4  1990 8490 8886 8887
4  8965 8543 8937 8938
4  8545 8938 8937 8940
4  1309 1402 1528 8805
4  1313 8860 1315 8510
4  1413 1557 8946 8935
4  8545 8938 8940 8805
4  1564 8948 8946 8705
4  6636 8374 8379 8376
4  7629 7630 6890 8924
4  4489 8513 8922 8375
4  4479 4221 4219 8644
4  6888 6890 6884 8654
4  4250 8587 8588 8580
4  7464 8505 6527 8605
4  4508 4321 8505 8755
4  4508 8507 4438 8755
4  8 4289 6323 8528
4  7812 8911 7943 8933
4  7238 7228 7803 8485
4  8625 8459 8679 8627
4  7228 8532 8898 8485
4  8682 8904 8684 8681
4  4481 4480 4414 8959
4  7960 8208 8209 8926
4  8053 8926 8857 8383
4  7441 8870 8857 8911
4  7859 8814 8522 8514
4  8271 6262 8031 8829
4  7125 7337 7342 8810
4  8857 8856 8870 8389
4  233 1476 1337 8701
4  4511 4512 4147 8515
4  8386 8389 8387 8384
4  7420 8053 8389 8384
4  7529 7859 6853 8758
4  4430 4456 4185 8882
4  8845 8727 8647 8843
4  7754 7755 8968 8784
4  6665 6888 6666 8655
4  7382 7755 8784 8764
4  4372 4219 8656 8645
4  170 491 4238 6372
4  550 4237 4325 8843
4  4372 8645 8844 8843
4  1777 1953 8783 8930
4  7382 8764 8784 8629
4  7754 8968 8978 8784
4  4374 4495 4446 8647
4  8783 8765 8634 8629
4  8386 8854 8807 8851
4  7677 6664 8735 8845
4  6820 6822 6928 8553
4  8220 7990 7915 8944
4  4344 8588 8557 8580
4  8895 8559 8581 8752
4  1245 8688 8691 8854
4  8807 8871 8854 8855
4  8871 8840 8862 8855
4  4190 4147 4143 8516
4  1569 8388 8854 8808
4  4362 4192 4513 8559
4  8452 8454 8453 8484
4  1643 8472 8974 8698
4  8183 8611 8912 8900
4  7960 8795 8911 8908
4  8691 8871 8854 8851
4  1245 1569 8688 8854
4  1534 8854 8691 8862
4  4171 4256 4257 8678
4  6627 7058 8955 8793
4  4424 4472 8958 8453
4  7852 8258 8090 8434
4  8502 8432 8435 8628
4  8435 8631 8432 8426
4  1685 8435 1946 8951
4  4501 8963 8431 8534
4  8184 8165 8215 8617
4  1607 1506 1497 8914
4  6476 6857 7738 8471
4  7738 6857 8470 8471
4  1768 1289 8499 8634
4  820 8136 6947 8675
4  1478 6857 931 8471
4  4517 8625 4450 8610
4  4439 4256 4402 8613
4  4203 8874 8610 8614
4  4203 8610 4419 8614
4  1245 1334 1629 8689
4  8454 8440 8771 8455
4  1657 1570 8862 8906
4  7505 8454 8483 8484
4  7845 8774 7667 8603
4  8313 8198 8597 8441
4  826 7524 1501 8591
4  1420 8674 1536 8864
4  6967 7433 7423 8595
4  1417 146 428 6753
4  8452 8454 8483 8771
4  7738 6856 7679 8470
4  8316 8643 8198 8441
4  1344 8700 8638 8639
4  7499 8641 8636 8635
4  231 8175 8235 8639
4  8638 8850 8740 8738
4  1644 8974 8885 8396
4  1476 6856 8702 8701
4  7021 7538 7968 8973
4  8477 8973 8478 8472
4  7679 7537 7021 8702
4  1565 1545 1670 8574
4  6568 8953 8699 8739
4  1513 8396 8519 8397
4  1238 8842 8294 8744
4  8636 8739 8638 8738
4  1317 8769 8703 8741
4  7994 6717 6703 8744
4  1545 1456 1540 8511
4  8638 8739 8850 8738
4  8831 8641 8637 8539
4  6566 8175 8174 8635
4  8636 8641 8637 8635
4  8121 7932 7865 8746
4  6566 8174 7499 8635
4  8967 8955 8956 8796
4  8909 8797 8795 8796
4  8976 8956 8955 8443
4  1574 1380 1377 8748
4  987 1377 6270 6103
4  1672 8956 8797 8796
4  1574 1609 1608 8745
4  7622 7932 8121 8746
4  6627 8932 7942 8794
4  7058 6623 8955 8443
4  915 494 452 8897
4  1245 8691 8688 8689
4  7058 8443 8955 8793
4  7040 7433 6967 8943
4  1792 8956 8446 8861
4  8797 8793 8861 8683
4  1672 1676 8956 8796
4  8970 8446 8440 8455
4  7228 8084 8898 8532
4  1653 1263 1412 8707
4  7810 8503 8623 8629
4  8962 8898 8969 8532
4  7381 6721 8667 8468
4  7839 8508 8399 8512
4  7755 8671 8764 8668
4  1959 1502 1953 8672
4  1506 1412 1657 8621
4  7945 6627 8955 8932
4  1772 1953 1289 8765
4  4418 8962 8534 8532
4  1617 1322 1323 8853
4  1792 1662 1672 8861
4  4402 8487 8608 8613
4  7861 7872 7563 8851
4  4379 8661 4477 8664
4  6314 8666 8800 8731
4  1824 6781 8725 8726
4  7830 8209 6920 8684
4  6390 8978 8633 8784
4  1502 1504 1503 8669
4  8310 7441 7445 8870
4  1821 8921 8665 8917
4  6316 8725 8800 8663
4  1959 8930 8669 8672
4  7945 7943 6627 8932
4  7755 7945 8968 8671
4  1824 1821 8665 8917
4  7895 8920 7899 8839
4  7899 8725 8839 8919
4  8665 8921 8725 8917
4  8316 7054 8643 8442
4  6795 7471 7861 8475
4  7812 7445 7441 8870
4  7058 7054 8443 8793
4  1782 8964 8966 8967
4  8903 8970 8966 8642
4  8966 8956 8976 8446
4  8200 8976 6623 8443
4  4222 6355 8025 8224
4  4222 8823 4517 8872
4  1644 8885 1386 8396
4  1275 8740 8850 8526
4  7748 7492 8025 7780
4  8739 8525 8850 8738
4  8637 8740 8539 8738
4  1644 1642 8974 8448
4  8448 8850 8393 8397
4  8974 8448 8698 8953
4  8 4289 612 6323
4  4434 4433 4418 8962
4  8699 8636 8700 8639
4  6238 8978 6242 8903
4  233 8235 6856 8701
4  6238 6244 8952 8903
4  8964 8978 8968 8784
4  6390 8978 6238 8633
4  6238 8978 8952 8633
4  8407 8527 8540 8555
4  550 4325 7232 8843
4  7700 7388 8540 8527
4  8462 8464 8467 8465
4  7979 7945 8671 8932
4  7945 6623 8968 8955
4  8967 8930 8968 8671
4  7754 6623 8976 8968
4  478 390 4222 8025
4  1959 1676 1504 8669
4  4229 738 4323 8927
4  738 7806 6788 8927
4  6571 8235 6058 8699
4  8119 6270 7524 8593
4  8797 8955 8793 8794
4  1656 1602 8909 8797
4  8119 7622 6102 8747
4  7704 7622 8119 8592
4  1380 8589 1501 8593
4  8592 8709 8589 8590
4  8857 8870 8856 8911
4  8119 6102 6270 8747
4  1676 8967 8956 8796
4  8909 8795 8797 8683
4  8964 8976 8967 8968
4  1344 513 8175 8635
4  6242 8978 7754 8976
4  8972 8964 8978 8903
4  8199 8903 6242 8642
4  8688 8691 8851 8689
4  7563 8807 7546 8871
4  1389 1265 1444 8866
4  8196 7599 7086 6751
4  8853 8841 8807 8855
4  7170 8914 8865 8621
4  7547 8677 8852 8871
4  1294 1552 1356 8422
4  1294 8422 8408 8417
4  8450 8451 8449 8564
4  8852 8677 8691 8871
4  6415 6441 6203 8770
4  7806 7345 8458 8824
4  7748 8025 6355 6843
4  6355 7747 6843 8820
4  285 6778 7305 8876
4  7549 8180 8880 8879
4  4211 4205 8877 8913
4  4222 8824 8823 8872
4  8873 8913 8874 8786
4  8636 8635 8638 8639
4  8690 8852 8691 8689
4  8676 8690 8852 8677
4  7515 8673 7553 8677
4  7748 7780 8025 6843
4  8224 7883 7806 6590
4  6794 8852 7547 8677
4  7516 8677 7547 8840
4  1643 8478 8974 8472
4  7780 7883 8224 6590
4  6125 8820 8872 8786
4  4222 4229 4517 8823
4  4222 6355 8224 8824
4  8677 8865 8862 8840
4  6369 7988 7915 8892
4  4479 8647 4446 8648
4  8896 8752 8581 8750
4  4518 4349 4362 8895
4  7376 8814 8849 8750
4  8656 8548 8645 8727
4  6369 7987 7988 8892
4  4372 8548 8844 8645
4  7232 8728 7808 8843
4  8308 7327 8729 8552
4  8647 8655 8648 8646
4  4479 8644 4219 8645
4  6125 6842 8820 8786
4  4219 8644 8656 8645
4  8656 8729 8552 8727
4  8196 8711 6559 8713
4  8972 8978 8952 8903
4  6238 8952 8978 8903
4  7809 8952 8108 8632
4  8476 8676 8690 8852
4  6559 8711 8717 8713
4  1472 1431 1468 8789
4  7809 6238 8952 8633
4  8084 8952 8898 8969
4  1265 1264 1266 8423
4  8084 8108 8952 8969
4  8108 8632 8952 8969
4  1318 8768 1592 8769
4  6237 8606 8459 8615
4  7500 8731 8800 8801
4  6372 8835 8834 8837
4  8625 8458 8927 8459
4  7828 8626 7570 8459
4  6237 8504 6235 8459
4  8625 8626 8459 8627
4  4435 4244 4528 8679
4  8661 8666 8800 8663
4  7904 7497 7896 8961
4  6315 8800 8725 8726
4  6315 6316 6809 8725
4  6316 6314 6318 8663
4  8504 8756 8459 8606
4  1824 8665 8725 8917
4  8507 8557 8755 8605
4  1592 8768 8948 8704
4  8661 8666 8662 8785
4  8666 8648 8942 8785
4  219 1238 8294 8741
4  1587 8423 8866 8867
4  6666 8735 8845 8648
4  1402 1413 1557 8946
4  997 4321 6741 8505
4  8735 8734 8835 8845
4  1592 8704 8703 8769
4  1593 1238 1317 8743
4  7558 8742 8813 8743
4  8650 8662 8942 8785
4  7368 7732 7609 8940
4  7902 7398 7900 8705
4  4379 4524 8661 8785
4  8650 8648 8655 8646
4  1489 8763 8831 8798
4  1656 1617 1504 8933
4  1617 1503 1504 8933
4  7934 8554 8540 8798
4  8083 7835 7816 8535
4  7388 8540 8527 8555
4  1263 1258 1412 8464
4  8407 8526 8527 8555
4  7754 7755 7945 8968
4  7381 7979 7755 8668
4  7385 7530 6246 8506
4  1311 8637 8740 8798
4  6250 7381 8764 8468
4  7813 7812 7979 8670
4  7813 7812 8670 8870
4  8670 8870 8853 8841
4  1311 8637 1280 8740
4  7979 7812 7943 8933
4  8554 8422 8421 8418
4  7189 8298 7190 8868
4  1275 8526 1452 8555
4  7088 8420 8416 8418
4  8850 8740 8525 8526
4  7702 8298 7635 8934
4  7902 7900 7251 8704
4  7251 7252 7650 8704
4  7228 8084 7205 8898
4  7900 8009 7732 8947
4  8083 8632 8108 8969
4  8630 8632 8631 8431
4  1389 1444 1318 8768
4  7905 8607 8425 8433
4  8632 8607 8963 8969
4  8545 8965 8937 8938
4  4264 4418 4501 8534
4  8852 8871 8691 8851
4  1587 1264 1265 8423
4  7991 8086 7992 8893
4  8087 8542 8552 8550
4  8807 8854 8871 8851
4  4297 4350 8414 8548
4  7546 8871 8807 8841
4  4374 8835 8647 8843
4  1322 8855 8853 8808
4  6888 7628 6890 8651
4  8310 8870 8807 8389
4  8548 8553 8552 8550
4  4215 4489 8513 8922
4  4484 4489 4380 8373
4  1569 8388 8688 8854
4  4219 8656 8644 8657
4  7546 8807 7445 8841
4  4372 4350 4324 8548
4  8728 8844 8553 8727
4  1543 8619 1323 8620
4  8853 8807 8870 8808
4  1569 8854 1570 8855
4  7286 8034 7638 8494
4  7327 7334 7628 8659
4  1585 8909 8856 8933
4  4374 8645 4372 8843
4  4218 8644 8652 8657
4  4479 4221 8644 8646
4  8856 8387 8388 8389
4  7441 8857 8870 8389
4  1322 8906 8853 8855
4  7441 8857 7960 8911
4  1601 8856 8910 8387
4  7872 7420 8310 8386
4  1630 8856 1601 8387
4  1630 1578 1601 8856
4  1246 8388 8385 8688
4  6951 7404 7895 8489
4  1585 8856 8909 8910
4  7895 7897 8920 8489
4  1390 1265 1389 8866
4  8209 8904 8684 8908
4  1585 1601 8856 8910
4  4446 8647 8734 8648
4  8734 8730 8733 8736
4  7843 8666 8731 8733
4  7814 7765 7753 8923
4  7677 7843 8737 8736
4  1662 8797 8861 8683
4  8492 8494 8653 8495
4  1792 1672 1786 8956
4  8778 8684 8683 8445
4  8064 6636 7751 8377
4  7054 8793 6920 8445
4  4466 4218 8517 8657
4  7752 7753 7529 8374
4  8656 8645 8729 8727
4  8316 8443 7054 8442
4  1798 8445 8861 8442
4  7814 7753 8374 8923
4  6636 7529 7688 8379
4  7529 8929 7688 8379
4  6636 7688 8271 8379
4  4481 4151 4480 8758
4  8680 8781 8778 8445
4  8313 8329 8198 8441
4  7812 7441 7943 8911
4  7054 8781 8444 8445
4  7381 7755 8764 8668
4  4288 4468 4440 8456
4  6623 8976 8968 8955
4  8452 8454 8771 8455
4  8201 8299 6874 8818
4  8198 7430 8214 8643
4  6265 8818 6873 8931
4  8214 8597 8643 8457
4  7292 8329 8313 8596
4  6873 6874 7292 8603
4  8313 8441 8597 8596
4  7054 7430 8643 8781
4  7497 6808 6809 6781
4  1480 6780 8961 8918
4  1480 8916 8917 8918
4  8916 8918 8889 8919
4  1479 8960 8957 8916
4  7899 6809 8725 8918
4  8725 8921 8839 8919
4  776 869 1436 8216
4  1310 1436 869 8174
4  7517 7936 7933 8787
4  7650 8949 8767 8704
4  7470 8739 7389 8738
4  8636 8638 8637 8738
4  7933 8008 8790 8539
4  1356 8422 8763 8798
4  1310 8638 8637 8635
4  7933 8539 8790 8798
4  7933 7934 8008 8539
4  7648 8975 7464 8605
4  6599 8975 8507 8505
4  6599 6791 7464 8505
4  8504 8606 8505 8461
4  6237 6530 8504 8606
4  8735 8666 8734 8648
4  7677 8735 8834 8845
4  1420 820 146 6947
4  931 720 1366 8236
4  7841 7843 8735 8666
4  7841 8735 6666 8666
4  7498 7499 6566 8174
4  6665 6666 8845 8655
4  6928 8553 8308 8727
4  8224 6843 6590 8824
4  513 1310 869 8174
4  6565 6058 6566 8175
4  1675 8782 1674 8826
4  7806 6590 7345 8824
4  8330 8790 8008 8641
4  8458 8825 8824 8822
4  4404 4171 4170 8480
4  7238 7803 7602 8481
4  8898 8532 8899 8485
4  4394 4517 8874 8872
4  8211 8626 7828 8822
4  4469 4424 4472 8958
4  8625 8459 8626 8822
4  4469 4434 4424 8958
4  7828 8626 8459 8822
4  7602 8481 7803 8484
4  285 7305 4211 8877
4  7345 8824 6592 8822
4  7861 8475 7471 8851
4  6794 8676 8852 8677
4  6795 6794 8676 8852
4  8690 8864 8677 8675
4  9 6319 6778 8878
4  8690 8691 8852 8677
4  8310 8870 7445 8807
4  8688 8691 8854 8851
4  8677 8862 8871 8840
4  6918 8209 8904 8778
4  6315 8725 6809 8726
4  8650 8662 8839 8942
4  6884 6890 6952 8654
4  4380 4215 4410 8922
4  8682 8926 8904 8925
4  7421 7946 8208 8925
4  1624 1640 1315 8682
4  7334 7765 7629 8660
4  1241 1485 8571 8490
4  8193 8803 6345 8902
4  8920 8488 8886 8919
4  8682 8399 8904 8574
4  7735 8904 8399 8401
4  8661 8663 8800 8664
4  8193 8809 8812 8377
4  8271 8830 8379 8838
4  4438 8755 8507 8557
4  7946 8399 8904 8925
4  7990 7826 7681 8581
4  8904 8574 8778 8681
4  1663 8682 1583 8683
4  8890 8893 8542 8415
4  988 4319 968 7987
4  7960 8209 8795 8908
4  4318 4488 4319 8890
4  7988 7915 8892 8944
4  7368 8940 8937 8833
4  1358 8407 8422 8555
4  8835 8728 8834 8845
4  4374 4325 4237 8843
4  4237 4238 4495 8835
4  7190 8413 8868 8934
4  6665 8845 8728 8727
4  6664 6663 6665 8845
4  4495 8835 4238 8736
4  550 4325 578 7232
4  7702 8413 8934 8411
4  550 7808 4237 8843
4  4325 8844 7232 8843
4  6822 7327 8308 8552
4  1264 8408 8423 8417
4  7190 7088 8416 8418
4  4463 4284 4462 8602
4  6873 8313 8214 8598
4  7297 8579 8581 8577
4  4515 4513 8751 8749
4  8964 8978 8903 8976
4  4389 8559 4513 8580
4  4301 4264 4501 8431
4  7031 8314 8777 8722
4  8607 8963 8969 8534
4  1402 8938 8965 8805
4  7396 8098 8805 8804
4  8714 8429 8715 8428
4  1482 8799 8427 8430
4  7830 6920 8793 8684
4  7810 7908 7530 8503
4  8188 7530 7908 8502
4  6627 7830 7058 8793
4  8680 8683 8778 8681
4  7031 8193 7125 8722
4  1663 1640 8682 8681
4  7430 8829 8457 8780
4  1387 1313 1314 8509
4  8682 8683 8684 8908
4  1663 8682 8683 8681
4  1503 1323 8619 8670
4  1617 1503 8670 8853
4  8174 8831 8216 8641
4  1543 8468 8619 8466
4  8968 8930 8784 8671
4  7979 8671 7755 8668
4  1502 8619 1543 8672
4  1436 869 8174 8216
4  8670 8669 8671 8668
4  6721 8667 8468 8466
4  8175 8635 8636 8639
4  6714 6721 8468 8466
4  8952 8630 8632 8633
4  7517 8216 7596 8790
4  8976 8967 8968 8955
4  7905 8432 7912 8607
4  7054 8445 8444 8442
4  7054 6920 7430 8781
4  8198 7054 7430 8643
4  8203 8781 8778 8779
4  1673 8680 8683 8445
4  7942 7960 8209 8795
4  1265 8866 8423 8950
4  7189 8868 8770 8949
4  1479 1605 1669 8916
4  7252 8936 8949 8704
4  1390 8866 1389 8766
4  1479 1669 1480 8916
4  8888 8886 8889 8887
4  7899 7497 6809 8918
4  8492 8494 8495 8491
4  1444 8866 1265 8950
4  8502 8435 8503 8628
4  1266 8939 1557 8935
4  7398 8947 7900 8705
4  6599 7464 8975 8505
4  6603 8556 8971 8975
4  4506 8975 8971 8557
4  8059 7342 7884 8405
4  6603 7647 8556 8975
4  1675 1565 8782 8572
4  8098 8545 7609 8805
4  7361 6907 6913 8537
4  1648 1675 1726 8719
4  7559 6865 7396 8567
4  1485 1990 1665 8887
4  1670 1673 1674 8680
4  7721 8606 6529 8576
4  1452 1454 1358 8407
4  6599 6741 6791 8505
4  4506 8507 8975 8557
4  1552 8763 8421 8788
4  8424 8407 8526 8527
4  1513 1385 1613 8519
4  7648 8556 8975 8558
4  8412 8686 8424 8411
4  7153 8392 7150 8977
4  7813 7445 8870 8841
4  1798 1662 8861 8445
4  8795 8796 8932 8933
4  8385 8387 8391 8384
4  8053 8857 7441 8389
4  1630 1322 1578 8808
4  1617 1578 1322 8853
4  4272 867 6355 8872
4  8518 8519 8687 8394
4  7969 7153 8859 8392
4  6422 8436 8487 8613
4  8165 8613 8678 8617
4  8626 8610 8846 8627
4  6125 7627 7747 6842
4  4394 672 867 8786
4  4307 4308 4456 8878
4  8211 8626 8846 8627
4  7570 8615 8459 8627
4  8183 8210 8912 8611
4  8183 7110 8436 8900
4  6822 8087 7327 8552
4  4187 8900 8614 8609
4  4203 4517 8610 8874
4  7287 7591 7808 6663
4  8210 7570 8211 8627
4  8846 8610 8614 8611
4  1587 8423 1265 8866
4  6416 6441 8770 8869
4  7702 8413 7190 8934
4  4229 4498 4517 8823
4  8740 8422 8540 8555
4  7187 7650 8770 8767
4  6751 8712 8718 8869
4  136 1390 1389 8766
4  1294 1587 8419 8417
4  8416 8419 8423 8417
4  8422 8409 8408 8417
4  7780 6590 8224 6843
4  8224 6590 7806 8824
4  8025 8224 6355 6843
4  478 909 390 8025
4  8423 8939 8950 8934
4  4222 390 1018 8224
4  8937 8940 8938 8833
4  8863 8862 8865 8914
4  7690 7517 7521 7596
4  1472 1489 1431 8789
4  252 8792 8789 8449
4  1310 1280 1311 8637
4  1607 8709 8707 8622
4  1661 8862 8863 8914
4  7423 7170 8709 8865
4  8420 8717 8421 8788
4  1472 7596 8831 8789
4  7423 7170 7864 8709
4  7170 8709 8914 8622
4  1534 8691 1536 8862
4  7385 6247 6250 8469
4  7423 8709 8595 8865
4  8673 8677 8943 8863
4  6967 8595 8056 8943
4  1569 1534 1570 8854
4  7040 6750 6516 6753
4  8674 8943 8594 8863
4  7839 6914 7926 8400
4  4229 4498 8823 8825
4  1500 1501 1607 8590
4  6753 8674 8673 8943
4  7515 7040 7553 8673
4  7694 7994 7902 8706
4  1238 8560 1363 8842
4  738 7806 8927 8825
4  7994 8742 8741 8744
4  8754 8927 8504 8756
4  1479 1363 8957 8842
4  8625 8458 8459 8822
4  7994 7558 7902 8706
4  1479 1363 1605 8957
4  4323 738 6788 8927
4  7994 6703 8742 8744
4  1592 8948 1564 8705
4  6788 8458 8504 8927
4  7896 8889 8918 8919
4  7896 8565 8961 8889
4  8877 8883 8880 8900
4  7138 6335 7694 6829
4  7190 8413 8416 8868
4  6702 6703 6717 8079
4  4205 8912 8877 8913
4  4394 8874 4204 8786
4  6355 6125 8820 8872
4  4272 4517 4394 8872
4  4375 4205 4187 8883
4  8608 8436 8481 8882
4  6355 6125 7747 8820
4  7683 7681 7680 8750
4  7297 7681 7826 8581
4  7440 8846 8873 8912
4  4362 4192 8559 8752
4  8184 6422 8165 8611
4  7521 7517 8216 7596
4  8330 8216 7517 8790
4  8330 7517 7933 8790
4  8576 8588 8547 8616
4  8625 8610 8823 8822
4  8083 8084 7835 8969
4  1472 252 7596 8789
4  1433 1468 8450 8451
4  7597 8449 8451 8564
4  8121 8640 8746 8806
4  7537 8699 6568 8953
4  8174 8831 8641 8635
4  7465 7586 7470 8525
4  1358 1294 1356 8422
4  7189 7190 7087 8868
4  7936 8420 8554 8791
4  6372 7808 7591 8834
4  6663 6928 6665 8728
4  8103 8747 8640 8897
4  7808 8834 8835 8728
4  7287 7808 7232 8728
4  77 6575 6577 8649
4  6577 6738 7711 8460
4  7991 8187 8169 8849
4  8086 8893 8542 8551
4  988 4318 4319 8890
4  8728 8844 8727 8843
4  8414 8415 8542 8517
4  7087 8416 8712 8869
4  7711 8121 8695 8460
4  6575 6738 6577 8460
4  1390 1484 1587 8867
4  1358 1454 1359 8407
4  7086 6416 7087 8869
4  8416 8423 8718 8867
4  6529 8215 8576 8617
4  8211 7570 7828 8626
4  4498 4528 4450 8625
4  6737 7610 8048 8897
4  1604 8638 8700 8850
4  8823 8821 8820 8822
4  7301 8215 8618 8576
4  4203 4450 4419 8610
4  7238 7602 7111 8437
4  7389 6568 8636 8739
4  7110 8880 7653 8881
4  6571 7537 8702 8699
4  6046 7150 7153 8392
4  7420 8386 8072 8384
4  7421 7420 7856 8384
4  7538 8953 7760 8393
4  1386 8519 1513 8396
4  1644 1515 8448 8396
4  6568 7760 8953 8739
4  1651 1387 1596 8884
4  4456 8528 8878 8882
4  6319 8881 8878 8528
4  6778 8878 6319 8881
4  7680 8299 7380 8520
4  7235 8881 8438 8437
4  6778 8878 8881 8876
4  8614 8912 8611 8900
4  7653 8881 8880 8876
4  7845 6874 8299 8815
4  7440 8846 8211 8821
4  1777 8783 8964 8930
4  1782 1959 1777 8930
4  8626 8821 8610 8822
4  8625 8626 8610 8822
4  7755 8968 8784 8671
4  1959 1504 1502 8669
4  4528 8610 8625 8679
4  4439 4419 8612 8609
4  8952 8783 8630 8633
4  6242 8903 8978 8976
4  6390 7754 8978 8784
4  6714 8468 8467 8466
4  6250 7381 7382 8764
4  7813 8870 8670 8841
4  6636 8379 7751 8377
4  8970 8454 8453 8455
4  8976 8642 8446 8443
4  4472 8970 8958 8453
4  6244 8952 8903 8898
4  1815 1669 8886 8919
4  8978 8783 8633 8784
4  7361 8937 6907 8537
4  1315 8573 1540 8510
4  1647 8721 8901 8812
4  1314 1292 8509 8510
4  7835 8084 7228 8532
4  1648 1726 1647 8901
4  1549 1456 8403 8724
4  1456 8511 8403 8536
4  8511 8573 8512 8510
4  7342 8205 7888 8810
4  1528 1398 1459 8965
4  8314 7125 8059 8722
4  1595 8405 8572 8716
4  8503 8628 8634 8629
4  6341 8568 8799 8430
4  8764 8672 8765 8624
4  8972 8978 8964 8783
4  6265 8214 6262 8599
4  7516 7170 7433 8865
4  8313 8198 8214 8597
4  1807 8828 8827 8826
4  8793 8861 8683 8445
4  7530 7908 8502 8503
4  8435 8631 8634 8628
4  7694 8706 7251 8769
4  1946 8499 8915 8951
4  7896 7897 7729 8565
4  7810 8503 8506 8623
4  619 1363 882 8842
4  1289 8499 8634 8765
4  1815 8488 8921 8919
4  8836 8570 8773 8804
4  779 769 1484 6751
4  1815 8921 1821 8919
4  1669 8916 8889 8919
4  6415 6416 7599 6441
4  7040 6753 8673 8943
4  7895 8489 8920 8496
4  1615 8472 8471 8473
4  8542 8549 8552 8550
4  8952 8632 8963 8969
4  26 612 4264 7255
4  4481 4514 8757 8759
4  8659 8552 8658 8549
4  6853 7859 7380 8521
4  8602 8603 8596 8772
4  7327 8552 8542 8658
4  7857 7376 7859 8814
4  4318 8890 7997 8551
4  4481 4145 4151 8757
4  4145 8516 8757 8523
4  8087 8542 7327 8552
4  8959 8928 8929 8838
4  7529 7753 7859 8374
4  4336 8749 4514 8817
4  4329 4524 4495 8734
4  4379 4446 4524 8785
4  7987 8892 7992 8893
4  8734 8835 8845 8647
4  8849 8892 8762 8893
4  7614 8551 8087 8550
4  8548 8553 8844 8727
4  4364 4362 4513 8559
4  4297 8548 8414 8550
4  8890 8542 8414 8415
4  4518 4362 4364 8971
4  4389 4364 4513 8559
4  4250 8587 4258 8588
4  4238 6372 491 8837
4  4297 7614 663 8550
4  4495 4238 8730 8736
4  8835 8834 8837 8736
4  7696 6444 6454 8731
4  4329 4524 8734 8661
4  4237 7808 170 8835
4  7464 8975 8505 8605
4  4244 8588 4258 8616
4  4350 8548 8656 8549
4  4517 8823 8874 8872
4  8505 8606 8755 8461
4  8659 8656 8552 8549
4  6907 6903 6913 8541
4  7124 7031 8314 8777
4  1317 1592 8703 8769
4  8782 8680 8780 8779
4  6205 8767 7187 8766
4  1528 1459 1527 8724
4  1595 1527 1549 8724
4  1595 1675 1648 8719
4  7187 8770 6203 8766
4  1265 8423 1266 8950
4  6907 8937 8545 8538
4  7609 8345 6907 8545
4  7251 7650 8767 8704
4  8345 8059 6903 8405
4  7902 8706 8813 8705
4  1459 1398 1291 8543
4  8768 8767 8949 8704
4  1417 428 1500 8594
4  6203 8770 6441 8867
4  1310 1311 8831 8637
4  7704 8592 7524 8591
4  1280 8637 8638 8740
4  7499 7389 8636 8641
4  8763 8790 8831 8798
4  8721 8902 8803 8812
4  6967 6752 8056 8595
4  1482 1241 8427 8907
4  1472 252 776 7596
4  7940 7091 8791 8711
4  6341 6345 7031 8803
4  8569 8568 8567 8570
4  1472 1436 1489 8831
4  1552 8421 8763 8422
4  6865 8802 6341 8568
4  1515 1386 1513 8396
4  7537 7760 7538 8953
4  7031 6345 8193 8803
4  8392 8396 8393 8394
4  8696 8478 8477 8973
4  6205 6207 8767 8766
4  7651 8767 6207 8769
4  1241 1711 1671 8490
4  7650 7252 8298 8949
4  7630 8494 8653 8753
4  7087 8868 8416 8869
4  7189 7650 8298 8949
4  135 6207 6203 8766
4  8941 8799 8493 8902
4  6341 8799 8802 8497
4  4410 8653 8492 8753
4  7861 7471 7872 8851
4  1348 8885 8478 8858
4  7515 7547 7516 8677
4  8494 8493 8941 8497
4  8476 8475 8852 8689
4  8064 8193 6345 8902
4  7861 7563 7547 8871
4  1245 1569 1246 8688
4  6341 8941 8799 8497
4  7031 8803 8722 8430
4  1644 1386 1515 8396
4  6795 8676 8475 8852
4  7471 7968 8072 8696
4  7473 7471 6795 8475
4  7368 7635 7732 8940
4  7189 8298 8868 8949
4  8539 8540 8740 8798
4  1520 1275 8850 8526
4  8950 8949 8934 8936
4  7398 7396 8009 8773
4  7398 8009 7900 8947
4  1266 1507 1557 8939
4  6568 8699 8636 8739
4  1604 8700 8448 8850
4  1290 1291 1400 8686
4  8428 8722 8716 8430
4  1670 8680 8574 8681
4  8412 8407 8527 8410
4  8209 8778 6920 8684
4  1617 8853 8670 8933
4  6795 8676 8474 8475
4  8385 8388 8386 8688
4  8209 8904 8778 8684
4  8782 8847 8401 8779
4  8203 6920 8778 8781
4  4289 7255 6323 8529
4  8203 7430 6920 8781
4  8952 8632 8630 8963
4  6319 7061 7234 7743
4  1801 1674 1673 8828
4  7058 7830 7054 8793
4  4324 663 578 7225
4  6627 8793 8955 8794
4  7287 7232 6820 6928
4  4324 7225 578 8844
4  578 7225 7232 8844
4  1801 1673 1798 8444
4  1670 8574 1640 8681
4  7515 7040 8673 8943
4  7040 6750 6753 8943
4  7704 6752 6967 8595
4  4375 8878 8877 8883
4  6753 6947 8673 8674
4  1417 1500 1497 8594
4  4456 8878 4375 8883
4  8056 8943 8595 8594
4  9 4307 6319 8878
4  7234 7235 8881 8530
4  7235 8881 8530 8438
4  4307 8878 4456 8528
4  8676 8690 8677 8675
4  6980 6947 8136 8675
4  8697 8688 8479 8473
4  6331 8250 7696 8954
4  1333 8690 8476 8894
4  1366 8236 720 8894
4  4328 4329 4279 8730
4  4328 4329 8730 8875
4  6315 7500 6314 8800
4  6372 8250 7402 8737
4  818 4328 4279 8954
4  1420 1333 820 8675
4  8149 8494 8034 8941
4  7897 7404 8498 8489
4  8493 8907 8497 8490
4  1482 1711 1241 8907
4  7696 7500 6444 8731
4  1815 8886 1671 8488
4  8920 8886 8498 8889
4  1711 8493 8492 8490
4  8920 8886 8488 8489
4  1478 8472 6857 8471
4  7021 8973 8477 8470
4  8090 8434 8433 8426
4  1249 8688 8697 8473
4  1249 8478 1615 8473
4  8083 8607 8969 8535
4  6323 7816 6321 7743
4  7905 8258 7912 8432
4  8477 8474 8470 8473
4  4323 6788 8754 8927
4  4321 4435 4323 8754
4  6788 7344 6792 6235
4  7017 8471 8474 8894
4  6527 8605 8505 8606
4  6793 8474 6795 8676
4  4308 4211 4375 8877
4  8476 8852 8690 8689
4  1615 8471 8476 8473
4  7473 6795 8474 8475
4  8610 8614 8611 8609
4  1333 1334 8476 8690
4  7816 7743 8529 8531
4  7238 7235 7227 8438
4  4484 8373 4380 8382
4  4432 4418 4289 8534
4  7803 7205 8486 8485
4  7789 6714 8462 8467
4  7951 7586 7465 8398
4  8868 8770 8866 8867
4  7683 8187 7990 8896
4  7170 8622 8621 8466
4  4466 4218 4511 8517
4  4466 4511 4488 8415
4  7793 8692 7789 8462
4  7381 6721 7813 8667
4  1261 1258 1263 8464
4  1412 8707 8464 8622
4  6390 7382 7755 8784
4  8499 8435 8500 8951
4  6575 6577 8649 8460
4  1657 1412 1543 8620
4  7864 8467 8708 8622
4  8707 8745 8586 8746
4  8500 8915 8945 8463
4  8952 8978 8783 8633
4  7385 8623 8506 8469
4  7200 8840 7546 8841
4  6246 8693 8462 8463
4  1655 1946 1257 8915
4  6250 6714 6721 8468
4  7789 6714 6247 8462
4  1289 1628 1258 8624
4  8972 8952 8978 8783
4  1450 8582 6797 8694
4  1450 1393 1261 8584
4  6390 7754 6238 8978
4  1348 1644 1643 8974
4  7810 7809 8628 8629
4  8059 7884 6903 8405
4  8395 8977 8687 8394
4  1480 8916 1669 8917
4  1479 1480 797 6990
4  8624 8623 8468 8469
4  6390 8784 8633 8629
4  7809 8633 8632 8628
4  7896 7497 7899 8918
4  1990 1669 1665 8888
4  8972 8630 8952 8783
4  1772 8630 8783 8634
4  6571 8235 8699 8701
4  8964 8783 8978 8784
4  4250 4336 8587 8580
4  7170 8709 8865 8914
4  1476 8702 8472 8698
4  8702 8698 8699 8953
4  1604 8700 1642 8448
4  7505 7921 7821 8454
4  8973 8472 8702 8698
4  4472 4440 4468 8455
4  8447 8974 8448 8396
4  7538 8447 8973 8953
4  8447 8448 8953 8393
4  8064 7286 7752 8378
4  8034 8494 8378 8902
4  4218 4219 4221 8644
4  7170 7864 8709 8622
4  1607 8707 1653 8622
4  700 7524 6270 8593
4  1506 1412 8621 8622
4  8199 8903 8486 8898
4  8329 8316 8198 8441
4  7170 8914 8621 8622
4  1609 1263 8707 8586
4  7586 6046 8393 8394
4  8424 8527 8526 8398
4  1390 6751 1484 8867
4  7586 8393 8398 8394
4  8519 8526 8397 8398
4  1386 8395 1385 8519
4  7187 7651 7650 8767
4  7586 8518 7150 8394
4  8859 8512 8509 8977
4  6565 8175 6566 8636
4  513 1310 8174 8635
4  1613 8519 8424 8526
4  6571 6058 6565 8699
4  1344 8635 8175 8639
4  1344 1604 1280 8638
4  1613 1290 8424 8524
4  1432 1552 8421 8788
4  7622 8592 8746 8747
4  8416 8712 8718 8419
4  779 1484 1390 6751
4  8416 8718 8712 8869
4  7091 8420 8711 8712
4  1574 1377 1555 8748
4  1484 769 1427 8713
4  7711 7411 8121 8460
4  1427 769 6559 8713
4  1476 6856 8472 8702
4  1574 8745 8748 8649
4  452 1377 6103 8897
4  8973 8974 8698 8953
4  7473 7021 8477 8470
4  6737 8048 8103 8897
4  7679 7021 8470 8702
4  6270 6103 8748 8747
4  1476 8472 1643 8698
4  8048 6103 8103 8897
4  7622 8103 6102 8747
4  1348 1643 8478 8974
4  8447 8885 8478 8974
4  4301 329 26 8425
4  7516 7200 7170 8621
4  1348 8478 8885 8974
4  4481 4480 8959 8758
4  8374 8380 8379 8376
4  7234 8530 8528 8529
4  7234 7227 7235 8530
4  7688 8379 8929 8838
4  4484 4151 8373 8380
4  8373 8374 8380 8758
4  7286 7638 7630 8494
4  7529 8929 8380 8758
4  1657 8620 8862 8621
4  8708 8586 8692 8806
4  1609 8586 8707 8745
4  7814 7630 7629 8924
4  7814 7629 7765 8923
4  7765 7857 7753 8923
4  8263 7857 7765 8761
4  7789 7865 8708 8692
4  968 4349 847 7988
4  7297 7826 8558 8581
4  1543 8468 8466 8465
4  4319 4503 4349 8891
4  1653 1412 1506 8622
4  1608 8707 8589 8745
4  1018 8224 7806 8825
4  8122 7865 8692 8806
4  8823 8824 8820 8872
4  7806 8458 8927 8825
4  1609 8707 1608 8745
4  8707 8708 8464 8467
4  7305 8180 8879 8876
4  8487 8436 8608 8613
4  4204 4205 4211 8913
4  4288 8456 8452 8772
4  4528 8679 4244 8612
4  8745 8747 8746 8593
4  8215 8618 8576 8617
4  8576 8615 8617 8616
4  7602 8480 8482 8487
4  8608 8613 8900 8609
4  6422 7602 8487 8436
4  8165 8618 8678 8905
4  4203 4419 4205 8614
4  4258 8587 8678 8616
4  1497 1661 1536 8863
4  7549 8912 8873 8879
4  8180 8880 8879 8876
4  1472 776 1436 7596
4  8554 8791 8420 8788
4  8487 8608 8436 8481
4  7933 8554 8790 8787
4  8608 8613 8436 8900
4  890 6540 8260 8451
4  7602 8482 6418 8487
4  1436 7596 8216 8831
4  4402 8613 8608 8609
4  8165 8678 8487 8905
4  8735 8835 8834 8845
4  8732 8731 8875 8801
4  7398 8773 8947 8705
4  8946 8947 8836 8705
4  1433 1024 6540 6559
4  7398 8009 8947 8773
4  4480 4151 8380 8758
4  4481 8757 4151 8758
4  8271 8379 7688 8838
4  7297 8558 8575 8577
4  7301 8618 8578 8576
4  1824 1009 1480 6780
4  8299 8817 8579 8815
4  8618 8578 8587 8819
4  7845 8578 8819 8815
4  6316 7899 6809 8725
4  7497 8961 6780 8918
4  1605 8957 8888 8916
4  7301 8578 7723 8577
4  4328 6454 876 8875
4  8810 8572 8405 8716
4  4250 8588 4344 8580
4  1312 1593 1564 8561
4  8692 8462 8464 8467
4  1946 1289 1257 8499
4  1258 1543 1412 8465
4  8586 8692 8583 8585
4  4259 8819 8587 8815
4  7723 8299 8579 8578
4  4336 4513 8749 8580
4  7471 8479 7872 8851
4  7872 8072 8386 8479
4  1246 8385 8697 8688
4  7793 7789 6247 8462
4  6737 6575 7611 8897
4  1585 1656 1602 8909
4  7471 8475 8477 8479
4  1792 1798 1662 8861
4  1504 8669 8796 8933
4  7943 8795 7942 8932
4  7500 6064 6444 8731
4  7473 8474 8477 8475
4  8967 8932 8955 8796
4  8386 8697 8688 8479
4  8896 8556 8895 8944
4  7990 8556 7826 8581
4  6603 6599 8975 8507
4  8778 8683 8684 8681
4  8239 7647 8220 8556
4  8971 8975 8556 8557
4  8508 8509 8512 8977
4  7420 8072 7856 8384
4  1594 1651 1596 8858
4  1385 1387 1314 8509
4  7969 7153 7856 8859
4  4372 8548 4324 8844
4  4372 8656 4350 8548
4  1348 8697 1594 8858
4  1594 1246 1627 8385
4  7327 8659 8729 8552
4  7473 8470 8477 8474
4  8072 8390 7856 8384
4  7153 7837 7856 8859
4  7153 7150 7156 8977
4  1651 8858 8385 8391
4  8203 8031 7430 8780
4  8600 8599 8604 8928
4  6262 8928 8829 8838
4  8929 8379 8380 8838
4  8271 8829 8811 8830
4  1726 8830 8719 8826
4  7103 7987 7992 8551
4  7683 7376 8849 8750
4  6369 7992 7987 8892
4  7987 8893 7992 8551
4  4319 7987 8890 8891
4  968 7987 4319 8891
4  1807 1674 1801 8828
4  8214 6262 8599 8457
4  8072 8696 8390 8479
4  4170 4171 4257 8776
4  4171 8678 4257 8905
4  7905 8083 7816 8607
4  7956 7918 8090 8433
4  1594 8697 8385 8858
4  7021 7968 8477 8973
4  8688 8689 8475 8473
4  7852 7956 8090 8258
4  1249 8697 8478 8473
4  1348 8885 1644 8974
4  1685 1768 1946 8435
4  4264 4501 8431 8534
4  7738 6857 6856 8470
4  1615 8478 8472 8473
4  1643 8974 1642 8698
4  7856 8390 8859 8384
4  6615 6540 6559 8711
4  7642 6540 6615 8564
4  1594 1246 8385 8697
4  7537 8973 8702 8953
4  7470 7586 8393 8525
4  1520 1513 8526 8397
4  7718 7690 7597 8792
4  1630 8388 8856 8387
4  6418 7296 7667 8774
4  7690 7517 7596 8792
4  8385 8386 8697 8688
4  8386 8688 8854 8851
4  7642 8260 6540 8564
4  1427 6559 8450 8717
4  7940 8212 6615 8711
4  7861 7563 8871 8851
4  8310 8386 7420 8389
4  7793 8122 8692 8583
4  6335 8294 6717 8741
4  8503 8765 8623 8629
4  7952 8693 6246 8945
4  8298 7635 8934 8936
4  1393 8915 1257 8584
4  6205 7187 6203 8766
4  1450 6797 811 8694
4  136 6203 1390 8766
4  7704 7524 6752 8591
4  7952 8693 8945 8694
4  8427 8571 1243 8568
4  1309 8570 8836 8804
4  1570 8854 8862 8855
4  6250 6721 7381 8468
4  1635 1261 1263 8585
4  1245 1629 8691 8689
4  1393 1257 1261 8584
4  8474 8676 8476 8475
4  1569 8855 1322 8808
4  1497 1506 1661 8914
4  7537 6568 7760 8953
4  7200 8841 7813 8710
4  7499 8008 7389 8641
4  8540 8409 8422 8418
4  1489 1356 8763 8798
4  6565 7389 6568 8636
4  7812 8670 8870 8911
4  1310 8638 1280 8637
4  1624 1601 8910 8387
4  8856 8909 8911 8933
4  8008 7388 7389 8539
4  8330 7933 8008 8790
4  8412 8527 8424 8398
4  6565 6566 7499 8636
4  7445 8807 8870 8841
4  7813 7445 7812 8870
4  6813 7614 8087 8550
4  7812 8870 7441 8911
4  8764 8468 8624 8623
4  7813 8667 8670 8668
4  8764 8672 8624 8468
4  4237 7808 8835 8843
4  7331 8086 7991 8893
4  1953 8930 8672 8765
4  6813 7614 6648 8087
4  4318 709 4297 8551
4  8671 8672 8764 8668
4  7943 8795 8932 8933
4  8499 8503 8634 8765
4  8964 8978 8976 8968
4  8967 8669 8932 8796
4  7810 8623 7382 8629
4  7538 6046 7969 8447
4  7473 7021 7968 8477
4  7809 6390 8633 8629
4  8630 8633 8634 8628
4  7470 8393 8739 8525
4  7530 6246 8506 8500
4  1604 1642 1515 8448
4  8447 8478 8696 8973
4  8506 8624 8463 8469
4  7470 7760 6568 8739
4  7538 8447 8953 8393
4  8715 1309 1528 8546
4  7752 8374 6636 8376
4  8605 8588 8547 8575
4  1309 1564 1402 8836
4  8947 8948 8704 8705
4  7951 7976 7361 8685
4  6741 6792 6530 8504
4  6792 6235 6530 8504
4  4321 8754 6741 8505
4  1520 1513 1452 8526
4  7440 8211 6592 8821
4  7702 7700 8413 8410
4  7976 7368 7361 8937
4  1454 8407 8424 8411
4  4498 8927 8625 8825
4  8224 8824 7806 8825
4  6865 6870 6341 8802
4  1482 8714 1647 8721
4  8427 1243 1309 8568
4  4250 4336 4259 8587
4  8625 8823 8825 8822
4  7301 7771 7845 8578
4  4250 4258 4344 8588
4  8210 8184 7570 8627
4  6265 6873 8214 8599
4  4222 8823 8824 8825
4  7421 7856 8383 8384
4  4463 8456 8602 8601
4  4344 4258 4244 8588
4  6237 8459 7570 8615
4  4439 4402 4187 8609
4  7771 8618 6418 8774
4  8386 8388 8387 8389
4  8183 8436 8611 8900
4  8860 8512 8925 8510
4  4170 8452 8480 8776
4  7381 7813 7979 8668
4  8509 8512 8860 8510
4  1628 8672 1543 8468
4  4404 4185 8608 8481
4  1263 1412 8707 8464
4  4404 8608 8480 8481
4  8165 8487 8678 8613
4  8438 8882 8481 8437
4  1502 1503 1543 8619
4  8183 7110 7111 8436
4  7951 8685 8537 8524
4  8183 6422 8184 8611
4  1507 1454 1400 8832
4  1557 8939 1507 8832
4  8183 8912 7110 8900
4  8452 8483 8454 8484
4  7667 8774 7292 8603
4  4336 4514 4338 8816
4  4187 8608 8900 8609
4  7110 8912 8880 8900
4  8064 7752 6636 8377
4  1671 8492 8488 8490
4  7688 8599 6262 8928
4  8201 6874 6873 8818
4  4484 8380 8373 8376
4  7814 8374 7752 8375
4  7292 8603 8774 8772
4  8373 8513 8923 8514
4  8859 8390 8391 8384
4  8373 8374 8923 8375
4  8922 8924 8660 8652
4  1456 1292 1540 8511
4  8543 8544 8537 8686
4  8665 8725 8839 8663
4  1624 1315 1313 8860
4  7839 6913 6914 8400
4  1595 1549 8405 8724
4  6903 8405 7884 8406
4  1528 8965 8724 8546
4  6907 8345 6903 8541
4  6316 6318 8839 8663
4  6884 8496 8839 8942
4  8271 8205 7337 8811
4  6316 8839 8725 8663
4  4446 8648 8734 8785
4  8193 7751 7337 8809
4  7156 7974 6913 8508
4  1594 8385 1651 8858
4  1595 8572 8719 8716
4  6870 8149 6341 8497
4  1484 6751 769 8713
4  890 1433 1024 6540
4  7837 8383 8859 8512
4  7150 7974 7156 8977
4  7974 8518 8687 8977
4  8573 8925 8512 8510
4  7150 8518 7974 8977
4  7837 8508 8512 8977
4  1385 8395 1387 8509
4  1482 8427 8799 8907
4  219 8294 6829 8741
4  6335 7994 7694 8741
4  7718 7597 7720 8564
4  8586 8582 8695 8649
4  1635 8582 1261 8585
4  74 6577 6797 8582
4  1261 8582 8584 8585
4  6246 7793 6247 8462
4  890 1433 6540 8451
4  7505 8486 8454 8484
4  252 8789 1468 8449
4  811 6077 8584 8694
4  8632 8631 8432 8628
4  7908 8432 8502 8628
4  987 452 1377 6103
4  4375 4187 4185 8883
4  1777 1959 1953 8930
4  7754 8976 8978 8968
4  1503 8670 8619 8669
4  7385 6250 7382 8623
4  988 7997 4318 8890
4  1953 8672 1628 8624
4  7979 7945 7755 8671
4  7091 7088 8420 8416
4  8763 8421 8554 8422
4  7091 8416 8420 8712
4  8420 8717 8711 8712
4  1484 8717 1432 8718
4  1432 8421 1294 8419
4  6778 6319 7234 8881
4  8530 8438 8533 8531
4  246 4279 491 7402
4  7816 8535 7835 8531
4  4432 8528 4456 8533
4  7696 6454 6455 8954
4  7227 7235 8530 8438
4  7821 7292 7296 8771
4  7696 6444 6455 6454
4  4288 4175 4284 8775
4  7505 7821 8483 8454
4  4175 8776 4257 8819
4  4374 8835 4495 8647
4  4379 4524 4477 8661
4  8565 8888 8566 8563
4  1243 8571 1485 8569
4  8561 8813 8773 8567
4  4479 4160 4221 8646
4  1590 8560 8561 8562
4  6951 6884 6952 8496
4  6951 6952 7638 8496
4  4479 4376 4160 8650
4  7814 7286 7630 8753
4  6888 8651 8654 8655
4  6865 8566 8802 8567
4  8567 8570 8568 8804
4  6952 8654 8653 8495
4  1711 8492 1671 8490
4  7286 8378 8494 8753
4  8428 8723 8777 8546
4  1528 8805 8965 8546
4  7505 7821 7823 8483
4  8314 8723 8345 8546
4  4338 8816 4284 8775
4  8345 8541 8545 8546
4  4462 4284 4502 8604
4  6265 8929 8201 8818
4  8599 8604 8931 8598
4  1459 8724 8965 8538
4  7368 8545 6907 8937
4  8009 7609 8940 8805
4  4439 4187 4419 8609
4  1344 513 231 8175
4  7368 8545 8937 8940
4  8412 8686 8685 8524
4  1613 8519 8687 8524
4  1337 8698 8700 8701
4  6565 8175 8636 8639
4  8271 7337 7751 8809
4  8901 8809 8811 8830
4  8543 8937 8938 8832
4  8714 1648 1647 8901
4  8574 8401 8778 8779
4  7368 7635 8940 8833
4  8680 8778 8781 8779
4  7976 8937 7361 8685
4  6788 7806 7344 8458
4  8271 8809 8379 8830
4  4394 8872 8874 8786
4  7344 7345 6235 8458
4  8403 8405 8541 8406
4  4187 8608 8883 8900
4  8847 8811 8780 8826
4  6237 6235 7828 8459
4  6788 8458 6235 8504
4  1602 1663 1583 8683
4  1385 8395 8509 8687
4  6592 8211 7828 8822
4  7538 7760 6046 8393
4  6842 8821 8820 8786
4  7110 7235 7111 8437
4  4336 8817 8816 8815
4  4484 8373 8382 8376
4  7421 7856 7837 8383
4  6265 6262 7688 8599
4  1386 8395 8519 8396
4  8909 8796 8795 8933
4  8829 8928 8599 8457
4  6873 8599 8931 8598
4  6627 8955 8932 8794
4  6265 8599 8929 8931
4  8670 8671 8669 8933
4  1245 1534 1569 8854
4  6265 8929 8818 8931
4  7602 8482 8480 8484
4  8521 8817 8759 8523
4  4151 8373 8380 8758
4  7529 6853 7688 8929
4  8959 8380 8929 8758
4  1651 1313 1387 8884
4  7538 6046 8447 8393
4  6853 7380 8201 8521
4  7156 8508 7837 8977
4  8859 8447 8885 8858
4  329 7918 8425 8426
4  8201 7380 8299 8818
4  1359 8408 8407 8411
4  8088 6155 7852 8188
4  8938 8935 8832 8833
4  992 6599 6603 8507
4  7702 8413 8411 8410
4  6741 6792 6791 6530
4  7650 7252 8949 8704
4  7464 6530 6527 8505
4  4508 6599 8507 8505
4  7976 7702 7635 8833
4  1557 1507 1400 8832
4  8504 8756 8927 8459
4  4321 4323 467 8754
4  4344 8605 8557 8588
4  6741 6530 6791 8505
4  4344 4244 4249 8547
4  997 6599 4508 8505
4  7331 7991 8263 8760
4  7933 8554 7934 8798
4  8763 8554 8790 8798
4  1311 8831 8637 8798
4  4323 6788 467 8754
4  997 6741 6599 8505
4  7988 8895 8971 8944
4  6371 7915 7988 8944
4  6603 8239 8971 8556
4  7174 8239 7647 8220
4  8008 7389 8641 8539
4  7517 8790 8792 8787
4  748 847 4518 8239
4  1420 8674 8864 8675
4  7517 8792 7936 8787
4  8310 7441 8870 8389
4  7517 7933 8790 8787
4  7596 8790 8831 8789
4  1607 8914 8709 8622
4  8595 8863 8943 8865
4  1310 1436 8174 8831
4  7515 7433 7040 8943
4  6967 8056 6750 8943
4  1420 1629 1333 8690
4  8880 8883 8436 8900
4  1420 820 6947 8675
4  8637 8539 8740 8798
4  1333 8690 8894 8675
4  7553 8673 6947 8675
4  1489 8831 1311 8798
4  8474 8476 8676 8894
4  1249 1246 8697 8688
4  6778 6997 7134 7653
4  8072 8386 8390 8384
4  1246 1630 1627 8388
4  7667 7296 7292 8774
4  4338 4284 4175 8775
4  7845 7771 7667 8774
4  4488 8762 8890 8415
4  1309 8428 8568 8804
4  1309 8836 1402 8805
4  7902 7900 8704 8705
4  8428 8805 8777 8804
4  1445 8582 1635 8649
4  8561 8773 8813 8705
4  7732 8009 8940 8947
4  1241 8571 8907 8490
4  6797 8582 8695 8694
4  8802 8907 8799 8568
4  8693 8584 8945 8694
4  8122 7865 7789 8692
4  1482 8799 8721 8902
4  8064 8034 8378 8902
4  7630 8653 8924 8753
4  8006 8122 7793 8583
4  7852 8188 8258 8434
4  8427 1309 8429 8428
4  8571 8566 8569 8567
4  7956 8090 8258 8433
4  6545 7816 7255 8425
4  7956 7905 7918 8433
4  6545 7918 7905 8425
4  8901 8809 8381 8812
4  4349 4503 8895 8891
4  6516 6753 6947 8673
4  6704 6703 8079 8742
4  7904 6990 6991 8961
4  7040 6753 6516 8673
4  7994 6703 7558 8742
4  1629 1536 8691 8864
4  7904 7896 7729 8961
4  1590 1639 1605 8562
4  7553 8676 6794 8677
4  8476 8475 8676 8852
4  6704 7904 7729 8960
4  7897 7404 6870 8498
4  1669 1605 1665 8888
4  7559 7731 6865 8567
4  8565 8566 8888 8889
4  7809 6238 8108 8952
4  7816 7835 7743 8531
4  7835 7228 7227 8532
4  4433 4501 4418 8963
4  146 6947 6753 8674
4  1417 1497 1536 8863
4  1420 6947 146 8674
4  8193 7125 8722 8720
4  8382 8375 8378 8376
4  7629 8651 8659 8652
4  8064 8378 7752 8377
4  7814 8924 8923 8375
4  4221 8653 8922 8652
4  1768 8499 8435 8634
4  1289 8499 8765 8624
4  4410 8922 8653 8753
4  7667 7292 6874 8603
4  8929 8521 8818 8759
4  7629 6890 8651 8924
4  7765 8923 7629 8660
4  7628 8659 8651 8729
4  7629 8651 7628 8659
4  7771 6418 7667 8774
4  8486 8453 8454 8484
4  4171 4256 8678 8487
4  7124 8314 8098 8777
4  8009 8940 8947 8805
4  6890 8651 8924 8653
4  8545 8965 8805 8546
4  8498 8571 8566 8887
4  8098 8314 8345 8546
4  6627 7058 6623 8955
4  8797 8793 8955 8861
4  8793 8684 8683 8794
4  6865 6870 8802 8566
4  6870 8498 7404 8497
4  8909 8795 8683 8908
4  6341 8941 6345 8803
4  8427 8907 8571 8568
4  8721 8812 8722 8720
4  1662 1602 1672 8797
4  1711 8907 8493 8490
4  1639 8888 8569 8887
4  1485 8490 1990 8887
4  7638 8495 8494 8491
4  1390 8766 6203 8867
4  6703 6717 8079 8744
4  6238 7754 6242 8978
4  6673 8742 8079 8842
4  8084 8108 6244 8952
4  619 6673 8079 8842
4  7809 8952 8632 8633
4  1380 987 1377 6270
4  6102 6103 6270 8747
4  7704 8119 7524 8592
4  8592 8589 8593 8591
4  7704 6752 8595 8591
4  826 1501 1500 8591
4  7809 8632 7912 8628
4  6967 6752 6750 8056
4  7040 6967 6750 8943
4  7809 6390 6238 8633
4  4205 8874 8912 8913
4  285 956 4211 7305
4  1772 1289 8634 8765
4  956 7305 6126 8913
4  4204 956 672 6126
4  7234 7743 8530 8529
4  8972 8952 8630 8963
4  7905 7912 8083 8607
4  7908 7912 8432 8628
4  1643 1615 8478 8472
4  4463 8600 8439 8601
4  7017 6476 7738 8471
4  8973 8974 8472 8698
4  8899 8453 8485 8481
4  4424 4440 4472 8453
4  6565 6568 8699 8636
4  8602 8775 8603 8772
4  6770 6856 8235 8701
4  8452 8456 8771 8772
4  7679 6856 6770 8702
4  1337 1642 1604 8700
4  1337 1476 8698 8701
4  6242 8903 8976 8642
4  8486 8970 8454 8453
4  4170 4257 4175 8776
4  1433 1431 1427 8450
4  4404 4185 4402 8608
4  7823 7821 7296 8483
4  7086 8712 6751 8869
4  7771 8618 8774 8819
4  4171 4402 4256 8487
4  7602 8487 8436 8481
4  1431 8763 1552 8788
4  4288 4170 4175 8776
4  7190 7088 7087 8416
4  988 4319 7987 8890
4  4257 8678 8819 8905
4  6422 6418 8165 8487
4  6415 6416 6441 8770
4  4404 4402 4171 8480
4  1433 8450 6540 8451
4  8413 8408 8409 8417
4  7936 7939 8554 8420
4  7718 8212 7936 8791
4  8763 8788 8789 8787
4  7940 7091 8711 8712
4  890 654 1468 8451
4  7939 8420 7088 8418
4  1630 8856 8388 8808
4  1569 8388 1246 8688
4  252 1468 654 8451
4  654 8260 7597 8451
4  1431 8789 8763 8788
4  7651 6207 7138 8769
4  7872 8310 7563 8386
4  7897 8498 8920 8489
4  915 7611 494 8897
4  1334 8476 8690 8689
4  452 6103 7611 8897
4  1245 1249 1334 8689
4  8103 8121 7411 8640
4  1569 1630 1246 8388
4  1555 494 6575 8897
4  1627 8385 8388 8387
4  8859 8390 8447 8858
4  4506 4508 992 8507
4  4508 8505 8507 8755
4  1555 452 494 8897
4  1356 8422 8740 8555
4  1555 494 77 6575
4  878 6077 7450 8915
4  7123 7647 6603 8975
4  7123 6599 7464 8975
4  8220 8556 7990 8944
4  7826 8556 8558 8581
4  8187 8896 8892 8944
4  6369 7915 7992 8892
4  7988 8895 8944 8891
4  1670 1663 1673 8680
4  7465 7388 7700 8527
4  8762 8752 8750 8848
4  8715 8723 8724 8716
4  7681 8896 8581 8750
4  8520 8750 8751 8848
4  7683 8187 8896 8849
4  6475 8136 8236 8894
4  1782 1676 1959 8967
4  1656 1676 1672 8796
4  8859 8885 8884 8858
4  1348 1594 1596 8858
4  6623 8976 8955 8443
4  1386 8885 1596 8395
4  1348 1615 1249 8478
4  7473 7738 8470 8474
4  7017 7473 6795 8474
4  8859 8884 8885 8395
4  8859 8885 8392 8395
4  7331 8263 7334 8658
4  4218 4219 8644 8657
4  1313 8509 8884 8860
4  7156 6913 7839 8508
4  6046 7150 8392 8394
4  8651 8659 8644 8729
4  1377 6270 6103 8748
4  915 452 7611 8897
4  1635 8582 8586 8649
4  6907 8545 8345 8541
4  1657 1543 1323 8620
4  1555 8649 8748 8897
4  1380 8748 8745 8593
4  1506 1661 8914 8621
4  1543 1503 1323 8619
4  1502 8669 8619 8672
4  1555 1377 452 8897
4  6575 8460 8649 8897
4  1675 1565 1674 8782
4  7563 7445 7546 8807
4  8031 8205 8811 8780
4  7835 7227 7743 8531
4  1595 8719 1648 8716
4  8810 8719 8847 8572
4  8901 8719 8811 8720
4  1726 1807 8827 8826
4  4321 467 6741 8754
4  1018 738 4229 8825
4  8791 8789 8792 8449
4  7642 7833 8260 8564
4  252 7597 8792 8449
4  968 4349 7988 8891
4  7690 7596 7597 8792
4  1472 1468 252 8789
4  7718 7517 7690 8792
4  6475 6793 8136 8894
4  7017 6475 8236 8894
4  1478 1615 1643 8472
4  7738 7052 6856 6857
4  7450 7491 8500 8945
4  7451 6077 6706 8945
4  6246 8945 8693 8463
4  7123 7464 7647 8975
4  7123 6603 6599 8975
4  7491 6246 8500 8945
4  7450 8500 8915 8945
4  4190 8752 8762 8848
4  7091 7088 7939 8420
4  7933 7939 7934 8554
4  8415 8760 8517 8515
4  7088 7700 7934 8409
4  1310 1311 1436 8831
4  8516 8751 8520 8523
4  7681 8581 8579 8750
4  7861 7547 6794 8852
4  1245 1629 1534 8691
4  1661 1657 1570 8862
4  7515 8943 8677 8865
4  1420 1417 1536 8674
4  7681 8579 7680 8750
4  8520 8751 8749 8523
4  4336 8587 8580 8815
4  4362 8559 8895 8752
4  4192 8751 4513 8559
4  1593 1590 1238 8743
4  8499 8503 8435 8634
4  7473 7738 7021 8470
4  1348 1643 1615 8478
4  1337 8701 8700 8639
4  7021 7537 7538 8973
4  7450 8915 8500 8951
4  1476 6856 6857 8472
4  6246 8506 8500 8463
4  1312 1590 1593 8561
4  8703 8706 8743 8741
4  7952 7793 6246 8693
4  6077 8915 8584 8945
4  8693 8583 8692 8585
4  7560 7729 7731 8565
4  7803 7205 7505 8486
4  1393 6077 878 8915
4  8499 8500 8915 8951
4  8084 8952 6244 8898
4  8952 8962 8898 8969
4  1445 74 8582 8649
4  4259 4257 8587 8819
4  4257 8678 4258 8587
4  4513 8559 8749 8580
4  8184 8611 8165 8617
4  4336 4338 4259 8815
4  4389 4438 4364 8557
4  6418 8482 8774 8905
4  8587 8578 8576 8577
4  7301 7721 8215 8576
4  7648 8558 8975 8605
4  8618 8587 8576 8616
4  4350 8656 8657 8549
4  7470 7389 7388 8738
4  8651 8729 8645 8655
4  4218 4221 8922 8652
4  8682 8574 8904 8681
4  7421 8208 8053 8926
4  7845 8578 7771 8819
4  8810 8405 8572 8404
4  6918 8203 6920 8778
4  8618 8678 8587 8616
4  7988 8944 8892 8891
4  7884 8405 8404 8406
4  7886 6918 7735 8401
4  7926 6914 7884 8406
4  4349 8895 7988 8891
4  1602 8909 8797 8683
4  4319 4488 4503 8891
4  1798 1673 1662 8445
4  7886 7926 7884 8401
4  7886 8203 6918 8779
4  1662 1663 1602 8683
4  1583 1624 1601 8910
4  1585 1602 1583 8909
4  4503 8895 8762 8752
4  7635 8934 8936 8833
4  8009 8947 8773 8805
4  8947 8948 8936 8704
4  7946 7926 7735 8399
4  7960 8926 8209 8908
4  8545 8965 8938 8805
4  6918 8209 7735 8904
4  7886 7735 7926 8401
4  1398 8543 8965 8938
4  6315 6916 6447 6062
4  8940 8947 8946 8935
4  1413 1266 1557 8935
4  8586 8745 8649 8806
4  8121 8122 8695 8806
4  8586 8695 8582 8583
4  8006 8695 8122 8583
4  7921 8454 8642 8440
4  7921 8200 8316 8440
4  7921 8316 8329 8440
4  7292 8774 7296 8772
4  6798 8695 8006 8694
4  8199 7921 8486 8642
4  6577 7711 6798 8695
4  6704 6703 6702 8079
4  8200 7058 8316 8443
4  1792 1672 8956 8861
4  7238 7227 7228 8438
4  7699 7465 7700 8527
4  1479 8957 8960 8842
4  7560 8742 8960 8563
4  7743 8530 8529 8531
4  6416 7189 7087 8869
4  7255 8534 8535 8529
4  4264 7255 4289 8534
4  8618 8774 8819 8905
4  6673 8960 8742 8842
4  4288 4463 4468 8456
4  4481 8959 4502 8759
4  8602 8596 8456 8772
4  6704 8079 6673 8742
4  6873 7292 8313 8596
4  7599 6751 6441 8869
4  7976 8833 8685 8411
4  7549 8183 8210 8912
4  6703 8079 8742 8744
4  7558 7560 7559 8813
4  7902 8813 7398 8705
4  8165 6418 8618 8905
4  8816 8603 8818 8931
4  4338 4502 4284 8816
4  7651 7251 7650 8767
4  1317 1318 1592 8769
4  1390 6203 6441 8867
4  1413 1444 1266 8950
4  7902 7558 7398 8813
4  7694 8706 8769 8741
4  7187 7650 7189 8770
4  7187 7189 6416 8770
4  8416 8718 8423 8419
4  7951 7465 8412 8398
4  1593 1592 1564 8705
4  779 6751 1390 6441
4  7900 8936 7252 8704
4  7334 7629 7628 8659
4  8308 7628 6888 8729
4  8975 8557 8507 8605
4  7732 8947 8940 8936
4  7900 8947 7732 8936
4  1413 1564 1592 8948
4  8381 8902 8812 8377
4  8498 8802 8571 8490
4  1648 8719 8901 8720
4  4256 8678 8487 8613
4  8193 8722 8803 8812
4  8816 8818 8603 8815
4  4170 8480 4171 8776
4  1243 1485 1639 8569
4  7771 8578 8618 8819
4  8618 8587 8678 8819
4  7731 7897 6870 8566
4  6418 8482 7296 8774
4  4256 4258 8678 8616
4  8165 8487 6418 8905
4  1241 1485 1243 8571
4  7994 7558 8706 8741
4  4402 4256 8487 8613
4  7301 7721 8576 8575
4  8941 8803 8799 8902
4  1312 1639 1590 8562
4  4439 4244 4258 8616
4  7558 7559 7398 8813
4  1593 8743 8703 8705
4  7731 8566 6865 8567
4  1543 8672 8619 8468
4  7396 7124 8098 8804
4  7845 7771 8774 8819
4  7031 7125 8314 8722
4  4259 4175 4257 8819
4  6418 8487 8482 8905
4  1363 8560 8957 8842
4  1644 1596 1386 8885
4  8427 1241 1243 8571
4  1574 8586 8745 8649
4  7969 8390 8072 8696
4  1445 1555 77 8649
4  8393 8397 8525 8398
4  8586 8583 8582 8585
4  6577 8695 8649 8460
4  8447 8392 8885 8396
4  1959 8930 8967 8669
4  6390 7755 7754 8784
4  8519 8397 8396 8394
4  7731 7729 7897 8565
4  8859 8395 8392 8977
4  7559 7560 7731 8563
4  6704 6673 8960 8742
4  1485 1665 1639 8887
4  8859 8509 8395 8977
4  7200 7813 6721 8710
4  7864 6714 7789 8467
4  8862 8840 8865 8621
4  1386 1385 1513 8519
4  1596 8885 8884 8395
4  1607 1506 8914 8622
4  1387 8884 1313 8509
4  8859 8884 8395 8509
4  1574 8586 1609 8745
4  7932 8708 7865 8746
4  7806 6590 7883 7345
4  1574 1635 8586 8649
4  1635 1263 8586 8585
4  1263 8464 8586 8585
4  8708 8692 8586 8464
4  1946 8435 8499 8951
4  6703 7560 7558 8742
4  1479 6990 6673 8960
4  8500 8435 8502 8951
4  6077 7450 8915 8945
4  8088 7450 7491 8500
4  7451 7491 7450 8945
4  6704 6723 7904 6990
4  6706 7952 8945 8694
4  7904 8960 6990 8961
4  6246 8500 8945 8463
4  8088 7491 8188 8500
4  1655 8915 7450 8951
4  818 6452 6454 8954
4  1685 1655 1069 8951
4  7908 8502 8503 8628
4  7491 6246 7530 8500
4  1480 6780 6990 8961
4  8565 8888 8916 8889
4  6331 6455 6329 8954
4  7896 8920 8889 8919
4  1821 1480 1669 8917
4  1824 8917 8725 8918
4  8896 8895 8556 8581
4  4203 4394 4517 8874
4  8516 8520 8751 8848
4  4203 4517 4450 8610
4  6577 6738 6798 7711
4  6648 8086 8087 8551
4  7987 7997 8890 8551
4  4222 1018 4229 8825
4  7345 8458 8824 8822
4  7570 8459 8626 8627
4  6237 7570 6529 8615
4  4511 8415 8517 8515
4  8458 8504 8927 8459
4  6355 6843 8224 8824
4  4450 4528 4419 8610
4  4190 8762 8415 8848
4  1639 1665 1605 8888
4  7560 8565 7731 8563
4  4218 8922 4215 8660
4  6444 6064 6454 8731
4  7170 8467 7864 8622
4  6247 6714 6250 8462
4  1661 1657 8862 8621
4  1520 1515 1513 8397
4  6454 8731 8875 8954
4  4203 4205 4204 8874
4  4211 4205 4375 8877
4  7699 7951 7465 8412
4  7091 7087 7088 8416
4  6540 8450 8711 8564
4  4205 8912 8614 8900
4  4205 8874 8614 8912
4  7939 7088 7934 8418
4  8216 8831 7596 8790
4  7933 7934 8539 8798
4  7625 8180 8181 8879
4  6126 7305 7625 8879
4  7723 8578 8579 8577
4  7297 8579 7681 8581
4  4204 956 6126 8913
4  8587 8580 8578 8577
4  7301 7845 7723 8578
4  8814 8516 8520 8522
4  4336 4513 4515 8749
4  7297 8581 8558 8577
4  4307 4432 4289 8528
4  4204 4211 956 8913
4  8650 8942 8648 8785
4  6884 8655 8654 8942
4  4336 4515 4514 8749
4  7723 7845 8299 8578
4  4336 8749 8817 8815
4  8558 8581 8559 8580
4  4336 4259 8587 8815
4  8650 8942 8655 8648
4  4160 4410 4221 8653
4  8665 8839 8662 8663
4  4524 4446 4495 8734
4  4218 8660 8517 8657
4  1583 1640 1624 8682
4  1545 1540 1315 8573
4  7839 7926 7946 8399
4  8572 8401 8404 8402
4  4376 8662 8650 8785
4  6665 8655 8845 8727
4  797 1480 1009 6780
4  7904 6723 6991 6990
4  6704 6723 6990 6673
4  4479 8645 8647 8646
4  8548 8844 8645 8727
4  8048 6102 8103 6103
4  4488 8762 4503 8891
4  7765 7857 8923 8761
4  8651 8655 8645 8646
4  4319 8890 4488 8891
4  8263 7991 8169 8760
4  8263 8658 8760 8761
4  8263 8169 7857 8761
4  7992 8892 8187 8893
4  6952 8496 8654 8495
4  136 135 6203 8766
4  8493 8490 8497 8491
4  8298 8949 7252 8936
4  1389 8768 1318 8766
4  7396 8098 8009 8805
4  1309 8568 8570 8804
4  1309 8836 8805 8804
4  8802 8567 8571 8568
4  1309 8805 1528 8546
4  720 820 1333 8136
4  6870 7404 8149 8497
4  1821 8921 8917 8919
4  7376 8520 7380 8522
4  6527 7721 8605 8606
4  8814 8520 8516 8848
4  6565 7499 7389 8636
4  1604 1520 1280 8850
4  7680 8520 7376 8750
4  8423 8868 8866 8867
4  8814 8374 8923 8514
4  8849 8415 8848 8515
4  1557 1398 8938 8832
4  4190 8516 8848 8515
4  1398 1400 8543 8832
4  1557 8938 8935 8832
4  8169 8760 8814 8761
4  8298 7252 7635 8936
4  7857 8814 7753 8923
4  1402 1557 1398 8938
4  7732 8009 7609 8940
4  1585 1601 1578 8856
4  8053 7960 7441 8857
4  7943 7942 6627 8932
4  7939 7934 8554 8418
4  8554 8791 8788 8787
4  1313 1315 1314 8510
4  1673 1663 1662 8683
4  1545 8573 8574 8402
4  7936 8791 8554 8787
4  1314 1540 1292 8510
4  8008 8641 8790 8539
4  7974 6913 8508 8537
4  7517 8790 7596 8792
4  8763 8790 8554 8787
4  1433 1468 1431 8450
4  1356 1552 8763 8422
4  8008 7934 7388 8539
4  7388 8539 8740 8738
4  1311 8740 1356 8798
4  1527 1456 1549 8724
4  1545 1549 1456 8403
4  8545 8937 8965 8538
4  1292 8508 8511 8544
4  7936 7091 7939 8420
4  252 7597 7596 8792
4  6664 6666 8735 8845
4  7017 8236 6476 8471
4  6888 7628 8651 8729
4  8650 8655 8654 8646
4  8644 8729 8656 8645
4  7327 8659 7628 8729
4  8644 8659 8656 8729
4  6476 7052 7738 6857
4  8183 8184 8210 8611
4  6665 6888 8655 8727
4  4419 4187 4205 8614
4  8210 8211 7440 8846
4  7549 7440 8873 8912
4  7549 8210 7440 8912
4  8427 8799 8568 8430
4  4380 8382 8375 8753
4  8714 8901 8721 8720
4  4257 8678 8587 8819
4  4187 4402 4185 8608
4  4171 8480 4402 8487
4  8846 8614 8912 8611
4  7549 8180 7110 8880
4  4364 8557 8971 8559
4  7031 8803 8193 8722
4  7305 7134 7625 8180
4  4430 8899 8533 8481
4  4469 8972 4433 8962
4  7912 8632 8432 8628
4  8083 8108 8084 8969
4  6813 7225 7614 8550
4  8500 8502 8435 8501
4  8188 8500 7530 8502
4  7103 7997 7987 8551
4  7103 7992 8086 8551
4  6648 8087 7614 8551
4  6648 7614 7997 8551
4  7648 7826 7647 8556
4  6704 7560 6703 8742
4  6704 6990 7904 8960
4  1243 1312 1309 8570
4  8506 8499 8503 8501
4  8725 8917 8921 8919
4  7896 8918 7899 8919
4  8187 8896 8849 8892
4  7915 7990 8187 8944
4  7683 8169 8187 8849
4  7896 7897 8565 8889
4  1990 1669 8888 8886
4  8263 7334 8658 8761
4  4503 8762 4190 8752
4  7252 7732 7635 8936
4  6666 8655 6884 8942
4  7497 6808 6781 6780
4  7895 7896 7899 8920
4  7732 8940 7635 8936
4  8920 8886 8889 8919
4  7702 8934 8833 8411
4  8950 8934 8939 8935
4  1358 8407 1359 8422
4  7388 8525 8740 8555
4  1452 8424 8407 8526
4  7630 7638 6952 8653
4  7814 7752 7286 8375
4  4479 8650 4160 8646
4  8651 8644 8652 8646
4  4410 4215 4221 8922
4  7856 8859 8383 8384
4  8857 8383 8926 8387
4  1387 8395 8884 8509
4  8407 8409 8527 8410
4  8379 8381 8377 8376
4  7465 8527 8412 8398
4  7465 7586 8525 8398
4  7586 8393 8525 8398
4  748 4506 992 6603
4  8518 8524 8519 8398
4  1655 878 1069 7450
4  1456 1291 8536 8538
4  8407 8411 8408 8410
4  6795 7861 6794 8852
4  7376 7380 7859 8522
4  7859 8374 8814 8514
4  4480 8380 8959 8758
4  7859 8758 8374 8514
4  4511 4147 4190 8515
4  4350 8414 8548 8549
4  7515 7553 6794 8677
4  7398 7559 7396 8773
4  8565 8960 8957 8563
4  8888 8562 8569 8563
4  1420 1536 1629 8864
4  7017 6795 6793 8474
4  7904 6991 7497 8961
4  7731 8565 7897 8566
4  6890 7630 6952 8653
4  1786 1676 1782 8967
4  1333 8894 8136 8675
4  1333 8136 820 8675
4  1366 1333 1334 8476
4  7813 7546 7445 8841
4  1585 1617 1656 8933
4  7017 6793 6475 8894
4  8650 8654 8496 8495
4  1482 8493 1711 8907
4  8382 8378 8902 8377
4  7813 8670 8667 8710
4  8901 8809 8812 8720
4  8492 8653 8494 8753
4  8543 8685 8937 8832
4  1675 8719 8782 8826
4  7979 7943 7945 8932
4  1595 1565 1675 8572
4  8926 8911 8910 8908
4  8955 8796 8932 8794
4  7942 8795 8684 8794
4  8930 8784 8671 8764
4  1640 1315 8682 8573
4  8797 8796 8955 8794
4  1602 1583 8909 8908
4  1290 1292 1291 8544
4  7368 7609 8545 8940
4  7368 6907 7361 8937
4  8904 8778 8574 8401
4  8782 8401 8572 8402
4  6778 7234 6997 7653
4  6778 7653 7134 8876
4  9 285 4308 6778
4  6920 8778 8781 8445
4  7451 6155 7450 7491
4  8682 8904 8926 8908
4  1798 8444 1673 8445
4  7054 7830 6920 8793
4  8714 8716 8721 8430
4  246 818 4279 8954
4  7453 6331 7402 8250
4  8800 8731 8732 8801
4  8714 8428 8716 8430
4  8709 8590 8595 8865
4  7200 7546 7813 8841
4  1323 8619 8670 8906
4  1482 8714 8721 8430
4  1595 8715 1527 8716
4  7648 7297 7826 8558
4  8511 8400 8403 8536
4  8556 8895 8559 8581
4  6603 7647 8239 8556
4  7174 8239 6603 7647
4  4321 8754 8505 8461
4  8271 8811 8809 8830
4  8810 8719 8716 8720
4  8714 1648 8901 8720
4  7648 7647 7464 8975
4  8239 8971 8556 8944
4  8896 8762 8849 8892
4  8314 8722 8059 8723
4  4430 4185 4404 8481
4  7602 8481 8436 8437
4  1389 8866 1444 8768
4  7700 7388 7934 8540
4  8412 8424 8407 8411
4  7190 8413 7700 8409
4  1528 1402 1398 8965
4  4434 4418 4432 8532
4  7086 7599 6416 8869
4  6751 6441 8869 8867
4  1433 1427 1024 6559
4  7238 7111 7235 8437
4  7648 8556 7647 8975
4  7648 6527 7721 8605
4  8534 8535 8529 8531
4  7234 7235 7653 8881
4  7648 7721 7297 8558
4  4192 8751 8559 8752
4  4456 8533 8528 8882
4  8922 8924 8653 8753
4  8929 8758 8521 8759
4  7835 8532 7227 8531
4  7111 7602 6422 8436
4  4307 4456 4432 8528
4  6422 7602 6418 8487
4  1565 1549 1545 8402
4  8183 7111 6422 8436
4  6890 8654 8651 8653
4  8533 8899 8438 8481
4  4440 4404 4170 8452
4  4424 4404 4440 8453
4  6918 8904 7735 8401
4  1291 8543 8544 8538
4  1292 1540 8511 8510
4  1670 1640 1663 8681
4  7153 7156 7837 8977
4  1534 1661 1570 8862
4  7153 8859 8392 8977
4  6920 8793 8684 8445
4  7942 8209 7830 8684
4  7943 7960 7942 8795
4  1656 1672 1602 8797
4  7960 8857 8926 8911
4  6126 7627 6125 8786
4  7345 7828 8458 8822
4  1545 8573 1640 8574
4  4211 8877 7305 8913
4  867 672 6125 8786
4  7560 8813 8742 8563
4  1669 8916 8888 8889
4  4323 738 467 6788
4  7897 8498 8566 8889
4  7731 6870 6865 8566
4  8862 8840 8620 8906
4  1639 8888 1605 8562
4  1990 8888 1665 8887
4  6991 6990 6780 8961
4  1479 8957 1605 8916
4  1479 8960 6673 8842
4  8595 8594 8943 8863
4  1534 1629 1536 8691
4  8438 8899 8485 8481
4  7515 7516 7433 8865
4  8870 8808 8807 8389
4  1590 8957 1363 8560
4  6704 8960 7560 8742
4  1629 1334 1333 8690
4  6793 6795 6794 8676
4  8691 8871 8677 8862
4  1245 8691 1534 8854
4  8565 8957 8888 8563
4  1824 6780 1480 8918
4  1669 1605 8888 8916
4  8856 8808 8870 8389
4  1990 8886 8888 8887
4  8640 8746 8745 8747
4  1480 8961 8916 8918
4  1574 1608 1380 8745
4  7704 7423 7932 8592
4  1815 1669 1990 8886
4  7896 8920 7897 8889
4  8693 8692 8462 8585
4  8670 8853 8906 8841
4  8506 8503 8499 8765
4  7170 6714 7864 8467
4  7946 7735 8208 8904
4  8399 8401 8574 8402
4  6870 8498 8802 8566
4  1314 1315 1540 8510
4  7896 8961 8918 8889
4  7895 7897 7896 8920
4  1557 1400 1398 8832
4  7017 8236 8471 8894
4  1478 1366 1615 8471
4  1366 1334 1615 8476
4  720 8136 1333 8894
4  7738 8470 8474 8471
4  7976 7635 7368 8833
4  1290 1292 8544 8687
4  7699 7976 8685 8411
4  1459 8965 1398 8543
4  6907 8537 8937 8538
4  6475 6793 6980 8136
4  1400 8686 8543 8832
4  7793 8693 8692 8462
4  1258 1628 1543 8465
4  7382 8623 8764 8629
4  7718 7936 7517 8792
4  7718 7720 7642 8564
4  7699 7700 7702 8410
4  8939 8833 8934 8411
4  7190 7700 7088 8409
4  1609 1653 1608 8707
4  1642 8698 8974 8448
4  8586 8746 8745 8806
4  7497 6780 6781 8918
4  7497 6991 6780 8961
4  6809 6781 8725 8918
4  7899 8918 8725 8919
4  1574 1635 1609 8586
4  6323 7743 6319 8529
4  6323 6321 7061 7743
4  7864 7789 7865 8708
4  6319 7234 8528 8529
4  1609 1263 1653 8707
4  8606 8615 8576 8547
4  4143 8516 8751 8848
4  6237 7828 7570 8459
4  6237 6530 6235 8504
4  4190 8516 4143 8848
4  8929 8818 8931 8759
4  6565 6058 8175 8639
4  6571 6568 7537 8699
4  8700 8953 8448 8739
4  8299 8520 8579 8817
4  7683 7990 7681 8896
4  7723 7680 7681 8579
4  7301 7723 7297 8577
4  8516 8522 8757 8523
4  4506 6603 8971 8975
4  8896 8944 8895 8891
4  8896 8762 8895 8752
4  4143 8751 8516 8523
4  7814 7630 8924 8753
4  4376 8650 4446 8785
4  7156 7839 7837 8508
4  8403 8402 8404 8406
4  4151 4147 4489 8514
4  8511 8400 8508 8399
4  1313 1314 8509 8510
4  7421 8926 8053 8383
4  1540 8573 8511 8510
4  7814 7753 7752 8374
4  4489 8373 8513 8375
4  7814 7629 8923 8924
4  4380 4489 8922 8375
4  1246 1627 8385 8388
4  7823 7296 6418 8482
4  4430 4404 8453 8481
4  1386 1596 1387 8395
4  8618 8819 8678 8905
4  1596 8884 1387 8395
4  1292 8508 8544 8687
4  1673 8680 1663 8683
4  7563 8807 8871 8851
4  1624 8682 1315 8925
4  1627 1313 1651 8391
4  8719 8830 8811 8826
4  8829 8828 8457 8780
4  8053 8383 8857 8384
4  7430 8031 6262 8829
4  1275 8740 8526 8555
4  7699 8412 8527 8410
4  1807 1675 1674 8826
4  7699 8685 8412 8411
4  797 6990 1480 6780
4  1513 8519 1613 8526
4  7465 8525 8527 8398
4  7699 7976 7951 8685
4  1452 8407 1358 8555
4  1452 1613 8424 8526
4  672 6126 6125 8786
4  6316 7899 8725 8839
4  4204 8874 4205 8913
4  8650 8839 8921 8496
4  8647 8645 8655 8646
4  4211 7305 956 8913
4  7331 7327 8087 8542
4  6813 6822 7225 8550
4  4477 4524 4329 8661
4  4329 8730 8732 8733
4  7629 8659 8660 8652
4  8263 7765 7334 8761
4  7857 8814 8923 8761
4  4488 4190 8762 8415
4  8169 7376 8814 8849
4  4215 8513 4512 8660
4  8814 8849 8848 8515
4  1527 1459 1456 8724
4  7451 7450 6077 8945
4  8203 8205 8031 8780
4  1528 1402 8965 8805
4  1459 8965 8543 8538
4  811 878 1393 6077
4  1398 1400 1291 8543
4  1456 1291 1292 8544
4  8852 8851 8691 8689
4  931 6857 8236 8471
4  1402 1398 8965 8938
4  1366 1333 8476 8894
4  1565 1670 1674 8782
4  6627 7942 7830 8794
4  1663 1640 1583 8682
4  1656 8796 8909 8933
4  8009 8098 7609 8805
4  4160 8653 4221 8646
4  1380 6270 1377 8748
4  8707 8708 8709 8746
4  7699 7702 7976 8411
4  1359 1507 1264 8408
4  1445 1450 1635 8582
4  7865 8746 8708 8806
4  6577 7711 8695 8460
4  1380 1608 1501 8589
4  6706 6798 8006 8694
4  811 6077 1393 8584
4  7952 8006 8693 8694
4  1377 8748 6103 8897
4  1555 8748 1377 8897
4  8707 8708 8586 8464
4  1670 8782 8574 8680
4  8193 8803 8902 8812
4  6738 7411 7711 8460
4  8586 8649 8695 8806
4  1574 1555 1445 8649
4  1726 8901 8719 8830
4  6706 6077 6797 8694
4  8714 8901 1647 8721
4  1655 1257 1393 8915
4  1655 1393 878 8915
4  7451 6706 7952 8945
4  7138 6829 7694 8769
4  6205 7138 7651 6207
4  135 1389 1318 8766
4  135 1318 636 6207
4  8730 8737 8837 8954
4  4495 8734 8835 8736
4  8661 8732 8666 8733
4  6345 8941 8034 8902
4  246 7402 6452 8954
4  6314 7843 8666 8731
4  818 876 4328 6454
4  1824 1480 8917 8918
4  8250 7843 7696 8737
4  4331 8875 6064 8801
4  8203 7888 8205 8847
4  4279 8837 7402 8954
4  6916 6781 6062 8726
4  6316 6956 7899 8839
4  4308 4375 4456 8878
4  7110 7653 7235 8881
4  6315 6916 6062 8726
4  4456 8878 8883 8882
4  6318 8942 8839 8663
4  4511 4218 4512 8517
4  4489 4147 4512 8513
4  6315 6314 6316 8800
4  4477 8661 8732 8664
4  8659 8656 8729 8552
4  7638 8653 8494 8495
4  7886 7888 8203 8847
4  8979 8980 8981 8726
4  8726 8801 8980 8981
4  8982 8981 8980 8801
4  1034 8979 8359 1035
4  8979 8726 8359 1035
4  8359 8726 6062 1035
4  8981 4543 8360 8801
4  4543 4331 8360 8801
4  8360 4331 6064 8801
4  1034 1677 8979 1035
4  1035 8726 1677 8979
4  8980 8979 1677 8726
4  8981 8982 4543 8801
4  8801 4331 8982 4543
4  4544 4543 8982 4331
4  8981 8360 8359 8801
4  8360 6064 6062 8801
4  8359 8360 6062 8801
4  876 4331 6064 8983
4  8360 4543 1037 8983
4  1037 4543 876 8983
4  4331 876 4543 8983
4  4543 8360 4331 8983
4  6064 4331 8360 8983
4  8360 1037 6064 8983
4  876 6064 1037 8983
4  8979 8981 8359 8726
4  8981 8801 8359 8726
4  8359 8801 6062 8726
4  8984 8985 8364 8426
4  8985 8434 8364 8426
4  8364 8434 8090 8426
4  8984 8986 8985 8426
4  8426 8434 8986 8985
4  8987 8985 8986 8434
4  1067 8363 8988 1069
4  8363 8088 8988 1069
4  8988 8088 8951 1069
4  1684 1067 8988 1685
4  1067 1069 8988 1685
4  8988 1069 8951 1685
4  8363 8985 8988 8088
4  8985 8434 8988 8088
4  8988 8434 8951 8088
4  8985 1684 8988 8434
4  1684 1685 8988 8434
4  8988 1685 8951 8434
4  1066 8984 8364 329
4  8984 8426 8364 329
4  8364 8426 8090 329
4  8985 8987 1684 8434
4  8434 1685 8987 1684
4  1686 1684 8987 1685
4  8434 8090 8088 8989
4  8363 8364 8985 8989
4  8985 8364 8434 8989
4  8090 8434 8364 8989
4  8364 8363 8090 8989
4  8088 8090 8363 8989
4  8363 8985 8088 8989
4  8434 8088 8985 8989
4  8986 8984 4557 8426
4  8426 329 8984 4557
4  1066 4557 8984 329
4  8987 8986 8990 8434
4  8986 8426 8990 8434
4  8990 8426 8435 8434
4  1766 1686 8990 1768
4  1686 1685 8990 1768
4  8990 1685 8435 1768
4  1766 8990 8991 1768
4  8990 8435 8991 1768
4  8991 8435 8631 1768
4  4634 8986 4557 4301
4  8986 8426 4557 4301
4  4557 8426 329 4301
4  1686 8987 8990 1685
4  8987 8434 8990 1685
4  8990 8434 8435 1685
4  8986 8991 8990 8426
4  8991 8631 8435 8426
4  8990 8991 8435 8426
4  4634 8991 8986 4301
4  8991 8631 8426 4301
4  8986 8991 8426 4301
4  8992 8991 4633 8631
4  8631 4301 8991 4633
4  4634 4633 8991 4301
4  1770 1766 8991 1768
4  1768 8631 8991 1770
4  8991 8992 1770 8631
4  8993 8994 8992 8431
4  8994 8630 8992 8431
4  8992 8630 8631 8431
4  8993 8992 4633 8431
4  8992 8631 4633 8431
4  4633 8631 4301 8431
4  8992 8995 1770 8631
4  8995 8634 1770 8631
4  1770 8634 1768 8631
4  8995 8994 1773 8634
4  8994 8630 1773 8634
4  1773 8630 1772 8634
4  8995 1773 1770 8634
4  1773 1772 1770 8634
4  1770 1772 1768 8634
4  8634 8630 8631 8996
4  8992 8994 8995 8996
4  8995 8994 8634 8996
4  8630 8634 8994 8996
4  8994 8992 8630 8996
4  8631 8630 8992 8996
4  8992 8995 8631 8996
4  8634 8631 8995 8996
4  8993 4637 8994 8431
4  4637 4501 8994 8431
4  8994 4501 8630 8431
4  8993 4633 4637 8431
4  4633 4301 4637 8431
4  4637 4301 4501 8431
4  8997 8994 4641 8630
4  8630 4501 8994 4641
4  4637 4641 8994 4501
4  1774 1773 8997 1772
4  1772 8630 1773 8997
4  8994 8997 1773 8630
4  8998 8997 8999 8783
4  8997 8630 8999 8783
4  8999 8630 8972 8783
4  8998 1774 8997 8783
4  1774 1772 8997 8783
4  8997 1772 8630 8783
4  4646 4648 8999 4433
4  4433 8972 4648 8999
4  9000 8999 4648 8972
4  8997 9001 8999 8630
4  9001 8963 8999 8630
4  8999 8963 8972 8630
4  8997 4641 9001 8630
4  4641 4501 9001 8630
4  9001 4501 8963 8630
4  8998 1776 1774 8783
4  1776 1777 1774 8783
4  1774 1777 1772 8783
4  9001 4646 8999 8963
4  4646 4433 8999 8963
4  8999 4433 8972 8963
4  8998 8999 1776 8783
4  8999 8972 1776 8783
4  1776 8972 1777 8783
4  8999 9000 1776 8972
4  8972 1777 9000 1776
4  1778 1776 9000 1777
4  4641 4646 9001 4501
4  4646 4433 8963 4501
4  9001 4646 8963 4501
4  1783 1778 9002 1782
4  1778 1777 9002 1782
4  9002 1777 8964 1782
4  9003 9002 9004 8964
4  8964 8903 9002 9004
4  9005 9004 9002 8903
4  9004 9005 4655 8903
4  8903 4469 9005 4655
4  4652 4655 9005 4469
4  4652 9005 9000 4469
4  9005 8903 9000 4469
4  9000 8903 8972 4469
4  4469 4433 8972 9006
4  9000 4648 4652 9006
4  4652 4648 4433 9006
4  4433 4469 4652 9006
4  4648 9000 8972 9006
4  8972 4433 4648 9006
4  9000 4652 4469 9006
4  4469 8972 9000 9006
4  9005 9002 9000 8903
4  9002 8964 9000 8903
4  9000 8964 8972 8903
4  1785 1783 9002 1782
4  1782 8964 9002 1785
4  9002 9003 1785 8964
4  1778 9000 9002 1777
4  9000 8972 8964 1777
4  9002 9000 8964 1777
4  9007 9008 9004 8970
4  9008 8966 9004 8970
4  9004 8966 8903 8970
4  9007 9009 4661 8970
4  9009 8958 4661 8970
4  4661 8958 4472 8970
4  9008 9003 9004 8966
4  9003 8964 9004 8966
4  9004 8964 8903 8966
4  9008 1785 9003 8966
4  1785 1782 8964 8966
4  9003 1785 8964 8966
4  9004 4655 9009 8903
4  4655 4469 9009 8903
4  9009 4469 8958 8903
4  9010 9008 9011 8966
4  8966 8970 9008 9011
4  9007 9011 9008 8970
4  9007 9004 9009 8970
4  9004 8903 9009 8970
4  9009 8903 8958 8970
4  4655 4661 9009 4469
4  4661 4472 8958 4469
4  9009 4661 8958 4469
4  9011 9007 4661 8970
4  8970 4472 4661 9011
4  4661 4660 9011 4472
4  9008 1788 1785 8966
4  1788 1786 1785 8966
4  1785 1786 1782 8966
4  1787 1788 9010 1786
4  1786 8966 1788 9010
4  9008 9010 1788 8966
4  9012 1791 9013 8442
4  1791 1792 9013 8442
4  9013 1792 8446 8442
4  9012 9013 9014 8442
4  9013 8446 9014 8442
4  9014 8446 8439 8442
4  4660 9015 9011 4472
4  9015 8455 9011 4472
4  9011 8455 8970 4472
4  9016 9012 9014 8442
4  8442 8439 9014 9016
4  9014 9017 9016 8439
4  1793 1791 9016 1792
4  1792 8442 1791 9016
4  9012 9016 1791 8442
4  9013 9015 9014 8446
4  9015 8455 9014 8446
4  9014 8455 8439 8446
4  9015 4663 9014 8455
4  4663 4468 9014 8455
4  9014 4468 8439 8455
4  9017 9014 4667 8439
4  8439 4468 9014 4667
4  4663 4667 9014 4468
4  1787 9010 9013 1786
4  9010 8966 9013 1786
4  9013 8966 8446 1786
4  1791 1787 9013 1792
4  1787 1786 9013 1792
4  9013 1786 8446 1792
4  9010 9011 9013 8966
4  9011 8970 9013 8966
4  9013 8970 8446 8966
4  8455 8970 8446 9018
4  9013 9011 9015 9018
4  9015 9011 8455 9018
4  8970 8455 9011 9018
4  9011 9013 8970 9018
4  8446 8970 9013 9018
4  9013 9015 8446 9018
4  8455 8446 9015 9018
4  4660 4663 9015 4472
4  4663 4468 8455 4472
4  9015 4663 8455 4472
4  9017 9019 9016 8439
4  9019 8444 9016 8439
4  9016 8444 8442 8439
4  9019 1796 9016 8444
4  1796 1798 9016 8444
4  9016 1798 8442 8444
4  9020 9019 9021 8444
4  8444 8600 9019 9021
4  9022 9021 9019 8600
4  1796 1793 9016 1798
4  1793 1792 9016 1798
4  9016 1792 8442 1798
4  9017 9022 9019 8439
4  9022 8600 9019 8439
4  9019 8600 8444 8439
4  9021 9022 4672 8600
4  8600 4463 9022 4672
4  4671 4672 9022 4463
4  9017 4671 9022 8439
4  4671 4463 9022 8439
4  9022 4463 8600 8439
4  9017 4667 4671 8439
4  4667 4468 4671 8439
4  4671 4468 4463 8439
4  1800 1796 9020 1798
4  1798 8444 1796 9020
4  9019 9020 1796 8444
4  9021 4672 4674 8600
4  4672 4463 4674 8600
4  4674 4463 4462 8600
4  9023 1803 9020 8457
4  1803 1801 9020 8457
4  9020 1801 8444 8457
4  9024 9021 4674 8600
4  8600 4462 4674 9024
4  4674 4678 9024 4462
4  1803 1800 9020 1801
4  1800 1798 9020 1801
4  9020 1798 8444 1801
4  1802 1803 9025 1801
4  1801 8457 1803 9025
4  9023 9025 1803 8457
4  9023 9020 9021 8457
4  9020 8444 9021 8457
4  9021 8444 8600 8457
4  9025 9023 9021 8457
4  8457 8600 9021 9025
4  9021 9024 9025 8600
4  9026 9027 1806 8828
4  9027 8827 1806 8828
4  1806 8827 1807 8828
4  9026 9028 9027 8828
4  9028 8928 9027 8828
4  9027 8928 8827 8828
4  4680 4685 9028 4414
4  4414 8928 4685 9028
4  9029 9028 4685 8928
4  9028 9024 9030 8928
4  9024 8600 9030 8928
4  9030 8600 8604 8928
4  4678 9030 9024 4462
4  9030 8604 8600 4462
4  9024 9030 8600 4462
4  4678 4680 9030 4462
4  4680 4414 9030 4462
4  9030 4414 8604 4462
4  9028 9025 9024 8928
4  9025 8457 8600 8928
4  9024 9025 8600 8928
4  1802 9025 9026 1801
4  9025 8457 9026 1801
4  9026 8457 8828 1801
4  8457 8828 8928 9031
4  9028 9026 9025 9031
4  9025 9026 8457 9031
4  8828 8457 9026 9031
4  9026 9028 8828 9031
4  8928 8828 9028 9031
4  9028 9025 8928 9031
4  8457 8928 9025 9031
4  9028 9029 9027 8928
4  8928 8827 9029 9027
4  9032 9027 9029 8827
4  4680 9028 9030 4414
4  9028 8928 9030 4414
4  9030 8928 8604 4414
4  8828 1801 1807 9033
4  1806 1802 9026 9033
4  9026 1802 1801 9033
4  1801 8828 9026 9033
4  1802 1806 1807 9033
4  1807 1801 1802 9033
4  1806 9026 8828 9033
4  8828 1807 1806 9033
4  9027 9032 1806 8827
4  8827 1807 9032 1806
4  1808 1806 9032 1807
4  9034 9035 9036 8838
4  8838 8830 9035 9036
4  9037 9036 9035 8830
4  9034 9029 9038 8838
4  9029 8928 9038 8838
4  9038 8928 8959 8838
4  9034 9036 9032 8838
4  9036 8830 9032 8838
4  9032 8830 8827 8838
4  9036 1811 9032 8830
4  1811 1726 9032 8830
4  9032 1726 8827 8830
4  9034 9032 9029 8838
4  9032 8827 9029 8838
4  9029 8827 8928 8838
4  4685 4689 9038 4414
4  4689 4480 9038 4414
4  9038 4480 8959 4414
4  9039 9040 4691 8380
4  8380 4480 9040 4691
4  4689 4691 9040 4480
4  9040 9039 9034 8380
4  8380 8838 9039 9034
4  9035 9034 9039 8838
4  9040 9034 9038 8380
4  9034 8838 9038 8380
4  9038 8838 8959 8380
4  1811 1808 9032 1726
4  1808 1807 9032 1726
4  9032 1807 8827 1726
4  9029 4685 9038 8928
4  4685 4414 9038 8928
4  9038 4414 8959 8928
4  9036 9037 1811 8830
4  8830 1726 9037 1811
4  1728 1811 9037 1726
4  4689 9040 9038 4480
4  9040 8380 9038 4480
4  9038 8380 8959 4480
4  9037 9035 9041 8830
4  9035 8838 9041 8830
4  9041 8838 8381 8830
4  9041 1736 9042 8381
4  1736 1647 9042 8381
4  9042 1647 8901 8381
4  9043 9041 9039 8376
4  9041 8381 9039 8376
4  9039 8381 8380 8376
4  9044 9043 4694 8376
4  8376 4484 9043 4694
4  4693 4694 9043 4484
4  9043 9044 9041 8376
4  8376 8381 9044 9041
4  9045 9041 9044 8381
4  9039 4691 4693 8380
4  4691 4480 4693 8380
4  4693 4480 4484 8380
4  9035 9039 9041 8838
4  9039 8380 8381 8838
4  9041 9039 8381 8838
4  4484 8380 8376 9046
4  9043 9039 4693 9046
4  4693 9039 8380 9046
4  8380 4484 4693 9046
4  9039 9043 8376 9046
4  8376 8380 9039 9046
4  9043 4693 4484 9046
4  4484 8376 9043 9046
4  1728 9037 9042 1726
4  9037 8830 9042 1726
4  9042 8830 8901 1726
4  1736 1728 9042 1647
4  1728 1726 9042 1647
4  9042 1726 8901 1647
4  9041 9045 1736 8381
4  8381 1647 9045 1736
4  1734 1736 9045 1647
4  9037 9041 9042 8830
4  9041 8381 9042 8830
4  9042 8381 8901 8830
4  9045 9044 9047 8381
4  9044 8376 9047 8381
4  9047 8376 8382 8381
4  9044 4694 9047 8376
4  4694 4484 9047 8376
4  9047 4484 8382 8376
4  9045 9047 9048 8381
4  9047 8382 9048 8381
4  9048 8382 8902 8381
4  4694 4696 9047 4484
4  4696 4380 9047 4484
4  9047 4380 8382 4484
4  9049 9048 9050 8902
4  8902 8382 9048 9050
4  9047 9050 9048 8382
4  9050 9047 4698 8382
4  8382 4380 9047 4698
4  4696 4698 9047 4380
4  1734 9045 9048 1647
4  9045 8381 9048 1647
4  9048 8381 8902 1647
4  1757 1759 9049 1482
4  1482 8902 1759 9049
4  9048 9049 1759 8902
4  8902 1647 1482 9051
4  1759 1734 9048 9051
4  9048 1734 1647 9051
4  1647 8902 9048 9051
4  1734 1759 1482 9051
4  1482 1647 1734 9051
4  1759 9048 8902 9051
4  8902 1482 1759 9051
4  9052 9053 9050 8753
4  9053 8492 9050 8753
4  9050 8492 8382 8753
4  9049 9050 9053 8902
4  9050 8382 8492 8902
4  9053 9050 8492 8902
4  1757 9049 9054 1482
4  9049 8902 9054 1482
4  9054 8902 8493 1482
4  9049 9053 9054 8902
4  9053 8492 9054 8902
4  9054 8492 8493 8902
4  9052 4699 9053 8753
4  4699 4410 9053 8753
4  9053 4410 8492 8753
4  9053 1712 9054 8492
4  1712 1711 9054 8492
4  9054 1711 8493 8492
4  1757 9054 1712 1482
4  9054 8493 1711 1482
4  1712 9054 1711 1482
4  9052 9050 4698 8753
4  9050 8382 4698 8753
4  4698 8382 4380 8753
4  9052 4698 4699 8753
4  4698 4380 4699 8753
4  4699 4380 4410 8753
4  9055 9053 4700 8492
4  8492 4410 9053 4700
4  4699 4700 9053 4410
4  1718 1712 9055 1711
4  1711 8492 1712 9055
4  9053 9055 1712 8492
4  9056 9055 9057 8495
4  9055 8492 9057 8495
4  9057 8492 8653 8495
4  9056 9058 9059 8495
4  8495 8488 9058 9059
4  9060 9059 9058 8488
4  9055 4700 9057 8492
4  4700 4410 9057 8492
4  9057 4410 8653 8492
4  9056 9059 9055 8495
4  9059 8488 9055 8495
4  9055 8488 8492 8495
4  9059 1716 9055 8488
4  1716 1671 9055 8488
4  9055 1671 8492 8488
4  9059 9060 1716 8488
4  8488 1671 9060 1716
4  1813 1716 9060 1671
4  4700 4701 9057 4410
4  4701 4160 9057 4410
4  9057 4160 8653 4410
4  1716 1718 9055 1671
4  1718 1711 9055 1671
4  9055 1711 8492 1671
4  4701 9056 9057 4160
4  9056 8495 9057 4160
4  9057 8495 8653 4160
4  9058 9056 4703 8495
4  8495 4160 9056 4703
4  4701 4703 9056 4160
4  9060 9058 9061 8488
4  9058 8495 9061 8488
4  9061 8495 8496 8488
4  9061 9062 9063 8496
4  9062 8650 9063 8496
4  9063 8650 8921 8496
4  9060 9061 9063 8488
4  9061 8496 9063 8488
4  9063 8496 8921 8488
4  9058 9062 9061 8495
4  9062 8650 8496 8495
4  9061 9062 8496 8495
4  9060 9063 1814 8488
4  9063 8921 1814 8488
4  1814 8921 1815 8488
4  8488 1671 1815 9064
4  1814 1813 9060 9064
4  9060 1813 1671 9064
4  1671 8488 9060 9064
4  1813 1814 1815 9064
4  1815 1671 1813 9064
4  1814 9060 8488 9064
4  8488 1815 1814 9064
4  9063 9065 1814 8921
4  8921 1815 9065 1814
4  1818 1814 9065 1815
4  4710 4711 9062 4376
4  4376 8650 4711 9062
4  9066 9062 4711 8650
4  4703 4710 9062 4160
4  4710 4376 9062 4160
4  9062 4376 8650 4160
4  9058 4703 9062 8495
4  4703 4160 9062 8495
4  9062 4160 8650 8495
4  9062 9066 9063 8650
4  8650 8921 9066 9063
4  9065 9063 9066 8921
4  9067 9068 4718 8662
4  8662 4379 9068 4718
4  4717 4718 9068 4379
4  1822 1818 9065 1821
4  1818 1815 9065 1821
4  9065 1815 8921 1821
4  9065 9066 9068 8921
4  9066 8650 9068 8921
4  9068 8650 8662 8921
4  4711 4717 9068 4376
4  4717 4379 9068 4376
4  9068 4379 8662 4376
4  9066 4711 9068 8650
4  4711 4376 9068 8650
4  9068 4376 8662 8650
4  1823 1822 9065 1821
4  1821 8921 9065 1823
4  9065 9069 1823 8921
4  9069 9065 9068 8921
4  8921 8662 9068 9069
4  9068 9067 9069 8662
4  9067 4718 9070 8662
4  4718 4379 9070 8662
4  9070 4379 8664 8662
4  9071 9072 9073 8665
4  8665 8664 9072 9073
4  9070 9073 9072 8664
4  9073 9070 4724 8664
4  8664 4477 9070 4724
4  4721 4724 9070 4477
4  1825 1826 9071 1824
4  1824 8665 1826 9071
4  9072 9071 1826 8665
4  9067 9070 9072 8662
4  9070 8664 9072 8662
4  9072 8664 8665 8662
4  9069 9072 1823 8921
4  9072 8665 1823 8921
4  1823 8665 1821 8921
4  4718 4721 9070 4379
4  4721 4477 9070 4379
4  9070 4477 8664 4379
4  9067 9072 9069 8662
4  9072 8665 8921 8662
4  9069 9072 8921 8662
4  9072 1826 1823 8665
4  1826 1824 1823 8665
4  1823 1824 1821 8665
4  9071 9073 8980 8665
4  9073 8664 8980 8665
4  8980 8664 8726 8665
4  9073 8982 8980 8664
4  8982 8801 8980 8664
4  8980 8801 8726 8664
4  4544 8982 9074 4331
4  8982 8801 9074 4331
4  9074 8801 8732 4331
4  9073 4724 9074 8664
4  4724 4477 9074 8664
4  9074 4477 8732 8664
4  8980 1677 1825 8726
4  1677 1035 1825 8726
4  1825 1035 1824 8726
4  4724 4544 9074 4477
4  4544 4331 9074 4477
4  9074 4331 8732 4477
4  8726 8665 1824 9075
4  1825 9071 8980 9075
4  8980 9071 8665 9075
4  8665 8726 8980 9075
4  9071 1825 1824 9075
4  1824 8665 9071 9075
4  1825 8980 8726 9075
4  8726 1824 1825 9075
4  9073 9074 8982 8664
4  9074 8732 8801 8664
4  8982 9074 8801 8664
4  2001 9076 9077 1999
4  2001 9078 9079 1102
4  2001 9077 9076 9079
4  2001 9079 9078 9077
4  9078 9077 9079 8979
4  8979 8981 9077 9079
4  9076 9079 9077 8981
4  9078 1107 8367 1102
4  1107 9078 8367 1034
4  9078 8979 8367 1034
4  8367 8979 8359 1034
4  4861 9079 8368 1102
4  9079 4861 8368 8981
4  4861 4543 8368 8981
4  8368 4543 8360 8981
4  2001 9077 2000 1999
4  2001 1107 9078 1102
4  2001 2000 9077 9078
4  2001 9078 1107 2000
4  1107 2000 9078 1034
4  1034 8979 2000 9078
4  9077 9078 2000 8979
4  2001 4860 9076 1999
4  2001 9079 4861 1102
4  2001 9076 4860 4861
4  2001 4861 9079 9076
4  9079 9076 4861 8981
4  8981 4543 9076 4861
4  4860 4861 9076 4543
4  8368 9079 8367 1102
4  9079 8368 8367 8981
4  8368 8360 8359 8981
4  8367 8368 8359 8981
4  1108 4861 8368 1102
4  1037 4543 8360 9080
4  8368 4861 1108 9080
4  1108 4861 1037 9080
4  4543 1037 4861 9080
4  4861 8368 4543 9080
4  8360 4543 8368 9080
4  8368 1108 8360 9080
4  1037 8360 1108 9080
4  9079 9078 8367 1102
4  9078 9079 8367 8979
4  9079 8981 8367 8979
4  8367 8981 8359 8979
4  9081 9082 8372 1141
4  9082 9081 8372 8984
4  9081 8985 8372 8984
4  8372 8985 8364 8984
4  2019 9083 9084 2023
4  2019 9082 9081 1141
4  2019 9084 9083 9081
4  2019 9081 9082 9084
4  9082 9084 9081 8984
4  8984 8985 9084 9081
4  9083 9081 9084 8985
4  8371 1147 9085 1141
4  1147 8371 9085 1067
4  8371 8363 9085 1067
4  9085 8363 8988 1067
4  1147 2018 9085 1141
4  2018 1147 9085 1684
4  1147 1067 9085 1684
4  9085 1067 8988 1684
4  9081 8371 9085 1141
4  8371 9081 9085 8363
4  9081 8985 9085 8363
4  9085 8985 8988 8363
4  2018 9081 9085 1141
4  9081 2018 9085 8985
4  2018 1684 9085 8985
4  9085 1684 8988 8985
4  9082 1145 8372 1141
4  1145 9082 8372 1066
4  9082 8984 8372 1066
4  8372 8984 8364 1066
4  2019 2021 9083 2023
4  2019 9081 2018 1141
4  2019 9083 2021 2018
4  2019 2018 9081 9083
4  9081 9083 2018 8985
4  8985 1684 9083 2018
4  2021 2018 9083 1684
4  9081 8372 8371 1141
4  8985 8364 8363 9086
4  8371 8372 9081 9086
4  9081 8372 8985 9086
4  8364 8985 8372 9086
4  8372 8371 8364 9086
4  8363 8364 8371 9086
4  8371 9081 8363 9086
4  8985 8363 9081 9086
4  2019 9084 4872 2023
4  2019 1145 9082 1141
4  2019 4872 9084 9082
4  2019 9082 1145 4872
4  1145 4872 9082 1066
4  1066 8984 4872 9082
4  9084 9082 4872 8984
4  2330 9087 9088 2023
4  2330 9089 9090 2334
4  2330 9088 9087 9090
4  2330 9090 9089 9088
4  9089 9088 9090 8987
4  8987 8986 9088 9090
4  9087 9090 9088 8986
4  2330 9088 2329 2023
4  2330 2332 9089 2334
4  2330 2329 9088 9089
4  2330 9089 2332 2329
4  2332 2329 9089 1686
4  1686 8987 2329 9089
4  9088 9089 2329 8987
4  2330 5005 9087 2023
4  2330 9090 5006 2334
4  2330 9087 5005 5006
4  2330 5006 9090 9087
4  9090 9087 5006 8986
4  8986 4557 9087 5006
4  5005 5006 9087 4557
4  9090 9089 9091 2334
4  9089 9090 9091 8987
4  9090 8986 9091 8987
4  9091 8986 8990 8987
4  2332 2337 9091 2334
4  2337 2332 9091 1766
4  2332 1686 9091 1766
4  9091 1686 8990 1766
4  9091 2337 9092 2334
4  2337 9091 9092 1766
4  9091 8990 9092 1766
4  9092 8990 8991 1766
4  9090 5015 5006 2334
4  5015 9090 5006 4634
4  9090 8986 5006 4634
4  5006 8986 4557 4634
4  9089 2332 9091 2334
4  2332 9089 9091 1686
4  9089 8987 9091 1686
4  9091 8987 8990 1686
4  9092 9090 9091 2334
4  9090 9092 9091 8986
4  9092 8991 8990 8986
4  9091 9092 8990 8986
4  9092 5015 9090 2334
4  5015 9092 9090 4634
4  9092 8991 8986 4634
4  9090 9092 8986 4634
4  2344 9093 5014 2343
4  2344 5015 9092 2334
4  2344 5014 9093 9092
4  2344 9092 5015 5014
4  5015 5014 9092 4634
4  4634 8991 5014 9092
4  9093 9092 5014 8991
4  2344 2345 9093 2343
4  2344 9092 2337 2334
4  2344 9093 2345 9092
4  2344 2337 9092 2345
4  9092 9093 2345 8991
4  8991 1766 2345 9092
4  2345 2337 9092 1766
4  2348 5019 9094 2343
4  2348 9095 5020 2347
4  2348 9094 5019 5020
4  2348 5020 9095 9094
4  9095 9094 5020 8992
4  8992 4633 9094 5020
4  5019 5020 9094 4633
4  2348 9094 2351 2343
4  2348 2349 9095 2347
4  2348 2351 9094 9095
4  2348 9095 2349 2351
4  2349 2351 9095 1770
4  1770 8992 2351 9095
4  9094 9095 2351 8992
4  9096 9097 9095 2347
4  9097 9096 9095 8993
4  9096 8994 9095 8993
4  9095 8994 8992 8993
4  9095 9097 5020 2347
4  9097 9095 5020 8993
4  9095 8992 5020 8993
4  5020 8992 4633 8993
4  9095 2349 9098 2347
4  2349 9095 9098 1770
4  9095 8992 9098 1770
4  9098 8992 8995 1770
4  9096 9098 2356 2347
4  9098 9096 2356 8995
4  9096 8994 2356 8995
4  2356 8994 1773 8995
4  2356 9098 2349 2347
4  1773 8995 1770 9099
4  2349 9098 2356 9099
4  2356 9098 8995 9099
4  8995 1773 2356 9099
4  9098 2349 1770 9099
4  1770 8995 9098 9099
4  2349 2356 1773 9099
4  1773 1770 2349 9099
4  9098 9096 9095 2347
4  8995 8994 8992 9100
4  9095 9096 9098 9100
4  9098 9096 8995 9100
4  8994 8995 9096 9100
4  9096 9095 8994 9100
4  8992 8994 9095 9100
4  9095 9098 8992 9100
4  8995 8992 9098 9100
4  5023 9097 9096 2347
4  9097 5023 9096 8993
4  5023 4637 9096 8993
4  9096 4637 8994 8993
4  5020 9097 5023 2347
4  9097 5020 5023 8993
4  5020 4633 5023 8993
4  5023 4633 4637 8993
4  2357 9101 5026 2361
4  2357 5023 9096 2347
4  2357 5026 9101 9096
4  2357 9096 5023 5026
4  5023 5026 9096 4637
4  4637 8994 5026 9096
4  9101 9096 5026 8994
4  2357 2359 9101 2361
4  2357 9096 2356 2347
4  2357 9101 2359 2356
4  2357 2356 9096 9101
4  9096 9101 2356 8994
4  8994 1773 9101 2356
4  2359 2356 9101 1773
4  2366 5029 9102 2361
4  2366 9103 5030 2370
4  2366 9102 5029 5030
4  2366 5030 9103 9102
4  9103 9102 5030 8997
4  8997 4641 9102 5030
4  5029 5030 9102 4641
4  2366 9102 2365 2361
4  2366 2368 9103 2370
4  2366 2365 9102 9103
4  2366 9103 2368 2365
4  2368 2365 9103 1774
4  1774 8997 2365 9103
4  9102 9103 2365 8997
4  9103 9104 9105 2370
4  9104 9103 9105 8998
4  9103 8997 9105 8998
4  9105 8997 8999 8998
4  2368 9104 9103 2370
4  9104 2368 9103 8998
4  2368 1774 9103 8998
4  9103 1774 8997 8998
4  2374 9106 5039 2378
4  2374 5037 9105 2370
4  2374 5039 9106 9105
4  2374 9105 5037 5039
4  5037 5039 9105 4646
4  4646 8999 5039 9105
4  9106 9105 5039 8999
4  9107 9103 9105 2370
4  9103 9107 9105 8997
4  9107 9001 9105 8997
4  9105 9001 8999 8997
4  5030 9103 9107 2370
4  9103 5030 9107 8997
4  5030 4641 9107 8997
4  9107 4641 9001 8997
4  2373 9104 2368 2370
4  9104 2373 2368 8998
4  2373 1776 2368 8998
4  2368 1776 1774 8998
4  5037 9107 9105 2370
4  9107 5037 9105 9001
4  5037 4646 9105 9001
4  9105 4646 8999 9001
4  9105 9104 2373 2370
4  9104 9105 2373 8998
4  9105 8999 2373 8998
4  2373 8999 1776 8998
4  2374 2376 9106 2378
4  2374 9105 2373 2370
4  2374 9106 2376 2373
4  2374 2373 9105 9106
4  9105 9106 2373 8999
4  8999 1776 9106 2373
4  2376 2373 9106 1776
4  5037 5030 9107 2370
4  5030 5037 9107 4641
4  5037 4646 9001 4641
4  9107 5037 9001 4641
4  2384 5043 9108 2378
4  2384 9109 5044 2388
4  2384 9108 5043 5044
4  2384 5044 9109 9108
4  9109 9108 5044 9000
4  9000 4648 9108 5044
4  5043 5044 9108 4648
4  2384 9108 2383 2378
4  2384 2386 9109 2388
4  2384 2383 9108 9109
4  2384 9109 2386 2383
4  2386 2383 9109 1778
4  1778 9000 2383 9109
4  9108 9109 2383 9000
4  2386 2392 9110 2388
4  2392 2386 9110 1783
4  2386 1778 9110 1783
4  9110 1778 9002 1783
4  2397 9111 9112 2399
4  2397 9113 9110 2388
4  2397 9112 9111 9110
4  2397 9110 9113 9112
4  9113 9112 9110 9005
4  9005 9002 9112 9110
4  9111 9110 9112 9002
4  2397 9112 5051 2399
4  2397 5048 9113 2388
4  2397 5051 9112 9113
4  2397 9113 5048 5051
4  5048 5051 9113 4652
4  4652 9005 5051 9113
4  9112 9113 5051 9005
4  9113 5048 9109 2388
4  5048 9113 9109 4652
4  9113 9005 9109 4652
4  9109 9005 9000 4652
4  5048 5044 9109 2388
4  4652 4648 9000 9114
4  9109 5044 5048 9114
4  5048 5044 4648 9114
4  4648 4652 5048 9114
4  5044 9109 9000 9114
4  9000 4648 5044 9114
4  9109 5048 4652 9114
4  4652 9000 9109 9114
4  9110 9113 9109 2388
4  9113 9110 9109 9005
4  9110 9002 9109 9005
4  9109 9002 9000 9005
4  2397 2398 9111 2399
4  2397 9110 2392 2388
4  2397 9111 2398 9110
4  2397 2392 9110 2398
4  9110 9111 2398 9002
4  9002 1783 2398 9110
4  2398 2392 9110 1783
4  9109 2386 9110 2388
4  2386 9109 9110 1778
4  9109 9000 9002 1778
4  9110 9109 9002 1778
4  2402 9115 9116 2399
4  2402 9117 9118 2406
4  2402 9116 9115 9118
4  2402 9118 9117 9116
4  9117 9116 9118 9003
4  9003 9004 9116 9118
4  9115 9118 9116 9004
4  2402 5055 9115 2399
4  2402 9118 5056 2406
4  2402 9115 5055 5056
4  2402 5056 9118 9115
4  9118 9115 5056 9004
4  9004 4655 9115 5056
4  5055 5056 9115 4655
4  2402 9116 2401 2399
4  2402 2404 9117 2406
4  2402 2401 9116 9117
4  2402 9117 2404 2401
4  2404 2401 9117 1785
4  1785 9003 2401 9117
4  9116 9117 2401 9003
4  9119 9120 9118 2406
4  9120 9119 9118 9007
4  9119 9008 9118 9007
4  9118 9008 9004 9007
4  9121 9120 5062 2406
4  9120 9121 5062 9007
4  9121 9009 5062 9007
4  5062 9009 4661 9007
4  9117 9119 9118 2406
4  9119 9117 9118 9008
4  9117 9003 9118 9008
4  9118 9003 9004 9008
4  2404 9119 9117 2406
4  9119 2404 9117 9008
4  2404 1785 9117 9008
4  9117 1785 9003 9008
4  5056 9118 9121 2406
4  9118 5056 9121 9004
4  5056 4655 9121 9004
4  9121 4655 9009 9004
4  2413 9122 9123 2412
4  2413 9120 9119 2406
4  2413 9123 9122 9119
4  2413 9119 9120 9123
4  9120 9123 9119 9007
4  9007 9008 9123 9119
4  9122 9119 9123 9008
4  9118 9120 9121 2406
4  9120 9118 9121 9007
4  9118 9004 9121 9007
4  9121 9004 9009 9007
4  5062 5056 9121 2406
4  5056 5062 9121 4655
4  5062 4661 9009 4655
4  9121 5062 9009 4655
4  2413 9123 5061 2412
4  2413 5062 9120 2406
4  2413 5061 9123 5062
4  2413 9120 5062 9123
4  5062 5061 9123 4661
4  4661 9007 9123 5062
4  9123 9120 5062 9007
4  2410 9119 2404 2406
4  9119 2410 2404 9008
4  2410 1788 2404 9008
4  2404 1788 1785 9008
4  2413 2409 9122 2412
4  2413 9119 2410 2406
4  2413 9122 2409 2410
4  2413 2410 9119 9122
4  9119 9122 2410 9008
4  9008 1788 9122 2410
4  2409 2410 9122 1788
4  2423 9124 9125 2412
4  2423 9126 9127 2422
4  2423 9125 9124 9127
4  2423 9127 9126 9125
4  9126 9125 9127 9010
4  9010 9011 9125 9127
4  9124 9127 9125 9011
4  2423 5066 9124 2412
4  2423 9127 5067 2422
4  2423 9124 5066 5067
4  2423 5067 9127 9124
4  9127 9124 5067 9011
4  9011 4660 9124 5067
4  5066 5067 9124 4660
4  2423 9125 2420 2412
4  2423 2419 9126 2422
4  2423 2420 9125 9126
4  2423 9126 2419 2420
4  2419 2420 9126 1787
4  1787 9010 2420 9126
4  9125 9126 2420 9010
4  2427 9128 9129 2422
4  9128 2427 9129 9012
4  2427 1791 9129 9012
4  9129 1791 9013 9012
4  9129 9128 9130 2422
4  9128 9129 9130 9012
4  9129 9013 9130 9012
4  9130 9013 9014 9012
4  5067 9127 9131 2422
4  9127 5067 9131 9011
4  5067 4660 9131 9011
4  9131 4660 9015 9011
4  2428 9132 9133 2432
4  2428 9130 9128 2422
4  2428 9133 9132 9130
4  2428 9128 9130 9132
4  9130 9133 9132 9014
4  9014 9012 9132 9130
4  9132 9128 9130 9012
4  2428 2430 9132 2432
4  2428 9128 2427 2422
4  2428 9132 2430 2427
4  2428 2427 9128 9132
4  9128 9132 2427 9012
4  9012 1791 9132 2427
4  2430 2427 9132 1791
4  9131 9129 9130 2422
4  9129 9131 9130 9013
4  9131 9015 9130 9013
4  9130 9015 9014 9013
4  5068 9131 9130 2422
4  9131 5068 9130 9015
4  5068 4663 9130 9015
4  9130 4663 9014 9015
4  2428 9133 5073 2432
4  2428 5068 9130 2422
4  2428 5073 9133 9130
4  2428 9130 5068 5073
4  5068 5073 9130 4663
4  4663 9014 5073 9130
4  9133 9130 5073 9014
4  9126 2419 9129 2422
4  2419 9126 9129 1787
4  9126 9010 9129 1787
4  9129 9010 9013 1787
4  2419 2427 9129 2422
4  2427 2419 9129 1791
4  2419 1787 9129 1791
4  9129 1787 9013 1791
4  9127 9126 9129 2422
4  9126 9127 9129 9010
4  9127 9011 9129 9010
4  9129 9011 9013 9010
4  9131 9127 9129 2422
4  9127 9131 9129 9011
4  9131 9015 9013 9011
4  9129 9131 9013 9011
4  5068 5067 9131 2422
4  5067 5068 9131 4660
4  5068 4663 9015 4660
4  9131 5068 9015 4660
4  2438 9134 9135 2432
4  2438 9136 9137 2442
4  2438 9135 9134 9137
4  2438 9137 9136 9135
4  9136 9135 9137 9016
4  9016 9017 9135 9137
4  9134 9137 9135 9017
4  2438 9135 2437 2432
4  2438 2440 9136 2442
4  2438 2437 9135 9136
4  2438 9136 2440 2437
4  2440 2437 9136 1793
4  1793 9016 2437 9136
4  9135 9136 2437 9016
4  2438 5077 9134 2432
4  2438 9137 5078 2442
4  2438 9134 5077 5078
4  2438 5078 9137 9134
4  9137 9134 5078 9017
4  9017 4667 9134 5078
4  5077 5078 9134 4667
4  9137 9136 9138 2442
4  9136 9137 9138 9016
4  9137 9017 9138 9016
4  9138 9017 9019 9016
4  9138 9136 2445 2442
4  9136 9138 2445 9016
4  9138 9019 2445 9016
4  2445 9019 1796 9016
4  2451 9139 9140 2453
4  2451 9141 9138 2442
4  2451 9140 9139 9138
4  2451 9138 9141 9140
4  9141 9140 9138 9022
4  9022 9019 9140 9138
4  9139 9138 9140 9019
4  2440 2445 9136 2442
4  1793 1796 9016 9142
4  9136 2445 2440 9142
4  2440 2445 1796 9142
4  1796 1793 2440 9142
4  2445 9136 9016 9142
4  9016 1796 2445 9142
4  9136 2440 1793 9142
4  1793 9016 9136 9142
4  9141 9137 9138 2442
4  9137 9141 9138 9017
4  9141 9022 9138 9017
4  9138 9022 9019 9017
4  2451 9140 5083 2453
4  2451 5082 9141 2442
4  2451 5083 9140 9141
4  2451 9141 5082 5083
4  5082 5083 9141 4671
4  4671 9022 5083 9141
4  9140 9141 5083 9022
4  5082 9137 9141 2442
4  9137 5082 9141 9017
4  5082 4671 9141 9017
4  9141 4671 9022 9017
4  5078 9137 5082 2442
4  9137 5078 5082 9017
4  5078 4667 5082 9017
4  5082 4667 4671 9017
4  2451 2452 9139 2453
4  2451 9138 2445 2442
4  2451 9139 2452 2445
4  2451 2445 9138 9139
4  9138 9139 2445 9019
4  9019 1796 9139 2445
4  2452 2445 9139 1796
4  2456 9143 9144 2453
4  2456 9145 9146 2460
4  2456 9144 9143 9146
4  2456 9146 9145 9144
4  9145 9144 9146 9020
4  9020 9021 9144 9146
4  9143 9146 9144 9021
4  2456 5086 9143 2453
4  2456 9146 5087 2460
4  2456 9143 5086 5087
4  2456 5087 9146 9143
4  9146 9143 5087 9021
4  9021 4672 9143 5087
4  5086 5087 9143 4672
4  2456 9144 2455 2453
4  2456 2458 9145 2460
4  2456 2455 9144 9145
4  2456 9145 2458 2455
4  2458 2455 9145 1800
4  1800 9020 2455 9145
4  9144 9145 2455 9020
4  5087 9146 5090 2460
4  9146 5087 5090 9021
4  5087 4672 5090 9021
4  5090 4672 4674 9021
4  2464 9147 9145 2460
4  9147 2464 9145 9023
4  2464 1803 9145 9023
4  9145 1803 9020 9023
4  2467 9148 5094 2466
4  2467 5090 9146 2460
4  2467 5094 9148 5090
4  2467 9146 5090 9148
4  5090 5094 9148 4674
4  4674 9021 9148 5090
4  9148 9146 5090 9021
4  2458 2464 9145 2460
4  2464 2458 9145 1803
4  2458 1800 9145 1803
4  9145 1800 9020 1803
4  2467 2463 9149 2466
4  2467 9147 2464 2460
4  2467 9149 2463 2464
4  2467 2464 9147 9149
4  9147 9149 2464 9023
4  9023 1803 9149 2464
4  2463 2464 9149 1803
4  9145 9147 9146 2460
4  9147 9145 9146 9023
4  9145 9020 9146 9023
4  9146 9020 9021 9023
4  2467 9149 9148 2466
4  2467 9146 9147 2460
4  2467 9148 9149 9146
4  2467 9147 9146 9149
4  9146 9148 9149 9021
4  9021 9023 9149 9146
4  9149 9147 9146 9023
4  2477 5099 9150 2466
4  2477 9151 5100 2476
4  2477 9150 5099 5100
4  2477 5100 9151 9150
4  9151 9150 5100 9024
4  9024 4678 9150 5100
4  5099 5100 9150 4678
4  2477 9152 2474 2466
4  2477 2473 9153 2476
4  2477 2474 9152 9153
4  2477 9153 2473 2474
4  2473 2474 9153 1802
4  1802 9025 2474 9153
4  9152 9153 2474 9025
4  2477 9150 9152 2466
4  2477 9153 9151 2476
4  2477 9152 9150 9151
4  2477 9151 9153 9152
4  9153 9152 9151 9025
4  9025 9024 9152 9151
4  9150 9151 9152 9024
4  9154 9155 2481 2476
4  9155 9154 2481 9026
4  9154 9027 2481 9026
4  2481 9027 1806 9026
4  9156 9155 9154 2476
4  9155 9156 9154 9026
4  9156 9028 9154 9026
4  9154 9028 9027 9026
4  2482 9157 5106 2486
4  2482 5101 9156 2476
4  2482 5106 9157 9156
4  2482 9156 5101 5106
4  5101 5106 9156 4680
4  4680 9028 5106 9156
4  9157 9156 5106 9028
4  9151 9156 9158 2476
4  9156 9151 9158 9028
4  9151 9024 9158 9028
4  9158 9024 9030 9028
4  5100 9151 9158 2476
4  9151 5100 9158 9024
4  5100 4678 9158 9024
4  9158 4678 9030 9024
4  5101 5100 9158 2476
4  5100 5101 9158 4678
4  5101 4680 9158 4678
4  9158 4680 9030 4678
4  9153 9156 9151 2476
4  9156 9153 9151 9028
4  9153 9025 9151 9028
4  9151 9025 9024 9028
4  9153 2473 9155 2476
4  2473 9153 9155 1802
4  9153 9025 9155 1802
4  9155 9025 9026 1802
4  9153 9155 9156 2476
4  9025 9026 9028 9159
4  9156 9155 9153 9159
4  9153 9155 9025 9159
4  9026 9025 9155 9159
4  9155 9156 9026 9159
4  9028 9026 9156 9159
4  9156 9153 9028 9159
4  9025 9028 9153 9159
4  2482 9160 9157 2486
4  2482 9156 9154 2476
4  2482 9157 9160 9154
4  2482 9154 9156 9157
4  9156 9157 9154 9028
4  9028 9027 9157 9154
4  9160 9154 9157 9027
4  9156 5101 9158 2476
4  5101 9156 9158 4680
4  9156 9028 9158 4680
4  9158 9028 9030 4680
4  9155 2473 2481 2476
4  9026 1802 1806 9161
4  2481 2473 9155 9161
4  9155 2473 1802 9161
4  1802 9026 9155 9161
4  2473 2481 1806 9161
4  1806 1802 2473 9161
4  2481 9155 9026 9161
4  9026 1806 2481 9161
4  2482 2484 9160 2486
4  2482 9154 2481 2476
4  2482 9160 2484 2481
4  2482 2481 9154 9160
4  9154 9160 2481 9027
4  9027 1806 9160 2481
4  2484 2481 9160 1806
4  2492 5110 9162 2486
4  2492 9163 5111 2496
4  2492 9162 5110 5111
4  2492 5111 9163 9162
4  9163 9162 5111 9029
4  9029 4685 9162 5111
4  5110 5111 9162 4685
4  2492 9162 9164 2486
4  2492 9165 9163 2496
4  2492 9164 9162 9163
4  2492 9163 9165 9164
4  9165 9164 9163 9032
4  9032 9029 9164 9163
4  9162 9163 9164 9029
4  2492 9164 2491 2486
4  2492 2494 9165 2496
4  2492 2491 9164 9165
4  2492 9165 2494 2491
4  2494 2491 9165 1808
4  1808 9032 2491 9165
4  9164 9165 2491 9032
4  2507 9166 9167 2506
4  2507 9168 9169 2496
4  2507 9167 9166 9169
4  2507 9169 9168 9167
4  9168 9167 9169 9034
4  9034 9036 9167 9169
4  9166 9169 9167 9036
4  9163 9168 9170 2496
4  9168 9163 9170 9034
4  9163 9029 9170 9034
4  9170 9029 9038 9034
4  9169 9168 9165 2496
4  9168 9169 9165 9034
4  9169 9036 9165 9034
4  9165 9036 9032 9034
4  2500 9169 9165 2496
4  9169 2500 9165 9036
4  2500 1811 9165 9036
4  9165 1811 9032 9036
4  9165 9168 9163 2496
4  9168 9165 9163 9034
4  9165 9032 9163 9034
4  9163 9032 9029 9034
4  5115 5111 9170 2496
4  5111 5115 9170 4685
4  5115 4689 9170 4685
4  9170 4689 9038 4685
4  2507 9171 5116 2506
4  2507 5115 9172 2496
4  2507 5116 9171 9172
4  2507 9172 5115 5116
4  5115 5116 9172 4689
4  4689 9040 5116 9172
4  9171 9172 5116 9040
4  2507 9167 9171 2506
4  2507 9172 9168 2496
4  2507 9171 9167 9168
4  2507 9168 9172 9171
4  9172 9171 9168 9040
4  9040 9034 9171 9168
4  9167 9168 9171 9034
4  9168 9172 9170 2496
4  9172 9168 9170 9040
4  9168 9034 9170 9040
4  9170 9034 9038 9040
4  2494 2500 9165 2496
4  2500 2494 9165 1811
4  2494 1808 9165 1811
4  9165 1808 9032 1811
4  5111 9163 9170 2496
4  9163 5111 9170 9029
4  5111 4685 9170 9029
4  9170 4685 9038 9029
4  2507 2505 9166 2506
4  2507 9169 2500 2496
4  2507 9166 2505 2500
4  2507 2500 9169 9166
4  9169 9166 2500 9036
4  9036 1811 9166 2500
4  2505 2500 9166 1811
4  9172 5115 9170 2496
4  5115 9172 9170 4689
4  9172 9040 9170 4689
4  9170 9040 9038 4689
4  2524 9173 9174 2506
4  2524 9175 9176 2514
4  2524 9174 9173 9176
4  2524 9176 9175 9174
4  9175 9174 9176 9037
4  9037 9035 9174 9176
4  9173 9176 9174 9035
4  2524 5123 9177 2506
4  2524 9178 5124 2514
4  2524 9177 5123 5124
4  2524 5124 9178 9177
4  9178 9177 5124 9039
4  9039 4691 9177 5124
4  5123 5124 9177 4691
4  2524 9177 9173 2506
4  2524 9176 9178 2514
4  2524 9173 9177 9178
4  2524 9178 9176 9173
4  9176 9173 9178 9035
4  9035 9039 9173 9178
4  9177 9178 9173 9039
4  2524 9174 2523 2506
4  2524 2510 9175 2514
4  2524 2523 9174 9175
4  2524 9175 2510 2523
4  2510 2523 9175 1728
4  1728 9037 2523 9175
4  9174 9175 2523 9037
4  9176 9175 9179 2514
4  9175 9176 9179 9037
4  9176 9035 9179 9037
4  9179 9035 9041 9037
4  2518 9179 9180 2514
4  9179 2518 9180 9041
4  2518 1736 9180 9041
4  9180 1736 9042 9041
4  9179 9181 9178 2514
4  9181 9179 9178 9043
4  9179 9041 9178 9043
4  9178 9041 9039 9043
4  2521 9182 5131 2520
4  2521 5129 9181 2514
4  2521 5131 9182 9181
4  2521 9181 5129 5131
4  5129 5131 9181 4693
4  4693 9043 5131 9181
4  9182 9181 5131 9043
4  2521 9183 9182 2520
4  2521 9181 9179 2514
4  2521 9182 9183 9179
4  2521 9179 9181 9182
4  9181 9182 9179 9043
4  9043 9041 9182 9179
4  9183 9179 9182 9041
4  5124 9178 5129 2514
4  9178 5124 5129 9039
4  5124 4691 5129 9039
4  5129 4691 4693 9039
4  9178 9176 9179 2514
4  9176 9178 9179 9035
4  9178 9039 9041 9035
4  9179 9178 9041 9035
4  5129 9178 9181 2514
4  4693 9039 9043 9184
4  9181 9178 5129 9184
4  5129 9178 9039 9184
4  9039 4693 5129 9184
4  9178 9181 9043 9184
4  9043 9039 9178 9184
4  9181 5129 4693 9184
4  4693 9043 9181 9184
4  9175 2510 9180 2514
4  2510 9175 9180 1728
4  9175 9037 9180 1728
4  9180 9037 9042 1728
4  2510 2518 9180 2514
4  2518 2510 9180 1736
4  2510 1728 9180 1736
4  9180 1728 9042 1736
4  2521 2517 9183 2520
4  2521 9179 2518 2514
4  2521 9183 2517 2518
4  2521 2518 9179 9183
4  9179 9183 2518 9041
4  9041 1736 9183 2518
4  2517 2518 9183 1736
4  9179 9175 9180 2514
4  9175 9179 9180 9037
4  9179 9041 9180 9037
4  9180 9041 9042 9037
4  2534 5142 9185 2520
4  2534 9186 5143 2531
4  2534 9185 5142 5143
4  2534 5143 9186 9185
4  9186 9185 5143 9044
4  9044 4694 9185 5143
4  5142 5143 9185 4694
4  2534 9185 9187 2520
4  2534 9188 9186 2531
4  2534 9187 9185 9186
4  2534 9186 9188 9187
4  9188 9187 9186 9045
4  9045 9044 9187 9186
4  9185 9186 9187 9044
4  2534 9187 2533 2520
4  2534 2527 9188 2531
4  2534 2533 9187 9188
4  2534 9188 2527 2533
4  2527 2533 9188 1734
4  1734 9045 2533 9188
4  9187 9188 2533 9045
4  9186 9188 9189 2531
4  9188 9186 9189 9045
4  9186 9044 9189 9045
4  9189 9044 9047 9045
4  5143 9186 9189 2531
4  9186 5143 9189 9044
4  5143 4694 9189 9044
4  9189 4694 9047 9044
4  9189 9188 9190 2531
4  9188 9189 9190 9045
4  9189 9047 9190 9045
4  9190 9047 9048 9045
4  5144 5143 9189 2531
4  5143 5144 9189 4694
4  5144 4696 9189 4694
4  9189 4696 9047 4694
4  2539 9191 9192 2538
4  2539 9189 9190 2531
4  2539 9192 9191 9190
4  2539 9190 9189 9192
4  9189 9192 9190 9047
4  9047 9048 9192 9190
4  9191 9190 9192 9048
4  2539 9192 5147 2538
4  2539 5144 9189 2531
4  2539 5147 9192 9189
4  2539 9189 5144 5147
4  5144 5147 9189 4696
4  4696 9047 5147 9189
4  9192 9189 5147 9047
4  9188 2527 9190 2531
4  2527 9188 9190 1734
4  9188 9045 9190 1734
4  9190 9045 9048 1734
4  2539 2540 9191 2538
4  2539 9190 2537 2531
4  2539 9191 2540 2537
4  2539 2537 9190 9191
4  9190 9191 2537 9048
4  9048 1759 9191 2537
4  2540 2537 9191 1759
4  9190 2527 2537 2531
4  9048 1734 1759 9193
4  2537 2527 9190 9193
4  9190 2527 1734 9193
4  1734 9048 9190 9193
4  2527 2537 1759 9193
4  1759 1734 2527 9193
4  2537 9190 9048 9193
4  9048 1759 2537 9193
4  2558 9194 9195 2538
4  2558 9196 9197 2542
4  2558 9195 9194 9197
4  2558 9197 9196 9195
4  9196 9195 9197 9049
4  9049 9050 9195 9197
4  9194 9197 9195 9050
4  2558 5160 9194 2538
4  2558 9197 5161 2542
4  2558 9194 5160 5161
4  2558 5161 9197 9194
4  9197 9194 5161 9050
4  9050 4698 9194 5161
4  5160 5161 9194 4698
4  2558 9195 2559 2538
4  2558 2553 9196 2542
4  2558 2559 9195 9196
4  2558 9196 2553 2559
4  2553 2559 9196 1757
4  1757 9049 2559 9196
4  9195 9196 2559 9049
4  9198 9199 9197 2542
4  9199 9198 9197 9052
4  9198 9053 9197 9052
4  9197 9053 9050 9052
4  9197 9196 9198 2542
4  9196 9197 9198 9049
4  9197 9050 9053 9049
4  9198 9197 9053 9049
4  9196 2553 9200 2542
4  2553 9196 9200 1757
4  9196 9049 9200 1757
4  9200 9049 9054 1757
4  9198 9196 9200 2542
4  9196 9198 9200 9049
4  9198 9053 9200 9049
4  9200 9053 9054 9049
4  5162 9199 9198 2542
4  9199 5162 9198 9052
4  5162 4699 9198 9052
4  9198 4699 9053 9052
4  2544 9198 9200 2542
4  9198 2544 9200 9053
4  2544 1712 9200 9053
4  9200 1712 9054 9053
4  2553 2544 9200 2542
4  2544 2553 9200 1712
4  2553 1757 9200 1712
4  9200 1757 9054 1712
4  9197 9199 5161 2542
4  9199 9197 5161 9052
4  9197 9050 5161 9052
4  5161 9050 4698 9052
4  5161 9199 5162 2542
4  9199 5161 5162 9052
4  5161 4698 5162 9052
4  5162 4698 4699 9052
4  2549 9201 5163 2551
4  2549 5162 9198 2542
4  2549 5163 9201 9198
4  2549 9198 5162 5163
4  5162 5163 9198 4699
4  4699 9053 5163 9198
4  9201 9198 5163 9053
4  2549 2550 9201 2551
4  2549 9198 2544 2542
4  2549 9201 2550 2544
4  2549 2544 9198 9201
4  9198 9201 2544 9053
4  9053 1712 9201 2544
4  2550 2544 9201 1712
4  2572 5168 9202 2551
4  2572 9203 5169 2561
4  2572 9202 5168 5169
4  2572 5169 9203 9202
4  9203 9202 5169 9055
4  9055 4700 9202 5169
4  5168 5169 9202 4700
4  2572 9202 2571 2551
4  2572 2570 9203 2561
4  2572 2571 9202 9203
4  2572 9203 2570 2571
4  2570 2571 9203 1718
4  1718 9055 2571 9203
4  9202 9203 2571 9055
4  9203 9204 9205 2561
4  9204 9203 9205 9056
4  9203 9055 9205 9056
4  9205 9055 9057 9056
4  2574 9206 9207 2576
4  2574 9204 9208 2561
4  2574 9207 9206 9208
4  2574 9208 9204 9207
4  9204 9207 9208 9056
4  9056 9059 9207 9208
4  9206 9208 9207 9059
4  5169 9203 9205 2561
4  9203 5169 9205 9055
4  5169 4700 9205 9055
4  9205 4700 9057 9055
4  9208 9204 9203 2561
4  9204 9208 9203 9056
4  9208 9059 9203 9056
4  9203 9059 9055 9056
4  2563 9208 9203 2561
4  9208 2563 9203 9059
4  2563 1716 9203 9059
4  9203 1716 9055 9059
4  2574 2575 9206 2576
4  2574 9208 2563 2561
4  2574 9206 2575 2563
4  2574 2563 9208 9206
4  9208 9206 2563 9059
4  9059 1716 9206 2563
4  2575 2563 9206 1716
4  5170 5169 9205 2561
4  5169 5170 9205 4700
4  5170 4701 9205 4700
4  9205 4701 9057 4700
4  2570 2563 9203 2561
4  2563 2570 9203 1716
4  2570 1718 9203 1716
4  9203 1718 9055 1716
4  9204 5170 9205 2561
4  5170 9204 9205 4701
4  9204 9056 9205 4701
4  9205 9056 9057 4701
4  2574 9207 5172 2576
4  2574 5170 9204 2561
4  2574 5172 9207 9204
4  2574 9204 5170 5172
4  5170 5172 9204 4701
4  4701 9056 5172 9204
4  9207 9204 5172 9056
4  2579 9209 9210 2576
4  2579 9211 9212 2583
4  2579 9210 9209 9212
4  2579 9212 9211 9210
4  9211 9210 9212 9060
4  9060 9058 9210 9212
4  9209 9212 9210 9058
4  2579 9210 2578 2576
4  2579 2581 9211 2583
4  2579 2578 9210 9211
4  2579 9211 2581 2578
4  2581 2578 9211 1813
4  1813 9060 2578 9211
4  9210 9211 2578 9060
4  2579 5176 9209 2576
4  2579 9212 5177 2583
4  2579 9209 5176 5177
4  2579 5177 9212 9209
4  9212 9209 5177 9058
4  9058 4703 9209 5177
4  5176 5177 9209 4703
4  9212 9211 9213 2583
4  9211 9212 9213 9060
4  9212 9058 9213 9060
4  9213 9058 9061 9060
4  9214 9213 9215 2583
4  9213 9214 9215 9061
4  9214 9062 9215 9061
4  9215 9062 9063 9061
4  9213 9211 9215 2583
4  9211 9213 9215 9060
4  9213 9061 9215 9060
4  9215 9061 9063 9060
4  9214 9212 9213 2583
4  9212 9214 9213 9058
4  9214 9062 9061 9058
4  9213 9214 9061 9058
4  9215 9211 2586 2583
4  9211 9215 2586 9060
4  9215 9063 2586 9060
4  2586 9063 1814 9060
4  9211 2581 2586 2583
4  9060 1813 1814 9216
4  2586 2581 9211 9216
4  9211 2581 1813 9216
4  1813 9060 9211 9216
4  2581 2586 1814 9216
4  1814 1813 2581 9216
4  2586 9211 9060 9216
4  9060 1814 2586 9216
4  2592 2593 9217 2594
4  2592 9215 2586 2583
4  2592 9217 2593 2586
4  2592 2586 9215 9217
4  9215 9217 2586 9063
4  9063 1814 9217 2586
4  2593 2586 9217 1814
4  2592 9218 5183 2594
4  2592 5185 9214 2583
4  2592 5183 9218 9214
4  2592 9214 5185 5183
4  5185 5183 9214 4710
4  4710 9062 5183 9214
4  9218 9214 5183 9062
4  5185 5177 9214 2583
4  5177 5185 9214 4703
4  5185 4710 9214 4703
4  9214 4710 9062 4703
4  5177 9212 9214 2583
4  9212 5177 9214 9058
4  5177 4703 9214 9058
4  9214 4703 9062 9058
4  2592 9217 9218 2594
4  2592 9214 9215 2583
4  2592 9218 9217 9215
4  2592 9215 9214 9218
4  9214 9218 9215 9062
4  9062 9063 9218 9215
4  9217 9215 9218 9063
4  2597 9219 2596 2594
4  2597 2599 9220 2601
4  2597 2596 9219 9220
4  2597 9220 2599 2596
4  2599 2596 9220 1818
4  1818 9065 2596 9220
4  9219 9220 2596 9065
4  2597 5188 9221 2594
4  2597 9222 5189 2601
4  2597 9221 5188 5189
4  2597 5189 9222 9221
4  9222 9221 5189 9066
4  9066 4711 9221 5189
4  5188 5189 9221 4711
4  2597 9221 9219 2594
4  2597 9220 9222 2601
4  2597 9219 9221 9222
4  2597 9222 9220 9219
4  9220 9219 9222 9065
4  9065 9066 9219 9222
4  9221 9222 9219 9066
4  2610 9223 5197 2612
4  2610 5196 9224 2601
4  2610 5197 9223 9224
4  2610 9224 5196 5197
4  5196 5197 9224 4717
4  4717 9068 5197 9224
4  9223 9224 5197 9068
4  2599 2608 9220 2601
4  2608 2599 9220 1822
4  2599 1818 9220 1822
4  9220 1818 9065 1822
4  9222 9220 9224 2601
4  9220 9222 9224 9065
4  9222 9066 9224 9065
4  9224 9066 9068 9065
4  5196 5189 9224 2601
4  5189 5196 9224 4711
4  5196 4717 9224 4711
4  9224 4717 9068 4711
4  5189 9222 9224 2601
4  9222 5189 9224 9066
4  5189 4711 9224 9066
4  9224 4711 9068 9066
4  2610 2611 9225 2612
4  2610 9220 2608 2601
4  2610 9225 2611 9220
4  2610 2608 9220 2611
4  9220 9225 2611 9065
4  9065 1822 2611 9220
4  2611 2608 9220 1822
4  2610 9225 9223 2612
4  2610 9224 9220 2601
4  2610 9223 9225 9224
4  2610 9220 9224 9225
4  9224 9223 9225 9068
4  9068 9065 9225 9224
4  9225 9220 9224 9065
4  2615 5201 9226 2612
4  2615 9227 5202 2619
4  2615 9226 5201 5202
4  2615 5202 9227 9226
4  9227 9226 5202 9067
4  9067 4718 9226 5202
4  5201 5202 9226 4718
4  2615 9228 2614 2612
4  2615 2617 9229 2619
4  2615 2614 9228 9229
4  2615 9229 2617 2614
4  2617 2614 9229 1823
4  1823 9069 2614 9229
4  9228 9229 2614 9069
4  2615 9226 9228 2612
4  2615 9229 9227 2619
4  2615 9228 9226 9227
4  2615 9227 9229 9228
4  9229 9228 9227 9069
4  9069 9067 9228 9227
4  9226 9227 9228 9067
4  5202 9227 9230 2619
4  9227 5202 9230 9067
4  5202 4718 9230 9067
4  9230 4718 9070 9067
4  2626 9231 9232 2625
4  2626 9230 9233 2619
4  2626 9232 9231 9233
4  2626 9233 9230 9232
4  9230 9232 9233 9070
4  9070 9072 9232 9233
4  9231 9233 9232 9072
4  2626 9232 5208 2625
4  2626 5205 9230 2619
4  2626 5208 9232 9230
4  2626 9230 5205 5208
4  5205 5208 9230 4721
4  4721 9070 5208 9230
4  9232 9230 5208 9070
4  2626 2622 9231 2625
4  2626 9233 2623 2619
4  2626 9231 2622 2623
4  2626 2623 9233 9231
4  9233 9231 2623 9072
4  9072 1826 9231 2623
4  2622 2623 9231 1826
4  9230 9227 9233 2619
4  9227 9230 9233 9067
4  9230 9070 9233 9067
4  9233 9070 9072 9067
4  9229 2617 9233 2619
4  2617 9229 9233 1823
4  9229 9069 9233 1823
4  9233 9069 9072 1823
4  5205 5202 9230 2619
4  5202 5205 9230 4718
4  5205 4721 9230 4718
4  9230 4721 9070 4718
4  9227 9229 9233 2619
4  9229 9227 9233 9069
4  9227 9067 9233 9069
4  9233 9067 9072 9069
4  2623 9233 2617 2619
4  1826 9072 1823 9234
4  2617 9233 2623 9234
4  2623 9233 9072 9234
4  9072 1826 2623 9234
4  9233 2617 1823 9234
4  1823 9072 9233 9234
4  2617 2623 1826 9234
4  1826 1823 2617 9234
4  2634 9235 9236 1999
4  2634 9237 9238 2632
4  2634 9236 9235 9238
4  2634 9238 9237 9236
4  9237 9236 9238 8982
4  8982 8980 9236 9238
4  9235 9238 9236 8980
4  2634 2636 9235 1999
4  2634 9238 2633 2632
4  2634 9235 2636 2633
4  2634 2633 9238 9235
4  9238 9235 2633 8980
4  8980 1677 9235 2633
4  2636 2633 9235 1677
4  2634 9236 5209 1999
4  2634 5212 9237 2632
4  2634 5209 9236 9237
4  2634 9237 5212 5209
4  5212 5209 9237 4544
4  4544 8982 5209 9237
4  9236 9237 5209 8982
4  2646 9239 9240 2625
4  2646 9241 9242 2632
4  2646 9240 9239 9242
4  2646 9242 9241 9240
4  9241 9240 9242 9071
4  9071 9073 9240 9242
4  9239 9242 9240 9073
4  2646 5218 9239 2625
4  2646 9242 5219 2632
4  2646 9239 5218 5219
4  2646 5219 9242 9239
4  9242 9239 5219 9073
4  9073 4724 9239 5219
4  5218 5219 9239 4724
4  2646 9240 2644 2625
4  2646 2643 9241 2632
4  2646 2644 9240 9241
4  2646 9241 2643 2644
4  2643 2644 9241 1825
4  1825 9071 2644 9241
4  9240 9241 2644 9071
4  9242 9241 9238 2632
4  9241 9242 9238 9071
4  9242 9073 9238 9071
4  9238 9073 8980 9071
4  9237 9242 9238 2632
4  9242 9237 9238 9073
4  9237 8982 9238 9073
4  9238 8982 8980 9073
4  9237 5212 9243 2632
4  5212 9237 9243 4544
4  9237 8982 9243 4544
4  9243 8982 9074 4544
4  5219 9242 9243 2632
4  9242 5219 9243 9073
4  5219 4724 9243 9073
4  9243 4724 9074 9073
4  2633 9238 2643 2632
4  9238 2633 2643 8980
4  2633 1677 2643 8980
4  2643 1677 1825 8980
4  5212 5219 9243 2632
4  5219 5212 9243 4724
4  5212 4544 9243 4724
4  9243 4544 9074 4724
4  9238 9241 2643 2632
4  8980 9071 1825 9244
4  2643 9241 9238 9244
4  9238 9241 9071 9244
4  9071 8980 9238 9244
4  9241 2643 1825 9244
4  1825 9071 9241 9244
4  2643 9238 8980 9244
4  8980 1825 2643 9244
4  9243 9242 9237 2632
4  9242 9243 9237 9073
4  9243 9074 8982 9073
4  9237 9243 8982 9073
4  9236 9235 9076 1999
4  9235 9236 9076 8980
4  9236 8982 9076 8980
4  9076 8982 8981 8980
4  9076 9235 9077 1999
4  9235 9076 9077 8980
4  9076 8981 9077 8980
4  9077 8981 8979 8980
4  9235 2636 9077 1999
4  2636 9235 9077 1677
4  9235 8980 9077 1677
4  9077 8980 8979 1677
4  2636 2000 9077 1999
4  1677 1034 8979 9245
4  9077 2000 2636 9245
4  2636 2000 1034 9245
4  1034 1677 2636 9245
4  2000 9077 8979 9245
4  8979 1034 2000 9245
4  9077 2636 1677 9245
4  1677 8979 9077 9245
4  5209 9236 4860 1999
4  9236 5209 4860 8982
4  5209 4544 4860 8982
4  4860 4544 4543 8982
4  4860 9236 9076 1999
4  9236 4860 9076 8982
4  4860 4543 9076 8982
4  9076 4543 8981 8982
4  9088 9087 9083 2023
4  9087 9088 9083 8986
4  9088 8987 9083 8986
4  9083 8987 8985 8986
4  9083 9087 9084 2023
4  9087 9083 9084 8986
4  9083 8985 9084 8986
4  9084 8985 8984 8986
4  2329 9088 2021 2023
4  9088 2329 2021 8987
4  2329 1686 2021 8987
4  2021 1686 1684 8987
4  2021 9088 9083 2023
4  9088 2021 9083 8987
4  2021 1684 9083 8987
4  9083 1684 8985 8987
4  4872 9084 5005 2023
4  9084 4872 5005 8984
4  4872 1066 5005 8984
4  5005 1066 4557 8984
4  9084 9087 5005 2023
4  8984 8986 4557 9246
4  5005 9087 9084 9246
4  9084 9087 8986 9246
4  8986 8984 9084 9246
4  9087 5005 4557 9246
4  4557 8986 9087 9246
4  5005 9084 8984 9246
4  8984 4557 5005 9246
4  5163 9201 5168 2551
4  9201 5163 5168 9053
4  5163 4699 5168 9053
4  5168 4699 4700 9053
4  5168 9201 9202 2551
4  9201 5168 9202 9053
4  5168 4700 9202 9053
4  9202 4700 9055 9053
4  9201 2550 9202 2551
4  2550 9201 9202 1712
4  9201 9053 9202 1712
4  9202 9053 9055 1712
4  2550 2571 9202 2551
4  1712 1718 9055 9247
4  9202 2571 2550 9247
4  2550 2571 1718 9247
4  1718 1712 2550 9247
4  2571 9202 9055 9247
4  9055 1718 2571 9247
4  9202 2550 1712 9247
4  1712 9055 9202 9247
4  9182 5142 5131 2520
4  5142 9182 5131 4694
4  9182 9043 5131 4694
4  5131 9043 4693 4694
4  9185 5142 9182 2520
4  5142 9185 9182 4694
4  9185 9044 9182 4694
4  9182 9044 9043 4694
4  9187 9185 9183 2520
4  9185 9187 9183 9044
4  9187 9045 9183 9044
4  9183 9045 9041 9044
4  9183 9185 9182 2520
4  9185 9183 9182 9044
4  9183 9041 9182 9044
4  9182 9041 9043 9044
4  2533 9187 2517 2520
4  9187 2533 2517 9045
4  2533 1734 2517 9045
4  2517 1734 1736 9045
4  2517 9187 9183 2520
4  9187 2517 9183 9045
4  2517 1736 9183 9045
4  9183 1736 9041 9045
4  9192 9191 9194 2538
4  9191 9192 9194 9048
4  9192 9047 9194 9048
4  9194 9047 9050 9048
4  9194 9191 9195 2538
4  9191 9194 9195 9048
4  9194 9050 9195 9048
4  9195 9050 9049 9048
4  9192 5160 5147 2538
4  5160 9192 5147 4698
4  9192 9047 5147 4698
4  5147 9047 4696 4698
4  9194 5160 9192 2538
4  5160 9194 9192 4698
4  9194 9050 9047 4698
4  9192 9194 9047 4698
4  9191 2540 9195 2538
4  2540 9191 9195 1759
4  9191 9048 9195 1759
4  9195 9048 9049 1759
4  9195 2540 2559 2538
4  2540 9195 2559 1759
4  9195 9049 2559 1759
4  2559 9049 1757 1759
4  5014 9093 5019 2343
4  9093 5014 5019 8991
4  5014 4634 5019 8991
4  5019 4634 4633 8991
4  5019 9093 9094 2343
4  9093 5019 9094 8991
4  5019 4633 9094 8991
4  9094 4633 8992 8991
4  2345 2351 9093 2343
4  2351 2345 9093 1770
4  2345 1766 8991 1770
4  9093 2345 8991 1770
4  9093 2351 9094 2343
4  8991 1770 8992 9248
4  9094 2351 9093 9248
4  9093 2351 1770 9248
4  1770 8991 9093 9248
4  2351 9094 8992 9248
4  8992 1770 2351 9248
4  9094 9093 8991 9248
4  8991 8992 9094 9248
4  9101 5029 5026 2361
4  5029 9101 5026 4641
4  9101 8994 5026 4641
4  5026 8994 4637 4641
4  9102 5029 9101 2361
4  5029 9102 9101 4641
4  9102 8997 9101 4641
4  9101 8997 8994 4641
4  2359 9102 9101 2361
4  9102 2359 9101 8997
4  2359 1773 9101 8997
4  9101 1773 8994 8997
4  2365 9102 2359 2361
4  9102 2365 2359 8997
4  2365 1774 2359 8997
4  2359 1774 1773 8997
4  9108 5043 9106 2378
4  5043 9108 9106 4648
4  9108 9000 9106 4648
4  9106 9000 8999 4648
4  5043 5039 9106 2378
4  4648 4646 8999 9249
4  9106 5039 5043 9249
4  5043 5039 4646 9249
4  4646 4648 5043 9249
4  5039 9106 8999 9249
4  8999 4646 5039 9249
4  9106 5043 4648 9249
4  4648 8999 9106 9249
4  2383 9108 2376 2378
4  9108 2383 2376 9000
4  2383 1778 2376 9000
4  2376 1778 1776 9000
4  2376 9108 9106 2378
4  9108 2376 9106 9000
4  2376 1776 9106 9000
4  9106 1776 8999 9000
4  9112 9111 9115 2399
4  9111 9112 9115 9002
4  9112 9005 9115 9002
4  9115 9005 9004 9002
4  9115 9111 9116 2399
4  9111 9115 9116 9002
4  9115 9004 9116 9002
4  9116 9004 9003 9002
4  5051 9112 5055 2399
4  9112 5051 5055 9005
4  5051 4652 5055 9005
4  5055 4652 4655 9005
4  5055 9112 9115 2399
4  9112 5055 9115 9005
4  5055 4655 9115 9005
4  9115 4655 9004 9005
4  2398 2401 9111 2399
4  2401 2398 9111 1785
4  2398 1783 9002 1785
4  9111 2398 9002 1785
4  9111 2401 9116 2399
4  9002 1785 9003 9250
4  9116 2401 9111 9250
4  9111 2401 1785 9250
4  1785 9002 9111 9250
4  2401 9116 9003 9250
4  9003 1785 2401 9250
4  9116 9111 9002 9250
4  9002 9003 9116 9250
4  9123 9122 9124 2412
4  9122 9123 9124 9008
4  9123 9007 9124 9008
4  9124 9007 9011 9008
4  9124 9122 9125 2412
4  9122 9124 9125 9008
4  9124 9011 9125 9008
4  9125 9011 9010 9008
4  9124 5061 9123 2412
4  5061 9124 9123 4661
4  9124 9011 9007 4661
4  9123 9124 9007 4661
4  5066 5061 9124 2412
4  5061 5066 9124 4661
4  5066 4660 9124 4661
4  9124 4660 9011 4661
4  9122 2409 9125 2412
4  2409 9122 9125 1788
4  9122 9008 9125 1788
4  9125 9008 9010 1788
4  2409 2420 9125 2412
4  1788 1787 9010 9251
4  9125 2420 2409 9251
4  2409 2420 1787 9251
4  1787 1788 2409 9251
4  2420 9125 9010 9251
4  9010 1787 2420 9251
4  9125 2409 1788 9251
4  1788 9010 9125 9251
4  9135 9133 9132 2432
4  9133 9135 9132 9014
4  9135 9016 9132 9014
4  9132 9016 9012 9014
4  9134 9133 9135 2432
4  9133 9134 9135 9014
4  9134 9017 9135 9014
4  9135 9017 9016 9014
4  2430 9135 9132 2432
4  9135 2430 9132 9016
4  2430 1791 9132 9016
4  9132 1791 9012 9016
4  2437 9135 2430 2432
4  9135 2437 2430 9016
4  2437 1793 2430 9016
4  2430 1793 1791 9016
4  9133 5077 5073 2432
4  5077 9133 5073 4667
4  9133 9014 5073 4667
4  5073 9014 4663 4667
4  9134 5077 9133 2432
4  5077 9134 9133 4667
4  9134 9017 9014 4667
4  9133 9134 9014 4667
4  9140 9139 9143 2453
4  9139 9140 9143 9019
4  9140 9022 9143 9019
4  9143 9022 9021 9019
4  9143 9139 9144 2453
4  9139 9143 9144 9019
4  9143 9021 9144 9019
4  9144 9021 9020 9019
4  5083 9140 5086 2453
4  9140 5083 5086 9022
4  5083 4671 5086 9022
4  5086 4671 4672 9022
4  5086 9140 9143 2453
4  9140 5086 9143 9022
4  5086 4672 9143 9022
4  9143 4672 9021 9022
4  9139 2452 9144 2453
4  2452 9139 9144 1796
4  9139 9019 9144 1796
4  9144 9019 9020 1796
4  2452 2455 9144 2453
4  1796 1800 9020 9252
4  9144 2455 2452 9252
4  2452 2455 1800 9252
4  1800 1796 2452 9252
4  2455 9144 9020 9252
4  9020 1800 2455 9252
4  9144 2452 1796 9252
4  1796 9020 9144 9252
4  9150 5094 9148 2466
4  5094 9150 9148 4674
4  9150 9024 9148 4674
4  9148 9024 9021 4674
4  5099 5094 9150 2466
4  5094 5099 9150 4674
4  5099 4678 9150 4674
4  9150 4678 9024 4674
4  9149 2463 9152 2466
4  2463 9149 9152 1803
4  9149 9023 9152 1803
4  9152 9023 9025 1803
4  2463 2474 9152 2466
4  1803 1802 9025 9253
4  9152 2474 2463 9253
4  2463 2474 1802 9253
4  1802 1803 2463 9253
4  2474 9152 9025 9253
4  9025 1802 2474 9253
4  9152 2463 1803 9253
4  1803 9025 9152 9253
4  9152 9148 9149 2466
4  9148 9152 9149 9021
4  9152 9025 9023 9021
4  9149 9152 9023 9021
4  9152 9150 9148 2466
4  9150 9152 9148 9024
4  9152 9025 9021 9024
4  9148 9152 9021 9024
4  9162 5110 9157 2486
4  5110 9162 9157 4685
4  9162 9029 9157 4685
4  9157 9029 9028 4685
4  9157 5110 5106 2486
4  5110 9157 5106 4685
4  9157 9028 5106 4685
4  5106 9028 4680 4685
4  9164 9162 9160 2486
4  9162 9164 9160 9029
4  9164 9032 9160 9029
4  9160 9032 9027 9029
4  9160 9162 9157 2486
4  9162 9160 9157 9029
4  9160 9027 9157 9029
4  9157 9027 9028 9029
4  2491 9164 2484 2486
4  9164 2491 2484 9032
4  2491 1808 2484 9032
4  2484 1808 1806 9032
4  2484 9164 9160 2486
4  9164 2484 9160 9032
4  2484 1806 9160 9032
4  9160 1806 9027 9032
4  9174 9173 9166 2506
4  9173 9174 9166 9035
4  9174 9037 9166 9035
4  9166 9037 9036 9035
4  9166 9173 9167 2506
4  9173 9166 9167 9035
4  9166 9036 9167 9035
4  9167 9036 9034 9035
4  9171 5123 5116 2506
4  5123 9171 5116 4691
4  9171 9040 5116 4691
4  5116 9040 4689 4691
4  9177 5123 9171 2506
4  5123 9177 9171 4691
4  9177 9039 9171 4691
4  9171 9039 9040 4691
4  9173 9177 9167 2506
4  9177 9173 9167 9039
4  9173 9035 9167 9039
4  9167 9035 9034 9039
4  9167 9177 9171 2506
4  9177 9167 9171 9039
4  9167 9034 9171 9039
4  9171 9034 9040 9039
4  2523 9174 2505 2506
4  9174 2523 2505 9037
4  2523 1728 2505 9037
4  2505 1728 1811 9037
4  2505 9174 9166 2506
4  9174 2505 9166 9037
4  2505 1811 9166 9037
4  9166 1811 9036 9037
4  9210 9209 9206 2576
4  9209 9210 9206 9058
4  9210 9060 9206 9058
4  9206 9060 9059 9058
4  9206 9209 9207 2576
4  9209 9206 9207 9058
4  9206 9059 9207 9058
4  9207 9059 9056 9058
4  2578 9210 2575 2576
4  9210 2578 2575 9060
4  2578 1813 2575 9060
4  2575 1813 1716 9060
4  2575 9210 9206 2576
4  9210 2575 9206 9060
4  2575 1716 9206 9060
4  9206 1716 9059 9060
4  9207 5176 5172 2576
4  5176 9207 5172 4703
4  9207 9056 5172 4703
4  5172 9056 4701 4703
4  9209 5176 9207 2576
4  5176 9209 9207 4703
4  9209 9058 9207 4703
4  9207 9058 9056 4703
4  2596 9219 2593 2594
4  9219 2596 2593 9065
4  2596 1818 2593 9065
4  2593 1818 1814 9065
4  2593 9219 9217 2594
4  9219 2593 9217 9065
4  2593 1814 9217 9065
4  9217 1814 9063 9065
4  9221 5188 9218 2594
4  5188 9221 9218 4711
4  9221 9066 9218 4711
4  9218 9066 9062 4711
4  9218 5188 5183 2594
4  5188 9218 5183 4711
4  9218 9062 5183 4711
4  5183 9062 4710 4711
4  9219 9221 9217 2594
4  9221 9219 9217 9066
4  9219 9065 9217 9066
4  9217 9065 9063 9066
4  9217 9221 9218 2594
4  9221 9217 9218 9066
4  9217 9063 9218 9066
4  9218 9063 9062 9066
4  9223 5201 5197 2612
4  5201 9223 5197 4718
4  9223 9068 5197 4718
4  5197 9068 4717 4718
4  9226 5201 9223 2612
4  5201 9226 9223 4718
4  9226 9067 9223 4718
4  9223 9067 9068 4718
4  2611 2614 9225 2612
4  2614 2611 9225 1823
4  2611 1822 9065 1823
4  9225 2611 9065 1823
4  2614 9228 9225 2612
4  9228 2614 9225 9069
4  2614 1823 9225 9069
4  9225 1823 9065 9069
4  9225 9228 9223 2612
4  9228 9225 9223 9069
4  9225 9065 9068 9069
4  9223 9225 9068 9069
4  9228 9226 9223 2612
4  9226 9228 9223 9067
4  9228 9069 9223 9067
4  9223 9069 9068 9067
4  9232 9231 9239 2625
4  9231 9232 9239 9072
4  9232 9070 9239 9072
4  9239 9070 9073 9072
4  9239 9231 9240 2625
4  9231 9239 9240 9072
4  9239 9073 9240 9072
4  9240 9073 9071 9072
4  5208 9232 5218 2625
4  9232 5208 5218 9070
4  5208 4721 5218 9070
4  5218 4721 4724 9070
4  5218 9232 9239 2625
4  9232 5218 9239 9070
4  5218 4724 9239 9070
4  9239 4724 9073 9070
4  9231 2622 9240 2625
4  2622 9231 9240 1826
4  9231 9072 9240 1826
4  9240 9072 9071 1826
4  2622 2644 9240 2625
4  1826 1825 9071 9254
4  9240 2644 2622 9254
4  2622 2644 1825 9254
4  1825 1826 2622 9254
4  2644 9240 9071 9254
4  9071 1825 2644 9254
4  9240 2622 1826 9254
4  1826 9071 9240 9254
CELL_TYPES 19270
10
10
10
10
10
10
10
10
10
10
10
10
10
10
10
10
10
10
10
10
10
10
10
10
10
10
10
10
10
10
10
10
10
10
10
10
10
10
10
10
10
10
10
10
10
10
10
10
10
10
10
10
10
10
10
10
10
10
10
10
10
10
10
10
10
10
10
10
10
10
10
10
10
10
10
10
10
10
10
10
10
10
10
10
10
10
10
10
10
10
10
10
10
10
10
10
10
10
10
10
10
10
10
10
10
10
10
10
10
10
10
10
10
10
10
10
10
10
10
10
10
10
10
10
10
10
10
10
10
10
10
10
10
10
10
10
10
10
10
10
10
10
10
10
10
10
10
10
10
10
10
10
10
10
10
10
10
10
10
10
10
10
10
10
10
10
10
10
10
10
10
10
10
10
10
10
10
10
10
10
10
10
10
10
10
10
10
10
10
10
10
10
10
10
10
10
10
10
10
10
10
10
10
10
10
10
10
10
10
10
10
10
10
10
10
10
10
10
10
10
10
10
10
10
10
10
10
10
10
10
10
10
10
10
10
10
10
10
10
10
10
10
10
10
10
10
10
10
10
10
10
10
10
10
10
10
10
10
10
10
10
10
10
10
10
10
10
10
10
10
10
10
10
10
10
10
10
10
10
10
10
10
10
10
10
10
10
10
10
10
10
10
10
10
10
10
10
10
10
10
10
10
10
10
10
10
10
10
10
10
10
10
10
10
10
10
10
10
10
10
10
10
10
10
10
10
10
10
10
10
10
10
10
10
10
10
10
10
10
10
10
10
10
10
10
10
10
10
10
10
10
10
10
10
10
10
10
10
10
10
10
10
10
10
10
10
10
10
10
10
10
10
10
10
10
10
10
10
10
10
10
10
10
10
10
10
10
10
10
10
10
10
10
10
10
10
10
10
10
10
10
10
10
10
10
10
10
10
10
10
10
10
10
10
10
10
10
10
10
10
10
10
10
10
10
10
10
10
10
10
10
10
10
10
10
10
10
10
10
10
10
10
10
10
10
10
10
10
10
10
10
10
10
10
10
10
10
10
10
10
10
10
10
10
10
10
10
10
10
10
10
10
10
10
10
10
10
10
10
10
10
10
10
10
10
10
10
10
10
10
10
10
10
10
10
10
10
10
10
10
10
10
10
10
10
10
10
10
10
10
10
10
10
10
10
10
10
10
10
10
10
10
10
10
10
10
10
10
10
10
10
10
10
10
10
10
10
10
10
10
10
10
10
10
10
10
10
10
10
10
10
10
10
10
10
10
10
10
10
10
10
10
10
10
10
10
10
10
10
10
10
10
10
10
10
10
10
10
10
10
10
10
10
10
10
10
10
10
10
10
10
10
10
10
10
10
10
10
10
10
10
10
10
10
10
10
10
10
10
10
10
10
10
10
10
10
10
10
10
10
10
10
10
10
10
10
10
10
10
10
10
10
10
10
10
10
10
10
10
10
10
10
10
10
10
10
10
10
10
10
10
10
10
10
10
10
10
10
10
10
10
10
10
10
10
10
10
10
10
10
10
10
10
10
10
10
10
10
10
10
10
10
10
10
10
10
10
10
10
10
10
10
10
10
10
10
10
10
10
10
10
10
10
10
10
10
10
10
10
10
10
10
10
10
10
10
10
10
10
10
10
10
10
10
10
10
10
10
10
10
10
10
10
10
10
10
10
10
10
10
10
10
10
10
10
10
10
10
10
10
10
10
10
10
10
10
10
10
10
10
10
10
10
10
10
10
10
10
10
10
10
10
10
10
10
10
10
10
10
10
10
10
10
10
10
10
10
10
10
10
10
10
10
10
10
10
10
10
10
10
10
10
10
10
10
10
10
10
10
10
10
10
10
10
10
10
10
10
10
10
10
10
10
10
10
10
10
10
10
10
10
10
10
10
10
10
10
10
10
10
10
10
10
10
10
10
10
10
10
10
10
10
10
10
10
10
10
10
10
10
10
10
10
10
10
10
10
10
10
10
10
10
10
10
10
10
10
10
10
10
10
10
10
10
10
10
10
10
10
10
10
10
10
10
10
10
10
10
10
10
10
10
10
10
10
10
10
10
10
10
10
10
10
10
10
10
10
10
10
10
10
10
10
10
10
10
10
10
10
10
10
10
10
10
10
10
10
10
10
10
10
10
10
10
10
10
10
10
10
10
10
10
10
10
10
10
10
10
10
10
10
10
10
10
10
10
10
10
10
10
10
10
10
10
10
10
10
10
10
10
10
10
10
10
10
10
10
10
10
10
10
10
10
10
10
10
10
10
10
10
10
10
10
10
10
10
10
10
10
10
10
10
10
10
10
10
10
10
10
10
10
10
10
10
10
10
10
10
10
10
10
10
10
10
10
10
10
10
10
10
10
10
10
10
10
10
10
10
10
10
10
10
10
10
10
10
10
10
10
10
10
10
10
10
10
10
10
10
10
10
10
10
10
10
10
10
10
10
10
10
10
10
10
10
10
10
10
10
10
10
10
10
10
10
10
10
10
10
10
10
10
10
10
10
10
10
10
10
10
10
10
10
10
10
10
10
10
10
10
10
10
10
10
10
10
10
10
10
10
10
10
10
10
10
10
10
10
10
10
10
10
10
10
10
10
10
10
10
10
10
10
10
10
10
10
10
10
10
10
10
10
10
10
10
10
10
10
10
10
10
10
10
10
10
10
10
10
10
10
10
10
10
10
10
10
10
10
10
10
10
10
10
10
10
10
10
10
10
10
10
10
10
10
10
10
10
10
10
10
10
10
10
10
10
10
10
10
10
10
10
10
10
10
10
10
10
10
10
10
10
10
10
10
10
10
10
10
10
10
10
10
10
10
10
10
10
10
10
10
10
10
10
10
10
10
10
10
10
10
10
10
10
10
10
10
10
10
10
10
10
10
10
10
10
10
10
10
10
10
10
10
10
10
10
10
10
10
10
10
10
10
10
10
10
10
10
10
10
10
10
10
10
10
10
10
10
10
10
10
10
10
10
10
10
10
10
10
10
10
10
10
10
10
10
10
10
10
10
10
10
10
10
10
10
10
10
10
10
10
10
10
10
10
10
10
10
10
10
10
10
10
10
10
10
10
10
10
10
10
10
10
10
10
10
10
10
10
10
10
10
10
10
10
10
10
10
10
10
10
10
10
10
10
10
10
10
10
10
10
10
10
10
10
10
10
10
10
10
10
10
10
10
10
10
10
10
10
10
10
10
10
10
10
10
10
10
10
10
10
10
10
10
10
10
10
10
10
10
10
10
10
10
10
10
10
10
10
10
10
10
10
10
10
10
10
10
10
10
10
10
10
10
10
10
10
10
10
10
10
10
10
10
10
10
10
10
10
10
10
10
10
10
10
10
10
10
10
10
10
10
10
10
10
10
10
10
10
10
10
10
10
10
10
10
10
10
10
10
10
10
10
10
10
10
10
10
10
10
10
10
10
10
10
10
10
10
10
10
10
10
10
10
10
10
10
10
10
10
10
10
10
10
10
10
10
10
10
10
10
10
10
10
10
10
10
10
10
10
10
10
10
10
10
10
10
10
10
10
10
10
10
10
10
10
10
10
10
10
10
10
10
10
10
10
10
10
10
10
10
10
10
10
10
10
10
10
10
10
10
10
10
10
10
10
10
10
10
10
10
10
10
10
10
10
10
10
10
10
10
10
10
10
10
10
10
10
10
10
10
10
10
10
10
10
10
10
10
10
10
10
10
10
10
10
10
10
10
10
10
10
10
10
10
10
10
10
10
10
10
10
10
10
10
10
10
10
10
10
10
10
10
10
10
10
10
10
10
10
10
10
10
10
10
10
10
10
10
10
10
10
10
10
10
10
10
10
10
10
10
10
10
10
10
10
10
10
10
10
10
10
10
10
10
10
10
10
10
10
10
10
10
10
10
10
10
10
10
10
10
10
10
10
10
10
10
10
10
10
10
10
10
10
10
10
10
10
10
10
10
10
10
10
10
10
10
10
10
10
10
10
10
10
10
10
10
10
10
10
10
10
10
10
10
10
10
10
10
10
10
10
10
10
10
10
10
10
10
10
10
10
10
10
10
10
10
10
10
10
10
10
10
10
10
10
10
10
10
10
10
10
10
10
10
10
10
10
10
10
10
10
10
10
10
10
10
10
10
10
10
10
10
10
10
10
10
10
10
10
10
10
10
10
10
10
10
10
10
10
10
10
10
10
10
10
10
10
10
10
10
10
10
10
10
10
10
10
10
10
10
10
10
10
10
10
10
10
10
10
10
10
10
10
10
10
10
10
10
10
10
10
10
10
10
10
10
10
10
10
10
10
10
10
10
10
10
10
10
10
10
10
10
10
10
10
10
10
10
10
10
10
10
10
10
10
10
10
10
10
10
10
10
10
10
10
10
10
10
10
10
10
10
10
10
10
10
10
10
10
10
10
10
10
10
10
10
10
10
10
10
10
10
10
10
10
10
10
10
10
10
10
10
10
10
10
10
10
10
10
10
10
10
10
10
10
10
10
10
10
10
10
10
10
10
10
10
10
10
10
10
10
10
10
10
10
10
10
10
10
10
10
10
10
10
10
10
10
10
10
10
10
10
10
10
10
10
10
10
10
10
10
10
10
10
10
10
10
10
10
10
10
10
10
10
10
10
10
10
10
10
10
10
10
10
10
10
10
10
10
10
10
10
10
10
10
10
10
10
10
10
10
10
10
10
10
10
10
10
10
10
10
10
10
10
10
10
10
10
10
10
10
10
10
10
10
10
10
10
10
10
10
10
10
10
10
10
10
10
10
10
10
10
10
10
10
10
10
10
10
10
10
10
10
10
10
10
10
10
10
10
10
10
10
10
10
10
10
10
10
10
10
10
10
10
10
10
10
10
10
10
10
10
10
10
10
10
10
10
10
10
10
10
10
10
10
10
10
10
10
10
10
10
10
10
10
10
10
10
10
10
10
10
10
10
10
10
10
10
10
10
10
10
10
10
10
10
10
10
10
10
10
10
10
10
10
10
10
10
10
10
10
10
10
10
10
10
10
10
10
10
10
10
10
10
10
10
10
10
10
10
10
10
10
10
10
10
10
10
10
10
10
10
10
10
10
10
10
10
10
10
10
10
10
10
10
10
10
10
10
10
10
10
10
10
10
10
10
10
10
10
10
10
10
10
10
10
10
10
10
10
10
10
10
10
10
10
10
10
10
10
10
10
10
10
10
10
10
10
10
10
10
10
10
10
10
10
10
10
10
10
10
10
10
10
10
10
10
10
10
10
10
10
10
10
10
10
10
10
10
10
10
10
10
10
10
10
10
10
10
10
10
10
10
10
10
10
10
10
10
10
10
10
10
10
10
10
10
10
10
10
10
10
10
10
10
10
10
10
10
10
10
10
10
10
10
10
10
10
10
10
10
10
10
10
10
10
10
10
10
10
10
10
10
10
10
10
10
10
10
10
10
10
10
10
10
10
10
10
10
10
10
10
10
10
10
10
10
10
10
10
10
10
10
10
10
10
10
10
10
10
10
10
10
10
10
10
10
10
10
10
10
10
10
10
10
10
10
10
10
10
10
10
10
10
10
10
10
10
10
10
10
10
10
10
10
10
10
10
10
10
10
10
10
10
10
10
10
10
10
10
10
10
10
10
10
10
10
10
10
10
10
10
10
10
10
10
10
10
10
10
10
10
10
10
10
10
10
10
10
10
10
10
10
10
10
10
10
10
10
10
10
10
10
10
10
10
10
10
10
10
10
10
10
10
10
10
10
10
10
10
10
10
10
10
10
10
10
10
10
10
10
10
10
10
10
10
10
10
10
10
10
10
10
10
10
10
10
10
10
10
10
10
10
10
10
10
10
10
10
10
10
10
10
10
10
10
10
10
10
10
10
10
10
10
10
10
10
10
10
10
10
10
10
10
10
10
10
10
10
10
10
10
10
10
10
10
10
10
10
10
10
10
10
10
10
10
10
10
10
10
10
10
10
10
10
10
10
10
10
10
10
10
10
10
10
10
10
10
10
10
10
10
10
10
10
10
10
10
10
10
10
10
10
10
10
10
10
10
10
10
10
10
10
10
10
10
10
10
10
10
10
10
10
10
10
10
10
10
10
10
10
10
10
10
10
10
10
10
10
10
10
10
10
10
10
10
10
10
10
10
10
10
10
10
10
10
10
10
10
10
10
10
10
10
10
10
10
10
10
10
10
10
10
10
10
10
10
10
10
10
10
10
10
10
10
10
10
10
10
10
10
10
10
10
10
10
10
10
10
10
10
10
10
10
10
10
10
10
10
10
10
10
10
10
10
10
10
10
10
10
10
10
10
10
10
10
10
10
10
10
10
10
10
10
10
10
10
10
10
10
10
10
10
10
10
10
10
10
10
10
10
10
10
10
10
10
10
10
10
10
10
10
10
10
10
10
10
10
10
10
10
10
10
10
10
10
10
10
10
10
10
10
10
10
10
10
10
10
10
10
10
10
10
10
10
10
10
10
10
10
10
10
10
10
10
10
10
10
10
10
10
10
10
10
10
10
10
10
10
10
10
10
10
10
10
10
10
10
10
10
10
10
10
10
10
10
10
10
10
10
10
10
10
10
10
10
10
10
10
10
10
10
10
10
10
10
10
10
10
10
10
10
10
10
10
10
10
10
10
10
10
10
10
10
10
10
10
10
10
10
10
10
10
10
10
10
10
10
10
10
10
10
10
10
10
10
10
10
10
10
10
10
10
10
10
10
10
10
10
10
10
10
10
10
10
10
10
10
10
10
10
10
10
10
10
10
10
10
10
10
10
10
10
10
10
10
10
10
10
10
10
10
10
10
10
10
10
10
10
10
10
10
10
10
10
10
10
10
10
10
10
10
10
10
10
10
10
10
10
10
10
10
10
10
10
10
10
10
10
10
10
10
10
10
10
10
10
10
10
10
10
10
10
10
10
10
10
10
10
10
10
10
10
10
10
10
10
10
10
10
10
10
10
10
10
10
10
10
10
10
10
10
10
10
10
10
10
10
10
10
10
10
10
10
10
10
10
10
10
10
10
10
10
10
10
10
10
10
10
10
10
10
10
10
10
10
10
10
10
10
10
10
10
10
10
10
10
10
10
10
10
10
10
10
10
10
10
10
10
10
10
10
10
10
10
10
10
10
10
10
10
10
10
10
10
10
10
10
10
10
10
10
10
10
10
10
10
10
10
10
10
10
10
10
10
10
10
10
10
10
10
10
10
10
10
10
10
10
10
10
10
10
10
10
10
10
10
10
10
10
10
10
10
10
10
10
10
10
10
10
10
10
10
10
10
10
10
10
10
10
10
10
10
10
10
10
10
10
10
10
10
10
10
10
10
10
10
10
10
10
10
10
10
10
10
10
10
10
10
10
10
10
10
10
10
10
10
10
10
10
10
10
10
10
10
10
10
10
10
10
10
10
10
10
10
10
10
10
10
10
10
10
10
10
10
10
10
10
10
10
10
10
10
10
10
10
10
10
10
10
10
10
10
10
10
10
10
10
10
10
10
10
10
10
10
10
10
10
10
10
10
10
10
10
10
10
10
10
10
10
10
10
10
10
10
10
10
10
10
10
10
10
10
10
10
10
10
10
10
10
10
10
10
10
10
10
10
10
10
10
10
10
10
10
10
10
10
10
10
10
10
10
10
10
10
10
10
10
10
10
10
10
10
10
10
10
10
10
10
10
10
10
10
10
10
10
10
10
10
10
10
10
10
10
10
10
10
10
10
10
10
10
10
10
10
10
10
10
10
10
10
10
10
10
10
10
10
10
10
10
10
10
10
10
10
10
10
10
10
10
10
10
10
10
10
10
10
10
10
10
10
10
10
10
10
10
10
10
10
10
10
10
10
10
10
10
10
10
10
10
10
10
10
10
10
10
10
10
10
10
10
10
10
10
10
10
10
10
10
10
10
10
10
10
10
10
10
10
10
10
10
10
10
10
10
10
10
10
10
10
10
10
10
10
10
10
10
10
10
10
10
10
10
10
10
10
10
10
10
10
10
10
10
10
10
10
10
10
10
10
10
10
10
10
10
10
10
10
10
10
10
10
10
10
10
10
10
10
10
10
10
10
10
10
10
10
10
10
10
10
10
10
10
10
10
10
10
10
10
10
10
10
10
10
10
10
10
10
10
10
10
10
10
10
10
10
10
10
10
10
10
10
10
10
10
10
10
10
10
10
10
10
10
10
10
10
10
10
10
10
10
10
10
10
10
10
10
10
10
10
10
10
10
10
10
10
10
10
10
10
10
10
10
10
10
10
10
10
10
10
10
10
10
10
10
10
10
10
10
10
10
10
10
10
10
10
10
10
10
10
10
10
10
10
10
10
10
10
10
10
10
10
10
10
10
10
10
10
10
10
10
10
10
10
10
10
10
10
10
10
10
10
10
10
10
10
10
10
10
10
10
10
10
10
10
10
10
10
10
10
10
10
10
10
10
10
10
10
10
10
10
10
10
10
10
10
10
10
10
10
10
10
10
10
10
10
10
10
10
10
10
10
10
10
10
10
10
10
10
10
10
10
10
10
10
10
10
10
10
10
10
10
10
10
10
10
10
10
10
10
10
10
10
10
10
10
10
10
10
10
10
10
10
10
10
10
10
10
10
10
10
10
10
10
10
10
10
10
10
10
10
10
10
10
10
10
10
10
10
10
10
10
10
10
10
10
10
10
10
10
10
10
10
10
10
10
10
10
10
10
10
10
10
10
10
10
10
10
10
10
10
10
10
10
10
10
10
10
10
10
10
10
10
10
10
10
10
10
10
10
10
10
10
10
10
10
10
10
10
10
10
10
10
10
10
10
10
10
10
10
10
10
10
10
10
10
10
10
10
10
10
10
10
10
10
10
10
10
10
10
10
10
10
10
10
10
10
10
10
10
10
10
10
10
10
10
10
10
10
10
10
10
10
10
10
10
10
10
10
10
10
10
10
10
10
10
10
10
10
10
10
10
10
10
10
10
10
10
10
10
10
10
10
10
10
10
10
10
10
10
10
10
10
10
10
10
10
10
10
10
10
10
10
10
10
10
10
10
10
10
10
10
10
10
10
10
10
10
10
10
10
10
10
10
10
10
10
10
10
10
10
10
10
10
10
10
10
10
10
10
10
10
10
10
10
10
10
10
10
10
10
10
10
10
10
10
10
10
10
10
10
10
10
10
10
10
10
10
10
10
10
10
10
10
10
10
10
10
10
10
10
10
10
10
10
10
10
10
10
10
10
10
10
10
10
10
10
10
10
10
10
10
10
10
10
10
10
10
10
10
10
10
10
10
10
10
10
10
10
10
10
10
10
10
10
10
10
10
10
10
10
10
10
10
10
10
10
10
10
10
10
10
10
10
10
10
10
10
10
10
10
10
10
10
10
10
10
10
10
10
10
10
10
10
10
10
10
10
10
10
10
10
10
10
10
10
10
10
10
10
10
10
10
10
10
10
10
10
10
10
10
10
10
10
10
10
10
10
10
10
10
10
10
10
10
10
10
10
10
10
10
10
10
10
10
10
10
10
10
10
10
10
10
10
10
10
10
10
10
10
10
10
10
10
10
10
10
10
10
10
10
10
10
10
10
10
10
10
10
10
10
10
10
10
10
10
10
10
10
10
10
10
10
10
10
10
10
10
10
10
10
10
10
10
10
10
10
10
10
10
10
10
10
10
10
10
10
10
10
10
10
10
10
10
10
10
10
10
10
10
10
10
10
10
10
10
10
10
10
10
10
10
10
10
10
10
10
10
10
10
10
10
10
10
10
10
10
10
10
10
10
10
10
10
10
10
10
10
10
10
10
10
10
10
10
10
10
10
10
10
10
10
10
10
10
10
10
10
10
10
10
10
10
10
10
10
10
10
10
10
10
10
10
10
10
10
10
10
10
10
10
10
10
10
10
10
10
10
10
10
10
10
10
10
10
10
10
10
10
10
10
10
10
10
10
10
10
10
10
10
10
10
10
10
10
10
10
10
10
10
10
10
10
10
10
10
10
10
10
10
10
10
10
10
10
10
10
10
10
10
10
10
10
10
10
10
10
10
10
10
10
10
10
10
10
10
10
10
10
10
10
10
10
10
10
10
10
10
10
10
10
10
10
10
10
10
10
10
10
10
10
10
10
10
10
10
10
10
10
10
10
10
10
10
10
10
10
10
10
10
10
10
10
10
10
10
10
10
10
10
10
10
10
10
10
10
10
10
10
10
10
10
10
10
10
10
10
10
10
10
10
10
10
10
10
10
10
10
10
10
10
10
10
10
10
10
10
10
10
10
10
10
10
10
10
10
10
10
10
10
10
10
10
10
10
10
10
10
10
10
10
10
10
10
10
10
10
10
10
10
10
10
10
10
10
10
10
10
10
10
10
10
10
10
10
10
10
10
10
10
10
10
10
10
10
10
10
10
10
10
10
10
10
10
10
10
10
10
10
10
10
10
10
10
10
10
10
10
10
10
10
10
10
10
10
10
10
10
10
10
10
10
10
10
10
10
10
10
10
10
10
10
10
10
10
10
10
10
10
10
10
10
10
10
10
10
10
10
10
10
10
10
10
10
10
10
10
10
10
10
10
10
10
10
10
10
10
10
10
10
10
10
10
10
10
10
10
10
10
10
10
10
10
10
10
10
10
10
10
10
10
10
10
10
10
10
10
10
10
10
10
10
10
10
10
10
10
10
10
10
10
10
10
10
10
10
10
10
10
10
10
10
10
10
10
10
10
10
10
10
10
10
10
10
10
10
10
10
10
10
10
10
10
10
10
10
10
10
10
10
10
10
10
10
10
10
10
10
10
10
10
10
10
10
10
10
10
10
10
10
10
10
10
10
10
10
10
10
10
10
10
10
10
10
10
10
10
10
10
10
10
10
10
10
10
10
10
10
10
10
10
10
10
10
10
10
10
10
10
10
10
10
10
10
10
10
10
10
10
10
10
10
10
10
10
10
10
10
10
10
10
10
10
10
10
10
10
10
10
10
10
10
10
10
10
10
10
10
10
10
10
10
10
10
10
10
10
10
10
10
10
10
10
10
10
10
10
10
10
10
10
10
10
10
10
10
10
10
10
10
10
10
10
10
10
10
10
10
10
10
10
10
10
10
10
10
10
10
10
10
10
10
10
10
10
10
10
10
10
10
10
10
10
10
10
10
10
10
10
10
10
10
10
10
10
10
10
10
10
10
10
10
10
10
10
10
10
10
10
10
10
10
10
10
10
10
10
10
10
10
10
10
10
10
10
10
10
10
10
10
10
10
10
10
10
10
10
10
10
10
10
10
10
10
10
10
10
10
10
10
10
10
10
10
10
10
10
10
10
10
10
10
10
10
10
10
10
10
10
10
10
10
10
10
10
10
10
10
10
10
10
10
10
10
10
10
10
10
10
10
10
10
10
10
10
10
10
10
10
10
10
10
10
10
10
10
10
10
10
10
10
10
10
10
10
10
10
10
10
10
10
10
10
10
10
10
10
10
10
10
10
10
10
10
10
10
10
10
10
10
10
10
10
10
10
10
10
10
10
10
10
10
10
10
10
10
10
10
10
10
10
10
10
10
10
10
10
10
10
10
10
10
10
10
10
10
10
10
10
10
10
10
10
10
10
10
10
10
10
10
10
10
10
10
10
10
10
10
10
10
10
10
10
10
10
10
10
10
10
10
10
10
10
10
10
10
10
10
10
10
10
10
10
10
10
10
10
10
10
10
10
10
10
10
10
10
10
10
10
10
10
10
10
10
10
10
10
10
10
10
10
10
10
10
10
10
10
10
10
10
10
10
10
10
10
10
10
10
10
10
10
10
10
10
10
10
10
10
10
10
10
10
10
10
10
10
10
10
10
10
10
10
10
10
10
10
10
10
10
10
10
10
10
10
10
10
10
10
10
10
10
10
10
10
10
10
10
10
10
10
10
10
10
10
10
10
10
10
10
10
10
10
10
10
10
10
10
10
10
10
10
10
10
10
10
10
10
10
10
10
10
10
10
10
10
10
10
10
10
10
10
10
10
10
10
10
10
10
10
10
10
10
10
10
10
10
10
10
10
10
10
10
10
10
10
10
10
10
10
10
10
10
10
10
10
10
10
10
10
10
10
10
10
10
10
10
10
10
10
10
10
10
10
10
10
10
10
10
10
10
10
10
10
10
10
10
10
10
10
10
10
10
10
10
10
10
10
10
10
10
10
10
10
10
10
10
10
10
10
10
10
10
10
10
10
10
10
10
10
10
10
10
10
10
10
10
10
10
10
10
10
10
10
10
10
10
10
10
10
10
10
10
10
10
10
10
10
10
10
10
10
10
10
10
10
10
10
10
10
10
10
10
10
10
10
10
10
10
10
10
10
10
10
10
10
10
10
10
10
10
10
10
10
10
10
10
10
10
10
10
10
10
10
10
10
10
10
10
10
10
10
10
10
10
10
10
10
10
10
10
10
10
10
10
10
10
10
10
10
10
10
10
10
10
10
10
10
10
10
10
10
10
10
10
10
10
10
10
10
10
10
10
10
10
10
10
10
10
10
10
10
10
10
10
10
10
10
10
10
10
10
10
10
10
10
10
10
10
10
10
10
10
10
10
10
10
10
10
10
10
10
10
10
10
10
10
10
10
10
10
10
10
10
10
10
10
10
10
10
10
10
10
10
10
10
10
10
10
10
10
10
10
10
10
10
10
10
10
10
10
10
10
10
10
10
10
10
10
10
10
10
10
10
10
10
10
10
10
10
10
10
10
10
10
10
10
10
10
10
10
10
10
10
10
10
10
10
10
10
10
10
10
10
10
10
10
10
10
10
10
10
10
10
10
10
10
10
10
10
10
10
10
10
10
10
10
10
10
10
10
10
10
10
10
10
10
10
10
10
10
10
10
10
10
10
10
10
10
10
10
10
10
10
10
10
10
10
10
10
10
10
10
10
10
10
10
10
10
10
10
10
10
10
10
10
10
10
10
10
10
10
10
10
10
10
10
10
10
10
10
10
10
10
10
10
10
10
10
10
10
10
10
10
10
10
10
10
10
10
10
10
10
10
10
10
10
10
10
10
10
10
10
10
10
10
10
10
10
10
10
10
10
10
10
10
10
10
10
10
10
10
10
10
10
10
10
10
10
10
10
10
10
10
10
10
10
10
10
10
10
10
10
10
10
10
10
10
10
10
10
10
10
10
10
10
10
10
10
10
10
10
10
10
10
10
10
10
10
10
10
10
10
10
10
10
10
10
10
10
10
10
10
10
10
10
10
10
10
10
10
10
10
10
10
10
10
10
10
10
10
10
10
10
10
10
10
10
10
10
10
10
10
10
10
10
10
10
10
10
10
10
10
10
10
10
10
10
10
10
10
10
10
10
10
10
10
10
10
10
10
10
10
10
10
10
10
10
10
10
10
10
10
10
10
10
10
10
10
10
10
10
10
10
10
10
10
10
10
10
10
10
10
10
10
10
10
10
10
10
10
10
10
10
10
10
10
10
10
10
10
10
10
10
10
10
10
10
10
10
10
10
10
10
10
10
10
10
10
10
10
10
10
10
10
10
10
10
10
10
10
10
10
10
10
10
10
10
10
10
10
10
10
10
10
10
10
10
10
10
10
10
10
10
10
10
10
10
10
10
10
10
10
10
10
10
10
10
10
10
10
10
10
10
10
10
10
10
10
10
10
10
10
10
10
10
10
10
10
10
10
10
10
10
10
10
10
10
10
10
10
10
10
10
10
10
10
10
10
10
10
10
10
10
10
10
10
10
10
10
10
10
10
10
10
10
10
10
10
10
10
10
10
10
10
10
10
10
10
10
10
10
10
10
10
10
10
10
10
10
10
10
10
10
10
10
10
10
10
10
10
10
10
10
10
10
10
10
10
10
10
10
10
10
10
10
10
10
10
10
10
10
10
10
10
10
10
10
10
10
10
10
10
10
10
10
10
10
10
10
10
10
10
10
10
10
10
10
10
10
10
10
10
10
10
10
10
10
10
10
10
10
10
10
10
10
10
10
10
10
10
10
10
10
10
10
10
10
10
10
10
10
10
10
10
10
10
10
10
10
10
10
10
10
10
10
10
10
10
10
10
10
10
10
10
10
10
10
10
10
10
10
10
10
10
10
10
10
10
10
10
10
10
10
10
10
10
10
10
10
10
10
10
10
10
10
10
10
10
10
10
10
10
10
10
10
10
10
10
10
10
10
10
10
10
10
10
10
10
10
10
10
10
10
10
10
10
10
10
10
10
10
10
10
10
10
10
10
10
10
10
10
10
10
10
10
10
10
10
10
10
10
10
10
10
10
10
10
10
10
10
10
10
10
10
10
10
10
10
10
10
10
10
10
10
10
10
10
10
10
10
10
10
10
10
10
10
10
10
10
10
10
10
10
10
10
10
10
10
10
10
10
10
10
10
10
10
10
10
10
10
10
10
10
10
10
10
10
10
10
10
10
10
10
10
10
10
10
10
10
10
10
10
10
10
10
10
10
10
10
10
10
10
10
10
10
10
10
10
10
10
10
10
10
10
10
10
10
10
10
10
10
10
10
10
10
10
10
10
10
10
10
10
10
10
10
10
10
10
10
10
10
10
10
10
10
10
10
10
10
10
10
10
10
10
10
10
10
10
10
10
10
10
10
10
10
10
10
10
10
10
10
10
10
10
10
10
10
10
10
10
10
10
10
10
10
10
10
10
10
10
10
10
10
10
10
10
10
10
10
10
10
10
10
10
10
10
10
10
10
10
10
10
10
10
10
10
10
10
10
10
10
10
10
10
10
10
10
10
10
10
10
10
10
10
10
10
10
10
10
10
10
10
10
10
10
10
10
10
10
10
10
10
10
10
10
10
10
10
10
10
10
10
10
10
10
10
10
10
10
10
10
10
10
10
10
10
10
10
10
10
10
10
10
10
10
10
10
10
10
10
10
10
10
10
10
10
10
10
10
10
10
10
10
10
10
10
10
10
10
10
10
10
10
10
10
10
10
10
10
10
10
10
10
10
10
10
10
10
10
10
10
10
10
10
10
10
10
10
10
10
10
10
10
10
10
10
10
10
10
10
10
10
10
10
10
10
10
10
10
10
10
10
10
10
10
10
10
10
10
10
10
10
10
10
10
10
10
10
10
10
10
10
10
10
10
10
10
10
10
10
10
10
10
10
10
10
10
10
10
10
10
10
10
10
10
10
10
10
10
10
10
10
10
10
10
10
10
10
10
10
10
10
10
10
10
10
10
10
10
10
10
10
10
10
10
10
10
10
10
10
10
10
10
10
10
10
10
10
10
10
10
10
10
10
10
10
10
10
10
10
10
10
10
10
10
10
10
10
10
10
10
10
10
10
10
10
10
10
10
10
10
10
10
10
10
10
10
10
10
10
10
10
10
10
10
10
10
10
10
10
10
10
10
10
10
10
10
10
10
10
10
10
10
10
10
10
10
10
10
10
10
10
10
10
10
10
10
10
10
10
10
10
10
10
10
10
10
10
10
10
10
10
10
10
10
10
10
10
10
10
10
10
10
10
10
10
10
10
10
10
10
10
10
10
10
10
10
10
10
10
10
10
10
10
10
10
10
10
10
10
10
10
10
10
10
10
10
10
10
10
10
10
10
10
10
10
10
10
10
10
10
10
10
10
10
10
10
10
10
10
10
10
10
10
10
10
10
10
10
10
10
10
10
10
10
10
10
10
10
10
10
10
10
10
10
10
10
10
10
10
10
10
10
10
10
10
10
10
10
10
10
10
10
10
10
10
10
10
10
10
10
10
10
10
10
10
10
10
10
10
10
10
10
10
10
10
10
10
10
10
10
10
10
10
10
10
10
10
10
10
10
10
10
10
10
10
10
10
10
10
10
10
10
10
10
10
10
10
10
10
10
10
10
10
10
10
10
10
10
10
10
10
10
10
10
10
10
10
10
10
10
10
10
10
10
10
10
10
10
10
10
10
10
10
10
10
10
10
10
10
10
10
10
10
10
10
10
10
10
10
10
10
10
10
10
10
10
10
10
10
10
10
10
10
10
10
10
10
10
10
10
10
10
10
10
10
10
10
10
10
10
10
10
10
10
10
10
10
10
10
10
10
10
10
10
10
10
10
10
10
10
10
10
10
10
10
10
10
10
10
10
10
10
10
10
10
10
10
10
10
10
10
10
10
10
10
10
10
10
10
10
10
10
10
10
10
10
10
10
10
10
10
10
10
10
10
10
10
10
10
10
10
10
10
10
10
10
10
10
10
10
10
10
10
10
10
10
10
10
10
10
10
10
10
10
10
10
10
10
10
10
10
10
10
10
10
10
10
10
10
10
10
10
10
10
10
10
10
10
10
10
10
10
10
10
10
10
10
10
10
10
10
10
10
10
10
10
10
10
10
10
10
10
10
10
10
10
10
10
10
10
10
10
10
10
10
10
10
10
10
10
10
10
10
10
10
10
10
10
10
10
10
10
10
10
10
10
10
10
10
10
10
10
10
10
10
10
10
10
10
10
10
10
10
10
10
10
10
10
10
10
10
10
10
10
10
10
10
10
10
10
10
10
10
10
10
10
10
10
10
10
10
10
10
10
10
10
10
10
10
10
10
10
10
10
10
10
10
10
10
10
10
10
10
10
10
10
10
10
10
10
10
10
10
10
10
10
10
10
10
10
10
10
10
10
10
10
10
10
10
10
10
10
10
10
10
10
10
10
10
10
10
10
10
10
10
10
10
10
10
10
10
10
10
10
10
10
10
10
10
10
10
10
10
10
10
10
10
10
10
10
10
10
10
10
10
10
10
10
10
10
10
10
10
10
10
10
10
10
10
10
10
10
10
10
10
10
10
10
10
10
10
10
10
10
10
10
10
10
10
10
10
10
10
10
10
10
10
10
10
10
10
10
10
10
10
10
10
10
10
10
10
10
10
10
10
10
10
10
10
10
10
10
10
10
10
10
10
10
10
10
10
10
10
10
10
10
10
10
10
10
10
10
10
10
10
10
10
10
10
10
10
10
10
10
10
10
10
10
10
10
10
10
10
10
10
10
10
10
10
10
10
10
10
10
10
10
10
10
10
10
10
10
10
10
10
10
10
10
10
10
10
10
10
10
10
10
10
10
10
10
10
10
10
10
10
10
10
10
10
10
10
10
10
10
10
10
10
10
10
10
10
10
10
10
10
10
10
10
10
10
10
10
10
10
10
10
10
10
10
10
10
10
10
10
10
10
10
10
10
10
10
10
10
10
10
10
10
10
10
10
10
10
10
10
10
10
10
10
10
10
10
10
10
10
10
10
10
10
10
10
10
10
10
10
10
10
10
10
10
10
10
10
10
10
10
10
10
10
10
10
10
10
10
10
10
10
10
10
10
10
10
10
10
10
10
10
10
10
10
10
10
10
10
10
10
10
10
10
10
10
10
10
10
10
10
10
10
10
10
10
10
10
10
10
10
10
10
10
10
10
10
10
10
10
10
10
10
10
10
10
10
10
10
10
10
10
10
10
10
10
10
10
10
10
10
10
10
10
10
10
10
10
10
10
10
10
10
10
10
10
10
10
10
10
10
10
10
10
10
10
10
10
10
10
10
10
10
10
10
10
10
10
10
10
10
10
10
10
10
10
10
10
10
10
10
10
10
10
10
10
10
10
10
10
10
10
10
10
10
10
10
10
10
10
10
10
10
10
10
10
10
10
10
10
10
10
10
10
10
10
10
10
10
10
10
10
10
10
10
10
10
10
10
10
10
10
10
10
10
10
10
10
10
10
10
10
10
10
10
10
10
10
10
10
10
10
10
10
10
10
10
10
10
10
10
10
10
10
10
10
10
10
10
10
10
10
10
10
10
10
10
10
10
10
10
10
10
10
10
10
10
10
10
10
10
10
10
10
10
10
10
10
10
10
10
10
10
10
10
10
10
10
10
10
10
10
10
10
10
10
10
10
10
10
10
10
10
10
10
10
10
10
10
10
10
10
10
10
10
10
10
10
10
10
10
10
10
10
10
10
10
10
10
10
10
10
10
10
10
10
10
10
10
10
10
10
10
10
10
10
10
10
10
10
10
10
10
10
10
10
10
10
10
10
10
10
10
10
10
10
10
10
10
10
10
10
10
10
10
10
10
10
10
10
10
10
10
10
10
10
10
10
10
10
10
10
10
10
10
10
10
10
10
10
10
10
10
10
10
10
10
10
10
10
10
10
10
10
10
10
10
10
10
10
10
10
10
10
10
10
10
10
10
10
10
10
10
10
10
10
10
10
10
10
10
10
10
10
10
10
10
10
10
10
10
10
10
10
10
10
10
10
10
10
10
10
10
10
10
10
10
10
10
10
10
10
10
10
10
10
10
10
10
10
10
10
10
10
10
10
10
10
10
10
10
10
10
10
10
10
10
10
10
10
10
10
10
10
10
10
10
10
10
10
10
10
10
10
10
10
10
10
10
10
10
10
10
10
10
10
10
10
10
10
10
10
10
10
10
10
10
10
10
10
10
10
10
10
10
10
10
10
10
10
10
10
10
10
10
10
10
10
10
10
10
10
10
10
10
10
10
10
10
10
10
10
10
10
10
10
10
10
10
10
10
10
10
10
10
10
10
10
10
10
10
10
10
10
10
10
10
10
10
10
10
10
10
10
10
10
10
10
10
10
10
10
10
10
10
10
10
10
10
10
10
10
10
10
10
10
10
10
10
10
10
10
10
10
10
10
10
10
10
10
10
10
10
10
10
10
10
10
10
10
10
10
10
10
10
10
10
10
10
10
10
10
10
10
10
10
10
10
10
10
10
10
10
10
10
10
10
10
10
10
10
10
10
10
10
10
10
10
10
10
10
10
10
10
10
10
10
10
10
10
10
10
10
10
10
10
10
10
10
10
10
10
10
10
10
10
10
10
10
10
10
10
10
10
10
10
10
10
10
10
10
10
10
10
10
10
10
10
10
10
10
10
10
10
10
10
10
10
10
10
10
10
10
10
10
10
10
10
10
10
10
10
10
10
10
10
10
10
10
10
10
10
10
10
10
10
10
10
10
10
10
10
10
10
10
10
10
10
10
10
10
10
10
10
10
10
10
10
10
10
10
10
10
10
10
10
10
10
10
10
10
10
10
10
10
10
10
10
10
10
10
10
10
10
10
10
10
10
10
10
10
10
10
10
10
10
10
10
10
10
10
10
10
10
10
10
10
10
10
10
10
10
10
10
10
10
10
10
10
10
10
10
10
10
10
10
10
10
10
10
10
10
10
10
10
10
10
10
10
10
10
10
10
10
10
10
10
10
10
10
10
10
10
10
10
10
10
10
10
10
10
10
10
10
10
10
10
10
10
10
10
10
10
10
10
10
10
10
10
10
10
10
10
10
10
10
10
10
10
10
10
10
10
10
10
10
10
10
10
10
10
10
10
10
10
10
10
10
10
10
10
10
10
10
10
10
10
10
10
10
10
10
10
10
10
10
10
10
10
10
10
10
10
10
10
10
10
10
10
10
10
10
10
10
10
10
10
10
10
10
10
10
10
10
10
10
10
10
10
10
10
10
10
10
10
10
10
10
10
10
10
10
10
10
10
10
10
10
10
10
10
10
10
10
10
10
10
10
10
10
10
10
10
10
10
10
10
10
10
10
10
10
10
10
10
10
10
10
10
10
10
10
10
10
10
10
10
10
10
10
10
10
10
10
10
10
10
10
10
10
10
10
10
10
10
10
10
10
10
10
10
10
10
10
10
10
10
10
10
10
10
10
10
10
10
10
10
10
10
10
10
10
10
10
10
10
10
10
10
10
10
10
10
10
10
10
10
10
10
10
10
10
10
10
10
10
10
10
10
10
10
10
10
10
10
10
10
10
10
10
10
10
10
10
10
10
10
10
10
10
10
10
10
10
10
10
10
10
10
10
10
10
10
10
10
10
10
10
10
10
10
10
10
10
10
10
10
10
10
10
10
10
10
10
10
10
10
10
10
10
10
10
10
10
10
10
10
10
10
10
10
10
10
10
10
10
10
10
10
10
10
10
10
10
10
10
10
10
10
10
10
10
10
10
10
10
10
10
10
10
10
10
10
10
10
10
10
10
10
10
10
10
10
10
10
10
10
10
10
10
10
10
10
10
10
10
10
10
10
10
10
10
10
10
10
10
10
10
10
10
10
10
10
10
10
10
10
10
10
10
10
10
10
10
10
10
10
10
10
10
10
10
10
10
10
10
10
10
10
10
10
10
10
10
10
10
10
10
10
10
10
10
10
10
10
10
10
10
10
10
10
10
10
10
10
10
10
10
10
10
10
10
10
10
10
10
10
10
10
10
10
10
10
10
10
10
10
10
10
10
10
10
10
10
10
10
10
10
10
10
10
10
10
10
10
10
10
10
10
10
10
10
10
10
10
10
10
10
10
10
10
10
10
10
10
10
10
10
10
10
10
10
10
10
10
10
10
10
10
10
10
10
10
10
10
10
10
10
10
10
10
10
10
10
10
10
10
10
10
10
10
10
10
10
10
10
10
10
10
10
10
10
10
10
10
10
10
10
10
10
10
10
10
10
10
10
10
10
10
10
10
10
10
10
10
10
10
10
10
10
10
10
10
10
10
10
10
10
10
10
10
10
10
10
10
10
10
10
10
10
10
10
10
10
10
10
10
10
10
10
10
10
10
10
10
10
10
10
10
10
10
10
10
10
10
10
10
10
10
10
10
10
10
10
10
10
10
10
10
10
10
10
10
10
10
10
10
10
10
10
10
10
10
10
10
10
10
10
10
10
10
10
10
10
10
10
10
10
10
10
10
10
10
10
10
10
10
10
10
10
10
10
10
10
10
10
10
10
10
10
10
10
10
10
10
10
10
10
10
10
10
10
10
10
10
10
10
10
10
10
10
10
10
10
10
10
10
10
10
10
10
10
10
10
10
10
10
10
10
10
10
10
10
10
10
10
10
10
10
10
10
10
10
10
10
10
10
10
10
10
10
10
10
10
10
10
10
10
10
10
10
10
10
10
10
10
10
10
10
10
10
10
10
10
10
10
10
10
10
10
10
10
10
10
10
10
10
10
10
10
10
10
10
10
10
10
10
10
10
10
10
10
10
10
10
10
10
10
10
10
10
10
10
10
10
10
10
10
10
10
10
10
10
10
10
10
10
10
10
10
10
10
10
10
10
10
10
10
10
10
10
10
10
10
10
10
10
10
10
10
10
10
10
10
10
10
10
10
10
10
10
10
10
10
10
10
10
10
10
10
10
10
10
10
10
10
10
10
10
10
10
10
10
10
10
10
10
10
10
10
10
10
10
10
10
10
10
10
10
10
10
10
10
10
10
10
10
10
10
10
10
10
10
10
10
10
10
10
10
10
10
10
10
10
10
10
10
10
10
10
10
10
10
10
10
10
10
10
10
10
10
10
10
10
10
10
10
10
10
10
10
10
10
10
10
10
10
10
10
10
10
10
10
10
10
10
10
10
10
10
10
10
10
10
10
10
10
10
10
10
10
10
10
10
10
10
10
10
10
10
10
10
10
10
10
10
10
10
10
10
10
10
10
10
10
10
10
10
10
10
10
10
10
10
10
10
10
10
10
10
10
10
10
10
10
10
10
10
10
10
10
10
10
10
10
10
10
10
10
10
10
10
10
10
10
10
10
10
10
10
10
10
10
10
10
10
10
10
10
10
10
10
10
10
10
10
10
10
10
10
10
10
10
10
10
10
10
10
10
10
10
10
10
10
10
10
10
10
10
10
10
10
10
10
10
10
10
10
10
10
10
10
10
10
10
10
10
10
10
10
10
10
10
10
10
10
10
10
10
10
10
10
10
10
10
10
10
10
10
10
10
10
10
10
10
10
10
10
10
10
10
10
10
10
10
10
10
10
10
10
10
10
10
10
10
10
10
10
10
10
10
10
10
10
10
10
10
10
10
10
10
10
10
10
10
10
10
10
10
10
10
10
10
10
10
10
10
10
10
10
10
10
10
10
10
10
10
10
10
10
10
10
10
10
10
10
10
10
10
10
10
10
10
10
10
10
10
10
10
10
10
10
10
10
10
10
10
10
10
10
10
10
10
10
10
10
10
10
10
10
10
10
10
10
10
10
10
10
10
10
10
10
10
10
10
10
10
10
10
10
10
10
10
10
10
10
10
10
10
10
10
10
10
10
10
10
10
10
10
10
10
10
10
10
10
10
10
10
10
10
10
10
10
10
10
10
10
10
10
10
10
10
10
10
10
10
10
10
10
10
10
10
10
10
10
10
10
10
10
10
10
10
10
10
10
10
10
10
10
10
10
10
10
10
10
10
10
10
10
10
10
10
10
10
10
10
10
10
10
10
10
10
10
10
10
10
10
10
10
10
10
10
10
10
10
10
10
10
10
10
10
10
10
10
10
10
10
10
10
10
10
10
10
10
10
10
10
10
10
10
10
10
10
10
10
10
10
10
10
10
10
10
10
10
10
10
10
10
10
10
10
10
10
10
10
10
10
10
10
10
10
10
10
10
10
10
10
10
10
10
10
10
10
10
10
10
10
10
10
10
10
10
10
10
10
10
10
10
10
10
10
10
10
10
10
10
10
10
10
10
10
10
10
10
10
10
10
10
10
10
10
10
10
10
10
10
10
10
10
10
10
10
10
10
10
10
10
10
10
10
10
10
10
10
10
10
10
10
10
10
10
10
10
10
10
10
10
10
10
10
10
10
10
10
10
10
10
10
10
10
10
10
10
10
10
10
10
10
10
10
10
10
10
10
10
10
10
10
10
10
10
10
10
10
10
10
10
10
10
10
10
10
10
10
10
10
10
10
10
10
10
10
10
10
10
10
10
10
10
10
10
10
10
10
10
10
10
10
10
10
10
10
10
10
10
10
10
10
10
10
10
10
10
10
10
10
10
10
10
10
10
10
10
10
10
10
10
10
10
10
10
10
10
10
10
10
10
10
10
10
10
10
10
10
10
10
10
10
10
10
10
10
10
10
10
10
10
10
10
10
10
10
10
10
10
10
10
10
10
10
10
10
10
10
10
10
10
10
10
10
10
10
10
10
10
10
10
10
10
10
10
10
10
10
10
10
10
10
10
10
10
10
10
10
10
10
10
10
10
10
10
10
10
10
10
10
10
10
10
10
10
10
10
10
10
10
10
10
10
10
10
10
10
10
10
10
10
10
10
10
10
10
10
10
10
10
10
10
10
10
10
10
10
10
10
10
10
10
10
10
10
10
10
10
10
10
10
10
10
10
10
10
10
10
10
10
10
10
10
10
10
10
10
10
10
10
10
10
10
10
10
10
10
10
10
10
10
10
10
10
10
10
10
10
10
10
10
10
10
10
10
10
10
10
10
10
10
10
10
10
10
10
10
10
10
10
10
10
10
10
10
10
10
10
10
10
10
10
10
10
10
10
10
10
10
10
10
10
10
10
10
10
10
10
10
10
10
10
10
10
10
10
10
10
10
10
10
10
10
10
10
10
10
10
10
10
10
10
10
10
10
10
10
10
10
10
10
10
10
10
10
10
10
10
10
10
10
10
10
10
10
10
10
10
10
10
10
10
10
10
10
10
10
10
10
10
10
10
10
10
10
10
10
10
10
10
10
10
10
10
10
10
10
10
10
10
10
10
10
10
10
10
10
10
10
10
10
10
10
10
10
10
10
10
10
10
10
10
10
10
10
10
10
10
10
10
10
10
10
10
10
10
10
10
10
10
10
10
10
10
10
10
10
10
10
10
10
10
10
10
10
10
10
10
10
10
10
10
10
10
10
10
10
10
10
10
10
10
10
10
10
10
10
10
10
10
10
10
10
10
10
10
10
10
10
10
10
10
10
10
10
10
10
10
10
10
10
10
10
10
10
10
10
10
10
10
10
10
10
10
10
10
10
10
10
10
10
10
10
10
10
10
10
10
10
10
10
10
10
10
10
10
10
10
10
10
10
10
10
10
10
10
10
10
10
10
10
10
10
10
10
10
10
10
10
10
10
10
10
10
10
10
10
10
10
10
10
10
10
10
10
10
10
10
10
10
10
10
10
10
10
10
10
10
10
10
10
10
10
10
10
10
10
10
10
10
10
10
10
10
10
10
10
10
10
10
10
10
10
10
10
10
10
10
10
10
10
10
10
10
10
10
10
10
10
10
10
10
10
10
10
10
10
10
10
10
10
10
10
10
10
10
10
10
10
10
10
10
10
10
10
10
10
10
10
10
10
10
10
10
10
10
10
10
10
10
10
10
10
10
10
10
10
10
10
10
10
10
10
10
10
10
10
10
10
10
10
10
10
10
10
10
10
10
10
10
10
10
10
10
10
10
10
10
10
10
10
10
10
10
10
10
10
10
10
10
10
10
10
10
10
10
10
10
10
10
10
10
10
10
10
10
10
10
10
10
10
10
10
10
10
10
10
10
10
10
10
10
10
10
10
10
10
10
10
10
10
10
10
10
10
10
10
10
10
10
10
10
10
10
10
10
10
10
10
10
10
10
10
10
10
10
10
10
10
10
10
10
10
10
10
10
10
10
10
10
10
10
10
10
10
10
10
10
10
10
10
10
10
10
10
10
10
10
10
10
10
10
10
10
10
10
10
10
10
10
10
10
10
10
10
10
10
10
10
10
10
10
10
10
10
10
10
10
10
10
10
10
10
10
10
10
10
10
10
10
10
10
10
10
10
10
10
10
10
10
10
10
10
10
10
10
10
10
10
10
10
10
10
10
10
10
10
10
10
10
10
10
10
10
10
10
10
10
10
10
10
10
10
10
10
10
10
10
10
10
10
10
10
10
10
10
10
10
10
10
10
10
10
10
10
10
10
10
10
10
10
10
10
10
10
10
10
10
10
10
10
10
10
10
10
10
10
10
10
10
10
10
10
10
10
10
10
10
10
10
10
10
10
10
10
10
10
10
10
10
10
10
10
10
10
10
10
10
10
10
10
10
10
10
10
10
10
10
10
10
10
10
10
10
10
10
10
10
10
10
10
10
10
10
10
10
10
10
10
10
10
10
10
10
10
10
10
10
10
10
10
10
10
10
10
10
10
10
10
10
10
10
10
10
10
10
10
10
10
10
10
10
10
10
10
10
10
10
10
10
10
10
10
10
10
10
10
10
10
10
10
10
10
10
10
10
10
10
10
10
10
10
10
10
10
10
10
10
10
10
10
10
10
10
10
10
10
10
10
10
10
10
10
10
10
10
10
10
10
10
10
10
10
10
10
10
10
10
10
10
10
10
10
10
10
10
10
10
10
10
10
10
10
10
10
10
10
10
10
10
10
10
10
10
10
10
10
10
10
10
10
10
10
10
10
10
10
10
10
10
10
10
10
10
10
10
10
10
10
10
10
10
10
10
10
10
10
10
10
10
10
10
10
10
10
10
10
10
10
10
10
10
10
10
10
10
10
10
10
10
10
10
10
10
10
10
10
10
10
10
10
10
10
10
10
10
10
10
10
10
10
10
10
10
10
10
10
10
10
10
10
10
10
10
10
10
10
10
10
10
10
10
10
10
10
10
10
10
10
10
10
10
10
10
10
10
10
10
10
10
10
10
10
10
10
10
10
10
10
10
10
10
10
10
10
10
10
10
10
10
10
10
10
10
10
10
10
10
10
10
10
10
10
10
10
10
10
10
10
10
10
10
10
10
10
10
10
10
10
10
10
10
10
10
10
10
10
10
10
10
10
10
10
10
10
10
10
10
10
10
10
10
10
10
10
10
10
10
10
10
10
10
10
10
10
10
10
10
10
10
10
10
10
10
10
10
10
10
10
10
10
10
10
10
10
10
10
10
10
10
10
10
10
10
10
10
10
10
10
10
10
10
10
10
10
10
10
10
10
10
10
10
10
10
10
10
10
10
10
10
10
10
10
10
10
10
10
10
10
10
10
10
10
10
10
10
10
10
10
10
10
10
10
10
10
10
10
10
10
10
10
10
10
10
10
10
10
10
10
10
10
10
10
10
10
10
10
10
10
10
10
10
10
10
10
10
10
10
10
10
10
10
10
10
10
10
10
10
10
10
10
10
10
10
10
10
10
10
10
10
10
10
10
10
10
10
10
10
10
10
10
10
10
10
10
10
10
10
10
10
10
10
10
10
10
10
10
10
10
10
10
10
10
10
10
10
10
10
10
10
10
10
10
10
10
10
10
10
10
10
10
10
10
10
10
10
10
10
10
10
10
10
10
10
10
10
10
10
10
10
10
10
10
10
10
10
10
10
10
10
10
10
10
10
10
10
10
10
10
10
10
10
10
10
10
10
10
10
10
10
10
10
10
10
10
10
10
10
10
10
10
10
10
10
10
10
10
10
10
10
10
10
10
10
10
10
10
10
10
10
10
10
10
10
10
10
10
10
10
10
10
10
10
10
10
10
10
10
10
10
10
10
10
10
10
10
10
10
10
10
10
10
10
10
10
10
10
10
10
10
10
10
10
10
10
10
10
10
10
10
10
10
10
10
10
10
10
10
10
10
10
10
10
10
10
10
10
10
10
10
10
10
10
10
10
10
10
10
10
10
10
10
10
10
10
10
10
10
10
10
10
10
10
10
10
10
10
10
10
10
10
10
10
10
10
10
10
10
10
10
10
10
10
10
10
10
10
10
10
10
10
10
10
10
10
10
10
10
10
10
10
10
10
10
10
10
10
10
10
10
10
10
10
10
10
10
10
10
10
10
10
10
10
10
10
10
10
10
10
10
10
10
10
10
10
10
10
10
10
10
10
10
10
10
10
10
10
10
10
10
10
10
10
10
10
10
10
10
10
10
10
10
10
10
10
10
10
10
10
10
10
10
10
10
10
10
10
10
10
10
10
10
10
10
10
10
10
10
10
10
10
10
10
10
10
10
10
10
10
10
10
10
10
10
10
10
10
10
10
10
10
10
10
10
10
10
10
10
10
10
10
10
10
10
10
10
10
10
10
10
10
10
10
10
10
10
10
10
10
10
10
10
10
10
10
10
10
10
10
10
10
10
10
10
10
10
10
10
10
10
10
10
10
10
10
10
10
10
10
10
10
10
10
10
10
10
10
10
10
10
10
10
10
10
10
10
10
10
10
10
10
10
10
10
10
10
10
10
10
10
10
10
10
10
10
10
10
10
10
10
10
10
10
10
10
10
10
10
10
10
10
10
10
10
10
10
10
10
10
10
10
10
10
10
10
10
10
10
10
10
10
10
10
10
10
10
10
10
10
10
10
10
10
10
10
10
10
10
10
10
10
10
10
10
10
10
10
10
10
10
10
10
10
10
10
10
10
10
10
10
10
10
10
10
10
10
10
10
10
10
10
10
10
10
10
10
10
10
10
10
10
10
10
10
10
10
10
10
10
10
10
10
10
10
10
10
10
10
10
10
10
10
10
10
10
10
10
10
10
10
10
10
10
10
10
10
10
10
10
10
10
10
10
10
10
10
10
10
10
10
10
10
10
10
10
10
10
10
10
10
10
10
10
10
10
10
10
10
10
10
10
10
10
10
10
10
10
10
10
10
10
10
10
10
10
10
10
10
10
10
10
10
10
10
10
10
10
10
10
10
10
10
10
10
10
10
10
10
10
10
10
10
10
10
10
10
10
10
10
10
10
10
10
10
10
10
10
10
10
10
10
10
10
10
10
10
10
10
10
10
10
10
10
10
10
10
10
10
10
10
10
10
10
10
10
10
10
10
10
10
10
10
10
10
10
10
10
10
10
10
10
10
10
10
10
10
10
10
10
10
10
10
10
10
10
10
10
10
10
10
10
10
10
10
10
10
10
10
10
10
10
10
10
10
10
10
10
10
10
10
10
10
10
10
10
10
10
10
10
10
10
10
10
10
10
10
10
10
10
10
10
10
10
10
10
10
10
10
10
10
10
10
10
10
10
10
10
10
10
10
10
10
10
10
10
10
10
10
10
10
10
10
10
10
10
10
10
10
10
10
10
10
10
10
10
10
10
10
10
10
10
10
10
10
10
10
10
10
10
10
10
10
10
10
10
10
10
10
10
10
10
10
10
10
10
10
10
10
10
10
10
10
10
10
10
10
10
10
10
10
10
10
10
10
10
10
10
10
10
10
10
10
10
10
10
10
10
10
10
10
10
10
10
10
10
10
10
10
10
10
10
10
10
10
10
10
10
10
10
10
10
10
10
10
10
10
10
10
10
10
10
10
10
10
10
10
10
10
10
10
10
10
10
10
10
10
10
10
10
10
10
10
10
10
10
10
10
10
10
10
10
10
10
10
10
10
10
10
10
10
10
10
10
10
10
10
10
10
10
10
10
10
10
10
10
10
10
10
10
10
10
10
10
10
10
10
10
10
10
10
10
10
10
10
10
10
10
10
10
10
10
10
10
10
10
10
10
10
10
10
10
10
10
10
10
10
10
10
10
10
10
10
10
10
10
10
10
10
10
10
10
10
10
10
10
10
10
10
10
10
10
10
10
10
10
10
10
10
10
10
10
10
10
10
10
10
10
10
10
10
10
10
10
10
10
10
10
10
10
10
10
10
10
10
10
10
10
10
10
10
10
10
10
10
10
10
10
10
10
10
10
10
10
10
10
10
10
10
10
10
10
10
10
10
10
10
10
10
10
10
10
10
10
10
10
10
10
10
10
10
10
10
10
10
10
10
10
10
10
10
10
10
10
10
10
10
10
10
10
10
10
10
10
10
10
10
10
10
10
10
10
10
10
10
10
10
10
10
10
10
10
10
10
10
10
10
10
10
10
10
10
10
10
10
10
10
10
10
10
10
10
10
10
10
10
10
10
10
10
10
10
10
10
10
10
10
10
10
10
10
10
10
10
10
10
10
10
10
10
10
10
10
10
10
10
10
10
10
10
10
10
10
10
10
10
10
10
10
10
10
10
10
10
10
10
10
10
10
10
10
10
10
10
10
10
10
10
10
10
10
10
10
10
10
10
10
10
10
10
10
10
10
10
10
10
10
10
10
10
10
10
10
10
10
10
10
10
10
10
10
10
10
10
10
10
10
10
10
10
10
10
10
10
10
10
10
10
10
10
10
10
10
10
10
10
10
10
10
10
10
10
10
10
10
10
10
10
10
10
10
10
10
10
10
10
10
10
10
10
10
10
10
10
10
10
10
10
10
10
10
10
10
10
10
10
10
10
10
10
10
10
10
10
10
10
10
10
10
10
10
10
10
10
10
10
10
10
10
10
10
10
10
10
10
10
10
10
10
10
10
10
10
10
10
10
10
10
10
10
10
10
10
10
10
10
10
10
10
10
10
10
10
10
10
10
10
10
10
10
10
10
10
10
10
10
10
10
10
10
10
10
10
10
10
10
10
10
10
10
10
10
10
10
10
10
10
10
10
10
10
10
10
10
10
10
10
10
10
10
10
10
10
10
10
10
10
10
10
10
10
10
10
10
10
10
10
10
10
10
10
10
10
10
10
10
10
10
10
10
10
10
10
10
10
10
10
10
10
10
10
10
10
10
10
10
10
10
10
10
10
10
10
10
10
10
10
10
10
10
10
10
10
10
10
10
10
10
10
10
10
10
10
10
10
10
10
10
10
10
10
10
10
10
10
10
10
10
10
10
10
10
10
10
10
10
10
10
10
10
10
10
10
10
10
10
10
10
10
10
10
10
10
10
10
10
10
10
10
10
10
10
10
10
10
10
10
10
10
10
10
10
10
10
10
10
10
10
10
10
10
10
10
10
10
10
10
10
10
10
10
10
10
10
10
10
10
10
10
10
10
10
10
10
10
10
10
10
10
10
10
10
10
10
10
10
10
10
10
10
10
10
10
10
10
10
10
10
10
10
10
10
10
10
10
10
10
10
10
10
10
10
10
10
10
10
10
10
10
10
10
10
10
10
10
10
10
10
10
10
10
10
10
10
10
10
10
10
10
10
10
10
10
10
10
10
10
10
10
10
10
10
10
10
10
10
10
10
10
10
10
10
10
10
10
10
10
10
10
10
10
10
10
10
10
10
10
10
10
10
10
10
10
10
10
10
10
10
10
10
10
10
10
10
10
10
10
10
10
10
10
10
10
10
10
10
10
10
10
10
10
10
10
10
10
10
10
10
10
10
10
10
10
10
10
10
10
10
10
10
10
10
10
10
10
10
10
10
10
10
10
10
10
10
10
10
10
10
10
10
10
10
10
10
10
10
10
10
10
10
10
10
10
10
10
10
10
10
10
10
10
10
10
10
10
10
10
10
10
10
10
10
10
10
10
10
10
10
10
10
10
10
10
10
10
10
10
10
10
10
10
10
10
10
10
10
10
10
10
10
10
10
10
10
10
10
10
10
10
10
10
10
10
10
10
10
10
10
10
10
10
10
10
10
10
10
10
10
10
10
10
10
10
10
10
10
10
10
10
10
10
10
10
10
10
10
10
10
10
10
10
10
10
10
10
10
10
10
10
10
10
10
10
10
10
10
10
10
10
10
10
10
10
10
10
10
10
10
10
10
10
10
10
10
10
10
10
10
10
10
10
10
10
10
10
10
10
10
10
10
10
10
10
10
10
10
10
10
10
10
10
10
10
10
10
10
10
10
10
10
10
10
10
10
10
10
10
10
10
10
10
10
10
10
10
10
10
10
10
10
10
10
10
10
10
10
10
10
10
10
10
10
10
10
10
10
10
10
10
10
10
10
10
10
10
10
10
10
10
10
10
10
10
10
10
10
10
10
10
10
10
10
10
10
10
10
10
10
10
10
10
10
10
10
10
10
10
10
10
10
10
10
10
10
10
10
10
10
10
10
10
10
10
10
10
10
10
10
10
10
10
10
10
10
10
10
10
10
10
10
10
10
10
10
10
10
10
10
10
10
10
10
10
10
10
10
10
10
10
10
10
10
10
10
10
10
10
10
10
10
10
10
10
10
10
10
10
10
10
10
10
10
10
10
10
10
10
10
10
10
10
10
10
10
10
10
10
10
10
10
10
10
10
10
10
10
10
10
10
10
10
10
10
10
10
10
10
10
10
10
10
10
10
10
10
10
10
10
10
10
10
10
10
10
10
10
10
10
10
10
10
10
10
10
10
10
10
10
10
10
10
10
10
10
10
10
10
10
10
10
10
10
10
10
10
10
10
10
10
10
10
10
10
10
10
10
10
10
10
10
10
10
10
10
10
10
10
10
10
10
10
10
10
10
10
10
10
10
10
10
10
10
10
10
10
10
10
10
10
10
10
10
10
10
10
10
10
10
10
10
10
10
10
10
10
10
10
10
10
10
10
10
10
10
10
10
10
10
10
10
10
10
10
10
10
10
10
10
10
10
10
10
10
10
10
10
10
10
10
10
10
10
10
10
10
10
10
10
10
10
10
10
10
10
10
10
10
10
10
10
10
10
10
10
10
10
10
10
10
10
10
10
10
10
10
10
10
10
10
10
10
10
10
10
10
10
10
10
10
10
10
10
10
10
10
10
10
10
10
10
10
10
10
10
10
10
10
10
10
10
10
10
10
10
10
10
10
10
10
10
10
10
10
10
10
10
10
10
10
10
10
10
10
10
10
10
10
10
10
10
10
10
10
10
10
10
10
10
10
10
10
10
10
10
10
10
10
10
10
10
10
10
10
10
10
10
10
10
10
10
10
10
10
10
10
10
10
10
10
10
10
10
10
10
10
10
10
10
10
10
10
10
10
10
10
10
10
10
10
10
10
10
10
10
10
10
10
10
10
10
10
10
10
10
10
10
10
10
10
10
10
10
10
10
10
10
10
10
10
10
10
10
10
10
10
10
10
10
10
10
10
10
10
10
10
10
10
10
10
10
10
10
10
10
10
10
10
10
10
10
10
10
10
10
10
10
10
10
10
10
10
10
10
10
10
10
10
10
10
10
10
10
10
10
10
10
10
10
10
10
10
10
10
10
10
10
10
10
10
10
10
10
10
10
10
10
10
10
10
10
10
10
10
10
10
10
10
10
10
10
10
10
10
10
10
10
10
10
10
10
10
10
10
10
10
10
10
10
10
10
10
10
10
10
10
10
10
10
10
10
10
10
10
10
10
10
10
10
10
10
10
10
10
10
10
10
10
10
10
10
10
10
10
10
10
10
10
10
10
10
10
10
10
10
10
10
10
10
10
10
10
10
10
10
10
10
10
10
10
10
10
10
10
10
10
10
10
10
10
10
10
10
10
10
10
10
10
10
10
10
10
10
10
10
10
10
10
10
10
10
10
10
10
10
10
10
10
10
10
10
10
10
10
10
10
10
10
10
10
10
10
10
10
10
10
10
10
10
10
10
10
10
10
10
10
10
10
10
10
10
10
10
10
10
10
10
10
10
10
10
10
10
10
10
10
10
10
10
10
10
10
10
10
10
10
10
10
10
10
10
10
10
10
10
10
10
10
10
10
10
10
10
10
10
10
10
10
10
10
10
10
10
10
10
10
10
10
10
10
10
10
10
10
10
10
10
10
10
10
10
10
10
10
10
10
10
10
10
10
10
10
10
10
10
10
10
10
10
10
10
10
10
10
10
10
10
10
10
10
10
10
10
10
10
10
10
10
10
10
10
10
10
10
10
10
10
10
10
10
10
10
10
10
10
10
10
10
10
10
10
10
10
10
10
10
10
10
10
10
10
10
10
10
10
10
10
10
10
10
10
10
10
10
10
10
10
10
10
10
10
10
10
10
10
10
10
10
10
10
10
10
10
10
10
10
10
10
10
10
10
10
10
10
10
10
10
10
10
10
10
10
10
10
10
10
10
10
10
10
10
10
10
10
10
10
10
10
10
10
10
10
10
10
10
10
10
10
10
10
10
10
10
10
10
10
10
10
10
10
10
10
10
10
10
10
10
10
10
10
10
10
10
10
10
10
10
10
10
10
10
10
10
10
10
10
10
10
10
10
10
10
10
10
10
10
10
10
10
10
10
10
10
10
10
10
10
10
10
10
10
10
10
10
10
10
10
10
10
10
10
10
10
10
10
10
10
10
10
10
10
10
10
10
10
10
10
10
10
10
10
10
10
10
10
10
10
10
10
10
10
10
10
10
10
10
10
10
10
10
10
10
10
10
10
10
10
10
10
10
10
10
10
10
10
10
10
10
10
10
10
10
10
10
10
10
10
10
10
10
10
10
10
10
10
10
10
10
10
10
10
10
10
10
10
10
10
10
10
10
10
10
10
10
10
10
10
10
10
10
10
10
10
10
10
10
10
10
10
10
10
10
10
10
10
10
10
10
10
10
10
10
10
10
10
10
10
10
10
10
10
10
10
10
10
10
10
10
10
10
10
10
10
10
10
10
10
10
10
10
10
10
10
10
10
10
10
10
10
10
10
10
10
10
10
10
10
10
10
10
10
10
10
10
10
10
10
10
10
10
10
10
10
10
10
10
10
10
10
10
10
10
10
10
10
10
10
10
10
10
10
10
10
10
10
10
10
10
10
10
10
10
10
10
10
10
10
10
10
10
10
10
10
10
10
10
10
10
10
10
10
10
10
10
10
10
10
10
10
10
10
10
10
10
10
10
10
10
10
10
10
10
10
10
10
10
10
10
10
10
10
10
10
10
10
10
10
10
10
10
10
10
10
10
10
10
10
10
10
10
10
10
10
10
10
10
10
10
10
10
10
10
10
10
10
10
10
10
10
10
10
10
10
10
10
10
10
10
10
10
10
10
10
10
10
10
10
10
10
10
10
10
10
10
10
10
10
10
10
10
10
10
10
10
10
10
10
10
10
10
10
10
10
10
10
10
10
10
10
10
10
10
10
10
10
10
10
10
10
10
10
10
10
10
10
10
10
10
10
10
10
10
10
10
10
10
10
10
10
10
10
10
10
10
10
10
10
10
10
10
10
10
10
10
10
10
10
10
10
10
10
10
10
10
10
10
10
10
10
10
10
10
10
10
10
10
10
10
10
10
10
10
10
10
10
10
10
10
10
10
10
10
10
10
10
10
10
10
10
10
10
10
10
10
10
10
10
10
10
10
10
10
10
10
10
10
10
10
10
10
10
10
10
10
10
10
10
10
10
10
10
10
10
10
10
10
10
10
10
10
10
10
10
10
10
10
10
10
10
10
10
10
10
10
10
10
10
10
10
10
10
10
10
10
10
10
10
10
10
10
10
10
10
10
10
10
10
10
10
10
10
10
10
10
10
10
10
10
10
10
10
10
10
10
10
10
10
10
10
10
10
10
10
10
10
10
10
10
10
10
10
10
10
10
10
10
10
10
10
10
10
10
10
10
10
10
10
10
10
10
10
10
10
10
10
10
10
10
10
10
10
10
10
10
10
10
10
10
10
10
10
10
10
10
10
10
10
10
10
10
10
10
10
10
10
10
10
10
10
10
10
10
10
10
10
10
10
10
10
10
10
10
10
10
10
10
10
10
10
10
10
10
10
10
10
10
10
10
10
10
10
10
10
10
10
10
10
10
10
10
10
10
10
10
10
10
10
10
10
10
10
10
10
10
10
10
10
10
10
10
10
10
10
10
10
10
10
10
10
10
10
10
10
10
10
10
10
10
10
10
10
10
10
10
10
10
10
10
10
10
10
10
10
10
10
10
10
10
10
10
10
10
10
10
10
10
10
10
10
10
10
10
10
10
10
10
10
10
10
10
10
10
10
10
10
10
10
10
10
10
10
10
10
10
10
10
10
10
10
10
10
10
10
10
10
10
10
10
10
10
10
10
10
10
10
10
10
10
10
10
10
10
10
10
10
10
10
10
10
10
10
10
10
10
10
10
10
10
10
10
10
10
10
10
10
10
10
10
10
10
10
10
10
10
10
10
10
10
10
10
10
10
10
10
10
10
10
10
10
10
10
10
10
10
10
10
10
10
10
10
10
10
10
10
10
10
10
10
10
10
10
10
10
10
10
10
10
10
10
10
10
10
10
10
10
10
10
10
10
10
10
10
10
10
10
10
10
10
10
10
10
10
10
10
10
10
10
10
10
10
10
10
10
10
10
10
10
10
10
10
10
10
10
10
10
10
10
10
10
10
10
10
10
10
10
10
10
10
10
10
10
10
10
10
10
10
10
10
10
10
10
10
10
10
10
10
10
10
10
10
10
10
10
10
10
10
10
10
10
10
10
10
10
10
10
10
10
10
10
10
10
10
10
10
10
10
10
10
10
10
10
10
10
10
10
10
10
10
10
10
10
10
10
10
10
10
10
10
10
10
10
10
10
10
10
10
10
10
10
10
10
10
10
10
10
10
10
10
10
10
10
10
10
10
10
10
10
10
10
10
10
10
10
10
10
10
10
10
10
10
10
10
10
10
10
10
10
10
10
10
10
10
10
10
10
10
10
10
10
10
10
10
10
10
10
10
10
10
10
10
10
10
10
10
10
10
10
10
10
10
10
10
10
10
10
10
10
10
10
10
10
10
10
10
10
10
10
10
10
10
10
10
10
10
10
10
10
10
10
10
10
10
10
10
10
10
10
10
10
10
10
10
10
10
10
10
10
10
10
10
10
10
10
10
10
10
10
10
10
10
10
10
10
10
10
10
10
10
10
10
10
10
10
10
10
10
10
10
10
10
10
10
10
10
10
10
10
10
10
10
10
10
10
10
10
10
10
10
10
10
10
10
10
10
10
10
10
10
10
10
10
10
10
10
10
10
10
10
10
10
10
10
10
10
10
10
10
10
10
10
10
10
10
10
10
10
10
10
10
10
10
10
10
10
10
10
10
10
10
10
10
10
10
10
10
10
10
10
10
10
10
10
10
10
10
10
10
10
10
10
10
10
10
10
10
10
10
10
10
10
10
10
10
10
10
10
10
10
10
10
10
10
10
10
10
10
10
10
10
10
10
10
10
10
10
10
10
10
10
10
10
10
10
10
10
10
10
10
10
10
10
10
10
10
10
10
10
10
10
10
10
10
10
10
10
10
10
10
10
10
10
10
10
10
10
10
10
10
10
10
10
10
10
10
10
10
10
10
10
10
10
10
10
10
10
10
10
10
10
10
10
10
10
10
10
10
10
10
10
10
10
10
10
10
10
10
10
10
10
10
10
10
10
10
10
10
10
10
10
10
10
10
10
10
10
10
10
10
10
10
10
10
10
10
10
10
10
10
10
10
10
10
10
10
10
10
10
10
10
10
10
10
10
10
10
10
10
10
10
10
10
10
10
10
10
10
10
10
10
10
10
10
10
10
10
10
10
10
10
10
10
10
10
10
10
10
10
10
10
10
10
10
10
10
10
10
10
10
10
10
10
10
10
10
10
10
10
10
10
10
10
10
10
10
10
10
10
10
10
10
10
10
10
10
10
10
10
10
10
10
10
10
10
10
10
10
10
10
10
10
10
10
10
10
10
10
10
10
10
10
10
10
10
10
10
10
10
10
10
10
10
10
10
10
10
10
10
10
10
10
10
10
10
10
10
10
10
10
10
10
10
10
10
10
10
10
10
10
10
10
10
10
10
10
10
10
10
10
10
10
10
10
10
10
10
10
10
10
10
10
10
10
10
10
10
10
10
10
10
10
10
10
10
10
10
10
10
10
10
10
10
10
10
10
10
10
10
10
10
10
10
10
10
10
10
10
10
10
10
10
10
10
10
10
10
10
10
10
10
10
10
10
10
10
10
10
10
10
10
10
10
10
10
10
10
10
10
10
10
10
10
10
10
10
10
10
10
10
10
10
10
10
10
10
10
10
10
10
10
10
10
10
10
10
10
10
10
10
10
10
10
10
10
10
10
10
10
10
10
10
10
10
10
10
10
10
10
10
10
10
10
10
10
10
10
10
10
10
10
10
10
10
10
10
10
10
10
10
10
10
10
10
10
10
10
10
10
10
10
10
10
10
10
10
10
10
10
10
10
10
10
10
10
10
10
10
10
10
10
10
10
10
10
10
10
10
10
10
10
10
10
10
10
10
10
10
10
10
10
10
10
10
10
10
10
10
10
10
10
10
10
10
10
10
10
10
10
10
10
10
10
10
10
10
10
10
10
10
10
10
10
10
10
10
10
10
10
10
10
10
10
10
10
10
10
10
10
10
10
10
10
10
10
10
10
10
10
10
10
10
10
10
10
10
10
10
10
10
10
10
10
10
10
10
10
10
10
10
10
10
10
10
10
10
10
10
10
10
10
10
10
10
10
10
10
10
10
10
10
10
10
10
10
10
10
10
10
10
10
10
10
10
10
10
10
10
10
10
10
10
10
10
10
10
10
10
10
10
10
10
10
10
10
10
10
10
10
10
10
10
10
10
10
10
10
10
10
10
10
10
10
10
10
10
10
10
10
10
10
10
10
10
10
10
10
10
10
10
10
10
10
10
10
10
10
10
10
10
10
10
10
10
10
10
10
10
10
10
10
10
10
10
10
10
10
10
10
10
10
10
10
10
10
10
10
10
10
10
10
10
10
10
10
10
10
10
10
10
10
10
10
10
10
10
10
10
10
10
10
10
10
10
10
10
10
10
10
10
10
10
10
10
10
10
10
10
10
10
10
10
10
10
10
10
10
10
10
10
10
10
10
10
10
10
10
10
10
10
10
10
10
10
10
10
10
10
10
10
10
10
10
10
10
10
10
10
10
10
10
10
10
10
10
10
10
10
10
10
10
10
10
10
10
10
10
10
10
10
10
10
10
10
10
10
10
10
10
10
10
10
10
10
10
10
10
10
10
10
10
10
10
10
10
10
10
10
10
10
10
10
10
10
10
10
10
10
10
10
10
10
10
10
10
10
10
10
10
10
10
10
10
10
10
10
10
10
10
10
10
10
10
10
10
10
10
10
10
10
10
10
10
10
10
10
10
10
10
10
10
10
10
10
10
10
10
10
10
10
10
10
10
10
10
10
10
10
10
10
10
10
10
10
10
10
10
10
10
10
10
10
10
10
10
10
10
10
10
10
10
10
10
10
10
10
10
10
10
10
10
10
10
10
10
10
10
10
10
10
10
10
10
10
10
10
10
10
10
10
10
10
10
10
10
10
10
10
10
10
10
10
10
10
10
10
10
10
10
10
10
10
10
10
10
10
10
10
10
10
10
10
10
10
10
10
10
10
10
10
10
10
10
10
10
10
10
10
10
10
10
10
10
10
10
10
10
10
10
10
10
10
10
10
10
10
10
10
10
10
10
10
10
10
10
10
10
10
10
10
10
10
10
10
10
10
10
10
10
10
10
10
10
10
10
10
10
10
10
10
10
10
10
10
10
10
10
10
10
10
10
10
10
10
10
10
10
10
10
10
10
10
10
10
10
10
10
10
10
10
10
10
10
10
10
10
10
10
10
10
10
10
10
10
10
10
10
10
10
10
10
10
10
10
10
10
10
10
10
10
10
10
10
10
10
10
10
10
10
10
10
10
10
10
10
10
10
10
10
10
10
10
10
10
10
10
10
10
10
10
10
10
10
10
10
10
10
10
10
10
10
10
10
10
10
10
10
10
10
10
10
10
10
10
10
10
10
10
10
10
10
10
10
10
10
10
10
10
10
10
10
10
10
10
10
10
10
10
10
10
10
10
10
10
10
10
10
10
10
10
10
10
10
10
10
10
10
10
10
10
10
10
10
10
10
10
10
10
10
10
10
10
10
10
10
10
10
10
10
10
10
10
10
10
10
10
10
10
10
10
10
10
10
10
10
10
10
10
10
10
10
10
10
10
10
10
10
10
10
10
10
10
10
10
10
10
10
10
10
10
10
10
10
10
10
10
10
10
10
10
10
10
10
10
10
10
10
10
10
10
10
10
10
10
10
10
10
10
10
10
10
10
10
10
10
10
10
10
10
10
10
10
10
10
10
10
10
10
10
10
10
10
10
10
10
10
10
10
10
10
10
10
10
10
10
10
10
10
10
10
10
10
10
10
10
10
10
10
10
10
10
10
10
10
10
10
10
10
10
10
10
10
10
10
10
10
10
10
10
10
10
10
10
10
10
10
10
10
10
10
10
10
10
10
10
10
10
10
10
10
10
10
10
10
10
10
10
10
10
10
10
10
10
10
10
10
10
10
10
10
10
10
10
10
10
10
10
10
10
10
10
10
10
10
10
10
10
10
10
10
10
10
10
10
10
10
10
10
10
10
10
10
10
10
10
10
10
10
10
10
10
10
10
10
10
10
10
10
10
10
10
10
10
10
10
10
10
10
10
10
10
10
10
10
10
10
10
10
10
10
10
10
10
10
10
10
10
10
10
10
10
10
10
10
10
10
10
10
10
10
10
10
10
10
10
10
10
10
10
10
10
10
10
10
10
10
10
10
10
10
10
10
10
10
10
10
10
10
10
10
10
10
10
10
10
10
10
10
10
10
10
10
10
10
10
10
10
10
10
10
10
10
10
10
10
10
10
10
10
10
10
10
10
10
10
10
10
10
10
10
10
10
10
10
10
10
10
10
10
10
10
10
10
10
10
10
10
10
10
10
10
10
10
10
10
10
10
10
10
10
10
10
10
10
10
10
10
10
10
10
10
10
10
10
10
10
10
10
10
10
10
10
10
10
10
10
10
10
10
10
10
10
10
10
10
10
10
10
10
10
10
10
10
10
10
10
10
10
10
10
10
10
10
10
10
10
10
10
10
10
10
10
10
10
10
10
10
10
10
10
10
10
10
10
10
10
10
10
10
10
10
10
10
10
10
10
10
10
10
10
10
10
10
10
10
10
10
10
10
10
10
10
10
10
10
10
10
10
10
10
10
10
10
10
10
10
10
10
10
10
10
10
10
10
10
10
10
10
10
10
10
10
10
10
10
10
10
10
10
10
10
10
10
10
10
10
10
10
10
10
10
10
10
10
10
10
10
10
10
10
10
10
10
10
10
10
10
10
10
10
10
10
10
10
10
10
10
10
10
10
10
10
10
10
10
10
10
10
10
10
10
10
10
10
10
10
10
10
10
10
10
10
10
10
10
10
10
10
10
10
10
10
10
10
10
10
10
10
10
10
10
10
10
10
10
10
10
10
10
10
10
10
10
10
10
10
10
10
10
10
10
10
10
10
10
10
10
10
10
10
10
10
10
10
10
10
10
10
10
10
10
10
10
10
10
10
10
10
10
10
10
10
10
10
10
10
10
10
10
10
10
10
10
10
10
10
10
10
10
10
10
10
10
10
10
10
10
10
10
10
10
10
10
10
10
10
10
10
10
10
10
10
10
10
10
10
10
10
10
10
10
10
10
10
10
10
10
10
10
10
10
10
10
10
10
10
10
10
10
10
10
10
10
10
10
10
10
10
10
10
10
10
10
10
10
10
10
10
10
10
10
10
10
10
10
10
10
10
10
10
10
10
10
10
10
10
10
10
10
10
10
10
10
10
10
10
10
10
10
10
10
10
10
10
10
10
10
10
10
10
10
10
10
10
10
10
10
10
10
10
10
10
10
10
10
10
10
10
10
10
10
10
10
10
10
10
10
10
10
10
10
10
10
10
10
10
10
10
10
10
10
10
10
10
10
10
10
10
10
10
10
10
10
10
10
10
10
10
10
10
10
10
10
10
10
10
10
10
10
10
10
10
10
10
10
10
10
10
10
10
10
10
10
10
10
10
10
10
10
10
10
10
10
10
10
10
10
10
10
10
10
10
10
10
10
10
10
10
10
10
10
10
10
10
10
10
10
10
10
10
10
10
10
10
10
10
10
10
10
10
10
10
10
10
10
10
10
10
10
10
10
10
10
10
10
10
10
10
10
10
10
10
10
10
10
10
10
10
10
10
10
10
10
10
10
10
10
10
10
10
10
10
10
10
10
10
10
10
10
10
10
10
10
10
10
10
10
10
10
10
10
10
10
10
10
10
10
10
10
10
10
10
10
10
10
10
10
10
10
10
10
10
10
10
10
10
10
10
10
10
10
10
10
10
10
10
10
10
10
10
10
10
10
10
10
10
10
10
10
10
10
10
10
10
10
10
10
10
10
10
10
10
10
10
10
10
10
10
10
10
10
10
10
10
10
10
10
10
10
10
10
10
10
10
10
10
10
10
10
10
10
10
10
10
10
10
10
10
10
10
10
10
10
10
10
10
10
10
10
10
10
10
10
10
10
10
10
10
10
10
10
10
10
10
10
10
10
10
10
10
10
10
10
10
10
10
10
10
10
10
10
10
10
10
10
10
10
10
10
10
10
10
10
10
10
10
10
10
10
10
10
10
10
10
10
10
10
10
10
10
10
10
10
10
10
10
10
10
10
10
10
10
10
10
10
10
10
10
10
10
10
10
10
10
10
10
10
10
10
10
10
10
10
10
10
10
10
10
10
10
10
10
10
10
10
10
10
10
10
10
10
10
10
10
10
10
10
10
10
10
10
10
10
10
10
10
10
10
10
10
10
10
10
10
10
10
10
10
10
10
10
10
10
10
10
10
10
10
10
10
10
10
10
10
10
10
10
10
10
10
10
10
10
10
10
10
10
10
10
10
10
10
10
10
10
10
10
10
10
10
10
10
10
10
10
10
10
10
10
10
10
10
10
10
10
10
10
10
10
10
10
10
10
10
10
10
10
10
10
10
10
10
10
10
10
10
10
10
10
10
10
10
10
10
10
10
10
10
10
10
10
10
10
10
10
10
10
10
10
10
10
10
10
10
10
10
10
10
10
10
10
10
10
10
10
10
10
10
10
10
10
10
10
10
10
10
10
10
10
10
10
10
10
10
10
10
10
10
10
10
10
10
10
10
10
10
10
10
10
10
10
10
10
10
10
10
10
10
10
10
10
10
10
10
10
10
10
10
10
10
10
10
10
10
10
10
10
10
10
10
10
10
10
10
10
10
10
10
10
10
10
10
10
10
10
10
10
10
10
10
10
10
10
10
10
10
10
10
10
10
10
10
10
10
10
10
10
10
10
10
10
10
10
10
10
10
10
10
10
10
10
10
10
10
10
10
10
10
10
10
10
10
10
10
10
10
10
10
10
10
10
10
10
10
10
10
10
10
10
10
10
10
10
10
10
10
10
10
10
10
10
10
10
10
10
10
10
10
10
10
10
10
10
10
10
10
10
10
10
10
10
10
10
10
10
10
10
10
10
10
10
10
10
10
10
10
10
10
10
10
10
10
10
10
10
10
10
10
10
10
10
10
10
10
10
10
10
10
10
10
10
10
10
10
10
10
10
10
10
10
10
10
10
10
10
10
10
10
10
10
10
10
10
10
10
10
10
10
10
10
10
10
10
10
10
10
10
10
10
10
10
10
10
10
10
10
10
10
10
10
10
10
10
10
10
10
10
10
10
10
10
10
10
10
10
10
10
10
10
10
10
10
10
10
10
10
10
10
10
10
10
10
10
10
10
10
10
10
10
10
10
10
10
10
10
10
10
10
10
10
10
10
10
10
10
10
10
10
10
10
10
10
10
10
10
10
10
10
10
10
10
10
10
10
10
10
10
10
10
10
10
10
10
10
10
10
10
10
10
10
10
10
10
10
10
10
10
10
10
10
10
10
10
10
10
10
10
10
10
10
10
10
10
10
10
10
10
10
10
10
10
10
10
10
10
10
10
10
10
10
10
10
10
10
10
10
10
10
10
10
10
10
10
10
10
10
10
10
10
10
10
10
10
10
10
10
10
10
10
10
10
10
10
10
10
10
10
10
10
10
10
10
10
10
10
10
10
10
10
10
10
10
10
10
10
10
10
10
10
10
10
10
10
10
10
10
10
10
10
10
10
10
10
10
10
10
10
10
10
10
10
10
10
10
10
10
10
10
10
10
10
10
10
10
10
10
10
10
10
10
10
10
10
10
10
10
10
10
10
10
10
10
10
10
10
10
10
10
10
10
10
10
10
10
10
10
10
10
10
10
10
10
10
10
10
10
10
10
10
10
10
10
10
10
10
10
10
10
10
10
10
10
10
10
10
10
10
10
10
10
10
10
10
10
10
10
10
10
10
10
10
10
10
10
10
10
10
10
10
10
10
10
10
10
10
10
10
10
10
10
10
10
10
10
10
10
10
10
10
10
10
10
10
10
10
10
10
10
10
10
10
10
10
10
10
10
10
10
10
10
10
10
10
10
10
10
10
10
10
10
10
10
10
10
10
10
10
10
10
10
10
10
10
10
10
10
10
10
10
10
10
10
10
10
10
10
10
10
10
10
10
10
10
10
10
10
10
10
10
10
10
10
10
10
10
10
10
10
10
10
10
10
10
10
10
10
10
10
10
10
10
10
10
10
10
10
10
10
10
10
10
10
10
10
10
10
10
10
10
10
10
10
10
10
10
10
10
10
10
10
10
10
10
10
10
10
10
10
10
10
10
10
10
10
10
10
10
10
10
10
10
10
10
10
10
10
10
10
10
10
10
10
10
10
10
10
10
10
10
10
10
10
10
10
10
10
10
10
10
10
10
10
10
10
10
10
10
10
10
10
10
10
10
10
10
10
10
10
10
10
10
10
10
10
10
10
10
10
10
10
10
10
10
10
10
10
10
10
10
10
10
10
10
10
10
10
10
10
10
10
10
10
10
10
10
10
10
10
10
10
10
10
10
10
10
10
10
10
10
10
10
10
10
10
10
10
10
10
10
10
10
10
10
10
10
10
10
10
10
10
10
10
10
10
10
10
10
10
10
10
10
10
10
10
10
10
10
10
10
10
10
10
10
10
10
10
10
10
10
10
10
10
10
10
10
10
10
10
10
10
10
10
10
10
10
10
10
10
10
10
10
10
10
10
10
10
10
10
10
10
10
10
10
10
10
10
10
10
10
10
10
10
10
10
10
10
10
10
10
10
10
10
10
10
10
10
10
10
10
10
10
10
10
10
10
10
10
10
10
10
10
10
10
10
10
10
10
10
10
10
10
10
10
10
10
10
10
10
10
10
10
10
10
10
10
10
10
10
10
10
10
10
10
10
CELL_DATA 19270
SCALARS total_strain double 6
LOOKUP_TABLE default
6.211699e-08 3.937773e-09 -2.374136e-08 6.287039e-09 1.622041e-09 2.436073e-09
6.554554e-08 9.212968e-10 -2.108179e-08 4.959972e-09 5.710727e-10 2.738192e-09
6.225430e-08 3.842596e-09 -2.177186e-08 6.360540e-09 8.866687e-10 1.785397e-09
5.902756e-08 5.822285e-09 -2.278932e-08 4.061256e-09 8.380113e-10 1.365150e-09
5.952031e-08 6.123311e-09 -2.192929e-08 2.281350e-09 5.676536e-10 8.104539e-10
-9.593223e-09 1.353268e-07 -1.088030e-07 -3.964152e-08 -3.251892e-08 1.714240e-08
1.804401e-08 7.197868e-08 -7.399179e-08 -3.154510e-08 -1.346775e-08 7.298150e-09
-9.717039e-09 1.397045e-07 -8.078896e-08 -4.404568e-08 -4.705655e-08 2.572674e-08
-3.262439e-08 1.588748e-07 -9.863680e-08 -3.579719e-08 -1.665394e-08 1.779569e-08
-1.041050e-08 1.103989e-07 -7.376226e-08 2.379015e-08 1.747088e-08 9.041814e-09
-2.973983e-09 7.914587e-08 -5.428648e-08 2.051779e-08 2.071125e-08 1.140611e-08
-4.658683e-09 9.240973e-08 -6.134041e-08 1.223320e-08 1.119293e-08 8.985676e-09
-1.250914e-08 9.130454e-08 -6.068175e-08 1.888042e-08 1.424961e-08 7.712123e-09
6.957648e-07 -2.615044e-07 -9.723810e-08 9.153030e-08 -8.691954e-09 -5.329697e-08
-1.772161e-08 1.088453e-07 -7.401662e-08 5.123279e-09 -4.707296e-09 -9.864163e-09
6.232442e-07 -2.290507e-07 -1.692273e-07 1.543576e-08 7.307510e-09 -2.153050e-08
7.197328e-07 -3.184379e-07 -4.840175e-08 -1.791889e-08 3.938946e-08 -3.577080e-08
6.888490e-07 -2.877863e-07 -9.497682e-08 -5.732005e-09 1.138899e-08 -6.289135e-08
6.429861e-07 -2.461747e-07 -1.951525e-07 1.773345e-08 -1.412302e-08 -1.441949e-08
6.666178e-07 -2.734808e-07 -1.683574e-07 1.429633e-08 -9.211754e-09 -2.452241e-08
6.411798e-07 -2.462204e-07 -2.076325e-07 1.810106e-08 -1.583639e-08 7.137409e-09
8.798301e-08 -1.693216e-08 -2.935871e-08 -1.953474e-09 -8.682445e-10 4.747237e-09
8.776728e-08 -1.847676e-08 -3.079956e-08 -3.709605e-09 -2.084673e-09 9.834386e-09
8.907345e-08 -1.827895e-08 -2.836048e-08 -4.241993e-09 -1.143135e-09 7.809001e-09
4.413000e-08 1.920640e-08 -1.993547e-08 2.226283e-09 2.544662e-10 2.263833e-10
5.006552e-08 1.582458e-08 -2.559273e-08 -6.387202e-09 -6.454170e-10 3.043945e-09
4.456916e-08 2.000229e-08 -1.925259e-08 2.028421e-09 1.271494e-10 1.531757e-10
4.338491e-08 1.911873e-08 -1.910041e-08 9.986474e-10 6.740207e-11 1.334364e-10
4.279754e-08 2.045564e-08 -1.993041e-08 2.740217e-09 1.728717e-10 1.723105e-10
4.271496e-08 2.025420e-08 -1.935406e-08 2.604964e-09 2.042668e-10 2.625613e-10
4.196178e-08 1.985332e-08 -1.902951e-08 1.319138e-09 4.041112e-10 -1.782963e-10
8.912890e-08 -1.640578e-08 -3.257134e-08 -4.760420e-09 -7.632943e-10 5.850471e-09
9.378674e-08 -1.788024e-08 -3.002593e-08 -3.226972e-09 -4.791377e-10 4.238578e-09
9.241417e-08 -2.005504e-08 -2.745509e-08 -5.153848e-09 -1.892521e-09 9.581308e-09
-2.087611e-07 5.102346e-07 -3.215051e-09 2.110668e-07 7.934794e-08 2.046754e-08
9.489621e-08 -1.958145e-08 -3.473223e-08 -4.289491e-09 -2.101227e-09 6.801836e-09
9.121869e-08 -1.789436e-08 -3.273031e-08 -3.550244e-09 -2.456808e-10 7.220306e-09
8.681304e-08 -1.770807e-08 -2.973721e-08 -3.984026e-09 -1.330709e-10 5.523088e-09
-7.468814e-08 2.435459e-07 -1.209471e-07 1.480011e-08 1.755285e-08 -2.896454e-09
-5.542072e-08 1.949875e-07 -1.020351e-07 4.487611e-09 9.420377e-09 -9.070991e-10
-6.798312e-08 2.509220e-07 -1.135435e-07 2.295824e-08 2.659348e-08 4.183125e-09
-4.811065e-08 1.977599e-07 -1.038327e-07 1.098343e-08 1.389529e-08 1.130773e-09
-1.362074e-09 5.142853e-08 -5.673344e-08 3.034146e-08 -9.594299e-08 -6.444757e-08
7.965515e-08 6.560556e-08 -8.924633e-08 1.107080e-07 -9.451638e-08 -7.297727e-08
3.128627e-08 5.674191e-08 -4.647861e-08 -2.312120e-08 -1.009684e-08 1.209240e-08
3.383589e-08 4.232466e-08 -4.659897e-08 -2.167203e-08 -5.197559e-09 5.855724e-09
3.907579e-08 5.312349e-08 -5.932382e-08 -3.273500e-08 -1.262724e-08 1.168531e-08
3.246534e-08 5.765297e-08 -5.984420e-08 -3.150266e-08 -3.075626e-09 -2.622834e-09
3.243288e-08 4.609148e-08 -4.834562e-08 -1.989652e-08 -1.112238e-09 4.868317e-09
2.671252e-08 6.394276e-08 -5.695198e-08 -2.200008e-08 -9.764858e-10 8.425733e-09
7.074253e-08 -1.906659e-09 -2.569843e-08 1.034571e-08 9.953255e-10 4.737065e-09
6.390699e-08 3.798200e-09 -2.252628e-08 7.867061e-09 2.998360e-09 3.912946e-09
6.575971e-08 2.784292e-09 -2.261820e-08 5.962400e-09 2.649849e-09 2.869180e-09
2.373794e-07 -2.697450e-09 -1.763645e-07 5.230135e-08 -5.821226e-08 -1.907650e-08
6.941498e-08 -1.656562e-09 -2.346122e-08 7.834930e-09 1.316225e-09 4.877786e-09
6.192423e-08 4.036253e-09 -1.989572e-08 6.315903e-09 2.493196e-09 3.572794e-09
6.873276e-08 -1.664214e-09 -2.148741e-08 7.140352e-09 2.057239e-09 4.328893e-09
6.587830e-08 -1.599790e-09 -2.175613e-08 4.950423e-09 1.882500e-09 2.692077e-09
6.233475e-08 3.617332e-09 -2.396332e-08 7.350575e-09 1.117487e-09 1.941496e-09
6.372130e-08 2.261204e-09 -2.179754e-08 2.562791e-09 7.965479e-10 1.542697e-10
6.451192e-08 2.052363e-09 -2.396490e-08 3.390824e-09 -1.981096e-10 1.824258e-09
6.449696e-08 3.993378e-09 -2.199346e-08 3.330288e-09 1.801370e-09 1.800458e-09
6.648651e-08 2.285825e-09 -2.303427e-08 2.529778e-09 8.123639e-10 1.310024e-10
6.201862e-08 3.500775e-09 -2.193066e-08 1.503731e-09 7.661075e-10 1.062263e-09
6.182200e-08 3.547880e-09 -2.117654e-08 1.238271e-09 -1.072369e-10 8.721856e-10
5.993425e-08 6.578950e-09 -2.275278e-08 4.930713e-09 1.331322e-09 1.769721e-09
6.104280e-08 6.445669e-08 -1.232837e-07 1.082654e-08 -5.625367e-08 -4.957906e-09
6.186652e-08 5.751088e-09 -2.238409e-08 2.517701e-09 1.317818e-09 2.740274e-10
6.494397e-08 3.574931e-10 -2.013754e-08 3.069967e-09 2.673545e-09 8.822815e-10
5.916481e-07 -2.657123e-07 -1.503782e-07 -7.944905e-08 1.190528e-08 -5.509034e-08
4.260456e-07 -1.857174e-07 -9.739614e-08 -6.403471e-08 4.530764e-08 -1.228891e-07
1.814585e-07 4.623627e-09 -1.670421e-07 1.751840e-08 -6.795616e-08 -1.180408e-09
3.737440e-08 2.668268e-08 -2.482348e-08 1.213708e-08 3.584138e-09 4.113620e-09
5.085454e-08 1.448072e-08 -2.449604e-08 -8.235962e-09 -2.228166e-10 1.413393e-09
5.192636e-08 1.379941e-08 -2.457764e-08 -7.556993e-09 1.492517e-10 5.815073e-10
4.971184e-08 1.413374e-08 -2.214863e-08 -3.844179e-09 -2.553305e-10 9.443016e-10
5.106741e-08 1.355645e-08 -2.211050e-08 -3.858541e-09 3.073713e-10 6.644570e-11
1.657241e-07 -5.344932e-08 -5.719183e-08 7.080830e-08 -9.434870e-08 -1.247065e-07
1.645955e-07 -3.908790e-08 -9.063460e-08 6.782078e-08 -1.192114e-07 -1.079651e-07
3.146762e-07 -9.618636e-08 -1.365883e-07 9.056208e-08 -6.313074e-08 -5.898974e-08
2.165762e-07 -1.177420e-08 -1.559266e-07 8.120615e-08 -6.323373e-08 -2.128585e-08
2.565160e-07 -9.608103e-08 -1.066942e-07 1.005731e-07 -7.753330e-08 -9.680218e-08
2.446627e-07 -1.582321e-07 -8.630058e-08 1.299570e-07 -7.733774e-08 -1.033429e-07
2.307478e-07 -5.914266e-08 -1.577158e-07 8.814397e-08 -7.632719e-08 -1.409606e-08
7.013091e-08 -2.626321e-09 -2.500298e-08 -1.276245e-08 -3.743918e-09 7.112124e-09
-7.382240e-09 9.942286e-08 -7.845198e-08 1.329449e-08 -1.344965e-08 -9.770401e-09
-7.911863e-09 9.995664e-08 -6.664221e-08 1.442829e-08 -1.732808e-08 -1.107343e-08
-1.098068e-08 9.886132e-08 -7.709472e-08 8.159049e-09 -9.387007e-09 -9.133687e-09
-5.606920e-09 9.370846e-08 -6.618871e-08 1.358846e-08 -2.262980e-08 -8.325786e-09
7.332423e-08 -5.293492e-09 -2.142327e-08 -7.035114e-09 -2.504209e-09 4.506654e-09
-6.027735e-09 9.380168e-08 -8.364651e-08 1.312683e-08 -1.913682e-08 -5.584906e-09
-5.968406e-09 9.586774e-08 -7.126041e-08 9.686270e-09 -1.247320e-08 -4.344114e-09
1.315833e-09 9.703589e-08 -7.400955e-08 6.471304e-09 -1.284762e-08 -5.431949e-09
-1.230008e-08 8.655926e-08 -6.686807e-08 6.426969e-09 -1.484268e-08 -9.892118e-09
-1.193309e-08 7.262496e-08 -4.904123e-08 9.085731e-11 -2.414368e-08 -7.473064e-09
-9.079813e-09 8.459620e-08 -6.447459e-08 7.639814e-09 -2.657609e-08 -9.716587e-09
-1.518186e-08 7.996960e-08 -5.466747e-08 5.194450e-09 -1.436493e-08 -8.356456e-09
9.982012e-08 -1.226698e-08 -5.019303e-08 2.519906e-08 -1.394749e-09 4.706987e-09
8.492635e-08 -5.652838e-09 -3.849381e-08 1.790927e-08 -1.208591e-09 2.216275e-09
1.037849e-07 -1.338981e-08 -4.689511e-08 2.305375e-08 -2.374782e-09 8.621647e-09
8.760434e-08 -8.711843e-09 -4.075800e-08 1.580742e-08 2.922230e-09 4.005276e-09
-5.034555e-08 2.006472e-07 -1.374546e-07 4.530405e-08 -2.387955e-08 -1.247954e-08
-4.034365e-08 1.810829e-07 -1.162659e-07 2.411486e-08 -7.977151e-09 -7.847560e-09
-4.563467e-08 1.892170e-07 -1.242431e-07 2.742184e-08 -1.083100e-08 -1.289214e-09
-5.603727e-08 2.157997e-07 -1.329470e-07 3.917738e-08 -1.139560e-08 -1.065716e-08
5.628534e-08 9.551890e-09 -2.040141e-08 -1.854319e-09 -8.116414e-10 -3.881844e-11
-8.463612e-09 7.795003e-08 -4.651248e-08 -8.905169e-09 1.435897e-08 -3.319144e-09
-1.425341e-08 7.294323e-08 -4.415428e-08 -4.461240e-09 9.370694e-09 -4.824915e-09
-1.107638e-08 7.853091e-08 -4.346268e-08 -3.021389e-09 4.254030e-09 -2.613101e-09
-1.189658e-08 7.759580e-08 -4.483394e-08 -4.865831e-09 6.312699e-09 -1.536985e-09
-8.613710e-09 7.702219e-08 -5.059003e-08 -2.356950e-09 3.407543e-09 -9.882501e-10
-1.137486e-08 7.430829e-08 -4.419688e-08 -4.542749e-09 1.371791e-08 -4.921998e-09
-8.407383e-09 7.911425e-08 -4.486980e-08 -3.216282e-09 7.617632e-09 -2.082273e-09
3.104042e-08 3.810933e-08 -3.256556e-08 1.476401e-08 2.065701e-09 4.912754e-09
5.183759e-08 1.117099e-08 -1.961914e-08 -1.482506e-09 -6.328739e-10 2.339064e-10
3.030778e-08 3.463232e-08 -2.873862e-08 1.019763e-08 2.832240e-09 2.048208e-09
3.022696e-08 3.354932e-08 -2.600080e-08 9.694592e-09 1.372844e-09 5.223708e-10
3.619692e-08 2.947402e-08 -2.800014e-08 1.241157e-08 9.866134e-10 1.999702e-09
-3.602522e-08 1.409702e-07 -9.249450e-08 -2.433823e-08 1.468761e-08 -7.193743e-09
-3.831721e-08 1.519427e-07 -8.326369e-08 -1.953251e-08 1.015426e-08 -4.122842e-09
-2.939291e-08 1.281785e-07 -6.943929e-08 -1.392413e-08 7.189124e-09 -5.262321e-09
-3.452901e-08 1.316249e-07 -7.767294e-08 -1.429590e-08 7.002626e-09 1.290126e-09
-3.964892e-08 1.498646e-07 -8.770890e-08 -2.124012e-08 6.982695e-09 -6.897053e-09
2.585649e-07 5.477005e-08 -8.157147e-08 -2.287179e-07 1.531309e-07 -1.200278e-07
1.800986e-07 -6.784288e-08 -2.438478e-08 -8.023253e-08 1.228483e-07 -1.002612e-07
2.360286e-07 -5.110126e-08 -5.228360e-08 -1.111917e-07 7.582921e-08 1.222503e-09
2.412664e-07 -1.903996e-10 -1.392303e-07 -1.062764e-07 8.137017e-08 -8.710591e-08
-1.518513e-08 6.667280e-08 -3.574564e-08 -6.449615e-10 6.989152e-09 8.955885e-10
2.891735e-07 -4.585032e-08 -1.231881e-07 -1.957670e-07 8.841379e-08 -9.825081e-08
2.350344e-07 5.858228e-10 -1.371903e-07 -1.136841e-07 9.183214e-08 -8.355415e-08
2.256043e-07 -9.587979e-08 -1.187156e-07 -5.959047e-08 5.768490e-08 -3.611028e-08
6.190988e-08 1.070034e-07 -1.134325e-07 -5.858181e-08 2.752569e-08 -1.700950e-08
3.273857e-08 9.456954e-08 -1.049495e-07 -3.661382e-08 3.065086e-08 -1.307784e-08
3.242806e-08 9.309900e-08 -9.291716e-08 -3.579564e-08 2.444871e-08 -7.276152e-09
3.871530e-08 1.121010e-07 -1.272926e-07 -6.769272e-08 1.171505e-08 -3.378061e-09
6.191961e-08 1.072856e-07 -1.287273e-07 -5.879175e-08 1.645201e-08 -6.576935e-10
7.519944e-08 2.513911e-08 -6.584369e-08 -5.502495e-08 -1.081562e-08 1.847662e-09
8.496975e-08 2.469527e-08 -8.764108e-08 -7.903125e-08 -9.554878e-09 1.602191e-08
6.876330e-08 2.404754e-08 -5.716059e-08 -5.774169e-08 -1.453107e-08 1.143412e-08
8.464032e-08 4.417622e-08 -7.413764e-08 -7.565131e-08 -1.795163e-08 1.876943e-08
2.662552e-07 -6.542214e-08 -1.081160e-07 5.600438e-08 8.170622e-09 4.377757e-08
2.791844e-07 -1.047866e-07 -1.027303e-07 5.498581e-08 3.478803e-09 5.805780e-08
3.027730e-07 -7.925477e-08 -1.054199e-07 2.690515e-08 1.966994e-09 4.734793e-08
2.825849e-07 -9.098619e-08 -1.047660e-07 4.807726e-08 -1.916470e-09 6.026861e-08
1.074204e-07 5.150124e-09 -6.364594e-08 5.584179e-08 7.246027e-09 2.056892e-08
1.315604e-07 -3.198640e-09 -8.946820e-08 8.233531e-08 1.269377e-08 2.793728e-08
1.391094e-07 -7.448551e-09 -9.116997e-08 7.752000e-08 -2.426063e-10 1.038803e-08
1.112532e-07 -8.618615e-10 -6.899794e-08 5.538435e-08 1.386882e-10 1.032549e-08
1.053983e-07 4.944407e-10 -6.388671e-08 5.850222e-08 3.551624e-09 1.144230e-08
1.182503e-07 6.883898e-09 -8.501041e-08 7.190347e-08 4.143608e-09 1.380465e-08
4.018533e-07 -1.118475e-07 5.593866e-07 -5.496859e-07 7.672973e-08 -1.041874e-07
4.168982e-07 -4.730515e-07 1.077618e-06 -5.179098e-07 3.884663e-08 -1.306069e-07
4.019027e-07 -4.226394e-07 4.781536e-07 -5.445681e-07 -1.761004e-08 -1.393871e-09
4.409119e-07 -4.737316e-07 8.023610e-07 -5.264096e-07 1.301537e-07 -2.387556e-07
6.853459e-08 1.932980e-09 -2.828967e-08 -1.101058e-08 -1.581801e-09 1.003114e-09
3.826637e-08 2.647422e-08 -2.182239e-08 1.184366e-08 3.731242e-09 3.895049e-09
7.680556e-08 -1.563531e-09 -2.868658e-08 -1.031747e-08 -1.083233e-09 2.612056e-09
6.791838e-10 3.579311e-09 -5.650779e-08 -8.230362e-10 -8.423807e-08 -2.384663e-09
7.139729e-08 -2.142890e-09 -2.576682e-08 -6.627927e-09 1.164525e-10 2.724038e-09
7.157540e-08 -2.324301e-09 -2.876485e-08 -7.267855e-09 -8.385887e-10 1.578520e-09
8.708474e-08 -1.726462e-08 -2.867695e-08 3.809386e-09 5.140030e-10 5.514958e-09
9.397239e-08 -1.925995e-08 -2.807262e-08 3.436138e-09 1.289384e-09 8.450820e-09
8.893323e-08 -1.793137e-08 -2.716455e-08 1.893676e-09 3.811679e-10 2.076343e-09
8.907092e-08 -1.860039e-08 -2.410257e-08 1.206296e-09 -3.392679e-10 5.491282e-09
8.700722e-08 -1.713491e-08 -2.878596e-08 2.935245e-09 -2.543548e-11 5.403269e-09
3.341036e-08 2.737246e-08 -2.328790e-08 1.171091e-08 5.521776e-09 6.591923e-09
8.614877e-08 -1.630990e-08 -2.310153e-08 2.278187e-09 3.078254e-10 5.222280e-09
3.542140e-08 3.097157e-08 -2.904769e-08 1.317639e-08 1.627536e-09 3.125990e-09
3.302838e-08 3.460119e-08 -3.359779e-08 1.619463e-08 -3.039201e-10 1.564331e-09
3.390866e-08 2.732144e-08 -2.271324e-08 6.366941e-09 8.393415e-10 7.983431e-10
3.882466e-08 2.767778e-08 -2.562594e-08 7.809134e-09 1.536493e-09 1.477688e-09
3.382556e-08 2.747170e-08 -2.408637e-08 6.432704e-09 2.159674e-10 1.191079e-09
3.497470e-08 2.925230e-08 -2.628108e-08 8.087617e-09 9.459411e-10 8.846186e-10
-2.112050e-08 9.521025e-08 -5.539539e-08 -5.479772e-09 6.114193e-09 -7.268873e-09
-2.374855e-08 8.394311e-08 -4.099491e-08 2.344730e-09 5.076597e-09 -1.052381e-08
-2.154168e-08 8.538210e-08 -4.770044e-08 -3.375962e-09 2.220488e-09 -6.954455e-09
-1.925272e-08 9.647602e-08 -6.140661e-08 -1.094232e-08 1.139629e-08 -5.387526e-09
-2.172824e-08 1.014281e-07 -5.725667e-08 -5.652760e-09 6.030403e-09 -8.081747e-09
-2.881849e-08 4.343250e-08 -4.008511e-08 -6.930637e-09 -5.506290e-08 -2.940551e-08
-2.147451e-08 9.304394e-08 -5.176278e-08 -5.871509e-09 1.210627e-09 -6.743207e-09
-2.082521e-08 7.331036e-08 -4.118342e-08 -3.909201e-09 1.473838e-08 -9.779496e-09
-2.005032e-08 9.041392e-08 -4.344958e-08 -7.582932e-09 2.079647e-08 -1.083036e-08
3.007227e-08 3.319716e-07 -1.301026e-07 3.460603e-07 7.543399e-10 -1.747965e-08
4.470669e-08 2.998786e-07 -9.802380e-08 3.489478e-07 -8.228533e-08 -5.982713e-08
-7.502682e-08 3.388517e-07 7.838354e-08 4.220103e-07 -8.469670e-08 -4.269435e-08
6.607274e-08 -1.663922e-09 -2.511180e-08 1.228265e-08 4.991711e-09 8.820460e-09
9.376343e-08 -2.060902e-08 -3.710893e-08 -6.215030e-09 -1.024883e-09 1.337087e-08
1.015458e-07 -2.286013e-08 -4.014041e-08 -4.847554e-09 8.705182e-10 1.577168e-08
-2.794861e-08 1.218203e-07 -7.001463e-08 -1.252775e-08 3.035217e-09 -2.802416e-09
9.980080e-08 -2.122941e-08 -3.672804e-08 -2.660309e-09 5.770482e-10 9.818320e-09
1.077538e-07 -2.393976e-08 -4.227914e-08 -4.067112e-09 -3.746963e-09 8.664373e-09
9.901772e-08 -2.069629e-08 -3.277352e-08 -3.858946e-09 -1.158452e-09 1.181356e-08
4.441343e-07 -1.742863e-07 -1.725658e-07 -9.765008e-08 3.152929e-08 3.724160e-09
-5.395207e-09 1.502499e-07 -1.186293e-07 6.284526e-08 -3.255759e-08 -2.793410e-08
5.940206e-07 -2.035965e-07 -2.131553e-07 -1.028448e-07 2.200388e-08 -6.796382e-09
6.015177e-07 -2.438037e-07 -1.589213e-07 -9.616688e-08 2.114382e-08 -2.826163e-08
5.510353e-07 -2.315850e-07 -9.072050e-08 -1.239829e-07 1.595291e-08 -1.241481e-08
5.332481e-07 -2.429628e-07 -4.955407e-08 -1.907175e-07 -5.705440e-08 -4.262239e-09
6.609671e-07 -2.554909e-07 -9.668220e-08 -1.061495e-07 1.079552e-08 -5.308972e-08
5.318538e-07 -1.645420e-07 -1.703213e-07 -2.206979e-07 3.254585e-08 1.842743e-08
5.146101e-07 -1.679975e-07 -9.397814e-08 -1.524972e-07 2.955661e-08 -9.532207e-08
-1.265827e-06 -1.775357e-06 6.965782e-06 4.102743e-07 8.031847e-07 9.002249e-07
-1.984530e-06 -1.368782e-06 6.621357e-06 6.676337e-08 1.042072e-06 2.551890e-07
-2.198750e-06 -1.776944e-06 5.910377e-06 3.711218e-07 4.266691e-07 5.792825e-07
-2.384216e-06 -1.549933e-06 6.654686e-06 4.739747e-07 9.717702e-07 5.900194e-07
4.759400e-07 -1.636537e-07 -1.549033e-07 8.443600e-08 -4.244334e-08 -9.760058e-08
3.208943e-07 -1.217972e-07 -6.747285e-08 3.443907e-08 -2.442493e-08 -3.713308e-08
2.301531e-07 -1.494741e-07 -4.607261e-08 5.193144e-08 -7.959342e-08 -5.652623e-08
3.208939e-07 -1.230540e-07 -1.375287e-07 3.584555e-08 -3.507383e-08 -3.085029e-08
-2.462458e-08 1.039345e-07 -6.006390e-08 -9.025173e-09 7.667071e-09 -4.916060e-09
6.260354e-08 2.875451e-09 -2.408664e-08 -9.206948e-09 -8.129775e-10 4.950409e-09
5.568163e-08 9.765556e-09 -2.013522e-08 -3.084949e-09 -1.239245e-09 1.365728e-09
5.836982e-08 7.059194e-09 -2.030326e-08 -4.314394e-09 -7.417029e-10 2.185092e-09
5.682047e-08 1.006524e-08 -2.016389e-08 -3.711557e-09 -8.430545e-10 7.827124e-10
3.692830e-07 -2.065270e-07 -7.830275e-08 1.222363e-07 -6.346950e-08 -1.196001e-07
3.816502e-07 -1.575135e-07 -1.407429e-07 5.166291e-08 -5.181376e-08 -4.145565e-08
4.203890e-07 -1.725933e-07 -8.539029e-08 1.456724e-07 -1.631892e-08 -4.161667e-08
-2.393300e-08 1.589169e-07 -1.109265e-07 -3.749658e-08 -1.001297e-08 -2.333365e-09
-1.314804e-08 1.483484e-07 -1.070005e-07 -3.724087e-08 -2.480911e-09 6.371970e-09
-2.417193e-08 1.943060e-07 -1.194772e-07 -5.711630e-08 -1.661338e-08 9.282007e-09
-3.035435e-08 1.374330e-07 -1.076426e-07 -3.792821e-08 -3.439050e-08 1.228302e-08
-3.513707e-08 1.726698e-07 -1.211500e-07 -7.209724e-08 -3.397041e-08 1.841824e-08
-1.387142e-08 1.722305e-07 -1.074359e-07 -7.509341e-08 -3.802722e-08 1.708192e-08
-1.389333e-08 6.964758e-08 -4.564109e-08 3.705653e-08 -9.083761e-08 -3.461677e-08
6.233488e-08 4.267466e-09 -2.251639e-08 -4.650847e-09 -9.021618e-10 1.207698e-09
-3.088222e-10 1.082587e-07 -7.993308e-08 1.899269e-08 -1.525027e-08 -7.250351e-09
-1.031685e-08 9.975498e-08 -7.412176e-08 6.107262e-09 -8.535723e-09 -7.335684e-10
-1.342767e-08 8.400375e-08 -5.880306e-08 8.124494e-09 -1.479590e-08 -9.919944e-09
-1.373581e-08 9.132557e-08 -6.836452e-08 6.392719e-09 -2.418482e-08 -1.497257e-08
-3.555890e-09 1.048699e-07 -8.767981e-08 1.976716e-08 -1.908090e-08 -1.245857e-08
-2.451258e-09 1.013678e-07 -8.181886e-08 1.919224e-08 -3.572946e-08 -2.528745e-08
-1.573605e-08 9.706438e-08 -6.613775e-08 1.097469e-08 -2.786384e-08 -1.877342e-08
7.657262e-09 5.221393e-08 -2.495959e-08 1.001190e-08 9.691639e-09 8.159770e-09
6.455604e-09 4.858641e-08 -2.521892e-08 5.188764e-09 4.407361e-09 5.604786e-09
-2.392944e-08 7.532345e-08 -2.793714e-08 -4.634742e-09 2.006482e-08 -1.100886e-08
2.443286e-09 5.638526e-08 -3.654887e-08 8.989172e-09 1.244246e-08 1.145401e-08
7.465235e-09 5.383105e-08 -3.250440e-08 1.296805e-09 2.708385e-09 7.687286e-09
3.006733e-09 4.763235e-08 -2.707602e-08 3.369475e-09 5.767794e-09 8.239985e-09
-1.186417e-09 5.566770e-08 -3.360396e-08 2.318716e-09 7.266252e-09 1.183068e-08
8.237517e-09 6.128550e-08 -3.247879e-08 5.877680e-09 6.329270e-09 8.030769e-09
1.803288e-07 -4.531012e-08 -1.019680e-07 6.722207e-08 7.046573e-09 2.442543e-08
2.299015e-07 -4.207567e-08 -1.035899e-07 8.018600e-08 8.598972e-09 3.444046e-08
2.107893e-07 -5.996354e-08 -1.063433e-07 4.798499e-08 3.324778e-09 1.928852e-08
4.994545e-08 -7.278990e-08 -7.595978e-08 -2.052142e-09 -3.561440e-09 2.992931e-08
1.956100e-07 -4.264835e-08 -9.542409e-08 5.609280e-08 1.178022e-08 1.228694e-08
5.096965e-08 1.209921e-08 -2.039941e-08 -1.586224e-09 -2.888281e-10 1.490867e-10
5.273373e-08 1.194003e-08 -2.062568e-08 -2.750603e-09 -5.018190e-10 4.558828e-10
5.129783e-08 1.316129e-08 -2.126909e-08 -2.855537e-09 -4.709816e-10 5.626673e-10
5.277511e-08 1.196564e-08 -2.126973e-08 -2.713172e-09 -5.089724e-10 5.381860e-10
5.166450e-08 1.262818e-08 -1.964182e-08 -8.951036e-10 -4.903233e-10 1.688449e-10
5.132765e-08 1.300016e-08 -2.129524e-08 -2.857591e-09 -6.779450e-10 6.445946e-10
5.009589e-08 1.241150e-08 -1.964359e-08 -1.469676e-09 -2.061453e-10 5.462026e-10
5.026552e-08 1.332097e-08 -1.976548e-08 -1.024759e-09 -3.207918e-10 5.710370e-10
3.562335e-08 1.940648e-08 -8.074526e-08 2.615872e-08 -9.820949e-08 -5.898441e-08
-2.532577e-08 1.683290e-08 -3.918586e-08 -1.504825e-09 -9.570443e-08 -4.462188e-08
2.880034e-08 3.142920e-08 -6.595122e-08 3.874312e-08 -1.008936e-07 -6.119462e-08
5.334217e-08 7.801643e-08 -7.061139e-08 8.239153e-08 -1.210248e-07 -7.134430e-08
1.053507e-07 8.152293e-08 -9.676705e-08 1.014117e-07 -1.097345e-07 -7.999350e-08
3.766997e-08 1.942356e-08 -3.814168e-08 2.771856e-08 -1.240471e-07 -7.727324e-08
4.047148e-08 4.363626e-08 -5.789700e-08 3.304185e-08 -7.710368e-08 -1.807193e-08
-2.254107e-08 2.667961e-08 -3.668548e-08 1.613737e-10 -9.092707e-08 -3.995533e-08
1.510115e-07 1.075252e-07 -1.451060e-07 -2.071289e-07 5.627515e-09 -6.676655e-09
2.377188e-07 9.270975e-08 -1.478854e-07 -2.713013e-07 1.251059e-08 -2.241599e-08
1.634418e-07 7.141010e-08 -1.432819e-07 -2.073791e-07 2.051239e-08 -1.652065e-08
1.499417e-07 1.516526e-07 -1.033109e-07 -2.824732e-07 8.389790e-08 -5.485252e-08
2.869237e-07 -8.332302e-08 -1.102407e-07 -1.344620e-07 -2.644573e-08 4.663393e-08
2.125067e-07 -4.619706e-08 -9.636918e-08 -1.014486e-07 -1.761835e-08 2.864254e-08
6.055325e-07 -2.734518e-07 -1.273431e-07 5.912323e-08 -7.112582e-09 -2.250899e-08
6.068187e-07 -1.892817e-07 -2.051139e-07 7.970349e-08 -9.837134e-09 5.135259e-09
6.179796e-07 -2.382141e-07 -1.539100e-07 8.473952e-08 -2.142477e-08 -1.877340e-08
5.237113e-07 -2.581247e-07 -7.855405e-08 1.637230e-07 -3.584033e-08 -8.674514e-08
6.082368e-07 -1.892737e-07 -1.912726e-07 7.981062e-08 -1.087912e-08 -7.505047e-09
1.856463e-08 4.800751e-08 -3.141644e-08 1.218582e-08 7.097267e-09 5.954881e-09
1.169867e-08 4.992331e-08 -4.122117e-08 1.914671e-08 1.216884e-08 9.884924e-09
2.386355e-08 4.990923e-08 -3.020427e-08 2.001323e-08 1.119493e-08 8.007287e-09
1.500021e-08 4.150751e-08 -2.976060e-08 9.387881e-09 5.570225e-09 5.245854e-09
1.581765e-07 7.065456e-09 -1.298116e-07 -7.521947e-08 8.249920e-08 -3.872673e-08
1.402173e-07 -5.827371e-09 -1.173136e-07 -6.562403e-08 8.574973e-08 -6.934935e-08
9.515088e-08 2.237266e-08 -1.142708e-07 -9.587432e-08 1.034927e-07 -6.785896e-08
1.611325e-07 8.587842e-08 -1.178405e-07 -1.620659e-07 1.257248e-07 -9.687649e-08
9.574942e-08 -8.260978e-09 -6.009879e-08 -7.695254e-08 1.444312e-07 -9.636482e-08
1.436329e-07 -1.386508e-08 -1.045695e-07 -8.814289e-08 9.091219e-08 -2.220465e-08
1.657325e-07 1.587362e-08 -1.249623e-07 -1.693706e-07 8.474549e-08 -9.164235e-08
5.198865e-08 8.180169e-08 -9.952532e-08 1.026818e-07 -1.090786e-07 -9.295615e-08
5.871549e-08 8.956737e-08 -1.327175e-07 1.079497e-07 -8.732961e-08 -5.707063e-08
1.198589e-07 1.387603e-07 -1.490655e-07 1.697866e-07 -5.681278e-08 -4.451783e-08
1.071836e-07 8.966033e-08 -1.373088e-07 9.205769e-08 -7.672910e-08 -6.990076e-08
7.118776e-08 8.497090e-08 -1.226318e-07 -5.710593e-08 3.133863e-08 -1.382799e-08
-3.951692e-08 6.079716e-08 -3.854402e-08 -8.663545e-09 -5.282563e-08 -3.550183e-08
5.330769e-08 1.514209e-07 -1.102628e-07 1.095133e-07 -8.707631e-08 -5.494249e-08
-2.520683e-08 5.884266e-08 -3.464827e-08 1.285606e-09 1.397282e-08 2.597735e-09
5.069811e-08 1.270589e-08 -2.168849e-08 4.492675e-09 6.817520e-12 -3.891998e-12
3.419971e-08 1.013302e-07 -1.018946e-07 7.861986e-08 -8.585630e-08 -5.415222e-08
8.889485e-09 4.814773e-08 -3.213777e-08 1.012390e-08 6.430552e-09 8.692135e-09
1.584444e-08 5.452767e-08 -3.125084e-08 1.372477e-08 9.734471e-09 1.014545e-08
1.710841e-08 4.244169e-08 -2.259715e-08 7.367361e-09 5.501804e-09 4.861861e-09
1.274254e-08 5.035068e-08 -3.064102e-08 5.102634e-09 3.806365e-09 7.076240e-09
-4.042475e-09 8.062309e-08 -6.025713e-08 1.566677e-08 -3.850757e-08 -1.466909e-08
-3.794808e-08 1.199281e-07 -6.998765e-08 -2.832839e-09 4.700746e-08 -6.133740e-09
6.701523e-09 6.768503e-08 -7.336138e-08 1.028865e-08 -5.169706e-08 -1.338522e-08
-3.170383e-09 6.229397e-08 -5.165607e-08 7.121081e-09 -5.250755e-08 -2.096864e-08
-2.641551e-08 6.615497e-08 -3.332477e-08 -5.973490e-09 1.026410e-08 4.113464e-09
-1.474804e-08 1.036457e-07 -6.257053e-08 2.469273e-08 1.237619e-08 3.541268e-09
-2.348226e-08 1.129956e-07 -7.530173e-08 2.237743e-08 1.504760e-08 3.107194e-09
-2.067527e-08 1.371248e-07 -7.962409e-08 3.140837e-08 9.038002e-09 4.504351e-09
-1.001672e-08 1.227677e-07 -8.036282e-08 4.675485e-08 2.794999e-08 1.414037e-08
-2.751629e-08 6.021433e-08 -3.424361e-08 9.504424e-10 1.440720e-08 -8.352838e-10
-4.041230e-08 1.195680e-07 -7.125785e-08 1.232691e-08 4.521393e-08 2.505915e-09
-1.058717e-08 1.196994e-07 -6.923907e-08 3.884160e-08 1.143847e-08 6.080447e-09
1.081433e-08 8.901757e-08 -8.250727e-08 -2.376450e-08 2.274062e-08 -7.651048e-09
-1.526308e-08 9.361154e-09 -3.757826e-08 -1.981481e-09 9.002229e-08 -3.887251e-08
1.125931e-08 1.067848e-07 -1.005136e-07 -4.161789e-08 1.115317e-08 -4.085749e-09
1.064265e-08 9.462012e-08 -7.843903e-08 -2.273908e-08 7.589396e-09 -1.073797e-09
-5.481119e-09 8.870636e-08 -8.072640e-08 -2.189295e-08 2.536264e-08 -1.280643e-08
8.893459e-09 8.826642e-08 -8.362095e-08 -2.540168e-08 2.649663e-08 -4.859658e-09
9.566656e-08 -1.937429e-08 -3.383831e-08 -5.423196e-10 -7.789872e-10 1.270212e-09
9.283921e-08 -1.878054e-08 -3.269898e-08 -6.757010e-10 1.486788e-11 3.820338e-10
9.426960e-08 -1.798397e-08 -3.629004e-08 -2.668861e-09 1.025555e-10 2.966439e-09
9.327568e-08 -1.918797e-08 -2.944228e-08 -1.511704e-09 2.710541e-10 4.582411e-09
9.004002e-08 -1.885906e-08 -2.868523e-08 -8.270287e-10 -7.260455e-10 3.116474e-09
9.872109e-08 -2.128199e-08 -3.586543e-08 1.386741e-09 -1.721127e-09 6.261874e-09
9.264328e-08 -1.854933e-08 -3.348523e-08 -7.563423e-10 -2.236035e-10 1.379289e-09
1.001807e-07 -2.030296e-08 -3.661071e-08 -7.852351e-10 -1.108905e-09 2.957073e-09
9.399533e-08 -1.913051e-08 -3.589883e-08 -1.717718e-09 5.683799e-10 3.126640e-09
2.087774e-08 3.772253e-08 -2.817028e-08 -1.579870e-08 -1.882316e-08 2.190109e-08
2.495001e-08 3.446471e-08 -2.659451e-08 -1.063256e-08 -5.367225e-09 1.166200e-08
1.762135e-08 2.996207e-08 -2.749366e-08 -8.573412e-09 -1.503912e-08 1.541962e-08
2.502671e-08 2.730767e-08 -2.737896e-08 -1.055291e-08 -9.292008e-09 1.137991e-08
1.200499e-08 6.073206e-08 -3.667976e-08 1.003994e-08 6.359492e-09 5.934797e-09
1.554665e-08 5.472491e-08 -4.336499e-08 1.424548e-08 1.228287e-08 8.194015e-09
1.741856e-08 6.213801e-08 -4.348385e-08 2.312593e-08 9.011041e-09 1.032185e-08
1.956048e-08 5.778575e-08 -4.363059e-08 2.516886e-08 4.391655e-09 8.649833e-09
2.376415e-08 6.514977e-08 -4.999672e-08 3.162142e-08 1.214714e-08 1.008395e-08
1.874209e-08 5.752403e-08 -4.691604e-08 2.464145e-08 1.300632e-08 8.786376e-09
1.319597e-08 6.776483e-08 -4.349273e-08 2.167998e-08 1.641737e-08 9.670965e-09
-7.811775e-08 3.019155e-07 -1.328910e-07 -4.000662e-08 1.991975e-08 7.995500e-09
-7.846473e-08 2.265366e-07 -1.129840e-07 -4.743243e-08 1.991255e-08 8.877993e-10
-1.030524e-07 3.016319e-07 -1.321677e-07 -4.965641e-08 2.004426e-08 -3.131491e-09
-6.762722e-08 2.332764e-07 -1.153344e-07 -3.804075e-08 1.565395e-08 -1.678879e-09
1.020023e-07 4.483181e-08 -8.763078e-08 -1.070923e-07 -2.400817e-08 2.979946e-08
8.254421e-08 4.500424e-08 -7.268648e-08 -7.550144e-08 -1.909869e-08 1.910282e-08
6.957211e-08 4.671220e-08 -7.246707e-08 -7.768918e-08 -1.795467e-08 1.470034e-08
7.649748e-08 5.547214e-08 -8.963855e-08 -9.207705e-08 -1.039412e-08 9.522934e-09
3.712721e-08 2.554421e-08 -2.082509e-08 9.859614e-10 3.295067e-10 1.206554e-09
3.692002e-08 2.496166e-08 -2.127419e-08 2.327968e-09 2.361796e-10 5.855329e-10
-1.747664e-08 3.520040e-08 -3.835937e-08 -1.184685e-10 7.338542e-08 -3.340386e-08
3.885712e-08 2.458404e-08 -2.113180e-08 4.045403e-09 4.399494e-10 6.638980e-10
3.777557e-08 2.444075e-08 -1.989516e-08 9.456169e-10 4.610056e-10 4.274773e-10
3.877455e-08 2.433729e-08 -2.171033e-08 4.247205e-09 1.157836e-09 4.296809e-10
3.685800e-08 2.378665e-08 -2.056425e-08 1.736857e-09 -1.131386e-10 8.474394e-10
9.929603e-08 -2.284941e-08 -3.855707e-08 9.199553e-10 2.835061e-10 2.516633e-09
1.080199e-07 -2.526583e-08 -3.937161e-08 2.706591e-09 -3.183218e-09 9.135817e-09
3.165543e-09 8.951793e-08 -5.825565e-08 -2.151057e-08 3.047547e-08 -1.371933e-08
-1.045816e-08 7.854602e-08 -5.062823e-08 5.066582e-09 5.943644e-09 4.317574e-09
1.058279e-07 -2.518601e-08 -4.764839e-08 4.099948e-09 2.331676e-10 4.768437e-09
9.636614e-08 -2.031568e-08 -3.724911e-08 -1.688522e-10 2.244988e-09 6.468749e-09
9.539496e-08 -2.020192e-08 -3.249182e-08 4.462599e-09 -8.018886e-10 4.338819e-09
1.037770e-07 -2.086218e-08 -4.131586e-08 8.545985e-09 3.374176e-09 2.581707e-09
1.061324e-07 -2.025947e-08 -3.755219e-08 5.980674e-09 8.031096e-10 5.670546e-09
5.477054e-08 1.335572e-08 -2.131153e-08 8.170492e-09 2.067655e-09 2.018894e-09
-1.316865e-08 9.826530e-09 -4.545852e-08 -2.426552e-10 9.579281e-08 -5.455536e-08
5.365088e-08 1.050892e-08 -2.174465e-08 4.976187e-09 3.931897e-10 1.172595e-09
8.824179e-08 -1.939924e-08 -2.172738e-08 -1.117403e-09 -4.680922e-10 4.889561e-09
8.646023e-08 -1.795637e-08 -2.474801e-08 -4.802098e-10 -2.227004e-10 2.469184e-09
8.799920e-08 -1.803702e-08 -2.668581e-08 1.280812e-10 -5.685937e-10 1.391631e-09
8.599622e-08 -1.786754e-08 -2.493582e-08 -8.417284e-10 -2.764500e-10 2.034935e-09
8.692665e-08 -1.728963e-08 -2.249228e-08 -1.957079e-09 -1.521516e-09 4.978148e-09
8.571081e-08 -1.948326e-08 -2.486171e-08 -1.618729e-09 -1.198261e-09 6.860955e-09
8.732807e-08 -1.711333e-08 -2.796525e-08 -2.362282e-09 -3.933989e-10 4.978647e-09
9.050090e-08 -1.939271e-08 -2.712324e-08 -2.209748e-09 -7.946019e-10 6.854294e-09
-7.344732e-08 2.142830e-07 -1.081565e-07 1.096961e-08 4.926387e-08 -5.391454e-09
-8.634893e-08 3.008470e-07 -1.283630e-07 1.234554e-08 2.509833e-08 -4.373735e-09
-1.156556e-07 2.916243e-07 -1.123673e-07 3.044798e-08 7.050693e-08 1.545798e-10
-6.495732e-08 2.452414e-07 -1.171532e-07 3.070032e-08 3.188280e-08 1.200235e-09
-7.898613e-08 2.854410e-07 -1.140190e-07 4.157754e-08 5.723380e-08 6.204938e-09
-9.383662e-08 2.758701e-07 -1.100139e-07 2.965012e-08 6.181950e-08 1.221110e-08
7.184916e-08 -9.777795e-10 -3.024908e-08 1.133340e-08 1.918712e-10 9.228559e-10
5.470008e-08 8.032988e-09 -2.321693e-08 8.318665e-09 7.855801e-10 3.333770e-09
5.525708e-08 9.129979e-09 -2.123773e-08 7.533965e-09 2.291599e-09 2.275991e-09
5.487333e-08 9.370640e-09 -2.393424e-08 8.984170e-09 7.135537e-11 2.561996e-09
5.081716e-08 1.268584e-08 -2.227651e-08 7.340690e-09 1.280472e-09 1.903576e-09
5.095919e-08 1.296595e-08 -2.230871e-08 9.402395e-09 1.407851e-09 4.005054e-09
5.690736e-08 9.598778e-09 -2.422613e-08 8.589761e-09 2.140656e-09 3.422469e-09
4.066640e-08 2.045736e-08 -2.091707e-08 3.374216e-09 6.656413e-10 8.378489e-10
4.398420e-08 1.744244e-08 -1.942591e-08 2.933912e-09 -2.588438e-10 5.298855e-10
4.260629e-08 1.841641e-08 -2.175576e-08 6.065689e-09 4.978513e-10 1.524982e-10
4.344030e-08 1.850360e-08 -2.033950e-08 4.646123e-09 -1.053273e-10 1.272338e-11
4.186501e-08 2.016185e-08 -2.024934e-08 3.530782e-09 1.921616e-10 -2.633188e-10
4.107388e-08 2.131957e-08 -2.074076e-08 3.862229e-09 2.705983e-10 -1.389525e-10
1.107974e-08 8.096417e-08 -6.811540e-08 -4.146209e-08 5.561365e-08 -2.407521e-08
6.583013e-08 1.274192e-08 -4.202429e-08 -2.898867e-08 -7.726139e-09 4.780247e-09
6.053021e-08 1.144027e-08 -3.524356e-08 -1.960600e-08 -1.339871e-09 1.384863e-09
6.514557e-08 1.583194e-08 -4.534466e-08 -2.989500e-08 -8.715467e-10 3.556322e-09
1.730614e-08 4.365305e-08 -3.444621e-08 -2.708406e-08 -2.895770e-08 2.987738e-08
4.510848e-09 5.314001e-08 -3.075090e-08 -1.950678e-08 -2.945060e-08 2.458120e-08
9.306594e-09 4.870720e-08 -3.816447e-08 -2.382186e-08 -4.926698e-08 3.802888e-08
3.680605e-10 5.931480e-08 -3.693546e-08 -2.344903e-08 -4.553809e-08 3.730421e-08
2.712588e-09 2.900519e-08 -3.171420e-08 -1.203559e-08 -3.454371e-08 2.639733e-08
1.827399e-08 5.614890e-08 -4.380509e-08 -3.733159e-08 -3.212564e-08 2.810700e-08
5.603115e-08 1.346347e-08 -3.315790e-08 1.942173e-08 1.405082e-09 2.305563e-09
5.725243e-08 1.372465e-08 -2.634616e-08 1.597557e-08 1.141086e-09 2.781374e-09
5.985830e-08 9.313967e-09 -2.992989e-08 1.365978e-08 9.397725e-10 1.684237e-09
5.888581e-08 1.202716e-08 -2.871004e-08 1.429542e-08 -8.831021e-10 1.183412e-09
5.216112e-08 3.024348e-08 -1.089802e-07 1.944688e-08 -7.862189e-08 -3.035393e-08
1.174155e-07 5.302734e-08 -1.354560e-07 1.317681e-07 -7.151151e-08 -6.431281e-08
2.268315e-08 1.007364e-07 -9.089123e-08 -5.679458e-08 6.854835e-08 -3.250060e-08
6.886392e-08 2.793168e-08 -8.831600e-08 6.355538e-08 -8.925041e-08 -6.682048e-08
6.820256e-08 1.940865e-08 -5.836558e-08 2.621884e-08 -8.275012e-08 -3.663234e-08
1.235310e-07 9.036327e-08 -1.407396e-07 1.155287e-07 -8.028163e-08 -5.785981e-08
4.921586e-08 8.861052e-08 -9.996522e-08 2.380704e-08 -6.394521e-08 -1.005304e-08
2.278574e-08 9.441510e-08 -1.030659e-07 2.192181e-08 -3.443293e-08 7.498199e-09
6.448967e-08 1.013902e-07 -1.235387e-07 3.670831e-08 -2.055994e-08 -2.889804e-09
4.495409e-08 9.449219e-08 -1.049882e-07 2.059125e-08 -3.320236e-08 -9.596719e-09
6.907186e-08 1.146097e-07 -1.286441e-07 2.892469e-08 -1.993987e-08 -3.319173e-09
6.126225e-08 7.682796e-08 -1.154446e-07 9.117341e-09 -4.618479e-08 -6.426077e-09
6.998190e-08 1.029133e-07 -1.303468e-07 1.779713e-08 -2.999718e-08 -3.951765e-09
3.209682e-07 -1.319607e-07 -7.329685e-08 1.072031e-07 9.759743e-09 5.784866e-08
4.051385e-07 -1.281494e-07 -8.018530e-08 1.251165e-07 1.209228e-08 6.836196e-08
3.687737e-07 -1.415136e-07 -6.029237e-08 1.772092e-07 -8.075517e-09 4.331535e-08
3.406693e-07 -6.910708e-08 -1.230263e-07 1.815416e-07 2.148117e-08 2.652930e-08
5.638582e-07 -8.417633e-07 1.342500e-06 -5.160062e-08 -1.439189e-11 -2.845109e-08
-5.344705e-07 -5.217902e-08 2.301460e-06 -6.985960e-07 2.825737e-07 -3.286152e-07
-6.278458e-07 2.733444e-08 1.367689e-06 -6.632322e-07 4.265015e-07 -9.385733e-08
-1.007468e-06 6.799217e-10 2.376286e-06 -5.488947e-07 2.122872e-07 2.749351e-07
-1.408690e-06 3.557015e-08 3.005295e-06 -5.185457e-07 4.356269e-07 -1.159165e-07
-2.089159e-09 5.721811e-08 -4.721909e-08 -1.038225e-08 3.702773e-08 -1.331156e-08
7.167129e-09 7.811672e-08 -7.131153e-08 -1.843205e-08 4.105198e-08 -1.656934e-08
6.475999e-09 5.775967e-08 -4.330514e-08 -1.560142e-08 5.355999e-08 -1.923289e-08
-1.000307e-08 5.901053e-08 -3.512760e-08 -1.312624e-08 5.838330e-08 -2.461408e-08
-1.418425e-08 6.054586e-08 -3.141529e-08 -8.018677e-09 4.068480e-08 -1.495926e-08
-1.056269e-08 5.980553e-08 -3.717243e-08 -8.248133e-09 4.276209e-08 -1.380131e-08
-5.254352e-08 2.337814e-07 -1.161568e-07 -3.792686e-08 -5.042050e-08 1.202261e-08
-5.135875e-08 2.210523e-07 -1.173785e-07 -4.136029e-08 -4.183862e-08 1.116805e-08
-7.472180e-08 2.333261e-07 -1.203719e-07 -3.442603e-08 -4.881707e-08 2.298725e-09
-7.282555e-08 2.558198e-07 -1.418961e-07 -2.634284e-08 -2.500474e-08 1.305241e-08
-1.965404e-07 4.270634e-07 -1.132498e-07 1.150073e-07 -2.204056e-08 -8.000584e-10
-1.536361e-07 3.725499e-07 -1.291972e-07 1.769353e-07 -2.263628e-08 7.757753e-09
-1.090553e-07 4.239426e-07 -1.403858e-07 1.279988e-07 -5.875418e-08 -1.870520e-08
-1.033838e-07 3.827150e-07 -1.341875e-07 1.584404e-07 -9.370582e-08 -2.465548e-08
-1.966983e-07 4.782026e-07 -3.691918e-08 1.908599e-07 -8.802529e-08 -3.654084e-08
4.817092e-08 1.707741e-08 -2.452330e-08 -5.773779e-09 3.388541e-10 1.785958e-10
4.822671e-08 1.829934e-08 -2.913197e-08 -1.089438e-08 -6.290701e-10 1.620231e-09
4.681222e-08 1.767365e-08 -2.541228e-08 -5.163058e-09 -2.377146e-10 1.282211e-09
4.807086e-08 1.835215e-08 -2.573430e-08 -1.086155e-08 -1.054269e-09 1.288070e-09
7.594183e-08 -9.990237e-08 9.506543e-08 -8.506783e-10 -5.894235e-08 -1.646514e-07
4.685336e-08 1.853228e-08 -2.286422e-08 -5.559478e-09 -1.522666e-09 1.479549e-09
-2.404867e-08 9.529334e-08 -4.587716e-08 1.239801e-08 3.349774e-08 9.930122e-09
-2.029636e-08 7.393350e-08 -3.767085e-08 9.054385e-09 2.856629e-08 1.009147e-08
-2.490075e-08 8.760039e-08 -6.374230e-08 1.522753e-08 4.411883e-08 1.274123e-08
-2.045710e-08 9.859674e-08 -5.824983e-08 2.268929e-08 3.449323e-08 7.557802e-09
-2.008073e-08 8.855314e-08 -4.468634e-08 1.389447e-08 3.121995e-08 1.419441e-08
2.283783e-10 -5.136657e-08 -6.547665e-09 -2.508246e-09 6.047077e-08 -1.337398e-09
5.546537e-08 9.870776e-09 -2.426744e-08 -7.437768e-09 -1.303312e-09 7.765503e-10
6.235330e-08 5.865213e-09 -2.577906e-08 -7.397809e-09 -1.132437e-09 5.279477e-10
5.904740e-08 9.339569e-09 -2.710999e-08 -9.278997e-09 -1.954944e-09 2.055724e-10
5.903674e-08 7.310934e-09 -2.239245e-08 -5.334726e-09 -1.477149e-09 6.370824e-10
5.976820e-08 7.236240e-09 -2.634764e-08 -9.631749e-09 -8.874039e-10 -6.239519e-10
5.787700e-08 8.604983e-09 -2.310297e-08 -5.534983e-09 -8.461565e-10 -5.616546e-10
3.235775e-08 4.806248e-08 -4.625649e-08 -2.626714e-08 -8.645931e-09 1.160453e-08
2.613481e-08 4.239690e-08 -4.440853e-08 -9.066263e-09 -1.439409e-09 3.159465e-09
3.196629e-08 4.276994e-08 -4.203700e-08 -1.124313e-08 -4.626923e-09 8.896725e-09
2.379746e-08 5.414098e-08 -4.850578e-08 -9.284452e-09 -1.148974e-09 1.031043e-08
3.686064e-08 3.846344e-08 -4.371058e-08 -1.530316e-08 -1.288886e-09 5.602087e-09
3.122756e-08 4.762195e-08 -4.590969e-08 -1.626804e-08 -3.415385e-09 2.586323e-09
4.004183e-07 -2.154372e-07 -1.214702e-07 2.785150e-08 -2.530330e-08 -5.233797e-09
6.200337e-08 3.742175e-09 -2.382776e-08 7.406401e-09 8.506391e-10 2.215799e-09
6.767908e-07 -5.900743e-07 6.068909e-07 4.288608e-08 -1.903433e-08 4.071744e-08
6.849854e-08 5.832689e-09 -2.969033e-08 1.508132e-08 1.834760e-09 3.508502e-09
6.718511e-08 3.570405e-09 -2.873143e-08 1.298286e-08 1.189118e-09 3.760329e-09
6.349864e-08 3.287869e-09 -2.607672e-08 1.185509e-08 1.604657e-09 3.787465e-09
7.210015e-08 2.945677e-11 -2.673212e-08 9.533980e-09 1.362275e-09 5.060913e-09
8.262435e-08 -1.347779e-07 2.166420e-08 4.156482e-08 2.790007e-08 -1.158145e-07
3.087853e-07 -2.036098e-07 1.809535e-08 -1.275763e-08 2.267676e-08 -8.780650e-08
2.499692e-07 -6.476275e-08 -9.387167e-08 -3.267447e-08 -3.860038e-09 -1.389250e-07
2.536190e-07 -1.376911e-07 -8.551476e-08 -2.352647e-08 2.894721e-08 -1.325098e-07
1.173994e-07 2.881093e-08 -8.006981e-08 9.961632e-08 7.207546e-09 1.793104e-08
7.428823e-07 -3.989691e-07 1.476467e-07 -1.078520e-07 5.728057e-08 -7.248592e-08
1.369203e-07 1.950557e-08 -9.495820e-08 1.076737e-07 1.412246e-08 3.896371e-08
1.276357e-07 1.282298e-08 -9.926935e-08 1.158822e-07 1.949899e-08 3.246740e-08
1.172372e-07 2.880862e-08 -9.797925e-08 9.963620e-08 7.597984e-09 1.389018e-08
4.692135e-07 -3.452422e-07 6.877563e-08 1.164637e-07 -5.915234e-09 -7.619370e-08
4.279762e-08 2.112299e-08 -1.908993e-08 1.672284e-09 1.362705e-10 3.241736e-11
4.176307e-08 2.069206e-08 -1.908765e-08 9.534169e-10 1.788856e-10 -8.140691e-11
4.177498e-08 2.079653e-08 -1.895035e-08 1.012447e-09 -9.238755e-11 -1.244223e-10
4.455452e-08 1.840204e-08 -1.928396e-08 1.848010e-09 -1.358718e-10 1.317435e-10
4.316364e-08 1.948624e-08 -1.893265e-08 1.009634e-09 3.245249e-10 8.927946e-11
-1.805542e-08 5.479516e-08 -2.882329e-08 1.754447e-09 6.517331e-09 5.772360e-09
6.443231e-08 3.395594e-09 -2.276544e-08 9.372579e-09 2.027698e-09 3.946532e-09
6.585476e-08 2.844330e-09 -2.640541e-08 5.591357e-09 2.795073e-09 3.732292e-09
6.227295e-08 3.399393e-09 -2.280930e-08 6.754019e-09 1.755575e-09 1.509048e-09
5.234744e-08 1.304958e-08 -2.287811e-08 6.011189e-09 6.315264e-10 -6.737576e-10
5.350555e-08 1.113831e-08 -2.214174e-08 5.232707e-09 -3.793861e-10 1.245667e-09
-1.669289e-08 9.313553e-08 -6.438959e-08 1.455547e-08 1.176646e-08 4.230349e-09
5.734821e-08 1.146724e-08 -2.350867e-08 8.411186e-09 9.042091e-10 1.287573e-09
5.736853e-08 9.508335e-09 -2.457994e-08 8.870853e-09 2.353101e-09 9.547350e-10
5.045005e-08 1.299974e-08 -2.251964e-08 7.365871e-09 1.177186e-09 -3.234959e-10
4.955288e-08 1.369033e-08 -2.342234e-08 7.350266e-09 1.209277e-09 5.766320e-10
-2.483786e-08 5.060386e-08 -3.150363e-08 2.643264e-09 4.118412e-08 8.125588e-09
5.329522e-08 1.237437e-08 -2.417525e-08 1.110987e-08 2.813541e-09 3.219614e-09
5.327593e-08 1.234779e-08 -2.225089e-08 1.130703e-08 2.205889e-09 2.949367e-09
5.434304e-08 1.071362e-08 -2.133204e-08 1.024929e-08 1.684374e-09 3.990628e-09
1.818099e-07 -4.804726e-08 -8.564676e-08 -5.680475e-10 8.064453e-09 1.016263e-08
5.320770e-08 1.439277e-08 -2.513687e-08 1.159201e-08 2.504948e-09 3.533605e-09
5.397890e-08 8.607028e-09 -2.099998e-08 6.224943e-09 9.913471e-10 1.654919e-09
5.851405e-08 9.228714e-09 -2.273500e-08 6.069585e-09 1.551500e-09 1.833024e-09
6.007187e-08 8.678671e-09 -2.386936e-08 1.121153e-08 1.862879e-09 3.848515e-09
5.163239e-08 1.284062e-08 -2.333087e-08 9.598546e-09 2.020284e-09 1.522684e-09
5.168298e-08 1.230951e-08 -2.033901e-08 4.133255e-09 6.057294e-10 8.418567e-10
1.325422e-08 2.934025e-08 -3.297881e-08 -1.383825e-08 -3.237227e-08 2.624061e-08
1.719455e-08 3.383205e-08 -2.931555e-08 -1.958212e-08 -2.661674e-08 2.243552e-08
2.099579e-08 3.773381e-08 -4.014066e-08 -1.584095e-08 -1.719648e-08 1.895762e-08
2.304993e-08 3.394626e-08 -3.014761e-08 -2.081276e-08 -1.883862e-08 2.222677e-08
3.017039e-08 4.498862e-08 -3.816853e-08 -3.194676e-08 -2.249117e-08 2.252227e-08
2.698783e-08 3.697739e-08 -2.350144e-08 -1.619210e-08 -1.542165e-08 1.505813e-08
2.031411e-08 2.548372e-08 -3.082756e-08 -1.345191e-08 -2.142652e-08 2.173209e-08
2.842104e-08 1.313234e-07 -1.202657e-07 6.301511e-08 -1.700837e-08 -3.408543e-09
3.660961e-08 1.010863e-07 -1.221636e-07 3.980515e-08 -2.063621e-08 1.502992e-10
4.563915e-08 1.154437e-07 -1.399550e-07 7.677689e-08 -1.882055e-08 -7.193828e-09
3.638061e-08 1.015789e-07 -1.189757e-07 3.998549e-08 -3.139963e-08 -1.206314e-08
6.610523e-07 -2.832521e-07 -8.656744e-08 -3.564456e-08 -5.682711e-09 1.234540e-08
4.663581e-08 1.155673e-07 -1.181458e-07 7.756868e-08 -3.486157e-08 -1.832474e-08
2.388702e-08 4.991497e-08 -3.496570e-08 1.993835e-08 1.135437e-08 8.887313e-09
2.003607e-08 4.725397e-08 -4.639126e-08 2.636785e-08 9.877303e-09 7.782131e-09
1.716254e-08 5.235240e-08 -4.607394e-08 2.469844e-08 1.118932e-08 7.088965e-09
1.518508e-08 6.785181e-08 -5.038528e-08 -5.175287e-08 1.153814e-07 -7.728365e-08
2.897139e-08 4.969557e-08 -4.467546e-08 2.735419e-08 1.293278e-08 1.141041e-08
1.784825e-08 5.746432e-08 -4.668837e-08 2.710099e-08 2.114888e-08 1.421034e-08
1.116540e-08 -3.172498e-08 -5.104302e-08 -1.567681e-09 -9.075286e-08 -5.323096e-08
1.629395e-07 -1.171319e-08 -1.215950e-07 8.819581e-08 -6.530021e-08 -8.347385e-08
1.449380e-07 -6.807087e-08 -7.710452e-08 2.196048e-08 -5.703638e-08 -5.405755e-08
1.393626e-07 -2.350561e-08 -1.192985e-07 2.576381e-08 -9.005153e-08 7.141651e-09
2.424140e-07 -4.461131e-08 -1.544394e-07 1.697924e-08 -7.404948e-08 -4.477615e-08
2.564167e-07 -1.161518e-07 -9.724881e-08 -4.310235e-09 3.191237e-08 -1.962250e-08
2.483162e-07 -1.574725e-07 -8.829424e-08 6.335791e-09 -3.021530e-08 -4.579210e-08
2.742699e-07 -1.612256e-07 -1.388426e-07 -5.228787e-09 -7.608420e-09 2.143552e-09
3.113991e-07 -1.665120e-07 -1.105651e-07 -5.423733e-08 1.223838e-08 -4.269100e-08
5.022542e-08 -1.109687e-07 -6.116598e-08 4.369755e-09 4.732081e-08 -4.014680e-08
4.805598e-07 -1.631208e-07 -1.555300e-07 -5.366893e-09 1.848896e-10 -5.358224e-08
3.998195e-07 -1.625279e-07 -1.133607e-07 1.011127e-08 8.441558e-09 -2.591909e-08
2.889825e-07 -1.462221e-07 -9.518011e-08 -9.799760e-09 -1.227801e-08 -1.376754e-07
2.784963e-07 -1.362580e-07 -1.065579e-07 -3.351944e-08 6.373921e-10 -4.607708e-08
1.824802e-08 8.883481e-08 -6.971522e-08 -1.709023e-08 1.961099e-08 -1.802193e-09
1.886812e-08 7.887914e-08 -7.931584e-08 -1.633770e-08 2.950848e-08 -2.952592e-09
1.499677e-08 7.806239e-08 -8.911391e-08 -1.433350e-08 3.343973e-08 -9.509019e-09
-2.912647e-09 6.158854e-08 -5.353127e-08 -4.676302e-09 3.886662e-08 -4.663650e-09
1.383377e-08 7.802488e-08 -6.729794e-08 -1.298296e-08 4.203158e-08 -1.154146e-08
-2.994151e-09 6.960525e-08 -5.056853e-08 -7.465612e-09 3.341371e-08 -1.880324e-09
2.018007e-09 7.200107e-08 -7.404117e-08 -4.459448e-09 3.137913e-08 -1.580249e-09
-3.771161e-08 1.456757e-07 -8.201471e-08 1.446296e-08 2.261450e-08 3.229959e-09
-8.110335e-09 1.138388e-07 -8.133372e-08 2.690471e-08 -3.781047e-08 -2.405358e-08
-4.821576e-08 1.588373e-07 -1.005659e-07 2.160761e-08 2.371854e-08 4.938625e-09
-3.549563e-08 1.557413e-07 -8.295509e-08 2.661757e-08 1.345691e-08 4.760656e-09
-3.919210e-08 1.589915e-07 -9.169794e-08 2.881368e-08 2.600810e-08 1.113540e-08
-4.595817e-08 1.689462e-07 -9.213743e-08 1.682895e-08 1.425791e-08 9.386709e-09
5.540832e-08 9.578202e-09 -2.306569e-08 1.124762e-08 3.714173e-09 4.124813e-09
6.566662e-08 2.549751e-09 -2.344790e-08 6.125416e-09 1.994981e-09 3.182248e-09
6.606984e-08 6.362484e-10 -2.444969e-08 4.001671e-09 1.848162e-09 1.899206e-09
6.822201e-08 -1.765300e-09 -2.262398e-08 7.370851e-09 2.818564e-09 2.854089e-09
6.955138e-08 -2.707303e-09 -2.249596e-08 2.090976e-09 1.362178e-09 4.212057e-10
6.831588e-08 -6.927107e-10 -2.342187e-08 4.371500e-09 9.601486e-10 1.449045e-09
1.766816e-08 8.021144e-08 -9.226810e-08 -4.571098e-08 7.502781e-08 -3.519413e-08
-2.231896e-08 8.211741e-08 -2.765100e-08 4.863397e-09 2.360814e-08 6.997737e-09
9.251684e-08 -2.012310e-08 -2.871022e-08 -5.052834e-09 -2.195919e-09 1.324464e-08
8.994427e-08 -2.012029e-08 -2.810511e-08 -5.643763e-09 -2.267172e-09 1.588324e-08
8.744641e-08 -2.018094e-08 -2.857743e-08 -9.235547e-09 -2.882505e-09 1.427131e-08
9.355786e-08 -2.156992e-08 -2.864249e-08 -2.728910e-09 -4.671391e-10 1.782907e-08
9.084693e-08 -2.169774e-08 -2.864550e-08 -5.226225e-09 -3.266266e-09 1.645366e-08
9.420021e-08 -2.376268e-08 -3.322414e-08 -5.200287e-09 -2.284541e-09 1.552816e-08
2.170563e-07 -5.039831e-08 -8.916168e-08 4.709634e-08 -7.729256e-08 -1.615890e-07
-3.114315e-08 -1.000945e-07 5.691584e-08 6.758036e-08 -8.517601e-08 -6.221971e-08
1.509293e-07 -1.031704e-07 9.324678e-08 1.089726e-07 -1.268898e-07 -1.679276e-07
1.386583e-07 -3.322442e-08 -8.448110e-08 1.212146e-07 -1.000204e-07 -1.185103e-07
2.314866e-07 -8.367384e-08 -4.628865e-08 6.138994e-08 -6.722165e-08 -5.500535e-08
3.619653e-07 -4.272703e-08 -2.084361e-07 -5.139180e-08 1.172821e-08 1.633621e-08
2.727192e-07 -1.053419e-07 -6.339437e-08 1.364393e-07 -6.605124e-08 -8.524238e-08
3.850110e-08 4.238896e-08 -4.850395e-08 -2.392441e-08 -1.122922e-08 1.256058e-08
3.937289e-08 2.965804e-08 -4.107246e-08 -2.371461e-08 -1.235851e-08 1.322160e-08
3.789866e-08 4.223316e-08 -4.128459e-08 -2.425860e-08 -1.085927e-08 1.239161e-08
5.779546e-08 1.129687e-09 -6.227758e-08 -3.885785e-08 8.607022e-08 -6.495650e-08
3.788501e-08 4.227801e-08 -3.323424e-08 -2.428556e-08 -9.839791e-09 1.110654e-08
2.979316e-08 4.756937e-08 -5.502675e-08 -3.350277e-08 -2.457986e-08 2.872113e-08
4.030711e-08 4.886435e-08 -4.813142e-08 -3.734603e-08 -2.150146e-08 1.897104e-08
3.888318e-08 3.737119e-08 -4.567381e-08 -3.025886e-08 -1.344040e-08 1.949856e-08
6.316353e-08 5.551987e-09 -2.855992e-08 1.104593e-08 1.782813e-09 3.373994e-09
5.719980e-08 8.682257e-09 -2.413689e-08 1.114597e-08 1.843798e-09 5.423429e-09
1.547323e-08 1.199114e-07 -9.939904e-08 9.634871e-08 4.011899e-08 2.771026e-08
6.241323e-08 2.869348e-09 -2.599484e-08 1.025449e-08 2.623887e-09 4.759819e-09
6.121404e-08 8.382814e-09 -2.728618e-08 1.220538e-08 3.647106e-09 3.591051e-09
6.867594e-08 4.234250e-09 -2.622775e-08 1.436691e-08 1.705452e-09 4.764133e-09
6.595219e-08 4.237061e-09 -2.819933e-08 1.420459e-08 1.890241e-09 7.162560e-09
1.910297e-08 8.920308e-08 -8.561637e-08 -1.893562e-08 1.106702e-08 -1.379386e-09
-2.848695e-08 1.503692e-07 -1.023641e-07 6.708509e-09 -2.499950e-17 -1.863276e-09
2.323108e-08 5.269494e-08 -4.809168e-08 -8.581842e-09 -5.104492e-09 7.009441e-09
2.189066e-08 4.363954e-08 -3.870866e-08 -1.174045e-08 -6.411563e-09 1.143193e-08
4.009617e-08 4.168639e-08 -3.881200e-08 -1.145329e-08 -2.965805e-09 6.112293e-09
2.324214e-08 5.590854e-08 -4.851154e-08 -8.349668e-09 -3.537552e-09 7.204880e-09
3.126588e-08 4.359442e-08 -3.864719e-08 -1.174746e-08 -6.570883e-09 8.988435e-09
3.387246e-07 -3.714314e-08 1.048999e-07 3.908850e-07 -3.417654e-09 -2.517171e-08
3.074401e-07 2.280697e-08 -3.667937e-08 3.909781e-07 -7.157681e-08 -5.926263e-08
4.215962e-07 -4.773065e-08 -9.832552e-08 3.450346e-07 2.864865e-09 -2.513458e-08
3.148574e-07 -3.651985e-08 -5.283984e-08 2.895032e-07 -6.414290e-08 -4.337690e-08
-1.123220e-07 2.888761e-07 -1.510077e-07 -3.723717e-08 -6.019059e-08 3.928964e-09
4.344525e-08 1.881384e-08 -1.901689e-08 4.183427e-10 3.535079e-10 1.088556e-10
-7.348238e-08 3.006235e-07 -1.482345e-07 -1.561122e-08 -6.646785e-08 -8.378378e-09
-1.156865e-07 3.221009e-07 -1.308118e-07 -1.433712e-08 -7.945036e-08 -2.666964e-09
-1.288329e-07 3.364128e-07 -1.397517e-07 1.285628e-08 -7.971792e-08 7.093904e-09
1.543515e-07 1.174055e-07 -1.649446e-07 1.626189e-07 -2.919461e-08 -5.771668e-10
1.474272e-07 5.949549e-08 -1.517262e-07 9.498892e-08 -4.216850e-08 -1.968524e-08
1.310388e-07 4.874727e-08 -1.528129e-07 8.170693e-08 -4.931652e-08 -2.821758e-08
2.065911e-07 9.771853e-08 -1.557230e-07 1.425383e-07 -5.816021e-08 -3.897596e-08
2.075533e-07 5.298407e-08 -1.545741e-07 1.467348e-07 -7.311435e-08 -3.468601e-08
3.041254e-07 -1.079204e-07 -1.170997e-08 -9.355144e-08 9.743009e-08 -7.793189e-08
3.092914e-08 3.697485e-08 -3.711636e-08 -1.720379e-08 -9.276126e-09 1.367222e-08
3.178609e-08 4.198310e-08 -4.925166e-08 -2.815621e-08 -1.291319e-08 1.027988e-08
3.725478e-08 4.185580e-08 -4.513981e-08 -2.293933e-08 -5.668201e-09 8.219588e-09
2.670995e-08 3.929208e-08 -4.803815e-08 -2.435617e-08 -1.857444e-08 1.632352e-08
2.675196e-08 4.304626e-08 -3.862748e-08 -6.707759e-09 -2.255606e-09 1.343687e-08
2.709853e-08 3.759386e-08 -4.231190e-08 -1.626355e-08 -5.898095e-09 7.655844e-09
4.556530e-07 -7.910741e-08 -1.395854e-07 -2.412987e-07 4.160239e-08 -5.632026e-08
5.095124e-07 -1.290277e-07 -8.635703e-08 -2.279840e-07 5.773199e-08 -9.214052e-08
5.341228e-07 -1.645942e-07 -9.626788e-08 -2.167416e-07 3.138661e-08 -6.736625e-08
4.550417e-07 -2.594506e-07 -4.355388e-08 -1.210199e-07 2.385996e-08 -8.159864e-08
4.392990e-07 -1.170998e-07 -1.870087e-07 -1.139540e-07 3.487805e-08 -3.110640e-08
4.159271e-07 -1.266768e-07 -1.094000e-07 -1.310956e-07 4.971837e-08 -4.159124e-08
7.024980e-08 -2.053098e-09 -2.554605e-08 2.775580e-09 6.941440e-10 -1.776931e-10
7.025795e-08 -3.752374e-09 -2.717195e-08 5.331891e-09 1.460227e-10 1.081756e-09
7.315506e-08 -2.282738e-09 -2.759887e-08 3.189859e-09 7.164470e-12 9.695174e-10
6.851284e-08 -1.480678e-09 -2.446963e-08 5.965764e-09 2.070796e-09 1.570889e-09
7.479865e-08 -4.045771e-09 -2.476566e-08 6.938004e-09 2.287516e-09 5.594093e-09
7.251273e-08 -5.848027e-09 -2.557960e-08 9.171325e-09 3.586450e-09 4.227110e-09
6.275246e-08 1.113542e-08 -3.487528e-08 -1.867324e-08 -1.408177e-09 2.989279e-09
6.810775e-08 1.013524e-08 -4.038976e-08 -2.492167e-08 -4.054145e-09 1.484032e-09
7.421237e-08 1.003072e-08 -4.685161e-08 -3.274864e-08 -3.863624e-09 6.931362e-09
7.488496e-08 8.436864e-09 -4.303304e-08 -3.169726e-08 -2.045393e-09 8.569277e-09
6.875034e-08 1.037297e-08 -3.905092e-08 -2.597922e-08 -2.377644e-09 7.647986e-09
7.073374e-07 -3.266595e-07 -4.159485e-08 -2.288574e-08 -2.564377e-08 -3.384027e-08
6.266884e-07 -2.495258e-07 -1.553632e-07 -5.394758e-08 -6.186019e-10 -1.399835e-08
5.757013e-07 -2.669322e-07 -1.007229e-07 -7.486240e-08 -2.681603e-10 -2.422716e-08
4.333987e-08 1.991934e-08 -1.982015e-08 1.869628e-09 3.108127e-10 -5.538680e-12
5.351724e-07 -2.009662e-07 -1.137761e-07 -1.153260e-07 1.383716e-08 -1.117848e-07
2.012459e-09 6.154481e-08 -4.713662e-08 -2.937469e-08 8.674410e-08 -4.745679e-08
6.267931e-07 -2.407766e-07 -2.273919e-07 -4.850601e-08 1.718484e-08 1.591715e-08
5.528578e-07 -2.768196e-07 -1.332071e-07 7.159340e-09 -3.354500e-08 1.799321e-08
-7.759323e-08 2.346508e-07 -1.228572e-07 -1.232796e-08 1.925429e-08 -1.589716e-09
-5.499367e-08 1.911553e-07 -1.001112e-07 -1.185680e-08 1.020696e-08 -1.394835e-09
-6.474514e-08 1.877877e-07 -9.772590e-08 -1.777872e-08 1.358654e-08 2.592155e-09
4.014741e-07 -1.118666e-07 4.561903e-07 -5.495386e-07 2.060834e-09 1.725654e-09
1.274855e-07 4.694138e-08 9.197752e-08 -5.109595e-07 3.580957e-08 5.887356e-09
1.429731e-07 -1.656128e-07 4.104262e-07 -6.681700e-07 2.763880e-08 2.309222e-08
1.556271e-07 1.218432e-07 4.712762e-07 -5.846030e-07 4.958967e-08 -7.406280e-08
-2.779998e-08 9.129357e-08 -5.470481e-08 1.917863e-08 4.016986e-08 8.329658e-09
-2.531637e-08 8.279888e-08 -5.058682e-08 4.459200e-09 2.077867e-08 4.990648e-09
-2.000410e-08 8.453063e-08 -3.048589e-08 1.555507e-08 4.358503e-08 1.583629e-08
-1.427525e-08 3.471363e-08 -3.065542e-08 -1.090610e-08 -4.432345e-08 3.397288e-08
-2.353403e-08 9.347477e-08 -5.464509e-08 1.450854e-08 4.116337e-08 9.387567e-09
-2.505282e-08 9.313427e-08 -5.460546e-08 1.692975e-08 3.868529e-08 1.016426e-08
5.753587e-09 7.399808e-08 -4.912906e-08 6.847236e-09 5.046957e-09 4.797126e-09
2.094441e-09 6.549596e-08 -4.391368e-08 3.693209e-09 2.619731e-09 7.449452e-09
1.489522e-09 6.759160e-08 -4.427339e-08 1.246472e-08 1.254463e-08 7.104278e-09
2.975573e-09 5.381496e-08 -3.604137e-08 1.084965e-08 1.206099e-08 1.070059e-08
-3.255666e-09 6.733934e-08 -3.979257e-08 1.844833e-08 1.678193e-08 1.416128e-08
1.025808e-09 6.800480e-08 -5.500727e-08 1.474042e-08 1.464379e-08 9.172721e-09
1.277019e-08 6.969036e-08 -4.708310e-08 2.036227e-08 1.042405e-08 8.338180e-09
-1.263534e-06 -2.100176e-06 5.812031e-06 5.013499e-07 5.615970e-08 1.234994e-06
-1.684457e-07 -1.112102e-06 3.062988e-06 5.548033e-07 5.366984e-07 3.691770e-07
-2.703612e-07 -1.079773e-06 3.358745e-06 6.271731e-07 3.313418e-07 4.254341e-07
-5.588651e-08 2.184541e-07 -9.872767e-08 2.076092e-08 2.233920e-09 -8.152807e-10
-1.103450e-06 -1.080259e-06 4.088615e-06 7.497956e-07 4.553555e-07 7.016101e-07
1.956794e-08 7.156512e-08 -5.433006e-08 -2.444369e-08 -8.851683e-09 1.469559e-08
3.860920e-07 -1.362220e-07 6.750859e-08 -3.486546e-07 -2.683712e-09 -4.172942e-10
2.362417e-09 5.960764e-08 -4.902394e-08 -1.591777e-08 -1.769447e-08 2.288102e-08
-2.992558e-09 7.227779e-08 -5.254764e-08 -1.009008e-09 -5.327658e-09 1.889894e-08
8.951999e-09 9.162130e-08 -6.974883e-08 -1.186879e-08 -8.712416e-09 1.208077e-08
6.905977e-09 7.340584e-08 -6.336894e-08 -4.476140e-09 -3.254661e-09 1.263135e-08
-3.571529e-07 6.010244e-07 2.925788e-07 4.242072e-07 -3.454308e-08 -9.824743e-08
-2.650035e-07 6.118851e-07 -6.292523e-09 1.933711e-07 -8.699580e-08 -3.365350e-08
-2.667700e-07 5.509210e-07 1.706442e-07 2.715446e-07 -4.024197e-08 5.115188e-08
-3.063492e-07 6.143623e-07 1.348120e-07 1.949257e-07 -1.189067e-08 9.696009e-08
-4.917654e-07 6.299318e-07 4.515646e-07 9.883222e-08 -6.879321e-08 -1.996413e-08
-3.712396e-07 6.393679e-07 1.850644e-07 1.420550e-07 -4.216195e-08 -6.176236e-08
7.637515e-08 -7.200098e-09 -2.869524e-08 -4.568036e-09 -8.415126e-10 1.175555e-09
-3.501518e-08 1.263706e-07 -6.961773e-08 -7.148631e-09 1.619633e-08 -3.133967e-09
-4.605030e-08 1.634330e-07 -9.125584e-08 -1.113682e-08 9.370203e-09 -6.285609e-09
-3.661930e-08 1.378587e-07 -8.012987e-08 -1.009058e-08 4.292383e-09 -6.059300e-09
-4.189838e-08 1.617033e-07 -8.693436e-08 -9.654960e-09 1.056935e-08 -2.027509e-09
-3.892262e-08 1.410661e-07 -8.146476e-08 -8.352257e-09 6.383093e-09 2.944694e-09
-1.258273e-06 -3.825989e-07 3.939754e-06 4.815471e-07 -7.391947e-07 -2.403066e-07
-1.301274e-06 1.991764e-08 2.722172e-06 1.078293e-07 -4.627743e-07 -2.071098e-07
4.061824e-08 2.185175e-08 -1.945928e-08 6.116219e-10 2.119791e-10 -2.202709e-10
-1.194537e-06 2.184786e-07 2.239647e-06 2.755259e-07 -6.686951e-07 -2.251757e-07
-1.097658e-06 -1.912867e-07 3.138609e-06 6.640297e-07 -9.605751e-07 -5.707037e-07
1.207623e-07 4.490037e-08 -1.002643e-07 1.319176e-07 -1.074216e-07 -9.489480e-08
2.156476e-07 4.488443e-08 -1.230786e-07 1.830029e-07 -1.074666e-07 -9.166395e-08
1.688323e-07 1.485745e-09 -1.320179e-07 1.756689e-07 -7.776030e-08 -5.939612e-08
2.395883e-07 -5.382820e-08 -1.300212e-07 1.641224e-07 -7.180219e-08 -7.204654e-08
5.704473e-07 -4.355055e-07 5.921910e-07 3.771611e-07 7.658904e-08 -4.450721e-08
1.401732e-07 3.062843e-08 -7.160957e-08 1.411946e-07 -8.505330e-08 -6.917406e-08
-8.481604e-08 2.897449e-07 -1.449777e-07 2.731429e-08 -1.228940e-08 -2.179215e-09
-1.264157e-07 3.583882e-07 -1.584242e-07 2.435362e-08 -2.657329e-08 -4.452974e-09
-1.183748e-07 3.299086e-07 -1.374587e-07 4.608425e-08 -8.283515e-08 -5.397155e-09
-1.091623e-07 3.710746e-07 -1.600007e-07 8.684372e-09 -3.437486e-08 1.524260e-09
-7.201435e-08 2.934590e-07 -1.454224e-07 2.035124e-08 -1.495251e-08 2.042757e-09
9.197543e-08 -1.678832e-08 -3.189499e-08 7.211332e-09 1.771937e-09 3.932770e-09
8.641227e-08 -1.436938e-08 -3.260653e-08 1.017648e-08 1.033306e-09 4.156978e-09
8.585607e-08 -1.421951e-08 -3.357608e-08 9.453251e-09 2.043509e-09 4.892333e-09
8.047990e-08 -1.081588e-08 -3.039104e-08 7.953749e-09 1.308212e-09 3.309929e-09
9.051709e-08 -1.617551e-08 -3.306492e-08 8.706939e-09 2.159497e-09 7.567253e-09
7.401355e-08 -4.093916e-09 -2.830692e-08 -4.040629e-09 1.043939e-09 5.065655e-10
8.219540e-08 -1.435767e-08 -3.072869e-08 7.425197e-09 1.663382e-09 6.405044e-09
5.695430e-08 6.006262e-09 -2.054800e-08 -2.116413e-09 -5.401763e-10 1.468461e-10
5.935611e-08 6.144095e-09 -2.216281e-08 -2.713795e-09 -7.203373e-10 3.779756e-10
5.923358e-08 6.297261e-09 -2.190029e-08 -3.003505e-09 -5.186702e-10 4.137827e-11
6.120782e-08 5.208296e-09 -2.230335e-08 -3.837057e-09 -3.479456e-10 1.730760e-09
6.071383e-08 5.161003e-09 -2.120406e-08 -1.416136e-09 -9.481902e-10 -2.218615e-10
5.918772e-08 5.438265e-09 -2.276746e-08 -3.060957e-09 -1.713861e-09 -6.742095e-11
5.713640e-08 6.100370e-09 -2.149513e-08 -1.985469e-09 -8.990528e-10 -3.678303e-10
1.073675e-08 3.724978e-08 -2.843180e-08 1.338790e-08 1.999554e-08 1.459357e-08
4.786637e-09 4.853566e-08 -3.587224e-08 1.501797e-08 1.578671e-08 1.135645e-08
9.048217e-09 6.087088e-08 -3.364124e-08 2.243498e-08 2.104901e-08 1.446805e-08
1.303305e-08 5.529884e-08 -3.392769e-08 2.588370e-08 1.948578e-08 1.447080e-08
2.613884e-09 4.213725e-08 -2.614675e-08 1.123541e-08 2.276383e-08 1.493075e-08
2.167207e-09 3.972131e-08 -2.275002e-08 1.359832e-08 2.404453e-08 1.643469e-08
-5.767927e-07 3.751932e-07 9.592674e-07 6.090321e-07 1.507446e-07 1.462806e-07
-5.498313e-07 5.497137e-07 9.187597e-07 5.070122e-07 9.796339e-08 -6.994309e-09
-5.879179e-07 5.818092e-07 8.616862e-07 3.014787e-07 8.917768e-08 9.353848e-08
-4.061126e-07 5.937772e-07 6.838692e-07 3.435040e-07 -1.250258e-07 6.334407e-08
-2.162980e-07 4.044643e-07 3.442687e-07 4.956162e-07 5.725372e-08 -8.644264e-09
-2.190062e-07 3.583896e-07 3.161065e-07 5.072669e-07 3.707248e-08 1.126094e-08
-2.899752e-07 6.241150e-07 2.797746e-07 4.237905e-07 8.331994e-09 3.778958e-08
5.077662e-07 -4.468091e-07 6.084662e-07 3.946218e-07 -9.448813e-08 -1.181476e-07
4.475841e-08 2.644955e-08 -3.464483e-08 -1.484211e-08 -1.008828e-09 6.032137e-09
4.257703e-08 2.219715e-08 -2.693078e-08 -8.077308e-09 -1.287933e-09 9.655549e-10
4.829021e-08 2.300572e-08 -3.023337e-08 -9.830795e-09 -2.573126e-09 2.226583e-09
4.701472e-08 2.296873e-08 -3.533204e-08 -1.537372e-08 5.230580e-11 1.508622e-09
4.456547e-08 2.179948e-08 -2.924328e-08 -7.827821e-09 3.221162e-10 9.826028e-10
4.243193e-08 2.245611e-08 -2.996560e-08 -8.078607e-09 2.495069e-10 2.286334e-09
3.862792e-08 5.501324e-08 -5.142855e-08 4.484224e-08 1.274341e-08 8.314275e-09
3.379579e-08 5.515182e-08 -5.755978e-08 4.581784e-08 7.334350e-09 -9.258693e-10
3.058984e-08 4.858915e-08 -4.456138e-08 2.994099e-08 4.195910e-09 -1.648115e-09
3.592396e-08 4.521405e-08 -4.037239e-08 3.094725e-08 4.738637e-09 3.098541e-09
9.799713e-09 9.740657e-08 -6.676815e-08 5.559961e-08 1.022785e-08 9.419593e-09
2.212117e-09 9.050455e-08 -6.751601e-08 3.883183e-08 1.981098e-08 1.010832e-08
9.631791e-09 8.908807e-08 -6.823484e-08 4.300800e-08 6.699749e-09 4.827876e-09
6.118127e-09 9.236928e-08 -6.585121e-08 3.969001e-08 3.064490e-09 5.143589e-09
-3.026896e-09 1.000675e-07 -7.148245e-08 4.022700e-08 8.674216e-09 -7.002869e-10
-3.928611e-08 1.869849e-07 -1.257191e-07 4.767370e-08 -8.431227e-09 -1.004919e-08
-3.775516e-08 1.726171e-07 -1.192275e-07 2.970334e-08 -2.862044e-08 -1.283793e-08
-3.699486e-08 1.877826e-07 -1.170470e-07 4.252286e-08 -3.523058e-08 -1.576857e-08
-2.753966e-08 1.559580e-07 -1.098811e-07 2.730386e-08 -2.486952e-08 -1.281289e-08
-1.134174e-06 -1.421854e-06 4.883542e-06 6.267830e-07 -2.305576e-07 2.390997e-07
-2.304747e-08 1.557464e-07 -1.087011e-07 3.144218e-08 -5.610356e-09 -1.044848e-08
-2.683780e-08 1.592661e-07 -1.048561e-07 3.012292e-08 -9.485002e-09 -1.033831e-08
4.199779e-07 -2.369598e-07 6.059578e-08 2.493282e-08 -1.758867e-08 1.512152e-08
2.177119e-08 -1.176055e-07 -2.490007e-08 6.936521e-08 -3.838523e-08 -1.053487e-07
4.515311e-07 -2.065994e-07 -2.333706e-08 1.727668e-07 -5.235621e-08 1.355275e-08
4.479900e-07 -1.115494e-07 -8.729435e-08 2.154735e-07 -6.620709e-08 -1.149014e-07
5.079470e-07 -2.061540e-07 8.005759e-08 1.513838e-07 -2.644746e-08 -6.332317e-08
3.867077e-07 -1.727398e-07 -4.833350e-08 1.657911e-07 -4.060391e-08 -3.644698e-08
5.124509e-07 -2.642348e-07 -4.867597e-08 1.411682e-07 -4.673905e-08 -4.111829e-08
-2.525823e-07 -1.755885e-06 4.316959e-06 1.981093e-07 1.092804e-07 5.653658e-07
1.306073e-08 7.720607e-08 -5.532048e-08 3.382046e-08 1.024657e-08 7.553212e-09
-1.851231e-06 -1.205747e-06 5.424037e-06 4.956831e-07 1.415138e-07 1.305109e-07
1.773947e-09 9.759434e-08 -7.127016e-08 4.261520e-08 2.052674e-08 1.355653e-08
9.986948e-09 8.302006e-08 -5.642393e-08 3.794924e-08 1.311470e-08 1.347905e-08
5.376698e-09 8.768019e-08 -5.499386e-08 2.835659e-08 1.331952e-08 7.636532e-09
1.625621e-09 7.710659e-08 -5.341531e-08 1.707709e-08 9.478525e-09 7.856395e-09
-2.479918e-09 9.646780e-08 -6.416840e-08 3.426758e-08 7.206897e-09 5.947387e-09
1.196245e-07 -2.315741e-08 -5.109052e-08 -1.695504e-08 2.639333e-09 8.968312e-09
1.167991e-07 -2.218204e-08 -5.502469e-08 -1.912880e-08 1.409936e-09 5.222811e-09
9.917002e-08 -1.561125e-08 -4.176541e-08 -1.493749e-08 6.628201e-10 2.330631e-09
1.022997e-07 -1.750441e-08 -4.444871e-08 -1.250997e-08 -2.537675e-09 5.072862e-09
6.900865e-08 1.259595e-09 -2.827579e-08 -1.101905e-08 -2.283468e-09 2.041776e-09
7.269513e-08 -9.402151e-10 -3.299264e-08 -1.249070e-08 -2.524849e-09 1.187038e-09
6.235710e-08 5.872167e-09 -2.445524e-08 -7.392631e-09 -6.062582e-10 8.755182e-10
6.170732e-08 5.386884e-09 -2.623820e-08 -9.469945e-09 -1.834322e-09 1.389489e-09
6.359752e-08 4.414125e-09 -2.529241e-08 -6.619366e-09 -9.113057e-10 -5.205788e-10
6.654001e-08 3.009156e-09 -2.916993e-08 -1.133256e-08 -1.355523e-09 -4.574344e-10
6.539064e-08 4.332688e-09 -2.957858e-08 -1.117762e-08 -2.102800e-09 4.398237e-10
4.514212e-07 -5.611352e-08 -1.333310e-07 1.964073e-07 -7.895988e-08 -6.634805e-08
4.576563e-07 -7.532652e-08 -1.560322e-07 2.021924e-07 -5.807446e-08 -7.277199e-08
3.437016e-07 -3.518421e-10 -1.898056e-07 1.466063e-07 -9.055102e-09 1.445440e-08
4.098375e-07 -8.641157e-08 -1.249551e-07 2.302271e-07 -1.574736e-09 5.054328e-09
2.968421e-07 -2.119723e-08 -1.559688e-07 1.912224e-07 -8.402862e-08 -3.960289e-08
3.196702e-07 1.224063e-09 -1.548984e-07 1.680248e-07 -6.648166e-08 -6.161084e-08
4.330098e-08 1.830960e-08 -1.982015e-08 2.149332e-09 -6.985079e-11 3.104184e-11
3.716508e-08 2.545439e-08 -1.975666e-08 1.416488e-09 3.307308e-10 -2.976884e-10
3.789602e-07 -3.746393e-08 -1.035971e-07 2.235528e-07 -4.130916e-08 -8.139450e-09
-1.242430e-08 1.706355e-07 -1.010786e-07 9.247714e-08 4.114189e-08 2.032902e-08
-4.646300e-09 1.565038e-07 -1.042733e-07 1.025102e-07 5.103285e-08 2.076019e-08
3.671147e-09 1.506823e-07 -1.094339e-07 1.051713e-07 4.451396e-08 1.922392e-08
5.764348e-09 1.279480e-07 -8.904990e-08 8.599177e-08 3.027152e-08 1.861300e-08
-6.507366e-08 2.981428e-07 -1.187733e-07 1.236192e-07 6.421436e-08 2.061061e-08
-3.301998e-08 2.154567e-07 -1.117083e-07 8.794630e-08 2.178374e-08 1.244139e-08
-6.229456e-08 2.336841e-07 -1.236534e-07 9.443863e-08 2.118390e-08 5.971001e-09
-5.059176e-08 2.234710e-07 -1.202154e-07 8.938201e-08 2.607512e-08 -6.693516e-10
7.371562e-08 -4.379522e-09 -2.702317e-08 -1.688975e-09 -1.002721e-09 1.990958e-11
-4.288859e-10 8.613403e-08 -7.790129e-08 3.380849e-08 -6.167359e-08 -3.476537e-08
4.340049e-08 1.935847e-08 -1.936704e-08 9.163994e-10 1.321252e-10 -4.390090e-11
2.476238e-08 8.591551e-08 -8.747187e-08 2.691763e-08 -5.289629e-08 -2.001980e-08
1.903812e-08 9.616129e-08 -7.746894e-08 3.154137e-08 -6.361992e-08 -2.794719e-08
2.484690e-08 5.471487e-08 -9.070736e-08 2.180623e-08 -6.702911e-08 -2.404356e-08
1.322332e-08 8.627712e-08 -1.025993e-07 5.726730e-08 -8.063957e-08 -4.589641e-08
1.668283e-08 1.097795e-07 -1.029540e-07 6.954912e-08 -6.790510e-08 -4.387465e-08
-2.617210e-06 -2.559860e-06 9.907338e-06 3.160511e-08 3.849704e-07 -1.021116e-07
-4.386095e-08 1.552009e-07 -8.488068e-08 1.302327e-09 2.896155e-08 -1.136152e-09
-3.765264e-08 1.312223e-07 -7.145762e-08 -2.620523e-09 1.803919e-08 -5.104142e-10
-2.099690e-06 -2.131241e-06 7.038460e-06 1.869876e-07 1.268500e-07 2.272844e-07
-4.959184e-08 1.606374e-07 -9.862076e-08 -5.058699e-09 1.832686e-08 -1.093090e-09
-4.181081e-08 1.587450e-07 -8.366794e-08 -7.942559e-09 2.534848e-08 -3.878245e-09
-4.186908e-08 1.406551e-07 -8.181282e-08 -7.213568e-09 2.065405e-08 -2.737432e-09
7.777298e-08 1.098707e-07 -1.440872e-07 6.050459e-08 -1.494923e-08 -3.997086e-10
7.134682e-08 9.253682e-08 -1.396665e-07 5.872391e-08 -3.929252e-08 -1.992725e-08
7.784867e-08 9.786602e-08 -1.310679e-07 6.476079e-08 -3.217580e-08 -1.241753e-08
1.249383e-07 1.047006e-07 -1.610559e-07 9.453096e-08 -2.471142e-08 -2.182777e-09
-2.362906e-06 -1.976578e-06 7.531300e-06 8.552716e-08 1.960698e-07 7.872380e-08
4.713997e-08 1.089922e-07 -1.342995e-07 7.542753e-08 -4.616032e-08 -2.398400e-08
6.857276e-08 1.136019e-07 -1.205524e-07 6.292672e-08 -3.100412e-08 -1.559940e-08
3.293153e-08 7.314323e-08 -6.094276e-08 5.571415e-08 1.684421e-08 9.553844e-09
2.382591e-08 7.696259e-08 -7.567983e-08 5.140190e-08 1.296062e-08 3.996638e-09
1.496542e-08 6.787307e-08 -5.931538e-08 3.960117e-08 1.285591e-08 9.461778e-09
2.476167e-08 6.695488e-08 -5.929997e-08 3.533333e-08 1.134601e-08 1.104795e-08
-4.396109e-09 1.221238e-07 -1.003585e-07 4.254722e-08 -2.059457e-08 -1.558156e-08
-5.203469e-09 1.217354e-07 -1.115360e-07 4.193748e-08 -1.161391e-08 -6.909036e-09
-6.252811e-09 1.280540e-07 -1.068553e-07 3.894880e-08 -5.925013e-09 -8.557443e-09
-4.722700e-09 1.136686e-07 -8.955426e-08 1.869990e-08 -3.394866e-09 -5.654900e-09
-1.217537e-08 1.139519e-07 -7.834010e-08 2.037002e-08 -1.028191e-08 -5.621877e-09
-3.803899e-09 1.069507e-07 -8.000163e-08 2.114915e-08 -1.471130e-08 -8.235242e-09
-1.228377e-08 1.146846e-07 -8.489592e-08 2.033049e-08 -5.610825e-09 -7.877764e-09
-2.429317e-08 1.203760e-07 -6.816510e-08 1.797766e-08 7.991056e-09 5.924784e-09
-2.530918e-08 1.115023e-07 -6.446151e-08 2.403169e-08 1.479980e-08 3.133427e-09
-3.281894e-08 1.424098e-07 -9.212641e-08 3.706102e-08 2.777672e-08 4.863394e-09
-2.065367e-08 1.324099e-07 -8.542578e-08 3.471197e-08 3.360097e-09 6.926993e-09
-1.941276e-08 1.382297e-07 -7.569401e-08 3.436320e-08 2.095547e-08 7.611125e-09
-2.318654e-08 1.377627e-07 -8.448118e-08 3.293079e-08 2.335594e-08 1.349031e-08
-3.539873e-08 1.549809e-07 -8.059266e-08 2.617181e-08 2.622354e-08 3.434069e-09
5.521180e-07 -3.716276e-07 2.335189e-07 1.051463e-07 1.507005e-08 5.378730e-08
5.561814e-07 -2.956374e-07 9.935495e-08 1.271413e-07 -2.555860e-08 2.308045e-08
5.811721e-07 -2.243591e-07 -2.796521e-08 1.702628e-07 3.764171e-08 4.713450e-08
6.130473e-07 -2.555703e-07 -5.542849e-08 2.122885e-08 5.813819e-09 4.974165e-09
1.069892e-07 -2.359511e-08 -4.202431e-08 -3.699689e-09 1.980145e-09 7.902625e-09
1.017284e-07 -2.207848e-08 -3.702582e-08 -4.363507e-09 -6.283941e-10 4.942714e-09
9.637204e-08 -1.512224e-08 -4.076476e-08 -1.749985e-08 -2.416266e-10 3.767515e-09
9.213561e-08 -1.016862e-08 -3.913244e-08 -1.622763e-08 6.417049e-10 3.064409e-09
1.044588e-07 -1.640722e-08 -5.204234e-08 -2.326140e-08 9.528994e-10 6.875527e-09
6.966280e-09 4.970263e-08 -2.977316e-08 -3.028560e-09 -4.028380e-09 1.414670e-08
7.243023e-09 5.573182e-08 -4.444745e-08 9.958903e-10 -6.449782e-09 1.647707e-08
5.186576e-09 7.580206e-08 -5.193012e-08 -2.788976e-08 -2.739729e-08 2.280505e-08
-1.467960e-09 7.004193e-08 -5.151261e-08 -1.145369e-08 -2.014524e-08 2.602653e-08
4.524497e-10 4.660119e-08 -3.165203e-08 1.945469e-09 -6.869283e-09 1.767400e-08
7.265749e-09 6.904418e-08 -4.663776e-08 -7.063670e-09 -1.208785e-08 1.517510e-08
2.169889e-08 3.880127e-08 -2.482373e-08 -8.723288e-09 -8.484407e-09 1.167619e-08
-3.121092e-08 6.196070e-08 -3.989219e-08 -1.183255e-08 -1.506699e-08 -1.942598e-08
-1.654406e-08 6.623252e-08 -3.475520e-08 4.108090e-09 -4.042956e-09 -3.704116e-09
-3.297150e-08 8.640530e-08 -4.043612e-08 5.336865e-09 -3.684792e-08 -1.592799e-08
-4.154987e-08 1.109558e-07 -7.245015e-08 -6.492020e-09 -3.877050e-08 -1.917952e-08
-3.210353e-08 1.134791e-07 -7.252859e-08 1.267738e-08 -3.242179e-08 -1.770340e-08
-3.365053e-08 8.900879e-08 -7.312317e-08 4.731298e-09 -3.487338e-08 -2.168136e-08
-7.813118e-09 8.418907e-08 -4.998738e-08 -8.906988e-09 5.158834e-09 -1.207080e-09
-1.479504e-08 6.878154e-08 -3.744969e-08 -3.781366e-09 1.008702e-08 -4.935252e-09
-1.204791e-08 8.227845e-08 -4.996795e-08 -9.925101e-09 1.221728e-08 -8.843672e-09
-1.011894e-08 7.164288e-08 -4.866943e-08 -9.428927e-09 1.355251e-08 -1.059774e-08
-1.187416e-08 8.607580e-08 -4.875281e-08 -8.752581e-09 7.753671e-09 -4.078308e-09
4.633749e-08 2.860777e-07 -9.622772e-08 -2.966808e-07 1.188816e-08 -1.083899e-09
9.323020e-10 2.177124e-07 -7.558064e-08 -2.406654e-07 4.640381e-08 -3.155563e-08
-4.697227e-08 3.138673e-07 -8.277432e-08 -2.462096e-07 8.043054e-08 -2.880182e-08
8.326260e-09 2.486608e-07 -1.246247e-07 -2.067114e-07 7.500338e-08 -4.327884e-08
1.498335e-07 -1.743801e-08 -9.675230e-08 -6.952880e-08 -1.851108e-09 1.881649e-08
2.185948e-08 -6.256139e-08 -2.392279e-08 -3.256729e-09 -5.292472e-08 -6.961077e-08
1.114941e-07 -4.227801e-09 -6.571533e-08 -6.166988e-08 -4.414423e-09 1.363196e-08
-2.138811e-08 6.478343e-08 -3.386809e-08 -8.532374e-10 -1.046459e-08 -6.110625e-09
1.221184e-07 -4.929441e-09 -7.285927e-08 -5.702922e-08 -9.595512e-10 1.097337e-08
1.454694e-07 -1.246735e-08 -9.371806e-08 -7.692573e-08 2.083898e-09 1.184567e-08
-4.966026e-08 2.152946e-07 -1.362061e-07 -4.739624e-08 -1.274044e-08 1.161647e-08
-4.741299e-08 1.975320e-07 -1.325065e-07 -5.798025e-08 -4.355702e-08 7.874062e-09
-3.012700e-08 1.693730e-07 -1.002186e-07 -2.227914e-08 -2.019913e-08 1.495387e-08
-2.416809e-08 1.920236e-07 -1.085905e-07 -5.686848e-08 -3.763781e-08 1.407257e-08
-2.891763e-08 1.878905e-07 -1.248040e-07 -6.279369e-08 -1.027206e-08 1.438177e-08
-3.156887e-08 1.926335e-07 -1.186693e-07 -5.547879e-08 -3.984787e-08 2.286191e-08
-2.282530e-08 1.363118e-07 -1.054319e-07 -3.658324e-08 -3.335612e-08 5.663103e-09
-4.567289e-09 8.509509e-08 -7.071432e-08 -1.264241e-08 9.523123e-09 -4.304507e-09
-9.549528e-09 9.365841e-08 -6.204216e-08 -1.843981e-08 3.843019e-09 -1.560236e-09
-1.404759e-08 7.703323e-08 -4.882574e-08 -3.438503e-09 8.568773e-09 -4.534512e-09
-2.402869e-06 -2.561916e-06 9.708474e-06 -2.778330e-08 4.063589e-07 3.020240e-07
-4.270725e-09 8.284230e-08 -6.528506e-08 -1.282872e-08 1.567050e-08 -6.855966e-09
-6.741450e-09 8.946337e-08 -6.180383e-08 -1.416678e-08 3.278044e-09 -2.344197e-09
1.818727e-07 -3.506527e-08 -1.038805e-07 -7.203686e-08 -1.080281e-09 1.350391e-08
1.462146e-07 -2.892954e-08 -7.449704e-08 -4.278616e-08 -1.322842e-08 2.071204e-08
1.832092e-07 -3.310800e-08 -8.797958e-08 -5.786879e-08 -2.781926e-09 1.581458e-08
1.510400e-07 -3.604033e-08 -8.139308e-08 -4.811414e-08 -5.412037e-09 2.270165e-08
3.085877e-09 4.563687e-08 -2.435086e-08 8.469371e-09 1.746634e-08 1.101275e-08
1.480531e-08 4.829586e-08 -3.222688e-08 1.190202e-08 7.772514e-09 8.398219e-09
1.023975e-08 4.579267e-08 -2.491977e-08 1.192304e-09 2.675577e-09 6.762697e-09
1.376845e-08 4.422113e-08 -2.435784e-08 9.775902e-09 5.152034e-09 7.863250e-09
8.009375e-09 4.757399e-08 -2.396148e-08 8.619700e-09 7.880371e-09 6.470571e-09
6.741279e-09 4.911308e-08 -2.242829e-08 1.392032e-08 1.494263e-08 1.354468e-08
1.397704e-08 3.956333e-08 -2.598947e-08 9.197364e-09 8.321931e-09 7.873022e-09
4.745978e-08 8.434261e-08 -9.546456e-08 -8.562062e-08 -1.439881e-08 5.010087e-10
3.859404e-08 7.375420e-08 -7.566426e-08 -5.605746e-08 -9.315839e-09 -6.824790e-10
3.745731e-08 8.875325e-08 -1.039000e-07 -8.006858e-08 -1.866893e-08 9.739942e-09
2.495638e-08 7.904514e-08 -8.155668e-08 -6.389830e-08 -8.211545e-09 5.878757e-09
3.805802e-08 7.565655e-08 -8.263086e-08 -5.477448e-08 -1.726252e-08 1.847939e-08
1.581165e-08 6.347341e-08 -5.226170e-08 -1.580068e-08 -9.072740e-09 1.156147e-08
1.668884e-08 5.489858e-08 -5.491206e-08 -2.046111e-08 -1.410222e-08 1.697963e-08
-2.892652e-06 -2.656601e-06 7.154764e-06 2.399333e-08 7.772535e-07 1.454481e-06
1.654536e-08 6.732293e-08 -6.357173e-08 -3.116719e-08 -1.596972e-08 2.329811e-08
-1.799074e-06 -2.534192e-06 8.768777e-06 3.500066e-08 -7.537378e-08 -9.213186e-07
9.577729e-08 -1.897117e-08 -3.965774e-08 -7.792921e-09 -2.268541e-09 7.694528e-09
1.020179e-07 -2.086288e-08 -3.931225e-08 -4.835717e-09 -2.419167e-10 9.755143e-09
1.090290e-07 -2.100528e-08 -3.768890e-08 -6.816810e-09 -1.877349e-09 1.099175e-08
9.886172e-08 -1.761162e-08 -3.672534e-08 -9.725290e-09 -3.495669e-09 1.199621e-08
9.263985e-08 -1.623161e-08 -2.861436e-08 -7.167038e-09 -4.368601e-09 9.366795e-09
1.029384e-07 -2.067282e-08 -4.124812e-08 -6.272359e-09 -1.623558e-09 1.652637e-08
8.311678e-08 -1.057973e-08 -3.049911e-08 -9.868666e-09 -2.715081e-09 1.082528e-08
5.033732e-08 1.242378e-08 -2.002108e-08 -1.057434e-09 1.386792e-10 4.335377e-11
9.092489e-08 -1.239047e-08 -3.353474e-08 -1.067600e-08 -5.065099e-09 9.435950e-09
9.285243e-08 -1.482443e-08 -3.630866e-08 -8.506083e-09 -2.434298e-09 7.609135e-09
8.743718e-08 -1.429922e-08 -3.630913e-08 -1.039947e-08 -2.454892e-09 7.808514e-09
5.030127e-08 1.260304e-08 -2.000507e-08 -4.205800e-10 -1.843725e-11 2.944653e-10
9.522911e-08 -1.783697e-08 -3.941258e-08 -1.065730e-08 -2.669221e-09 1.513802e-08
4.989075e-08 1.362418e-08 -2.034667e-08 -6.359802e-10 5.815259e-11 6.135341e-10
3.792602e-07 -5.013050e-08 -1.430716e-07 -1.645915e-07 6.293471e-08 -9.028463e-08
2.501065e-07 -4.995295e-08 -8.218254e-08 -1.584171e-07 6.763083e-08 -7.453441e-08
5.181430e-07 -1.774754e-07 9.074322e-09 -2.077310e-07 4.963409e-09 -1.895146e-08
3.351887e-07 -2.028799e-07 -2.942470e-08 -1.249188e-07 1.115659e-08 -2.200282e-08
3.283547e-07 -1.339005e-07 -1.065550e-07 -1.870241e-07 4.673090e-08 -2.717669e-08
5.086949e-07 -2.022504e-07 3.975770e-08 -1.354720e-07 1.952419e-08 -1.502980e-07
1.966176e-07 -6.412533e-08 -1.140868e-08 -2.420044e-07 9.400668e-08 -1.186297e-07
1.924596e-07 5.294002e-08 -1.408848e-07 1.154061e-07 -7.940263e-08 -5.203357e-08
1.215207e-07 1.387603e-07 -1.273762e-07 1.675484e-07 -7.111902e-08 -3.751023e-08
1.300926e-07 7.900275e-08 -1.208368e-07 1.342941e-07 -9.509515e-08 -7.177042e-08
1.796044e-07 -3.763256e-08 -7.805911e-08 -1.401907e-08 -3.674463e-10 6.943322e-09
1.436322e-07 4.477325e-08 -9.754738e-08 1.537492e-07 -1.336181e-07 -1.097305e-07
4.516232e-08 1.838422e-08 -2.033897e-08 -4.356755e-09 -1.614319e-09 1.654455e-09
9.601664e-08 5.292913e-08 -1.400313e-07 1.372268e-07 -7.792410e-08 -4.963128e-08
2.135134e-07 1.033492e-07 -1.407190e-07 2.160574e-07 -7.157421e-08 -4.262872e-08
3.969868e-08 2.364336e-08 -2.468156e-08 8.579843e-09 -9.397221e-11 4.249258e-10
3.876213e-08 2.415557e-08 -2.113329e-08 4.497661e-09 8.345555e-10 2.560370e-10
2.324171e-07 -5.401826e-08 -9.578684e-08 -9.258061e-09 -7.498738e-10 1.058473e-08
3.983235e-08 2.162132e-08 -2.132307e-08 5.757004e-09 -3.970826e-10 1.200584e-09
4.119942e-08 2.211955e-08 -2.299852e-08 4.847465e-09 -4.742522e-10 6.379167e-10
4.174501e-08 2.364831e-08 -2.470086e-08 7.767061e-09 -9.186388e-11 1.707759e-09
-4.145151e-07 5.164405e-07 3.413448e-07 2.554275e-07 8.262434e-08 -3.956781e-09
-1.966630e-07 4.891367e-07 1.357191e-07 3.445292e-07 4.964607e-08 2.692530e-08
-4.700654e-07 4.993213e-07 5.698816e-07 3.102473e-07 1.418452e-08 -6.477091e-08
-3.166339e-07 5.015357e-07 3.914625e-07 3.421667e-07 -2.657556e-08 -1.186400e-07
-2.756183e-07 3.514295e-07 3.745326e-07 5.980236e-07 -1.053957e-09 -4.037850e-08
-3.298312e-07 3.493874e-07 9.644847e-07 5.639387e-07 1.770418e-07 9.010893e-08
-4.057890e-07 -4.993059e-09 1.816229e-06 7.486583e-07 1.376578e-07 4.556407e-08
-4.467163e-07 1.554423e-07 1.453179e-06 7.145027e-07 -1.645113e-09 2.279571e-07
-6.073424e-08 1.873321e-07 5.407911e-07 6.390143e-07 -3.390980e-08 1.815700e-07
5.299698e-08 4.451331e-08 -5.678697e-08 5.219604e-08 8.614132e-09 6.979525e-09
5.006876e-08 4.447598e-08 -6.365978e-08 5.313810e-08 1.120814e-08 1.635640e-09
6.251407e-08 5.102934e-08 -8.053372e-08 8.005456e-08 1.137166e-08 2.108273e-09
8.132076e-08 4.662663e-08 -7.698895e-08 8.028650e-08 1.431107e-08 1.213378e-08
1.261044e-08 1.168878e-07 -9.347149e-08 -4.600359e-08 -2.511450e-08 1.560343e-08
4.000105e-09 1.179496e-07 -9.431523e-08 -5.732960e-08 -6.635544e-09 8.525747e-09
7.108946e-09 1.322909e-07 -1.125259e-07 -7.243797e-08 -2.285419e-08 1.692693e-08
3.209151e-09 1.107481e-07 -9.394175e-08 -5.887628e-08 -2.758600e-08 1.345923e-08
-1.296116e-08 1.672219e-07 -1.136306e-07 -7.056236e-08 -4.789926e-08 2.568061e-08
-1.085832e-07 3.465381e-07 -1.509115e-07 7.478614e-08 -2.012952e-08 -1.912932e-09
-1.712032e-07 4.448226e-07 -1.244665e-07 8.937160e-08 -6.493474e-09 -6.222175e-09
5.814823e-07 -2.896315e-07 8.397109e-08 3.540046e-08 2.561980e-08 -1.181816e-07
3.703531e-07 -1.460800e-07 -1.176950e-07 1.044269e-07 -6.042201e-08 -1.076455e-07
4.094856e-07 -1.878654e-07 -6.545259e-08 -3.267946e-08 -2.163529e-08 -7.948006e-08
5.655829e-07 -2.061566e-07 -6.066544e-08 1.511743e-07 -2.704329e-08 -1.163688e-07
4.948088e-07 -2.124425e-07 -6.946870e-08 6.788871e-08 -2.126550e-08 1.617994e-08
4.784837e-07 -1.641063e-07 -6.013697e-08 8.906739e-08 -4.472825e-08 -1.358125e-09
3.676299e-07 -1.515796e-07 -5.443942e-08 9.621358e-08 3.497763e-10 -7.210370e-08
4.277984e-07 -2.890238e-07 -1.313941e-09 2.149720e-08 4.362285e-08 1.016487e-08
4.240309e-07 -2.058825e-07 -6.123812e-08 1.390905e-07 -1.133655e-08 -2.953755e-08
3.689101e-09 1.012004e-07 -7.815354e-08 -3.280295e-08 -1.584262e-08 1.454520e-08
1.074776e-08 1.040938e-07 -9.932658e-08 -5.850009e-08 -1.887091e-08 1.131127e-08
1.143308e-08 1.308754e-07 -1.028057e-07 -7.279050e-08 -1.829628e-08 7.687298e-09
2.036556e-08 9.450688e-08 -7.569685e-08 -5.068124e-08 -1.630355e-08 1.307089e-08
3.877899e-09 9.176463e-08 -7.480025e-08 -2.695849e-08 -5.123011e-09 7.932941e-09
6.522189e-09 1.050577e-07 -8.707793e-08 -3.626820e-08 -1.027558e-08 4.103419e-09
1.039911e-08 8.647113e-08 -7.576067e-08 -3.695451e-08 -1.513029e-08 1.227045e-08
5.406514e-07 -1.913530e-07 8.684451e-08 2.982424e-07 -5.291489e-08 -7.515016e-08
4.392220e-07 -1.071873e-07 -5.340094e-08 3.062815e-07 5.730616e-09 2.069347e-08
4.346390e-07 -1.969885e-07 2.164486e-07 4.348001e-07 -3.927103e-09 7.178572e-08
1.500090e-08 5.346271e-08 -3.887619e-08 -9.170530e-09 -4.744893e-09 1.598422e-08
1.143111e-08 4.924678e-08 -2.828491e-08 -3.669021e-09 -9.835875e-09 1.373960e-08
1.806518e-08 4.376069e-08 -3.853727e-08 -1.141240e-08 -1.158549e-08 1.620385e-08
2.084121e-08 3.898323e-08 -2.428544e-08 -8.471760e-09 -8.170646e-09 1.205246e-08
2.215134e-08 4.022068e-08 -3.832900e-08 -9.783067e-09 -9.044319e-09 1.189911e-08
1.982639e-08 4.011536e-08 -2.736163e-08 -2.463122e-09 -1.866343e-09 9.900733e-09
1.149497e-08 4.544416e-08 -2.478572e-08 -7.815057e-09 -1.150958e-08 1.632304e-08
1.702575e-08 3.588877e-08 -2.695560e-08 -2.709940e-09 -5.305610e-09 1.051251e-08
2.523428e-07 4.585623e-08 -1.297108e-07 -2.611562e-07 5.267391e-09 -2.832563e-09
2.458563e-07 1.115408e-07 -1.594701e-08 -3.509664e-07 6.389704e-08 -7.601619e-08
1.530267e-07 9.441870e-08 -1.148188e-07 -2.995228e-07 5.220508e-08 -5.727046e-08
1.847457e-07 -1.016720e-07 -5.463030e-08 8.599682e-08 -7.138879e-08 -1.610688e-07
2.626125e-07 -3.039692e-08 -7.987627e-08 1.890764e-07 -2.687726e-08 -4.833358e-08
3.781117e-07 -7.524946e-08 -1.365556e-07 1.501573e-07 -6.408070e-08 -6.015888e-08
2.023418e-07 -9.621334e-08 -8.505563e-08 8.874042e-08 -6.374124e-08 -7.382275e-08
2.849704e-07 -1.086087e-07 -5.093967e-08 1.963501e-07 -6.282060e-08 -1.263309e-08
1.491365e-07 -3.370974e-08 -6.785819e-08 1.209926e-07 -9.831906e-08 -1.022735e-07
1.353832e-07 -2.994372e-08 -3.059356e-09 1.612879e-07 -8.444594e-08 -1.584796e-07
2.469213e-07 -1.442180e-08 -9.349553e-08 1.887753e-07 -1.144916e-07 -1.266984e-07
2.796927e-07 -3.345387e-09 -1.090106e-07 1.585093e-07 -7.662081e-08 -5.024481e-08
4.994778e-08 2.596824e-07 -7.639831e-08 -3.023241e-07 8.724021e-08 -5.454628e-08
-4.715632e-08 3.341108e-07 3.219330e-08 -3.893212e-07 9.460569e-08 -4.368167e-08
-6.028639e-08 2.382246e-07 2.228115e-07 -4.286147e-07 3.571652e-08 -2.015925e-08
1.029269e-07 1.994049e-07 1.183145e-09 -4.014861e-07 -5.254285e-09 -1.750746e-09
7.341189e-08 6.535245e-08 -9.183887e-08 1.119266e-07 5.248071e-09 1.776576e-08
9.371193e-08 5.912446e-08 -1.078873e-07 1.553659e-07 9.995384e-09 2.037525e-08
1.069704e-07 4.832502e-08 -9.796407e-08 1.283446e-07 1.662028e-08 2.165052e-08
1.381433e-07 5.913642e-08 -1.034839e-07 1.468998e-07 1.615269e-08 1.891769e-08
9.601952e-08 8.795805e-08 -1.093951e-07 1.381998e-07 1.200034e-08 1.557144e-08
-6.008659e-08 2.221013e-07 -1.279101e-07 1.288052e-08 -4.950853e-08 -1.134146e-08
2.265925e-07 -8.064799e-08 -1.028012e-07 -1.073382e-08 -1.944475e-09 4.174907e-08
-4.833752e-08 2.109177e-07 -1.304979e-07 -1.237946e-08 -8.589040e-09 9.177832e-10
-4.972002e-08 2.003337e-07 -1.249306e-07 1.750668e-08 -3.684027e-08 -8.977659e-09
-4.975821e-08 1.900481e-07 -1.188927e-07 2.659628e-08 -3.149149e-08 -8.933358e-09
-4.967924e-08 1.939016e-07 -1.252422e-07 2.306375e-08 -3.519180e-08 -1.113464e-08
8.865915e-08 -1.707304e-08 -2.828608e-08 -1.863717e-09 -7.306407e-10 3.718743e-09
9.300276e-08 -1.968104e-08 -3.323467e-08 -1.130337e-09 -1.254662e-09 5.905595e-09
8.886719e-08 -1.782088e-08 -2.957539e-08 -1.769832e-09 3.014727e-10 3.416806e-09
9.803606e-08 -2.220872e-08 -3.647572e-08 5.380572e-10 -8.615970e-10 7.180271e-09
8.965686e-08 -1.758373e-08 -2.983001e-08 -1.143096e-09 -1.495182e-11 1.814651e-09
9.318169e-08 -1.886952e-08 -3.218744e-08 -6.944018e-10 -2.386295e-10 6.562845e-09
1.064362e-07 -2.551965e-08 -4.530194e-08 -1.871886e-09 -3.310937e-10 4.868968e-09
1.057652e-07 -2.218984e-08 -4.005578e-08 -3.731780e-09 -3.960781e-10 6.372577e-09
1.061859e-07 -2.550640e-08 -4.764489e-08 -1.874247e-09 -3.493471e-10 5.642773e-09
8.226630e-07 -5.602375e-07 1.455203e-07 1.722489e-08 -2.226197e-07 -6.513769e-09
9.441193e-08 -1.753641e-08 -3.221368e-08 -7.664418e-09 5.293670e-10 4.334463e-09
4.947558e-08 1.400326e-08 -2.143677e-08 2.625212e-09 9.956532e-10 5.977063e-11
5.077172e-08 1.310168e-08 -2.074033e-08 2.946007e-09 1.761162e-10 1.067927e-09
4.948465e-08 1.403736e-08 -2.009470e-08 2.385900e-09 5.901869e-10 4.945979e-10
2.393225e-08 3.809791e-08 -2.598780e-08 -3.344904e-09 -1.416739e-09 7.524263e-09
5.000374e-08 1.413732e-08 -2.011058e-08 2.857849e-09 1.055221e-09 6.925705e-10
5.092464e-08 1.326883e-08 -2.020030e-08 1.371834e-09 4.462244e-10 -1.211209e-10
4.888555e-08 1.494180e-08 -1.987689e-08 6.282646e-10 2.713316e-10 3.122913e-10
4.780451e-08 1.454994e-08 -2.032603e-08 1.344741e-09 4.163087e-10 -2.018527e-10
8.724771e-08 -1.883228e-08 -2.414933e-08 8.501768e-10 -1.630377e-10 2.324182e-09
9.340918e-08 -2.004153e-08 -2.759319e-08 -8.347802e-10 -4.055440e-11 7.480710e-09
9.313360e-08 -2.152486e-08 -2.896507e-08 4.742591e-12 1.858392e-09 6.865708e-09
8.842585e-08 -1.961157e-08 -2.784322e-08 -5.567846e-10 3.793436e-12 6.362840e-09
9.086153e-08 -2.010381e-08 -3.104936e-08 1.241005e-12 -9.273492e-10 1.046537e-08
8.778645e-08 -1.966074e-08 -2.587357e-08 -7.295351e-12 1.269484e-09 7.067949e-09
-4.136525e-08 1.168062e-07 -8.579995e-08 8.246622e-10 -3.240891e-08 -6.110537e-09
-4.162841e-08 8.859474e-08 -4.699354e-08 6.685864e-08 -1.126866e-07 -2.686445e-09
-4.106325e-08 1.801817e-07 -9.645684e-08 1.945772e-08 -7.687595e-08 -2.495439e-09
1.735142e-07 -4.782631e-08 -8.087769e-08 -1.465102e-08 -1.090297e-08 2.765877e-08
-4.730970e-08 1.343453e-07 -9.178769e-08 -1.090815e-08 -7.953128e-08 6.323108e-09
-6.386388e-08 1.260764e-07 -9.630450e-08 5.181740e-09 -8.610140e-08 -7.296700e-10
-6.223560e-08 1.703022e-07 -9.291110e-08 -5.133722e-09 -6.677653e-08 -9.385494e-10
2.031162e-07 4.498660e-08 -1.208626e-07 1.652480e-07 -8.641817e-08 -8.518017e-08
4.684028e-08 -6.223849e-09 -4.795008e-08 2.447645e-08 -1.046967e-07 -6.805228e-08
1.321930e-07 -3.478873e-08 -6.968536e-08 -2.197123e-08 -4.320926e-09 2.232205e-08
3.313639e-07 -1.347467e-08 -1.233192e-07 2.169514e-07 -8.945286e-08 -1.039198e-07
2.003204e-07 1.626572e-09 -1.189984e-07 1.808646e-07 -8.381073e-08 -8.372829e-08
-1.198640e-08 -1.908644e-08 -4.660947e-08 7.981880e-09 -1.154378e-07 -5.438065e-08
9.186243e-08 1.670599e-08 -8.936222e-08 -6.375032e-08 9.282180e-08 -3.491695e-08
1.695417e-07 -4.144293e-08 -8.013551e-08 -2.844440e-08 2.261023e-09 2.991097e-08
1.121605e-07 4.810982e-08 -1.128473e-07 -6.147838e-08 9.589621e-08 -4.252571e-08
8.146451e-08 1.879989e-08 -1.000978e-07 -4.623546e-08 9.666287e-08 -5.560828e-08
1.375275e-07 -1.972053e-08 -6.799018e-08 1.588312e-07 -8.467372e-08 -6.573009e-08
1.012714e-07 1.314598e-09 -6.610681e-08 5.022633e-08 -9.369430e-08 -3.392101e-08
2.221269e-07 -1.801532e-08 -9.357559e-08 1.890724e-07 -6.685342e-08 -5.901763e-08
2.941843e-07 -3.837376e-08 -1.435330e-07 8.946185e-08 -8.544354e-08 -6.419535e-08
1.982406e-07 3.128105e-08 -1.519564e-07 1.005272e-07 -9.511322e-08 -6.510418e-08
1.035576e-07 1.171023e-07 -1.337937e-07 -8.954477e-08 4.200269e-08 -2.268588e-08
-2.471215e-07 1.931884e-07 5.574729e-07 -6.090803e-07 5.241160e-08 -3.896573e-08
4.152673e-08 1.039441e-07 -1.103515e-07 -6.974667e-08 3.185666e-08 -1.489996e-08
9.010339e-08 -1.742899e-08 -2.943024e-08 2.982155e-10 -1.108441e-10 1.318085e-09
6.740104e-08 9.939187e-08 -1.302830e-07 -6.282518e-08 4.018724e-08 -1.802312e-08
7.889845e-08 1.103125e-07 -1.500928e-07 -1.033619e-07 1.547857e-08 -1.927990e-09
7.830530e-08 1.218928e-07 -1.467860e-07 -9.833323e-08 2.406319e-08 -1.113746e-09
9.676761e-08 -2.189354e-08 -3.420919e-08 -2.032181e-09 -3.201147e-09 1.597958e-08
8.640471e-08 -3.487263e-08 6.678377e-07 -6.415170e-07 1.085022e-07 5.502857e-08
8.517254e-08 -2.158982e-08 -2.711966e-08 -2.262802e-09 -1.449929e-10 1.441427e-08
9.219030e-08 -2.295632e-08 -2.838112e-08 -1.336474e-09 -3.969856e-10 1.766809e-08
9.001639e-08 -2.045686e-08 -2.495325e-08 7.877071e-10 1.337125e-09 8.673801e-09
9.549143e-08 -2.163364e-08 -2.918988e-08 8.093971e-10 1.471191e-10 1.420046e-08
8.483452e-08 -2.330123e-08 -2.677648e-08 7.088156e-10 5.204301e-10 1.455904e-08
9.320192e-08 -2.184705e-08 -2.855747e-08 1.984054e-09 -3.199534e-11 1.699437e-08
9.552559e-08 -2.521305e-08 -2.912867e-08 -3.279972e-10 6.443275e-10 1.458547e-08
1.418180e-07 -1.519215e-07 -4.535445e-08 -1.488548e-08 6.689727e-09 -9.024867e-08
5.865670e-07 -2.782624e-07 5.171841e-08 1.184701e-07 2.188374e-08 -3.525437e-09
3.103535e-07 -1.605465e-07 -9.464051e-08 8.925296e-09 -1.171599e-08 -1.434846e-07
3.194411e-07 -1.517532e-07 -1.325443e-07 -1.032452e-09 1.168484e-08 -1.551764e-07
4.407322e-08 -1.432896e-07 1.406808e-08 -2.141094e-08 -1.602022e-08 -7.886835e-08
-2.395343e-08 7.615554e-08 -5.184716e-08 6.845423e-09 -1.950526e-08 -2.244983e-08
-1.969371e-08 8.980705e-08 -5.464974e-08 8.798307e-09 -7.920173e-09 -1.842321e-08
-2.476684e-08 9.130957e-08 -6.521367e-08 1.771675e-08 -2.723155e-08 -1.578424e-08
-2.294315e-08 1.258401e-07 -8.079729e-08 1.535976e-08 -1.031439e-08 -1.182190e-08
-1.932078e-08 1.257159e-07 -8.389095e-08 1.501847e-08 -9.684953e-09 -1.075313e-08
-2.420201e-08 1.321861e-07 -8.517195e-08 7.437046e-09 -9.461583e-09 -1.996154e-08
-2.512419e-08 1.084953e-07 -7.778926e-08 1.108586e-09 -7.345521e-09 -1.517077e-08
5.267430e-08 5.235782e-08 -7.569487e-08 -6.449110e-08 -8.419793e-09 -7.284855e-10
4.337985e-08 4.458118e-08 -5.993810e-08 -4.093272e-08 -7.426972e-09 -3.832892e-10
4.636417e-08 4.362691e-08 -5.453061e-08 -4.117872e-08 -6.152700e-09 4.599949e-09
4.057678e-08 3.564995e-08 -4.173569e-08 -1.938385e-08 -3.457640e-09 9.120450e-09
3.513947e-08 3.852315e-08 -4.018682e-08 -7.249690e-09 -1.625727e-09 2.390926e-09
3.320091e-08 3.698495e-08 -3.781922e-08 -4.905265e-09 -1.158188e-09 5.532399e-09
3.395754e-08 3.564669e-08 -3.759399e-08 -3.876026e-09 -5.754386e-10 4.032926e-09
3.523447e-08 3.392664e-08 -3.713616e-08 -7.278652e-09 -2.695032e-09 6.714627e-09
3.643561e-08 3.082049e-08 -3.742857e-08 -1.184621e-08 -4.559496e-09 6.531425e-09
3.873897e-08 3.099743e-08 -3.232486e-08 -7.597416e-09 -1.127945e-09 2.005895e-09
5.158587e-08 1.175957e-08 -2.322520e-08 -6.297101e-09 -5.738045e-10 9.118892e-10
5.457443e-08 1.051110e-08 -2.238315e-08 -4.501735e-09 -1.062115e-10 4.958082e-10
5.317273e-08 1.178976e-08 -2.297117e-08 -6.571240e-09 -2.257265e-10 -4.069528e-10
5.022777e-08 1.281836e-08 -2.061163e-08 -2.087234e-09 -5.371862e-10 5.032435e-11
5.164658e-08 1.375024e-08 -2.121972e-08 -4.189325e-09 -7.096863e-10 1.459068e-09
5.224398e-08 1.282258e-08 -2.064357e-08 -1.807045e-09 -5.424371e-10 5.002748e-10
5.226244e-08 1.116330e-08 -2.070514e-08 -1.981335e-09 -8.268784e-11 4.993739e-10
5.430783e-08 1.136068e-08 -2.123726e-08 -4.583912e-09 -1.185630e-09 8.490650e-10
4.517300e-08 1.863808e-08 -2.376574e-08 -3.497810e-09 -3.517774e-10 1.699419e-09
1.685006e-07 -2.619034e-07 1.005608e-06 -6.846299e-07 1.841365e-07 -2.477662e-08
4.509780e-08 1.834388e-08 -2.262756e-08 -4.569192e-09 -1.250959e-09 2.549296e-09
4.474665e-08 1.879102e-08 -2.265473e-08 -1.239485e-09 -5.536165e-10 2.447726e-09
4.436066e-08 1.896650e-08 -2.466799e-08 -3.343526e-09 2.767238e-10 3.359426e-09
4.580846e-08 1.775275e-08 -2.157706e-08 -1.103749e-09 -5.078984e-10 1.362127e-09
4.486616e-08 1.669482e-08 -2.331157e-08 -2.174193e-09 3.546396e-12 2.013043e-09
3.018699e-07 -9.237496e-08 -7.922322e-08 -8.898455e-09 -2.148846e-08 -7.304792e-08
4.358160e-08 -6.330300e-08 -7.747569e-08 -3.033410e-09 -6.581137e-08 -1.266590e-07
3.797895e-07 -2.963428e-07 6.171359e-07 5.727011e-07 6.471806e-08 6.608272e-08
3.056900e-07 -1.259673e-07 1.221531e-07 5.344880e-07 -1.972322e-08 6.656758e-08
2.740833e-07 -3.674124e-08 2.434788e-07 5.494505e-07 9.648246e-08 5.405325e-08
-6.177350e-07 5.286321e-07 6.731020e-07 -4.230424e-07 2.569765e-07 1.989156e-08
-1.102520e-06 2.117711e-07 1.804655e-06 -2.812745e-07 4.132025e-07 -3.332932e-08
-1.095093e-06 5.062225e-07 2.496886e-06 -2.647854e-07 2.461743e-07 -1.307323e-07
-8.440541e-07 5.243841e-07 1.263887e-06 -3.534650e-07 8.107564e-08 2.192331e-07
-1.000150e-07 3.608487e-07 -1.465123e-07 6.157827e-08 -4.832112e-08 -5.925799e-09
-7.690340e-08 2.548966e-07 -1.413096e-07 6.531726e-08 -2.234652e-08 3.754949e-09
-7.615958e-08 3.171472e-07 -1.534626e-07 9.863078e-08 -7.954939e-08 -3.672673e-08
-6.754298e-08 2.644437e-07 -1.409448e-07 5.330191e-08 -1.181681e-08 -1.446767e-09
-6.799794e-08 2.740295e-07 -1.429781e-07 4.362763e-08 -1.759770e-08 -3.122619e-09
-1.021186e-07 2.825492e-07 -1.440198e-07 3.910187e-08 -2.010195e-08 6.265778e-09
3.298964e-07 -6.848244e-08 -1.156389e-07 -1.894173e-07 -1.174337e-08 2.934515e-09
4.341679e-07 -1.567007e-07 -4.175922e-08 -2.166160e-07 -3.374509e-08 7.215271e-08
4.145219e-07 -8.791493e-08 -5.487546e-08 -2.677860e-07 -4.606476e-08 1.110545e-07
3.702191e-07 -7.330351e-08 -8.213872e-08 -2.583158e-07 -1.891762e-08 4.852026e-08
3.502931e-07 -1.408426e-07 -5.532139e-08 -1.831146e-07 -1.142733e-08 3.590579e-08
1.055707e-07 1.126052e-07 -1.219254e-07 -1.770500e-07 -5.383266e-08 4.039884e-08
1.634408e-07 7.337584e-08 -1.163860e-07 -1.909921e-07 -5.076083e-08 5.333783e-08
1.058689e-07 7.971484e-08 -1.274638e-07 -2.021056e-07 -4.940233e-09 2.201504e-08
1.461017e-07 7.292839e-08 -1.218843e-07 -1.963547e-07 -4.872282e-08 6.443646e-08
8.624405e-08 -1.428040e-08 -3.078499e-08 -9.461371e-09 -1.528474e-09 1.014687e-08
2.633533e-08 3.094407e-08 -2.585041e-08 -2.448386e-09 -2.108463e-09 8.358420e-09
8.297914e-08 -1.071437e-08 -2.981213e-08 -1.135170e-08 -1.500712e-09 1.047039e-08
7.794383e-08 -1.124811e-08 -2.475652e-08 -6.460860e-09 -2.356932e-09 5.159555e-09
7.845964e-08 -1.187156e-08 -2.661338e-08 -5.535793e-09 -1.255712e-09 3.933793e-09
7.953967e-08 -8.543475e-09 -2.839652e-08 -1.383218e-08 -2.771800e-09 6.642945e-09
8.377575e-08 -1.419697e-08 -3.144365e-08 -1.107478e-08 -3.884398e-09 1.066335e-08
8.278577e-08 -9.908191e-09 -2.819144e-08 -9.407946e-09 -2.668536e-09 8.243295e-09
8.243548e-08 -1.000106e-08 -2.430678e-08 -9.208878e-09 -2.907668e-09 8.169409e-09
3.357832e-09 6.475507e-08 -4.840981e-08 1.156155e-08 6.229716e-09 4.281080e-09
5.631725e-08 3.409981e-08 -4.302487e-08 -3.451596e-08 -5.529999e-09 5.621964e-09
4.973777e-08 3.614303e-08 -4.980531e-08 -3.382708e-08 -4.879008e-09 -1.057780e-09
5.181368e-08 4.627611e-08 -6.185281e-08 -4.750428e-08 -3.648805e-09 8.292791e-09
4.523073e-08 3.864415e-08 -5.504605e-08 -3.226325e-08 -4.291209e-09 8.318162e-09
5.595847e-08 2.549755e-08 -5.619420e-08 -4.022223e-08 -4.245196e-09 4.890648e-09
1.412328e-07 -2.530449e-08 -5.715258e-08 -1.962308e-08 -8.105022e-10 1.169906e-08
1.637645e-07 -2.840006e-08 -7.213243e-08 -3.686493e-08 -4.965192e-09 1.993827e-08
1.354761e-07 -2.801078e-08 -6.561875e-08 -2.411256e-08 -5.842101e-09 4.578002e-09
1.321500e-07 -3.106256e-08 -7.266108e-08 -2.739326e-08 -3.476053e-09 1.543630e-08
5.633410e-08 8.428930e-09 -2.254304e-08 1.382197e-09 7.198912e-10 2.720712e-10
5.416398e-08 1.333116e-08 -2.636250e-08 9.292455e-09 2.131875e-09 -2.349415e-11
5.412121e-08 1.160276e-08 -2.185269e-08 3.350731e-09 1.129983e-11 1.893454e-10
5.360577e-08 1.051571e-08 -2.305629e-08 4.962565e-09 4.044542e-10 1.460398e-09
6.233390e-08 6.812183e-09 -2.557029e-08 8.152770e-09 1.088780e-09 2.301079e-09
5.854879e-08 5.829735e-09 -2.238111e-08 3.000125e-09 5.894171e-10 -4.800006e-10
5.670636e-08 9.175605e-09 -2.361619e-08 3.262318e-09 -8.721539e-10 3.657128e-10
7.477956e-08 -1.082641e-08 4.004607e-07 -6.166224e-07 3.609193e-08 -5.534329e-08
9.588255e-08 -1.595406e-08 -3.598106e-08 -6.347637e-09 -4.149768e-10 -6.790173e-11
8.355223e-08 -1.123364e-08 -3.011266e-08 -5.914030e-09 4.070589e-10 3.012687e-09
8.847987e-08 -1.148043e-08 -3.366098e-08 -6.787181e-09 -2.830059e-10 -1.314012e-09
8.289038e-08 -1.079257e-08 -2.835343e-08 -4.113003e-09 -5.963152e-10 9.637503e-10
8.681703e-08 -1.574691e-08 -3.025550e-08 -2.494625e-09 -3.802210e-10 1.084176e-09
8.566505e-08 -1.331851e-08 -3.207531e-08 -3.162290e-09 7.640652e-10 3.128209e-11
9.109468e-08 -1.572571e-08 -3.025628e-08 -3.685152e-09 -3.752797e-10 1.154269e-09
8.352150e-08 -1.120082e-08 -3.083426e-08 -6.092502e-09 -1.669503e-09 4.433496e-10
8.835529e-08 -1.722129e-08 -2.695266e-08 -5.232623e-10 -5.166920e-10 1.139710e-09
9.061274e-08 -1.783854e-08 -2.786238e-08 -2.781737e-09 -2.133169e-09 6.914863e-09
9.888982e-08 -1.990036e-08 -3.322479e-08 -4.146121e-09 -1.905995e-09 4.144579e-09
9.274862e-08 -1.715515e-08 -3.842180e-08 -6.948931e-09 -6.371962e-10 7.566630e-09
4.977313e-08 1.404177e-08 -2.083713e-08 2.932118e-09 -3.219577e-10 4.750764e-10
4.996923e-08 1.424683e-08 -1.947082e-08 2.705271e-09 3.999676e-10 7.051349e-10
5.126943e-08 1.365089e-08 -1.999678e-08 8.699481e-10 1.902806e-10 6.297701e-10
-2.012122e-07 5.653521e-07 -8.752491e-08 -6.577244e-08 -1.040273e-07 7.320552e-09
-1.646848e-07 3.920382e-07 -8.179940e-08 -1.233122e-07 -1.081167e-07 1.864444e-08
-2.072195e-07 4.966582e-07 -2.520174e-08 -1.419894e-07 -7.240826e-08 -1.177958e-08
-1.559368e-07 5.076023e-07 -1.354907e-07 -1.654084e-07 -1.827061e-08 1.078574e-08
-7.572099e-07 -1.863409e-06 5.417522e-06 -2.168026e-07 3.225259e-07 -8.380719e-07
-1.788466e-06 -2.354445e-06 7.020310e-06 -2.459898e-08 -4.647873e-07 -3.735296e-07
-1.589008e-06 -1.879386e-06 5.579283e-06 4.086957e-07 -4.041518e-07 -7.230461e-07
-1.631533e-06 -1.865869e-06 5.969767e-06 -3.040641e-07 1.256303e-07 -6.394630e-07
6.809461e-08 2.371335e-08 -4.371741e-08 -3.754250e-08 -5.819467e-09 6.344754e-09
5.630530e-08 3.410808e-08 -4.509531e-08 -3.452930e-08 -6.070509e-09 7.613105e-09
5.593071e-08 2.549575e-08 -5.782396e-08 -4.021322e-08 -6.899744e-09 9.944532e-09
5.944218e-08 2.508080e-08 -5.092166e-08 -3.935894e-08 -4.949944e-09 1.513155e-08
4.349636e-08 8.949396e-08 -9.262255e-08 -2.451853e-08 2.651415e-08 -5.460937e-09
2.997956e-08 9.861995e-08 -1.050179e-07 -4.076338e-08 3.386548e-08 -1.208582e-08
1.564478e-08 1.024428e-07 -1.025162e-07 -4.260748e-08 1.466283e-08 -5.247251e-09
6.457669e-08 8.018078e-08 -1.243943e-07 -1.134333e-08 2.097765e-08 -1.063937e-09
3.960929e-08 1.181404e-07 -1.240700e-07 -6.490404e-08 1.665732e-08 -1.664781e-09
3.227823e-08 9.843904e-08 -1.071899e-07 -3.374163e-08 1.125183e-08 -1.124081e-09
8.417128e-08 9.117713e-08 -1.224381e-07 -3.491861e-08 3.663923e-08 -1.183306e-08
6.884870e-08 9.161438e-08 -1.281449e-07 -2.861223e-08 6.682873e-09 -3.773018e-09
2.700207e-07 -4.045359e-08 -1.446411e-07 -3.870647e-08 9.362343e-08 -3.065004e-08
1.543217e-07 -3.773874e-08 -1.164336e-07 -4.560778e-08 8.364123e-08 -3.892030e-08
1.609448e-07 -3.921159e-08 -9.495341e-08 -4.614047e-08 8.765098e-08 -5.232961e-08
2.241444e-07 -5.208894e-08 -7.072066e-08 -1.244126e-08 7.265736e-08 1.424375e-08
3.172994e-07 -8.829112e-08 -1.532682e-07 -1.784586e-08 7.858723e-08 -4.907527e-08
-1.186865e-06 -2.852049e-07 2.891765e-06 5.854358e-07 -2.211301e-07 2.259248e-08
-8.070959e-07 -2.735039e-07 2.147454e-06 7.482319e-07 -5.222647e-07 -1.654105e-07
-1.389536e-06 2.865482e-08 3.406701e-06 1.838147e-07 -8.697640e-07 -4.680392e-08
-8.335261e-09 2.051794e-07 -1.450085e-07 1.058643e-07 -2.591393e-08 -1.308414e-08
-8.831141e-07 7.161179e-07 1.291338e-06 9.152173e-08 -4.124455e-07 -1.509848e-07
-8.714438e-07 6.146200e-07 1.201097e-06 2.084986e-08 -2.560688e-07 5.367728e-08
-8.671052e-07 7.026074e-07 1.434276e-06 1.441963e-07 -3.902588e-07 -3.821513e-08
3.626996e-07 -1.731141e-07 6.590204e-07 -5.314566e-07 -1.174097e-08 -3.702924e-08
3.851924e-08 2.371488e-08 -2.004172e-08 1.000727e-09 3.732081e-10 -9.479880e-11
-1.299617e-06 1.027555e-07 2.898173e-06 -3.161343e-08 -5.878047e-07 5.778873e-08
-1.149306e-06 3.472685e-07 2.221915e-06 -3.237050e-07 -7.792026e-08 1.780639e-07
-1.082861e-06 5.150710e-07 2.646747e-06 -6.691786e-08 -7.896952e-07 2.408726e-07
-2.079308e-06 -7.471737e-07 6.758221e-06 -2.888472e-07 1.031234e-06 -7.274504e-08
-1.984910e-06 -1.380603e-06 6.071994e-06 6.898963e-08 6.439760e-07 3.526701e-07
-1.697753e-06 -5.731519e-07 4.052148e-06 5.544771e-07 4.769713e-07 3.379447e-07
-1.909565e-06 -3.497012e-07 4.286809e-06 -3.403642e-08 4.782833e-07 -3.176903e-07
-1.535513e-06 -2.791746e-07 3.918901e-06 3.312245e-07 6.203693e-07 2.675681e-07
9.910487e-08 1.281975e-07 -8.182053e-08 -3.795386e-07 1.069694e-08 2.842190e-08
-6.315763e-09 3.070192e-07 3.299899e-08 -3.666747e-07 -9.699037e-08 3.787863e-08
-6.293837e-09 2.437567e-07 -2.133330e-08 -4.522332e-07 3.522182e-08 2.778580e-08
8.166615e-08 2.093181e-07 3.428175e-08 -4.586012e-07 -6.979129e-08 1.055624e-07
1.676761e-07 -8.894082e-09 -1.000173e-07 1.056650e-07 1.321991e-08 4.655289e-08
1.552058e-07 -2.101753e-08 -9.432777e-08 7.343523e-08 4.789697e-09 1.265814e-08
1.473245e-07 -7.966000e-09 -7.593670e-08 6.878106e-08 8.342854e-09 2.278676e-08
1.351410e-07 -1.660214e-09 -8.124705e-08 7.832164e-08 7.446496e-09 3.346154e-08
1.475353e-07 -7.640094e-09 -9.461669e-08 6.904763e-08 1.898888e-09 1.649118e-08
1.524070e-07 9.284241e-09 -8.925884e-08 1.023490e-07 1.054725e-08 2.583582e-08
1.187796e-07 -1.322027e-09 -7.226578e-08 6.433366e-08 1.395767e-08 2.727848e-08
-8.327219e-08 2.823621e-07 -1.273290e-07 -2.969187e-08 2.918437e-08 1.419013e-09
-1.194973e-07 3.662820e-07 -1.322967e-07 -8.036169e-08 5.307463e-08 2.668113e-09
-1.362678e-07 3.523251e-07 -1.015959e-07 -6.406547e-08 4.471764e-08 3.448511e-09
-1.163011e-07 2.829071e-07 -1.311661e-07 -1.224621e-08 2.682719e-08 1.068231e-09
-1.430778e-07 3.788909e-07 -1.001132e-07 -3.545536e-08 6.748344e-08 -5.344340e-09
3.042000e-08 2.606150e-08 -2.564098e-08 -7.655134e-09 -6.038995e-09 7.881596e-09
-1.156047e-07 3.870966e-07 -1.379006e-07 -2.111253e-08 2.957577e-08 1.463220e-09
3.215892e-07 -9.591754e-07 2.173675e-06 -4.845155e-07 -1.381147e-07 2.824634e-07
-2.727237e-07 -1.617241e-06 5.262339e-06 -3.566348e-07 -3.399768e-07 6.578659e-07
-2.009038e-07 -9.645705e-07 2.586064e-06 -6.036756e-07 -2.035512e-07 5.412651e-07
-1.812490e-07 -1.234496e-06 3.729197e-06 -5.454789e-07 -9.375964e-07 1.017478e-06
-3.799407e-08 1.430014e-07 -9.301376e-08 2.578506e-08 -5.852812e-08 -2.541410e-08
-3.211981e-08 1.197587e-07 -6.711540e-08 1.982642e-08 -4.989717e-08 -2.409385e-08
-2.403527e-08 1.745956e-07 -1.215900e-07 5.794801e-08 -1.326586e-08 -7.354771e-09
-3.779654e-08 1.568236e-07 -1.013574e-07 2.876000e-08 -2.561250e-08 -1.213290e-08
-1.855694e-08 9.806021e-08 -7.065447e-08 2.651447e-08 -4.602781e-08 -2.335955e-08
-6.253049e-07 3.112349e-07 1.281568e-06 5.514376e-07 3.043099e-07 1.340012e-07
-5.745240e-07 2.969305e-07 1.599813e-06 5.897419e-07 -7.479530e-08 -4.514235e-09
-7.743212e-07 -2.122508e-07 2.170612e-06 8.496307e-07 3.205763e-07 2.671766e-07
-2.915449e-07 -2.071114e-07 2.156593e-06 7.736321e-07 3.429614e-07 2.035329e-07
-3.350088e-07 3.909421e-07 7.882754e-07 5.777088e-07 2.362692e-07 1.034077e-07
1.442557e-08 6.906815e-08 -4.502797e-08 1.199190e-08 2.334078e-09 3.149377e-09
2.019595e-08 5.400923e-08 -5.366697e-08 -1.042661e-08 -3.141253e-09 5.580313e-09
1.946312e-09 6.906993e-08 -4.502699e-08 9.737970e-09 2.335506e-09 6.276078e-10
1.738168e-09 7.297848e-08 -5.216516e-08 8.898890e-09 3.202846e-09 8.691739e-09
1.178863e-08 5.868483e-08 -3.798932e-08 5.149787e-09 2.878475e-09 4.889254e-09
8.042894e-09 4.179881e-08 -2.492145e-08 1.062611e-08 1.370259e-08 8.740366e-09
2.004667e-09 7.164089e-08 -4.447441e-08 8.839188e-09 5.681677e-09 6.983989e-09
4.506541e-08 2.094273e-08 -2.345664e-08 -2.572145e-09 -5.793537e-10 2.244112e-09
-3.308288e-09 6.600906e-08 -4.729516e-08 -2.278368e-10 2.537800e-08 -4.262710e-09
-4.768391e-09 7.804761e-08 -5.493905e-08 -1.673004e-09 1.264090e-08 -6.243534e-10
9.628813e-10 7.622044e-08 -5.796428e-08 -7.350429e-09 2.138414e-08 -3.991786e-09
-5.078484e-09 7.218851e-08 -5.413971e-08 -1.295588e-08 2.962923e-08 -7.797112e-09
-2.878451e-09 7.631688e-08 -7.185633e-08 -1.006406e-08 2.240688e-08 -8.719237e-09
5.499407e-08 1.954916e-08 -3.047759e-08 1.990847e-08 2.401315e-09 3.519491e-09
5.178386e-08 1.700701e-08 -2.494347e-08 1.201064e-08 6.679841e-10 1.654979e-09
5.252428e-08 1.546983e-08 -2.601674e-08 1.171891e-08 -7.578381e-10 9.389901e-10
5.725354e-08 1.373570e-08 -2.723561e-08 1.596834e-08 1.775345e-09 1.999292e-09
5.269158e-08 1.316104e-08 -2.676371e-08 1.219429e-08 5.771059e-10 7.453713e-10
3.960311e-08 2.427794e-07 -6.584572e-08 2.999329e-07 1.230552e-08 1.134250e-08
-7.722913e-08 3.323402e-07 -1.521183e-08 3.953674e-07 -2.352645e-08 2.639717e-08
1.814262e-08 2.200023e-07 5.370166e-08 3.732514e-07 1.898165e-08 -1.039447e-08
3.802656e-08 2.028381e-07 -7.399934e-08 3.638935e-07 -8.285183e-09 2.856059e-08
5.300846e-08 4.450778e-08 -5.696654e-08 5.219137e-08 9.867278e-09 1.012924e-08
5.287088e-08 6.530598e-08 -7.439224e-08 7.690995e-08 3.258556e-09 1.098277e-08
-5.830753e-08 2.027732e-07 -1.362144e-07 -2.224445e-08 -1.332106e-08 1.823645e-09
4.931569e-08 4.701493e-08 -5.471100e-08 5.132028e-08 1.239337e-08 1.032731e-08
4.299771e-08 5.342803e-08 -6.059972e-08 5.192322e-08 3.871435e-09 7.135055e-09
4.420506e-08 4.748829e-08 -6.938688e-08 5.253410e-08 1.147456e-08 7.448784e-09
6.202787e-07 -4.080770e-07 4.965449e-07 -3.353388e-07 8.085529e-08 -1.247959e-07
4.022133e-07 -4.198442e-07 5.975687e-07 -5.462160e-07 8.239317e-08 -1.081602e-07
5.281745e-07 -3.568142e-07 5.166733e-07 -4.542645e-07 4.365257e-08 -1.354070e-07
-1.116019e-08 4.864583e-08 -3.123963e-08 5.118672e-09 2.464689e-08 1.365928e-08
5.896723e-07 -5.962484e-07 9.984897e-07 -2.286103e-07 2.624385e-08 -2.774743e-07
6.272555e-07 -3.140739e-07 5.004170e-07 -3.886190e-07 6.177631e-08 -1.140343e-07
2.897139e-08 4.806767e-08 -4.495585e-08 3.094649e-08 6.264206e-09 1.099519e-08
2.871860e-08 5.676241e-08 -6.300207e-08 4.537369e-08 7.495920e-09 4.357086e-09
2.777643e-08 7.380658e-08 -7.071074e-08 5.520832e-08 1.044687e-08 -6.880781e-10
2.854215e-08 5.995211e-08 -5.730629e-08 4.161856e-08 1.558831e-09 6.384895e-09
4.774384e-08 4.149137e-08 -4.263323e-08 3.851827e-08 6.420954e-09 5.463289e-09
5.006430e-08 5.185693e-08 -5.807997e-08 5.124583e-08 3.380394e-09 2.488105e-09
4.965915e-08 5.848591e-08 -6.989535e-08 6.327137e-08 8.398168e-09 7.069129e-09
3.240460e-08 7.407318e-08 -6.372726e-08 5.448535e-08 1.745283e-08 1.136594e-08
3.378902e-08 6.727451e-08 -6.384352e-08 6.370848e-08 1.651916e-08 1.222484e-08
4.242060e-08 6.105563e-08 -6.764141e-08 6.439617e-08 2.183798e-08 1.419414e-08
9.311221e-08 -4.601539e-09 -4.334386e-08 -2.823847e-08 -2.052768e-09 7.219360e-09
8.199046e-08 4.575289e-10 -4.143965e-08 -2.487615e-08 7.042122e-10 4.854820e-09
8.319166e-08 -2.993728e-09 -4.353862e-08 -2.411975e-08 -1.989843e-09 5.371206e-09
8.099200e-08 3.036204e-09 -4.747392e-08 -3.291468e-08 -5.795602e-09 7.613925e-09
2.628801e-07 3.409968e-08 -9.738234e-08 2.860090e-07 4.649231e-08 7.263737e-08
1.950393e-07 9.632912e-08 -9.582878e-08 2.837330e-07 4.874798e-09 2.081671e-08
1.396200e-07 5.763389e-08 -1.065174e-07 2.273094e-07 3.424603e-08 4.599061e-08
2.281085e-07 1.557379e-08 -1.045588e-07 2.608250e-07 3.207294e-08 4.477866e-08
1.885960e-07 3.079785e-08 -1.057604e-07 2.265380e-07 1.641657e-08 2.062845e-08
7.517107e-08 -5.122454e-09 -2.770229e-08 5.616005e-09 3.758851e-10 4.202361e-09
7.341566e-08 -5.440397e-09 -2.983599e-08 6.417081e-09 1.744627e-09 1.747899e-09
7.010904e-08 -6.377248e-09 -2.708533e-08 1.046055e-08 2.454787e-09 7.804731e-09
7.421480e-08 -5.098419e-09 -2.964321e-08 1.418388e-08 2.993332e-09 5.042108e-09
7.874540e-08 -6.552253e-09 -2.931535e-08 1.358838e-08 1.560003e-09 6.892956e-09
7.764501e-08 -9.386956e-09 -3.278296e-08 1.168601e-08 4.996616e-09 9.550229e-09
7.616982e-08 -6.469641e-09 -2.520499e-08 9.638219e-09 1.981978e-09 5.878836e-09
7.672142e-08 -6.790753e-09 -2.526279e-08 9.773207e-09 2.388107e-10 9.003612e-09
7.679395e-08 -9.061187e-09 -2.803277e-08 1.034604e-08 1.005482e-09 8.781214e-09
-2.812719e-08 1.567488e-07 -9.954369e-08 5.523784e-08 -7.368897e-08 -3.152430e-08
4.655624e-08 1.675694e-08 -2.228424e-08 6.736912e-09 4.697340e-10 6.556220e-10
5.039495e-08 1.502609e-08 -2.299225e-08 5.218298e-09 1.440565e-10 6.384255e-10
4.779584e-08 1.514514e-08 -2.043789e-08 2.056015e-09 -1.476399e-10 8.095771e-10
4.928671e-08 1.433499e-08 -2.026960e-08 3.001989e-09 2.395641e-10 -2.133084e-10
5.006392e-08 1.484244e-08 -2.130205e-08 4.445942e-09 9.599193e-10 1.321097e-10
6.968925e-08 -2.827328e-09 -2.584004e-08 4.334963e-09 -5.453930e-10 8.033676e-10
6.968930e-08 7.414425e-10 -2.584013e-08 4.629051e-09 6.021701e-10 8.034493e-10
6.714482e-08 1.926411e-09 -2.403236e-08 2.106685e-09 6.135195e-10 8.656742e-10
7.272250e-08 2.063961e-10 -2.672613e-08 9.188396e-09 1.905661e-09 3.703805e-09
7.037662e-08 -4.759031e-09 -2.377726e-08 2.188456e-09 2.460690e-09 1.914067e-09
7.477225e-08 -5.045009e-09 -2.604270e-08 3.761248e-09 1.102722e-09 2.647259e-09
9.109644e-08 -1.757638e-08 -2.967924e-08 -9.461090e-10 -1.923423e-10 1.042924e-09
-1.043698e-06 -1.437864e-06 4.868625e-06 -4.264075e-07 1.269277e-07 -1.713932e-07
9.267314e-08 -1.979825e-08 -2.998459e-08 -3.828156e-12 6.840090e-10 2.272494e-09
9.346506e-08 -1.980758e-08 -3.291574e-08 5.764402e-10 4.412885e-10 6.197916e-09
8.792351e-08 -1.897193e-08 -2.832068e-08 -1.513191e-09 -4.704415e-11 5.474264e-09
8.558246e-08 -1.761310e-08 -2.338448e-08 -3.525091e-09 -1.235652e-09 4.910303e-09
9.034887e-08 -1.930547e-08 -2.852473e-08 6.093217e-10 7.353862e-11 2.732166e-09
9.416357e-08 -1.919618e-08 -2.816251e-08 1.553541e-09 3.237482e-10 5.850225e-09
9.063713e-08 -1.874055e-08 -3.004425e-08 -1.008364e-10 1.379738e-10 2.060845e-09
9.276966e-08 -1.878320e-08 -2.935158e-08 3.061363e-09 -2.809836e-10 7.425522e-09
7.655537e-08 5.543823e-08 -8.700851e-08 -9.209284e-08 -2.421139e-08 2.225886e-08
5.498054e-08 6.924364e-08 -8.579511e-08 -9.214213e-08 -5.747503e-09 1.452471e-08
5.471059e-08 8.587139e-08 -8.529367e-08 -8.193480e-08 -1.038494e-08 9.402819e-09
6.840130e-08 6.281757e-08 -8.835510e-08 -9.077900e-08 -2.876410e-08 2.735213e-08
6.597874e-08 5.158218e-08 -7.879888e-08 -7.469131e-08 -4.681960e-09 1.131749e-08
-2.588393e-07 4.551167e-07 4.926442e-08 -4.387541e-08 6.245891e-08 -5.766210e-09
-1.763673e-07 3.694263e-07 -1.029106e-07 1.184847e-08 2.343221e-08 1.870384e-09
-1.650810e-07 4.857912e-07 -9.954051e-08 -9.533645e-08 6.112783e-08 -2.106246e-08
-2.169072e-07 4.797015e-07 -3.062272e-08 -1.172481e-08 5.820548e-08 -1.434296e-08
-1.763455e-07 4.893387e-07 -8.131225e-08 9.618582e-09 7.436430e-08 -1.397080e-09
-3.553168e-09 1.794033e-07 -1.100693e-07 1.353217e-07 4.238452e-08 2.893712e-08
-1.367190e-08 2.136077e-07 -1.189079e-07 1.509278e-07 7.006968e-08 3.023392e-08
-2.684145e-08 1.918977e-07 -1.201367e-07 1.064625e-07 1.932566e-08 8.621854e-09
-1.257929e-08 2.198548e-07 -1.214081e-07 1.451687e-07 9.238079e-09 9.538697e-09
3.072593e-08 3.921699e-08 -2.805808e-08 1.360790e-08 6.329084e-09 4.729983e-09
2.323415e-08 3.765551e-08 -2.705725e-08 7.399107e-09 3.566366e-09 4.853943e-09
2.617753e-08 3.746289e-08 -2.490279e-08 1.190957e-08 5.827569e-09 6.151916e-09
2.879597e-08 3.445570e-08 -2.911603e-08 9.256684e-09 3.459113e-09 2.844574e-09
2.525655e-08 4.091652e-08 -2.941607e-08 6.939817e-09 1.265286e-09 1.487071e-09
2.668323e-08 3.918791e-08 -3.102209e-08 1.307873e-08 6.812001e-09 8.203188e-09
2.632951e-08 4.045560e-08 -3.042300e-08 1.159522e-08 3.856169e-09 8.526570e-10
4.022388e-08 2.228129e-08 -2.065225e-08 2.015262e-09 -5.821143e-11 9.742331e-10
3.910201e-08 2.423636e-08 -2.277912e-08 4.811175e-09 2.837073e-10 2.946243e-10
3.963384e-08 2.250382e-08 -2.050426e-08 4.399632e-09 7.242910e-10 6.686638e-10
4.122735e-08 2.305524e-08 -2.077530e-08 5.052896e-09 8.998723e-10 7.897740e-10
4.123273e-08 2.304198e-08 -2.096540e-08 5.046431e-09 9.946598e-10 9.005287e-10
7.325851e-08 1.209633e-09 -3.215411e-08 1.487118e-08 1.969982e-09 4.673197e-10
9.024661e-08 9.030554e-13 -4.956041e-08 3.283143e-08 2.412405e-09 6.684714e-09
9.420652e-08 -1.083862e-09 -5.784398e-08 4.304120e-08 2.414695e-09 1.112414e-08
9.513365e-08 -8.811412e-09 -4.773081e-08 2.691280e-08 1.596815e-09 5.349935e-09
1.061088e-07 -8.228923e-09 -4.996184e-08 3.355244e-08 3.467285e-09 1.054192e-08
1.013254e-07 -4.850752e-09 -5.571294e-08 3.724958e-08 2.080850e-09 1.649479e-08
5.201831e-08 1.216350e-08 -2.467478e-08 -8.059736e-09 -6.136451e-10 5.995242e-10
5.590565e-08 8.299288e-09 -2.289411e-08 -7.036176e-09 -1.501481e-09 -4.411137e-11
5.162819e-08 1.134807e-08 -2.120536e-08 -5.416858e-09 -1.200607e-09 1.472463e-09
5.592066e-08 1.137187e-08 -2.301585e-08 -5.809509e-09 -7.546634e-10 6.334623e-10
2.031411e-08 2.933724e-08 -3.256968e-08 -1.714193e-08 -2.247962e-08 2.541867e-08
5.514049e-08 9.938252e-09 -2.505411e-08 -8.084754e-09 -9.213122e-10 1.501737e-09
5.453629e-08 1.341783e-08 -2.308588e-08 -7.905845e-09 -1.947520e-09 2.303811e-09
5.103539e-08 1.069728e-08 -2.265180e-08 -4.795053e-09 -2.360961e-09 2.609593e-09
2.715629e-07 -7.793228e-10 6.370443e-08 4.227085e-07 -1.606853e-08 2.957654e-08
3.002947e-07 2.009099e-08 -1.134704e-07 2.892842e-07 -1.248679e-09 8.297450e-09
2.790001e-07 6.011429e-08 -1.647625e-07 3.010145e-07 6.952980e-09 -2.549481e-08
2.587674e-07 -2.740843e-09 -4.052824e-08 4.322078e-07 3.947161e-08 -1.857382e-08
4.219040e-07 -4.769720e-08 -6.059039e-08 3.453010e-07 -5.199239e-08 -5.815799e-08
4.547142e-07 -1.486371e-07 7.666735e-08 2.737088e-07 -6.208159e-08 -3.503179e-08
2.245511e-07 8.301478e-08 5.527223e-08 4.895007e-07 -5.380894e-08 -6.062842e-08
3.337359e-07 -6.689304e-08 9.701712e-08 3.749090e-07 2.884619e-08 2.311932e-08
-5.532105e-08 1.910646e-07 -1.037287e-07 -1.214634e-08 4.118156e-08 -4.374799e-09
-7.037840e-08 2.176692e-07 -1.083832e-07 -2.289571e-08 4.846768e-08 1.899900e-09
-6.235947e-08 2.387176e-07 -1.178967e-07 -3.136570e-08 2.012510e-08 -4.618604e-10
-7.819251e-08 3.014553e-07 -1.150309e-07 -3.982052e-08 5.335408e-08 -6.631543e-09
-6.239209e-08 2.387902e-07 -1.042314e-07 -3.134205e-08 2.947546e-08 -4.346087e-09
-6.602625e-08 2.405358e-07 -1.076420e-07 -4.346325e-09 3.470964e-08 -2.826595e-10
-8.271951e-08 2.372271e-07 -1.221406e-07 7.150941e-09 2.113045e-08 4.234254e-10
-6.606340e-08 2.403265e-07 -1.231198e-07 -4.237110e-09 2.214349e-08 2.445999e-09
-7.380036e-08 2.216809e-07 -1.109532e-07 -2.884585e-09 5.219259e-08 6.177770e-09
-6.549767e-08 2.204687e-07 -1.119624e-07 -1.828527e-09 1.734999e-08 -2.228615e-10
2.275631e-08 1.809402e-07 -1.142031e-07 1.865184e-07 -6.622856e-08 -3.405970e-08
1.715824e-07 1.547542e-07 -1.567364e-07 2.454759e-07 -5.190674e-08 -4.288447e-08
7.055730e-08 2.495993e-07 -1.605518e-07 2.467644e-07 -2.290290e-08 -1.923327e-08
6.156430e-08 1.956939e-07 -1.004610e-07 2.690525e-07 -6.838558e-08 -4.697765e-08
3.722840e-07 -1.082670e-07 -1.087592e-07 -5.047289e-08 -6.819843e-09 5.745957e-08
2.552656e-07 -7.837842e-08 -1.180526e-07 -7.578116e-08 -7.294901e-09 2.267860e-08
2.812218e-07 -1.084392e-07 -1.042631e-07 -3.955412e-08 -3.588058e-09 5.045935e-08
2.804683e-08 2.450106e-07 -5.109698e-08 -3.241034e-07 2.199751e-08 6.664119e-09
-8.902012e-09 2.814074e-07 -4.963362e-08 -3.216379e-07 2.016683e-08 -2.603053e-08
-8.417124e-08 2.878692e-07 -7.519701e-08 -2.927886e-07 7.516169e-08 -5.823833e-08
9.798209e-08 1.920722e-07 -7.693988e-08 -3.211665e-07 4.590963e-08 -2.848631e-08
-1.623051e-08 2.212693e-07 -9.527613e-08 -2.327813e-07 2.690186e-08 -1.449854e-08
-7.877752e-08 3.156902e-07 2.361070e-09 -3.111665e-07 2.550395e-08 -1.679139e-08
5.180081e-08 2.041158e-07 -7.988888e-09 -3.206080e-07 1.700164e-08 -2.533644e-08
-2.083421e-08 1.934767e-07 -1.300129e-07 6.992616e-08 -1.332083e-08 -1.303330e-09
-4.682820e-10 1.723875e-07 -1.268076e-07 8.183390e-08 -3.579292e-08 -1.573495e-08
-8.724940e-09 2.056630e-07 -1.274918e-07 1.059289e-07 -3.433488e-08 -7.038426e-09
-2.820586e-08 1.973975e-07 -1.321924e-07 6.890993e-08 -1.486434e-08 -5.516272e-09
3.492709e-08 5.192387e-08 -5.884642e-08 5.422477e-08 1.666695e-08 1.514029e-08
4.056377e-08 8.285287e-08 -8.363894e-08 9.415803e-08 9.518958e-09 1.244962e-08
5.308231e-08 5.531136e-08 -8.791927e-08 7.719794e-08 1.490181e-08 1.055735e-08
5.102713e-08 7.684899e-08 -8.838134e-08 9.643086e-08 3.122833e-08 2.462090e-08
-3.418507e-08 1.908134e-07 -1.131708e-07 -6.107652e-08 4.568544e-08 -2.217389e-08
-5.050204e-08 1.739483e-07 -9.630503e-08 -3.550623e-08 1.391622e-08 1.812972e-09
-3.656800e-08 1.650750e-07 -9.414083e-08 -3.256322e-08 3.385504e-08 -1.317418e-08
-3.333352e-08 1.598357e-07 -9.331017e-08 -3.576405e-08 8.620352e-09 -2.235841e-10
2.237875e-08 3.325894e-08 -2.111188e-08 1.296808e-08 8.533747e-09 8.720397e-09
2.000949e-08 3.874235e-08 -2.423978e-08 9.971512e-09 7.937579e-09 5.557361e-09
2.513705e-08 4.074912e-08 -2.531114e-08 1.069293e-08 6.055151e-09 6.862844e-09
2.595631e-08 3.516739e-08 -2.070040e-08 8.777617e-09 4.647062e-09 4.698780e-09
2.678070e-08 3.429531e-08 -2.714412e-08 1.535502e-08 8.656857e-09 4.189531e-09
4.897996e-07 -1.869760e-07 7.292071e-08 -3.668787e-07 7.561999e-08 -6.763606e-08
-7.203633e-08 1.590960e-07 2.909357e-07 -6.125394e-07 9.796403e-08 -2.694407e-10
-2.374428e-07 -9.980373e-08 8.801244e-07 -7.906486e-07 2.818373e-07 -4.651604e-08
1.555751e-07 1.217721e-07 4.301833e-07 -5.845419e-07 -4.802697e-08 2.465474e-09
-1.598630e-07 2.042673e-07 6.100463e-07 -6.332850e-07 -2.993843e-08 1.232065e-07
-2.539183e-07 2.343719e-07 1.077195e-06 -6.379435e-07 1.958937e-08 -1.297682e-07
-9.341650e-09 1.388811e-07 -9.324101e-08 7.019437e-08 3.972346e-08 9.847584e-09
-1.797811e-08 1.563863e-07 -8.849194e-08 5.821251e-08 2.685588e-08 9.750196e-09
-4.775638e-09 1.155312e-07 -7.458072e-08 4.321007e-08 6.243934e-09 8.095196e-09
-2.126894e-08 1.269301e-07 -8.904076e-08 4.208547e-08 9.943558e-09 4.390252e-09
-1.150626e-08 1.019450e-07 -7.744277e-08 3.796539e-08 2.834462e-08 1.175728e-08
1.246842e-07 -1.188794e-08 -7.043140e-08 5.098814e-08 2.221482e-09 2.396881e-08
1.068827e-07 -1.206249e-08 -5.894909e-08 3.322274e-08 -1.982550e-09 6.672693e-09
1.324951e-07 -1.243158e-08 -6.130612e-08 4.664484e-08 7.034439e-09 1.336010e-08
1.120699e-07 -1.557801e-08 -6.421670e-08 3.703355e-08 3.999076e-09 1.440532e-08
6.495442e-07 -7.721051e-07 7.795857e-07 1.890635e-08 -3.620590e-09 8.833157e-08
5.197324e-07 -2.507645e-07 2.459092e-07 -3.641767e-07 -1.121761e-08 2.958304e-08
5.652587e-07 -4.417421e-07 6.725503e-07 2.564701e-07 2.053024e-08 5.708638e-08
-1.021243e-07 3.244654e-07 -1.110981e-07 1.151063e-07 8.083613e-08 1.734968e-08
6.478742e-07 -4.012810e-07 2.575555e-07 1.836337e-07 -4.360458e-08 1.511495e-09
6.091092e-07 -5.593052e-07 5.585275e-07 5.929020e-09 -1.093095e-07 -1.023034e-07
7.230259e-08 -3.560120e-09 -2.589553e-08 -5.633951e-09 -6.711486e-10 3.552861e-09
7.219673e-08 -2.725771e-09 -2.342670e-08 -6.070968e-09 -2.174297e-09 4.057201e-09
6.894565e-08 -2.197159e-09 -2.434224e-08 -9.452188e-09 -4.495145e-09 5.498619e-09
7.401853e-08 -5.416629e-09 -2.399307e-08 -7.393178e-09 -1.814732e-09 5.014854e-09
6.691481e-08 -4.404397e-10 -2.270563e-08 -6.811880e-09 -2.812691e-09 2.352756e-09
6.837593e-08 -1.479825e-09 -2.596480e-08 -1.050102e-08 -1.005634e-09 6.573792e-09
6.873140e-08 -4.175912e-10 -2.321521e-08 -7.160916e-09 -1.372629e-09 3.870555e-09
4.103451e-08 3.759395e-08 -3.775292e-08 -1.812155e-08 -6.261185e-09 7.152216e-09
3.704681e-08 3.203754e-08 -4.117729e-08 -2.383408e-08 -1.600209e-08 1.664892e-08
2.948941e-08 4.200315e-08 -3.914396e-08 -9.730083e-09 -3.413708e-09 8.067452e-09
3.138931e-08 4.257811e-08 -4.008630e-08 -8.112418e-09 -3.463735e-09 6.342376e-09
2.350046e-08 4.147819e-08 -3.674349e-08 -2.057371e-08 -1.173718e-08 1.823321e-08
2.596721e-08 3.830860e-08 -3.671442e-08 -1.274935e-08 -9.587417e-09 1.546611e-08
3.227696e-07 -8.472340e-08 2.684642e-07 -5.156139e-07 1.142465e-07 -6.546277e-08
3.690348e-08 4.606067e-08 -5.449547e-08 -4.101463e-08 -1.084786e-08 9.001658e-09
-4.144991e-08 -1.207659e-06 2.858995e-06 2.216165e-07 8.242252e-09 5.662574e-08
5.474562e-08 9.497684e-08 -1.057467e-07 1.413322e-07 1.158985e-08 1.617682e-08
9.657821e-08 8.733753e-08 -1.109326e-07 1.384052e-07 3.743472e-08 3.269434e-08
7.562091e-08 8.992545e-08 -1.051950e-07 1.409213e-07 4.138113e-08 3.909257e-08
7.351282e-08 6.486035e-08 -9.305633e-08 1.120958e-07 2.262307e-08 2.166086e-08
6.182691e-08 3.801206e-09 -2.568075e-08 7.357338e-09 4.165441e-10 1.529697e-09
6.684285e-08 -9.393428e-10 -2.687719e-08 6.911656e-09 9.266673e-10 3.576060e-09
7.037269e-08 -1.741042e-10 -2.786418e-08 1.014572e-08 2.612288e-09 2.027149e-09
5.996904e-08 6.898574e-09 -2.373484e-08 4.820011e-09 1.393125e-09 1.807742e-09
7.498696e-08 -5.102352e-09 -2.479919e-08 3.833382e-09 1.340198e-09 1.523754e-09
6.633025e-08 1.910495e-09 -2.402826e-08 1.935340e-09 7.797227e-10 1.316303e-09
6.291788e-08 1.278409e-09 -2.389441e-08 1.060249e-08 3.924179e-09 5.616532e-09
6.258290e-08 1.938814e-09 -2.399148e-08 7.338409e-10 6.861608e-10 5.835308e-10
1.033838e-07 -6.244932e-09 -5.991991e-08 -3.640045e-08 -8.460311e-09 1.291770e-08
7.083533e-08 4.013498e-09 -3.071800e-08 -1.771925e-08 -7.487564e-10 3.527229e-09
7.438008e-08 -9.220125e-10 -3.380825e-08 -1.606163e-08 -8.140945e-10 1.632311e-09
7.043479e-08 3.863496e-09 -3.926756e-08 -2.148234e-08 -1.723776e-09 4.567291e-09
7.343421e-08 2.388323e-09 -3.275338e-08 -1.594899e-08 1.070036e-09 1.567462e-09
-1.609795e-08 6.737091e-08 -3.417365e-08 -1.023011e-09 5.930466e-09 -5.816324e-09
-1.563599e-08 7.682439e-08 -3.606935e-08 -1.568340e-09 6.383064e-09 -6.646592e-09
-1.364447e-08 7.586578e-08 -3.593940e-08 -3.110548e-09 6.081836e-09 -6.128920e-09
-1.795504e-08 7.854172e-08 -3.603018e-08 -1.673224e-09 5.563726e-09 -7.500959e-09
-1.813504e-08 6.892767e-08 -2.634712e-08 -3.556747e-09 1.274471e-08 -6.745939e-09
-1.557562e-08 6.642415e-08 -2.269377e-08 -2.413587e-09 1.071497e-08 -5.208024e-09
-1.672956e-08 6.463184e-08 -2.522723e-08 -2.924344e-09 5.460499e-09 -4.747248e-09
6.389577e-09 6.902340e-08 -5.448012e-08 2.391794e-08 4.851121e-09 3.244566e-09
1.563264e-08 8.755718e-08 -7.251750e-08 5.869295e-08 2.646252e-08 1.094052e-08
1.898517e-08 7.731851e-08 -6.747249e-08 5.055526e-08 1.645921e-08 1.651689e-08
1.322736e-08 7.775762e-08 -5.435311e-08 3.415280e-08 6.528419e-09 6.212950e-09
1.856052e-08 9.183104e-08 -7.283432e-08 5.655895e-08 3.950094e-09 7.508778e-09
2.083516e-08 7.919338e-08 -6.421940e-08 4.838209e-08 6.170906e-09 5.115731e-09
1.805375e-08 7.470578e-08 -5.665388e-08 3.561480e-08 3.176927e-09 5.057002e-09
4.364695e-08 2.088412e-08 -2.605026e-08 -1.802367e-09 -5.346954e-10 1.869833e-09
3.655834e-08 2.679188e-08 -2.205077e-08 5.396719e-09 1.445291e-09 1.865939e-09
3.272074e-08 3.062988e-08 -1.986562e-08 7.375553e-09 3.269367e-09 3.635567e-09
3.245456e-08 3.073207e-08 -2.090341e-08 8.211589e-09 3.646610e-09 2.566103e-09
3.443095e-08 2.577510e-08 -2.028988e-08 1.002229e-08 3.343857e-09 3.997449e-09
6.515873e-07 -8.958682e-07 9.632495e-07 -8.826674e-08 -1.561798e-08 7.664686e-07
3.665469e-08 2.463201e-08 -2.222434e-08 9.790578e-09 3.730273e-09 1.202142e-09
3.649032e-08 2.458299e-08 -1.995071e-08 8.569777e-09 1.982935e-09 1.817997e-09
1.165679e-07 8.632914e-08 -1.272771e-07 1.829770e-07 2.994951e-08 2.736739e-08
1.105346e-07 7.286121e-08 -1.010566e-07 1.706208e-07 2.630142e-08 2.559037e-08
5.778058e-08 7.336872e-08 -9.438691e-08 1.211863e-07 2.791992e-08 3.416578e-08
4.630029e-08 9.359129e-08 -9.900304e-08 1.050699e-07 1.596632e-08 8.855279e-09
6.774244e-08 1.278839e-07 -1.086096e-07 1.758269e-07 4.945201e-08 2.869418e-08
-2.215497e-07 4.525167e-07 -3.882189e-08 -5.179156e-08 3.658342e-08 1.743888e-08
8.473951e-08 4.418721e-08 -7.258625e-08 -7.570550e-08 -1.064926e-08 1.130898e-08
9.567791e-08 2.250671e-08 -7.917623e-08 -7.699361e-08 -1.160824e-08 6.488761e-09
1.815592e-07 5.336495e-08 -1.831658e-07 -8.674864e-08 2.019059e-08 -1.167038e-08
8.348485e-08 1.574959e-08 -7.440641e-08 -5.870017e-08 -8.900903e-09 1.368496e-08
1.139034e-07 1.357912e-08 -8.588843e-08 -1.035681e-07 -5.324355e-09 1.408799e-08
1.139070e-07 4.635802e-08 -8.849328e-08 -1.040687e-07 -7.802671e-09 1.401980e-08
1.253397e-07 1.981446e-08 -8.149186e-08 -9.164670e-08 -1.461586e-08 1.277242e-08
1.075759e-07 2.131855e-08 -7.723178e-08 -7.687511e-08 -8.351078e-09 1.467221e-08
-3.505030e-08 1.757944e-07 -1.125970e-07 2.529396e-08 -4.067654e-09 -2.917221e-09
2.079833e-08 6.408403e-08 -5.219778e-08 2.990276e-08 2.520760e-09 5.557073e-09
7.201883e-08 -1.365647e-09 -2.947613e-08 -8.813745e-09 4.660747e-10 6.035528e-11
2.189025e-08 6.509013e-08 -4.599367e-08 3.228020e-08 1.351607e-08 8.797460e-09
2.840988e-08 6.068690e-08 -4.899548e-08 3.879817e-08 9.796224e-09 8.257927e-09
2.652057e-08 5.145883e-08 -4.450287e-08 2.685043e-08 9.816564e-09 3.079979e-09
-1.548582e-08 8.288320e-08 -4.450605e-08 -5.381120e-09 5.441075e-09 -5.691147e-09
-1.666749e-08 8.202073e-08 -5.218405e-08 -6.361389e-09 1.785270e-08 -1.175682e-08
-1.846331e-08 8.506010e-08 -4.332917e-08 -1.003908e-08 2.182084e-08 -9.433785e-09
-1.853825e-08 9.538872e-08 -5.740631e-08 -1.318965e-08 9.002015e-09 -3.286691e-09
-1.370981e-08 8.404850e-08 -5.752271e-08 -9.004725e-09 1.214498e-08 -7.548670e-09
-1.038562e-08 2.784231e-07 -1.402246e-07 -2.049817e-07 2.135619e-08 -2.080628e-08
-1.003678e-08 2.520686e-07 -1.149160e-07 -2.160151e-07 2.417022e-08 -8.348774e-09
-7.819320e-10 3.406854e-07 -9.686564e-08 -2.974427e-07 2.949399e-08 -1.297707e-08
-3.639366e-08 3.801453e-07 2.271247e-08 -3.668974e-07 7.735092e-08 -5.048830e-08
-1.351732e-07 4.395780e-07 6.994307e-09 -2.492826e-07 -8.930552e-09 5.277291e-09
-8.746310e-08 3.930982e-07 -8.158833e-08 -2.598353e-07 5.395666e-08 -2.255442e-08
-1.818782e-07 3.795540e-07 4.622176e-08 -3.376214e-07 6.812197e-08 -6.098237e-08
-2.575276e-07 5.881182e-07 -3.205985e-08 -5.732821e-08 1.353113e-08 2.138880e-09
-2.552922e-07 4.561215e-07 4.087766e-08 6.142420e-08 8.592409e-08 3.267239e-09
-4.067969e-07 5.709462e-07 1.741755e-07 -3.427993e-09 -1.288553e-08 2.510526e-08
-2.575333e-07 6.044847e-07 -3.899699e-08 6.907754e-08 -2.290499e-08 -1.351538e-08
-3.715125e-08 1.698474e-07 -9.297556e-08 4.007342e-08 -5.985175e-08 -2.654634e-08
-4.254820e-08 1.232767e-07 -9.269185e-08 2.233279e-08 -7.034181e-08 -2.830582e-08
-4.024667e-08 1.593218e-07 -1.035634e-07 2.324404e-08 -2.402130e-08 -8.783416e-09
-3.680676e-08 1.592391e-07 -1.097114e-07 2.010736e-08 -2.638681e-08 -1.172872e-08
-4.112656e-08 1.463478e-07 -9.714806e-08 1.251628e-08 -5.954549e-08 -2.742011e-08
-5.067419e-08 2.039750e-07 -1.278608e-07 3.446867e-08 -4.720351e-08 -1.225909e-08
-2.686606e-08 9.056555e-08 -4.857076e-08 -5.704930e-09 1.904892e-08 -9.255123e-09
-2.821958e-08 7.870233e-08 -2.786917e-08 -5.102846e-09 2.142505e-08 -8.748353e-09
-2.518368e-08 8.036896e-08 -4.706431e-08 -3.554593e-09 2.024230e-08 -1.039353e-08
-2.843808e-08 5.601360e-08 -3.207897e-08 -1.424912e-09 3.611233e-08 -1.254380e-08
-2.827431e-08 1.002421e-07 -5.212726e-08 -1.037085e-08 3.615182e-08 -9.776475e-09
-2.338558e-08 8.080905e-08 -4.462497e-08 -6.377170e-09 2.339384e-08 -1.248994e-08
-2.698683e-08 8.862127e-08 -4.922252e-08 -1.423946e-08 3.400165e-08 -8.719736e-09
-2.244063e-08 8.305521e-08 -3.021220e-08 -1.005277e-08 3.669991e-08 -1.772820e-08
3.661987e-08 2.585493e-08 -2.129508e-08 1.701715e-09 4.543097e-10 6.667322e-10
4.123408e-08 2.239001e-08 -1.947278e-08 2.908222e-09 8.290633e-10 8.428652e-10
4.034466e-08 2.319926e-08 -1.969255e-08 1.620056e-09 -1.802504e-10 3.792459e-10
1.489904e-07 1.025071e-07 -1.331522e-07 -2.109791e-07 6.716669e-08 -5.123597e-08
1.265706e-07 1.379029e-07 -7.714565e-08 -3.038032e-07 1.891025e-08 -5.138795e-09
1.528768e-07 9.431280e-08 -5.831984e-08 -2.993959e-07 2.528121e-08 -2.877287e-08
1.322115e-07 1.543134e-07 -1.163078e-07 -2.940853e-07 4.846005e-09 -1.588149e-08
9.165751e-08 2.449827e-07 -9.244529e-08 -3.110301e-07 2.861870e-08 -1.857440e-08
1.221306e-07 8.349143e-08 -2.390838e-08 -4.189054e-07 1.359953e-08 2.283000e-08
1.625140e-07 7.533260e-08 -3.919490e-08 -2.932694e-07 3.123619e-08 -1.666346e-08
1.025047e-07 1.996740e-07 4.489421e-08 -4.014338e-07 6.378897e-08 -7.576186e-08
1.219753e-07 1.582252e-07 6.199750e-09 -3.967690e-07 1.038426e-07 -8.073965e-08
-2.359525e-08 7.761148e-08 -2.726205e-08 -1.528057e-09 2.545689e-09 -7.564945e-09
-2.197832e-08 7.301268e-08 -2.593870e-08 -4.492051e-09 1.662788e-08 -8.139582e-09
-2.097877e-08 8.589146e-08 -4.419851e-08 -6.553704e-09 1.101090e-08 -9.239607e-09
1.985435e-07 -4.628816e-08 -9.653247e-08 -5.503997e-08 -9.253321e-10 4.243078e-08
1.927152e-07 -3.093142e-08 -8.115503e-08 -6.273216e-08 -6.576848e-09 2.609894e-08
1.648778e-07 -4.421360e-08 -8.714827e-08 -3.376602e-08 -3.367101e-09 1.212164e-08
2.105242e-07 -4.461828e-08 -8.882912e-08 -4.277642e-08 -7.052246e-09 3.140261e-08
-1.332142e-06 -1.411406e-07 3.157244e-06 -3.189818e-07 -3.611310e-07 1.281227e-07
-1.752888e-06 -9.882334e-07 5.300845e-06 -1.399827e-07 -7.247529e-07 3.543170e-07
-1.581170e-06 -3.628675e-07 4.261016e-06 -1.134307e-07 -1.347925e-07 2.127279e-08
-1.417030e-06 -1.038574e-07 3.379479e-06 -4.226085e-07 -8.248120e-07 2.284802e-07
4.548312e-08 2.000056e-08 -2.225264e-08 6.625714e-09 4.907241e-10 1.153718e-09
4.805215e-08 1.665165e-08 -2.151545e-08 5.241076e-09 1.527759e-09 7.307061e-10
4.580837e-08 1.658320e-08 -2.053887e-08 6.455352e-09 2.475048e-10 2.208084e-09
4.507165e-08 1.826188e-08 -2.036669e-08 3.938705e-09 1.208476e-09 1.024488e-10
4.792492e-08 1.721403e-08 -2.058643e-08 5.335312e-09 7.830123e-10 6.963870e-10
4.527823e-08 1.861947e-08 -1.966329e-08 5.546608e-09 5.048212e-10 7.911028e-10
-5.446973e-08 1.645485e-07 -1.079040e-07 -4.899050e-08 -1.063727e-07 1.118633e-08
-3.951183e-08 1.942322e-07 -1.121259e-07 -1.766509e-08 -1.993799e-08 8.262498e-09
-5.541644e-08 2.139496e-07 -1.383668e-07 -2.460403e-08 -1.367809e-08 1.846075e-09
-3.927485e-08 1.753637e-07 -9.851370e-08 -1.895901e-08 -7.465073e-08 1.204701e-08
-6.535545e-08 2.318797e-07 -1.445515e-07 -4.627336e-08 -4.073364e-08 4.704075e-09
-5.985749e-08 2.382502e-07 -1.079502e-07 -1.684451e-08 -7.901309e-08 9.047632e-09
-6.027774e-08 1.694078e-07 -1.187911e-07 -1.620997e-08 -2.741337e-08 8.184808e-09
-4.210951e-08 1.597989e-07 -8.897695e-08 -2.099048e-08 1.067299e-08 6.132216e-10
-4.958607e-08 1.688899e-07 -9.121984e-08 -3.868472e-09 3.201760e-08 -2.323152e-09
-4.709211e-08 1.678059e-07 -9.191227e-08 -9.953391e-09 1.086357e-08 3.057167e-09
4.926726e-08 2.485703e-08 -2.975421e-08 2.070371e-08 2.940279e-09 2.154723e-09
4.955016e-08 3.084074e-08 -3.766245e-08 2.870268e-08 3.963248e-09 5.084068e-09
4.572382e-08 2.534310e-08 -3.222301e-08 2.094890e-08 2.935127e-09 -8.567927e-10
4.307436e-08 2.500220e-08 -3.526384e-08 2.190900e-08 1.819968e-09 2.102011e-09
7.680125e-08 -1.608722e-09 -3.084220e-08 -1.027605e-08 -3.394775e-10 1.347905e-09
8.384361e-08 -6.216044e-09 -3.368864e-08 -1.415465e-08 -5.952037e-10 5.567434e-09
7.132709e-08 9.594966e-10 -2.996850e-08 -1.230411e-08 -1.278395e-10 1.444111e-09
7.684896e-08 -3.975116e-09 -3.017050e-08 -1.054675e-08 -3.008530e-09 2.487871e-09
8.290264e-08 -3.386534e-09 -3.625513e-08 -1.731050e-08 7.355411e-10 2.048133e-09
7.425160e-08 -9.231432e-10 -3.136026e-08 -1.424793e-08 -2.188833e-10 4.123231e-09
-3.963679e-07 6.727225e-07 2.084415e-07 3.397340e-08 -4.663571e-08 -8.077020e-08
-6.008554e-07 7.169379e-07 6.928179e-07 -9.661271e-08 6.381508e-08 -1.456244e-07
-4.748078e-07 7.389132e-07 2.495816e-07 -1.518227e-07 8.210876e-08 7.208602e-09
-6.087527e-07 7.364326e-07 6.503051e-07 6.569816e-08 2.774853e-09 -1.000475e-07
8.329422e-08 4.516296e-08 8.707866e-07 -6.189605e-07 -3.400726e-08 -7.065635e-09
-2.212041e-07 3.388692e-07 8.733710e-07 -5.717580e-07 -6.719951e-08 1.913560e-08
-2.802217e-07 5.387771e-08 8.688135e-07 -7.076368e-07 -7.358687e-09 4.680898e-08
-2.545192e-07 1.762423e-07 8.444131e-07 -6.491215e-07 2.747882e-08 5.462310e-08
-1.149438e-06 3.486328e-07 2.509701e-06 4.289911e-07 3.923031e-07 3.334733e-08
-6.260302e-07 3.039230e-07 2.130621e-06 5.472234e-07 3.828725e-07 2.329874e-07
-1.075153e-06 5.259396e-07 1.725122e-06 2.304728e-07 3.470492e-07 5.288086e-08
-9.172866e-07 5.850275e-07 1.217692e-06 3.551846e-07 7.440468e-08 -9.129298e-08
-5.507188e-09 7.693467e-08 -4.663796e-08 1.815082e-08 1.814677e-08 8.734509e-09
-7.203372e-09 6.651232e-08 -4.172378e-08 1.050219e-08 1.714158e-08 1.041448e-08
-3.454194e-09 7.767167e-08 -3.982844e-08 1.961999e-08 2.219277e-08 1.333863e-08
-2.218876e-07 5.770325e-07 -3.068568e-08 -1.164168e-07 4.471312e-08 -5.002302e-10
-8.887751e-09 8.437302e-08 -5.255403e-08 1.949096e-08 2.293211e-08 1.530444e-08
6.125836e-09 1.043016e-07 -8.460212e-08 -3.586107e-08 1.061146e-08 -8.546093e-10
-3.435392e-09 1.085514e-07 -9.938925e-08 -4.193492e-08 2.684291e-08 -7.075413e-09
1.707468e-08 1.198103e-07 -1.084776e-07 -6.806337e-08 4.304607e-08 -1.154248e-08
2.479251e-08 9.899123e-08 -8.269788e-08 -3.668197e-08 2.194599e-08 -7.457800e-09
2.103130e-08 1.177911e-07 -1.117189e-07 -6.402923e-08 3.116469e-08 -2.054199e-08
-2.191949e-07 4.298985e-07 -3.068569e-08 -8.628599e-08 2.716341e-08 7.400954e-09
8.790590e-08 -1.429211e-08 -2.802836e-08 -7.301856e-09 -2.171004e-09 5.345109e-09
8.361913e-08 -1.451964e-08 -2.250381e-08 -5.279555e-09 -2.101810e-09 5.586055e-09
8.077270e-08 -1.133603e-08 -2.262815e-08 -3.419992e-09 -8.126262e-10 4.202244e-09
8.298195e-08 -1.464043e-08 -2.604165e-08 -5.572378e-09 -1.425907e-09 7.358020e-09
8.123478e-08 -6.516108e-09 -3.264632e-08 -1.401165e-08 -2.414849e-09 1.035845e-08
-7.244660e-08 2.727415e-07 -1.428695e-07 6.085350e-08 -6.751460e-08 -1.626508e-08
-5.034428e-08 2.010414e-07 -1.184425e-07 4.526764e-08 -3.385687e-08 -1.085788e-08
-1.152770e-07 3.869185e-07 -1.446500e-07 1.110658e-07 -5.104513e-08 -1.074475e-08
6.750328e-08 -4.238797e-10 -2.090139e-08 -6.547906e-09 -2.051151e-09 3.527405e-09
6.533382e-08 -3.644217e-10 -2.124047e-08 -4.460262e-09 -1.821090e-09 1.973345e-09
6.289123e-08 4.120692e-09 -2.040015e-08 -5.550770e-09 -1.870708e-09 2.530122e-09
-5.880686e-08 2.345203e-07 -1.355765e-07 4.201291e-08 -1.890507e-08 -1.724252e-10
6.232680e-08 3.897184e-09 -2.142462e-08 -8.173931e-09 -1.713162e-09 3.550668e-09
4.428393e-08 1.043753e-07 -1.040000e-07 -9.930041e-08 -1.053665e-08 8.273389e-09
3.541389e-08 6.473056e-08 -8.205888e-08 -6.199557e-08 -2.319570e-08 2.030105e-08
4.312305e-08 1.053496e-07 -1.029381e-07 -1.208776e-07 -3.390460e-08 2.471341e-08
6.044628e-08 9.650369e-08 -1.046463e-07 -1.201780e-07 -3.950592e-08 3.080899e-08
5.858083e-08 8.059843e-08 -1.011146e-07 -1.012213e-07 -1.259582e-08 1.156410e-08
2.461886e-07 5.019329e-08 -9.553534e-08 -2.698787e-07 6.085155e-08 -6.446486e-08
1.776070e-07 5.019329e-08 -6.087611e-08 -2.869002e-07 5.576284e-08 -1.674945e-08
2.017175e-07 1.078192e-07 2.908200e-07 -4.783201e-07 3.066550e-08 -9.265714e-08
1.218095e-07 8.344569e-08 -1.314531e-08 -4.187825e-07 6.311090e-08 -8.849461e-08
2.662444e-07 -9.054781e-09 4.319676e-08 -4.804604e-07 3.017348e-08 4.785309e-08
2.278905e-07 -8.050966e-08 1.673964e-07 -3.710837e-07 2.879516e-08 -4.810753e-09
2.154769e-07 5.218606e-08 2.035769e-07 -4.899642e-07 1.035647e-07 -6.581828e-08
1.061037e-07 -8.225780e-09 -4.773813e-08 3.355115e-08 4.850657e-09 8.137417e-09
1.033160e-07 -7.971930e-09 -6.458662e-08 3.507436e-08 -1.698158e-09 1.809419e-09
9.651969e-08 -1.126665e-08 -4.031301e-08 1.956266e-08 -1.103689e-09 3.649985e-09
9.544788e-08 -1.213779e-08 -4.259963e-08 1.859564e-08 3.698740e-10 5.304263e-09
8.636481e-08 -5.614726e-09 -3.834330e-08 2.249917e-08 1.663379e-09 6.732032e-09
1.044676e-07 -1.671638e-08 -5.017005e-08 2.324965e-08 1.681466e-09 9.459849e-09
9.512230e-08 -8.808224e-09 -4.996083e-08 2.691612e-08 3.132218e-09 1.026301e-08
8.839409e-08 -7.793731e-09 -4.516710e-08 2.295793e-08 6.097453e-09 7.960699e-09
1.285580e-07 -2.273151e-08 -5.477266e-08 -2.641583e-08 -3.391007e-09 7.827533e-09
6.155353e-08 6.122319e-09 -2.854555e-08 1.192187e-08 1.951346e-09 3.309241e-09
1.188422e-07 -2.599821e-08 -5.425819e-08 -1.542185e-08 -1.154382e-09 1.072305e-08
1.396194e-07 -2.966596e-08 -6.647167e-08 -1.692545e-08 6.104846e-09 7.723011e-09
1.412374e-07 -2.530165e-08 -6.026503e-08 -1.962678e-08 -1.546459e-09 1.285580e-08
1.289353e-07 -2.722890e-08 -6.316702e-08 -2.552189e-08 -1.043547e-08 1.563927e-08
1.321262e-07 -3.106757e-08 -6.923948e-08 -2.737417e-08 -2.415883e-09 8.064725e-09
5.869287e-09 5.786352e-08 -6.350095e-08 -1.538968e-08 5.307985e-08 -1.998858e-08
-1.588111e-08 6.178600e-08 -2.561326e-08 -2.500238e-09 2.569075e-08 -9.479438e-09
-8.849698e-09 6.116236e-08 -3.759189e-08 -8.117308e-09 3.325326e-08 -9.145115e-09
5.973470e-08 7.130569e-09 -2.905419e-08 1.093341e-08 2.171383e-10 -6.823147e-10
3.904866e-08 5.341521e-08 -5.339777e-08 -3.285780e-08 -4.287315e-09 3.893557e-09
-6.889074e-09 4.314008e-08 -4.622857e-08 -7.265066e-09 5.272249e-08 -1.243534e-08
-4.480717e-08 1.843120e-07 -1.186786e-07 3.681217e-09 8.818602e-16 -8.581930e-10
1.912912e-09 9.771299e-08 -7.774713e-08 2.143500e-09 -3.101954e-09 -2.353427e-16
-7.600473e-09 4.823030e-08 -3.165887e-08 -3.829190e-09 3.427779e-08 -7.743868e-09
-8.384332e-09 6.190015e-08 -2.578038e-08 -3.644405e-09 2.518460e-08 -7.500840e-09
5.372643e-08 1.131648e-08 -2.005766e-08 -1.183908e-09 -4.820757e-10 8.679595e-11
5.316277e-08 1.158724e-08 -2.012029e-08 -5.383485e-10 -6.162622e-10 -3.614582e-12
5.060411e-08 1.252389e-08 -1.942616e-08 -7.890240e-10 1.156940e-10 2.094630e-10
5.072606e-08 1.262471e-08 -2.001470e-08 -9.201633e-10 -2.147166e-10 3.541561e-10
4.093373e-07 -1.048163e-07 -2.658540e-08 -2.878991e-07 -3.004822e-08 1.015656e-07
3.118977e-07 -1.049557e-07 -1.101759e-07 -2.147634e-07 -4.423614e-08 7.653959e-08
3.293903e-07 -1.076282e-07 -7.346360e-08 -2.212211e-07 -2.388030e-08 4.606138e-08
3.119911e-07 -1.124488e-08 -1.019581e-07 -2.303856e-07 -6.414887e-10 1.038774e-08
2.587241e-08 4.341100e-08 -3.545555e-08 -6.953439e-09 -4.294239e-09 1.187868e-08
2.380070e-08 4.082357e-08 -3.650344e-08 -4.602608e-09 -7.030382e-09 1.470875e-08
1.066481e-08 4.946482e-08 -4.181947e-08 -4.721965e-09 -9.061108e-09 1.976039e-08
2.117067e-08 4.028220e-08 -3.830376e-08 -1.013272e-08 -9.092142e-09 1.235920e-08
2.119688e-08 4.904523e-08 -3.951332e-08 -2.308392e-08 -1.553220e-08 1.786282e-08
-1.632160e-08 7.733012e-08 -3.389801e-08 3.232346e-09 -1.292655e-08 -8.672985e-09
-2.066373e-08 8.196188e-08 -3.630039e-08 5.831630e-09 -2.265760e-08 -1.437714e-08
-1.984358e-08 9.623259e-08 -5.833084e-08 2.540079e-09 -9.863134e-09 -1.480319e-08
-2.006240e-08 8.166042e-08 -5.084086e-08 6.187989e-10 -5.300216e-09 -1.364693e-08
-1.815618e-08 7.512059e-08 -3.643622e-08 1.200069e-09 -1.816118e-08 -1.407232e-08
-1.802466e-09 8.715851e-08 -6.326901e-08 1.294852e-08 -2.552202e-08 -7.384901e-09
2.268000e-07 -6.815277e-09 -8.099017e-08 -3.276806e-07 -2.584753e-08 3.314489e-08
-4.448103e-08 1.246375e-07 -8.646641e-08 7.292570e-10 -3.410787e-08 -6.927976e-09
-5.743226e-08 1.821966e-07 -1.052645e-07 1.491897e-08 -7.839847e-08 -1.533901e-08
-4.349511e-08 1.238396e-07 -8.582782e-08 -4.957242e-09 -3.425436e-08 -2.716017e-09
-4.792500e-08 1.833320e-07 -1.130797e-07 -1.766555e-09 -2.134469e-08 -2.179645e-09
-4.165176e-08 1.707084e-07 -1.166680e-07 1.192253e-08 -2.772515e-08 -4.216746e-09
-5.454776e-08 1.718246e-07 -1.203901e-07 6.205360e-09 -2.812089e-08 -1.564308e-09
-3.345072e-09 9.727770e-08 -6.478720e-08 5.750091e-09 -7.618766e-09 -7.404512e-09
-1.203388e-08 1.058258e-07 -7.767233e-08 4.746329e-09 -1.791055e-09 -5.166088e-09
2.873067e-09 1.193245e-07 -1.001576e-07 3.234126e-08 -2.640376e-08 -1.341281e-08
-7.512666e-09 1.046635e-07 -7.716326e-08 5.813861e-09 -6.321934e-10 -3.204293e-09
-1.143195e-08 1.111189e-07 -7.632948e-08 1.148981e-08 -8.230984e-09 -9.187830e-09
6.270669e-08 5.090091e-09 -2.924058e-08 1.567620e-08 2.640442e-09 5.320029e-09
-1.070555e-08 1.239675e-07 -9.552856e-08 2.636728e-08 -8.864212e-09 -4.736324e-09
-3.247469e-08 1.475088e-07 -1.097149e-07 3.426655e-08 -2.417147e-08 -1.296422e-08
-1.627042e-08 1.456922e-07 -9.886785e-08 3.392501e-08 -2.963011e-08 -1.565018e-08
-2.777967e-08 1.974827e-07 -1.286302e-07 6.924291e-08 -4.454867e-08 -2.640833e-08
-9.295030e-09 1.535652e-07 -1.145276e-07 5.246486e-08 -1.460638e-08 -1.541429e-08
-1.138349e-08 2.002561e-07 -1.267905e-07 8.903529e-08 -3.507338e-08 -1.568702e-08
-4.307226e-08 2.207538e-07 -1.329673e-07 9.217906e-08 -5.391584e-08 -1.795092e-08
-9.218953e-09 1.443684e-07 -1.078714e-07 4.923390e-08 -3.508025e-08 -1.153028e-08
-3.087256e-08 1.503037e-07 -9.200438e-08 3.106528e-08 5.895730e-09 7.466704e-09
-6.109641e-08 1.963551e-07 -1.134860e-07 4.862380e-08 4.737241e-08 7.238186e-09
-3.284359e-08 1.442826e-07 -9.598436e-08 3.694581e-08 1.103520e-08 3.686221e-09
-3.716972e-08 1.862056e-07 -9.524571e-08 4.844973e-08 1.810472e-08 7.468260e-09
-4.327723e-08 2.085798e-07 -1.001589e-07 3.366859e-08 3.041350e-08 4.533577e-09
-4.848246e-08 1.830957e-07 -1.012652e-07 4.235796e-08 4.160047e-08 1.965890e-08
7.473369e-08 1.489013e-07 -8.192355e-08 -2.688904e-07 -3.745525e-08 2.776692e-08
1.535713e-08 2.373768e-07 -9.584216e-08 -3.138663e-07 -7.221017e-08 5.523135e-08
3.237851e-09 2.755660e-07 -6.766888e-08 -3.427796e-07 -5.121159e-08 4.863112e-08
1.793174e-08 2.498887e-07 -8.851776e-08 -2.584029e-07 -8.806120e-08 4.067586e-08
2.206462e-09 -5.342631e-07 1.778828e-06 -6.548730e-07 3.762530e-08 1.111245e-07
9.491569e-08 -5.395664e-07 1.277093e-06 -6.678186e-07 1.743124e-07 -1.680514e-07
-1.371144e-07 -4.741495e-07 1.669208e-06 -6.979042e-07 2.248047e-07 -3.080465e-07
6.323218e-07 -6.012087e-07 7.787354e-07 -1.888020e-07 -9.771273e-09 1.345011e-07
9.343136e-08 -1.345289e-07 8.624735e-07 -6.798967e-07 -4.437939e-09 1.169969e-07
-2.733574e-08 7.354752e-08 -4.009562e-08 -1.516557e-08 6.064368e-08 -2.347625e-08
-2.204559e-08 1.190605e-07 -6.616489e-08 -3.104963e-08 4.487083e-08 -1.350865e-08
-3.240371e-08 1.010769e-07 -4.661632e-08 -7.505694e-09 2.987334e-08 -8.937199e-09
-3.106210e-08 1.237775e-07 -6.223810e-08 -2.121740e-08 3.721391e-08 -1.362865e-08
-3.244058e-08 1.004612e-07 -5.448928e-08 -1.241131e-08 3.817296e-08 -6.537959e-09
4.156961e-07 -6.412533e-08 -9.163773e-08 -3.036013e-07 5.066797e-08 -8.536724e-08
3.299907e-07 -1.346361e-08 -1.896908e-09 -3.599256e-07 -2.146978e-08 -4.903897e-08
4.458218e-07 -2.927489e-07 2.112482e-07 -4.820790e-07 3.079360e-08 1.040030e-07
2.659791e-07 -9.334351e-09 1.800566e-07 -4.800114e-07 6.036504e-08 -3.998470e-08
4.006622e-07 -1.848792e-07 4.361850e-07 -4.980033e-07 1.208521e-07 -2.689621e-09
1.209979e-08 1.365853e-07 -1.342267e-07 7.363864e-08 -3.761088e-08 -1.603116e-08
-3.420576e-09 1.842077e-07 -1.474863e-07 1.104062e-07 -1.402175e-08 -1.064360e-08
-4.832750e-09 1.776473e-07 -1.347319e-07 1.178973e-07 -6.046558e-08 -3.217528e-08
9.845296e-09 1.729464e-07 -1.314228e-07 1.098721e-07 -5.991405e-08 -2.144891e-08
1.378913e-07 -5.607494e-09 -1.035114e-07 -6.518092e-08 8.321309e-08 -6.740634e-08
2.338752e-07 -4.754493e-08 -1.225992e-07 -8.111438e-08 6.015398e-08 -3.491451e-08
8.766574e-08 3.880035e-09 -1.183523e-07 -3.319130e-08 9.121147e-08 -2.336121e-08
9.344831e-08 3.602243e-09 -7.329521e-08 -3.374184e-08 9.351982e-08 -3.979961e-08
3.164039e-08 -3.973335e-09 -6.412766e-08 -4.311119e-08 8.716094e-08 -2.589973e-08
2.350648e-07 -2.866178e-08 -1.436441e-07 -2.073423e-08 8.873481e-08 -4.611367e-08
-2.524213e-07 5.378012e-07 1.782815e-08 -1.883603e-07 8.584980e-08 -2.146278e-08
-2.576994e-07 5.294563e-07 4.446867e-08 -1.891107e-07 1.165328e-08 5.241819e-10
-3.373030e-07 5.422292e-07 2.031544e-07 -2.681536e-07 2.975388e-08 -1.345734e-08
-4.088389e-07 4.926073e-07 2.995271e-07 -3.451910e-07 -4.143062e-08 4.099779e-08
4.775617e-08 4.149264e-08 -4.531153e-08 3.852348e-08 6.743993e-09 7.667798e-09
4.770862e-08 3.974853e-08 -5.249423e-08 4.034861e-08 6.618501e-10 7.351833e-09
4.035176e-08 3.259486e-08 -4.627385e-08 2.958985e-08 3.249310e-09 4.960372e-09
2.590219e-08 4.993039e-08 -4.955151e-08 3.042928e-08 6.629316e-09 7.021480e-09
3.658022e-08 4.417745e-08 -5.313701e-08 3.828054e-08 5.871122e-09 3.566226e-09
-3.277087e-08 1.240997e-07 -7.052831e-08 4.589107e-09 1.234470e-08 3.032597e-09
-2.641850e-08 1.044227e-07 -6.145317e-08 3.277095e-09 2.446443e-09 4.201065e-09
-3.033666e-08 1.213577e-07 -7.004345e-08 2.619785e-09 1.292611e-08 1.920307e-09
-3.278289e-08 1.351006e-07 -7.334283e-08 5.930497e-09 1.786156e-08 2.715350e-09
-2.634759e-08 1.164995e-07 -6.648173e-08 4.811321e-09 1.028284e-08 6.316452e-09
-3.167115e-08 1.260657e-07 -7.298959e-08 1.101704e-08 1.840414e-08 1.141389e-09
5.891750e-08 1.064714e-07 -1.059134e-07 1.197877e-07 1.273095e-08 1.085398e-08
6.205460e-08 8.822537e-08 -1.028004e-07 1.050454e-07 1.086715e-08 4.768045e-09
5.891715e-08 1.063838e-07 -1.055018e-07 1.197629e-07 3.933826e-08 2.570850e-08
4.524674e-08 1.093744e-07 -1.008142e-07 1.202614e-07 4.325626e-08 2.883661e-08
2.664304e-08 1.182385e-07 -9.870525e-08 1.163608e-07 1.224464e-08 1.460949e-08
5.418004e-08 1.320462e-08 -2.532972e-08 1.094673e-08 -3.657255e-11 2.345711e-09
5.038551e-08 1.504273e-08 -2.228227e-08 5.210742e-09 4.329292e-10 7.425678e-10
5.103840e-08 1.370532e-08 -2.375402e-08 6.702684e-09 1.078928e-09 -2.215119e-11
5.269103e-08 1.317695e-08 -2.752323e-08 1.219244e-08 1.254725e-09 5.151949e-10
5.156060e-08 1.586333e-08 -2.891257e-08 1.295806e-08 2.971659e-10 -1.016426e-09
5.500351e-08 1.446213e-08 -3.146566e-08 2.078137e-08 4.961245e-09 2.861611e-09
4.701732e-08 1.685277e-08 -2.274290e-08 8.093987e-09 1.521809e-09 -1.227217e-10
1.371773e-07 -2.122957e-08 -7.103389e-08 -4.440088e-08 -3.505380e-09 1.201745e-08
1.502411e-07 -1.948003e-08 -8.181397e-08 -4.997898e-08 -9.822165e-10 1.222339e-08
5.948314e-08 7.935229e-08 -1.081631e-07 -7.522133e-09 3.776244e-08 -4.380964e-09
1.334957e-07 -2.764972e-08 -6.483057e-08 -2.513697e-08 1.912927e-09 1.931375e-08
1.100812e-07 -2.107267e-08 -4.425676e-08 -1.421244e-08 1.698561e-09 4.217509e-09
1.538316e-07 -3.663162e-08 -8.698880e-08 -3.995295e-08 6.284278e-10 2.888557e-09
1.510727e-07 -3.607118e-08 -8.171092e-08 -4.807059e-08 -1.999518e-09 1.192341e-08
1.484041e-07 -2.482082e-08 -6.921000e-08 -3.967762e-08 -8.205454e-09 2.414004e-08
-1.924611e-08 1.366729e-07 -8.799816e-08 -3.838966e-08 1.187979e-08 -1.782572e-09
-3.300396e-08 1.502541e-07 -8.954669e-08 -4.321981e-08 3.084282e-08 -1.073011e-08
-3.420559e-08 1.876505e-07 -1.126948e-07 -6.012472e-08 1.785339e-08 -5.720989e-09
-3.299665e-08 1.861851e-07 -1.105941e-07 -6.497861e-08 4.890756e-08 -2.410329e-08
-1.171302e-08 1.381893e-07 -1.074251e-07 -5.348453e-08 2.543237e-08 -1.216195e-08
-1.444153e-08 1.327841e-07 -9.495856e-08 -4.823772e-08 2.904370e-08 -9.735919e-09
1.236328e-07 4.645803e-08 -1.102734e-07 -1.561485e-07 -2.696126e-08 3.452171e-08
6.241478e-08 3.302408e-09 -2.225854e-08 9.991138e-09 1.251609e-09 5.282739e-09
1.249660e-07 1.026397e-07 -1.247640e-07 -2.274450e-07 -2.777782e-08 3.389099e-08
1.059077e-07 7.960914e-08 -1.242508e-07 -2.021032e-07 -4.506915e-08 4.725615e-08
1.518626e-07 1.246727e-07 -1.018998e-07 -2.543093e-07 -6.660714e-08 5.645586e-08
-4.264805e-08 1.857286e-07 -1.215280e-07 -3.163007e-08 -1.431473e-08 1.712047e-09
-2.810625e-08 1.537100e-07 -1.095593e-07 -1.524617e-08 -1.975633e-08 8.795966e-09
-2.359183e-08 1.475534e-07 -1.027825e-07 -1.071723e-08 1.551660e-09 6.357466e-09
-1.567656e-08 1.540791e-07 -9.689959e-08 -3.339046e-08 -2.162549e-08 9.105314e-09
-2.199473e-08 1.203768e-07 -9.738320e-08 -1.878949e-08 -1.663837e-08 6.988290e-09
-3.128049e-08 1.401626e-07 -1.104812e-07 -4.094378e-08 -2.795392e-08 1.255060e-08
-2.069328e-08 1.340335e-07 -9.936163e-08 -1.021197e-08 -1.362934e-08 6.794889e-09
-2.745773e-08 1.544183e-07 -1.062626e-07 -1.543241e-08 -1.311983e-09 2.561440e-09
-2.324352e-08 1.152450e-07 -9.818547e-08 -2.148054e-08 -1.318705e-08 9.294733e-09
3.791298e-07 -6.485814e-07 1.227462e-06 5.526315e-07 3.044591e-08 2.269176e-07
3.477686e-07 -1.098335e-06 2.824500e-06 3.965121e-07 1.928693e-07 3.543156e-07
5.258761e-07 -8.477335e-07 1.569405e-06 1.682342e-07 1.909098e-08 3.253154e-07
4.961012e-07 -1.035467e-06 2.011681e-06 2.479019e-07 -2.095677e-07 4.762679e-07
-2.580352e-07 -8.381348e-08 1.883764e-06 -6.839431e-07 -2.080195e-07 1.369610e-07
2.110369e-07 -3.103059e-07 6.311105e-07 5.975826e-07 -4.257141e-08 -6.099639e-08
-5.914351e-07 3.375320e-07 8.515455e-07 -5.585499e-07 -1.300499e-07 1.239997e-07
-6.807352e-07 3.963012e-08 1.825757e-06 -6.452399e-07 -2.056028e-07 1.757498e-07
-7.816170e-07 -9.510017e-08 1.808304e-06 -7.646473e-07 -2.202686e-07 2.638531e-07
-3.319529e-08 1.676721e-07 -1.070808e-07 6.553238e-08 4.394581e-08 1.141523e-08
-3.303167e-08 2.154540e-07 -1.081753e-07 8.791053e-08 4.718422e-08 1.661379e-08
-6.230819e-08 2.337008e-07 -1.158799e-07 9.439991e-08 6.251819e-08 1.298231e-08
-5.894183e-08 2.381512e-07 -1.167179e-07 8.953750e-08 6.623331e-08 1.169214e-08
1.905922e-08 2.743430e-07 -3.257489e-08 3.748760e-07 -2.676395e-08 1.566509e-08
1.554262e-07 2.099252e-07 -1.320590e-07 3.567709e-07 -1.209875e-08 -1.996731e-08
-3.351254e-08 3.350955e-07 -2.702460e-08 3.555160e-07 -1.873323e-08 -3.517704e-08
5.133160e-08 1.576743e-07 8.134078e-08 3.987980e-07 -3.135802e-08 -2.381205e-09
2.127413e-08 7.675994e-08 -7.396325e-08 -5.056904e-10 -4.641972e-08 -7.247309e-09
2.025034e-07 1.080918e-07 2.017241e-07 -4.788069e-07 -2.378053e-08 3.481593e-08
1.348294e-07 8.226722e-08 1.596305e-07 -4.263972e-07 -3.942176e-08 1.203969e-09
2.327046e-07 5.194035e-08 1.767411e-07 -4.801138e-07 -6.134748e-08 3.607371e-08
2.966785e-07 -1.085590e-08 4.004607e-07 -5.161737e-07 1.048616e-08 -8.362128e-08
-6.029591e-08 2.174500e-07 -1.250704e-07 -1.548279e-08 -4.748121e-08 7.226950e-09
5.090489e-08 1.024651e-07 4.698302e-07 -6.037616e-07 1.247675e-07 -4.428694e-08
1.196969e-07 -2.858490e-08 -5.280201e-08 -7.661711e-09 4.569516e-09 1.481881e-08
1.082318e-07 -2.391792e-08 -4.319702e-08 9.200357e-10 2.712075e-09 8.986692e-09
1.243303e-07 -2.559972e-08 -4.466242e-08 -2.480045e-09 -5.053442e-10 8.334507e-09
1.060794e-07 -2.288635e-08 -4.241666e-08 -4.202593e-09 -1.960262e-09 2.875631e-09
4.216311e-08 2.075571e-08 -1.971244e-08 3.655019e-09 2.516623e-10 2.597611e-10
4.271566e-08 2.058278e-08 -1.965910e-08 6.075184e-09 9.141718e-10 4.327809e-10
4.201592e-08 2.075103e-08 -1.953365e-08 3.367230e-09 1.838149e-10 6.042266e-10
-3.756670e-08 1.692730e-07 -1.119837e-07 5.502935e-09 -4.610144e-16 -1.537825e-09
4.149242e-08 2.095443e-08 -2.123858e-08 6.744461e-09 1.577429e-09 9.800785e-10
-3.636045e-08 8.423753e-08 -4.651961e-08 2.163902e-08 -9.962653e-08 -4.079728e-08
4.155299e-08 2.024832e-08 -2.225264e-08 6.856834e-09 5.868314e-10 8.502363e-10
-2.229035e-08 1.113275e-07 -6.557300e-08 -2.006512e-08 1.436162e-08 -9.956630e-09
-2.619657e-08 9.088469e-08 -5.752314e-08 -1.637949e-08 3.711338e-08 -1.560020e-08
-2.631445e-08 1.243012e-07 -6.910752e-08 -1.720038e-08 1.833546e-08 -6.809539e-09
-3.431462e-08 6.458544e-08 -3.549426e-08 9.973336e-09 4.825500e-08 -2.587996e-08
-2.523634e-08 1.016404e-07 -6.083791e-08 -1.188349e-08 2.930716e-08 -1.599026e-08
-2.929346e-08 1.090609e-07 -6.344728e-08 -1.359116e-08 3.273757e-08 -1.224265e-08
-2.594954e-08 1.074715e-07 -6.612101e-08 -1.104843e-08 1.512001e-08 -5.599738e-09
8.016642e-08 3.718200e-09 -4.032685e-08 -2.723355e-08 -2.984472e-09 6.842386e-09
6.876191e-08 7.607053e-09 -3.762461e-08 -2.155845e-08 8.027270e-10 4.193278e-09
7.126751e-08 1.474582e-09 -3.872735e-08 -2.102314e-08 -3.998219e-09 5.518026e-09
6.927359e-08 6.578215e-09 -3.922484e-08 -2.175610e-08 -5.768197e-09 7.299602e-09
6.039065e-08 1.011241e-08 -3.149591e-08 -1.651700e-08 -1.647553e-09 4.894527e-09
-2.538821e-07 2.344770e-07 9.517419e-07 -6.378688e-07 1.213353e-07 -9.819672e-08
5.254733e-08 1.292605e-08 -2.144711e-08 6.372680e-09 1.810154e-09 6.263586e-10
-5.202296e-07 3.713873e-07 1.008030e-06 -5.866159e-07 -6.306586e-09 1.667001e-07
-9.699469e-07 -5.472381e-08 3.189340e-06 -5.790009e-07 2.087377e-08 -1.109300e-07
-6.815418e-07 -6.080974e-07 3.502239e-06 -7.645302e-07 8.473749e-07 -8.003062e-07
-4.133489e-07 3.822522e-07 1.221694e-06 -6.256462e-07 2.775256e-07 -3.171093e-07
2.424010e-07 -5.532462e-08 -1.020400e-07 7.335771e-08 1.743212e-08 5.007451e-08
3.153173e-07 -7.234805e-08 -1.148471e-07 1.198060e-07 1.840518e-08 4.381625e-08
3.152132e-07 -6.257097e-08 -1.152086e-07 1.147965e-07 1.543704e-08 4.350074e-08
3.675757e-07 -1.059848e-07 -1.184336e-07 6.568078e-08 7.968862e-09 3.261978e-08
3.209353e-07 -1.319602e-07 -1.100673e-07 1.071945e-07 1.024845e-08 3.978155e-08
3.407614e-07 -1.224790e-07 -9.181164e-08 9.017559e-08 1.098083e-08 6.984674e-08
2.634684e-07 -8.483277e-08 -1.048558e-07 4.786129e-08 1.265702e-08 4.401508e-08
6.002625e-08 5.195027e-09 -2.186052e-08 1.150476e-08 2.119640e-09 5.958733e-09
-2.167338e-07 4.660527e-07 -6.110036e-08 8.121187e-08 3.415103e-08 1.306432e-08
-1.744415e-07 4.482634e-07 -5.897531e-08 1.257266e-07 1.492744e-08 -7.310775e-09
-2.261492e-07 5.363560e-07 -5.333410e-08 1.548629e-07 -2.921903e-08 1.787683e-08
-2.023568e-07 4.634986e-07 -2.510704e-08 8.322568e-08 7.011534e-08 -9.572212e-09
-2.071494e-07 4.221635e-07 -3.845504e-08 1.577580e-07 1.878438e-08 -2.434787e-10
-3.542856e-07 5.860365e-07 1.773355e-07 -3.637147e-07 9.575084e-08 1.316191e-08
-1.915470e-07 5.127427e-07 -5.876719e-08 -2.972231e-07 1.160733e-08 2.066758e-08
-3.532172e-07 5.499400e-07 3.531993e-07 -2.831406e-07 -9.296959e-08 4.492327e-10
-2.780275e-07 5.399586e-07 8.295565e-08 -2.960677e-07 -5.396427e-08 5.539297e-08
7.703704e-08 -6.428549e-09 -3.155238e-08 -1.183048e-08 -1.094529e-09 3.180013e-09
8.296557e-08 -6.529047e-09 -3.153949e-08 -8.200500e-09 -1.099570e-09 4.704328e-09
7.667791e-08 -6.484059e-09 -2.889723e-08 -8.877203e-09 -4.077926e-09 6.243785e-09
8.383639e-08 -8.671921e-09 -3.084814e-08 -1.274463e-08 -1.951388e-09 7.566021e-09
8.214513e-08 -9.429028e-09 -2.949432e-08 -8.713401e-09 -8.358161e-10 3.771720e-09
-1.188818e-07 3.169899e-07 -1.409193e-07 2.873930e-08 -8.177254e-08 -1.763198e-08
-8.271297e-08 2.370586e-07 -1.121847e-07 7.214314e-09 6.000248e-08 2.317769e-09
-4.473664e-08 1.558037e-07 -8.394905e-08 -4.877359e-09 2.453648e-08 -7.888417e-10
-5.542068e-08 2.231253e-07 -1.131464e-07 3.391643e-09 1.672715e-08 -1.936619e-09
-4.841819e-08 1.698827e-07 -8.954886e-08 1.510446e-08 2.920262e-08 -2.315523e-09
-5.532105e-08 1.660456e-07 -8.971877e-08 -8.803707e-09 3.486478e-08 -8.909811e-10
-4.798279e-08 1.777662e-07 -9.738186e-08 9.945047e-09 1.305106e-08 2.172818e-09
4.651412e-07 -2.088270e-07 2.391028e-07 3.709061e-07 -2.910023e-09 -4.992339e-08
5.604562e-07 -3.785630e-07 2.489904e-07 2.783558e-07 5.438704e-08 5.241735e-08
6.050704e-07 -4.445414e-07 5.735049e-07 3.466290e-07 5.895329e-08 -5.753574e-08
5.711101e-07 -4.405882e-07 3.454363e-07 2.497694e-07 1.512014e-08 -1.944394e-08
2.469806e-08 6.326498e-08 -6.331324e-08 3.992012e-08 1.505925e-10 1.526171e-09
-2.697479e-07 -1.080297e-06 4.125563e-06 6.275493e-07 4.895837e-07 5.189251e-07
3.475588e-07 -1.098570e-06 2.292089e-06 3.962901e-07 1.157414e-07 2.799704e-07
-1.157488e-07 -1.096780e-06 2.705463e-06 5.076200e-07 1.684290e-07 6.641760e-07
-1.530767e-07 -1.424036e-06 3.548805e-06 3.802008e-07 -3.890060e-07 2.669696e-07
2.257840e-07 2.915059e-08 -1.237442e-07 -1.856169e-07 -3.914347e-08 5.245290e-08
9.867646e-08 7.390631e-08 -1.085910e-07 -1.341769e-07 -5.711770e-09 7.794071e-09
1.618054e-07 7.451517e-08 -1.209660e-07 -1.905695e-07 -7.487405e-09 1.503889e-08
1.953780e-07 2.890169e-08 -1.199406e-07 -1.943964e-07 -3.986989e-08 6.750292e-08
8.040119e-08 -1.152820e-08 -2.414070e-08 1.389339e-09 1.097915e-09 1.391022e-09
1.614783e-07 2.187683e-08 -1.160571e-07 -2.100191e-07 -4.269710e-08 5.915685e-08
-3.314893e-08 1.325586e-07 -8.491956e-08 -3.743965e-08 -4.559629e-08 1.465933e-08
-4.759289e-08 1.251157e-07 -8.427269e-08 1.322622e-08 -6.458098e-08 3.495140e-09
-4.592062e-08 1.691209e-07 -1.019863e-07 -7.865731e-09 -7.409562e-08 -2.618264e-09
-7.199830e-08 2.938886e-07 -1.444701e-07 2.043609e-08 -7.486516e-08 -1.223574e-08
-6.637991e-08 2.156027e-07 -1.085113e-07 1.397708e-08 -1.083039e-07 1.255007e-08
-3.801096e-08 8.792182e-08 -5.605610e-08 -1.253228e-09 -6.837285e-08 1.591635e-08
-4.896813e-08 1.318079e-07 -5.723894e-08 6.488203e-09 -8.957031e-08 3.136104e-10
-5.746195e-08 1.386815e-07 -9.140732e-08 -5.115775e-09 -8.161683e-08 1.994663e-10
-2.104676e-09 9.428493e-08 -5.476540e-08 1.583705e-08 6.340885e-09 4.773794e-09
2.980964e-09 5.535449e-08 -2.535420e-08 9.258277e-09 1.208285e-08 8.924563e-09
1.904006e-08 5.251265e-08 -3.817505e-08 9.440008e-09 4.964775e-09 4.917327e-09
6.512292e-09 6.509293e-08 -5.058047e-08 2.771053e-08 1.147873e-08 6.901306e-09
1.104968e-08 5.434313e-08 -3.620195e-08 2.346974e-09 1.724485e-09 5.641474e-09
1.474734e-08 5.243649e-08 -3.608191e-08 1.671340e-08 9.033842e-09 6.930823e-09
2.677966e-09 6.414980e-08 -4.821265e-08 1.230037e-08 6.465545e-09 4.246525e-09
4.855196e-10 7.111518e-08 -3.929928e-08 7.927624e-09 6.322128e-09 8.699702e-09
1.180743e-08 6.015294e-08 -3.942843e-08 4.982289e-09 2.732761e-09 4.927207e-09
7.547180e-08 -7.749150e-09 -2.342167e-08 1.431227e-09 1.501176e-09 1.096599e-09
5.547910e-08 1.478759e-08 -3.698035e-08 -2.148260e-08 -2.708362e-09 4.252420e-09
5.640784e-08 1.299823e-08 -2.807839e-08 -1.295322e-08 -6.369671e-10 -1.038847e-11
-4.777776e-07 5.805877e-07 5.597332e-07 3.547465e-07 1.767242e-07 8.782513e-08
5.404056e-08 1.317972e-08 -2.797224e-08 -1.282643e-08 -1.851323e-10 3.646498e-09
5.711757e-08 1.356302e-08 -2.634131e-08 -1.167495e-08 -9.774226e-10 1.317184e-09
-4.166847e-07 6.551289e-07 3.851086e-07 2.385643e-07 -8.431149e-08 -2.168110e-08
6.832821e-08 1.376936e-08 -3.813988e-08 -2.401351e-08 -1.127881e-09 2.241569e-09
6.701508e-08 9.691162e-09 -3.667696e-08 -2.253984e-08 -3.274315e-09 4.722603e-09
6.280614e-08 1.131696e-08 -3.711323e-08 -1.879987e-08 -2.617151e-09 3.235503e-09
6.465111e-08 4.657882e-09 -3.139160e-08 -1.369933e-08 -2.106495e-09 1.563860e-09
5.826121e-08 9.197436e-09 -2.788290e-08 -1.162687e-08 -1.093069e-09 -7.013296e-13
6.140139e-08 9.408647e-09 -2.716933e-08 -1.539251e-08 -1.059881e-09 3.320419e-09
2.627325e-07 -4.143411e-08 -1.130832e-07 1.253792e-07 1.435285e-08 3.630562e-08
2.349115e-07 -2.306897e-08 -1.159196e-07 1.498221e-07 7.021378e-09 7.897669e-09
2.911704e-07 -6.474393e-08 -1.109086e-07 1.372132e-07 1.419620e-08 2.408622e-08
4.422473e-07 -1.275848e-07 -1.095702e-07 1.303403e-07 1.205844e-08 4.988928e-08
-4.993099e-07 4.379121e-07 8.078172e-07 -4.432539e-07 -1.477702e-07 6.018977e-08
-5.907672e-07 3.387474e-07 8.960134e-07 -5.595823e-07 -7.084380e-08 4.935605e-08
-6.147751e-07 2.693883e-07 1.736803e-06 -5.179223e-07 -3.022879e-07 2.489605e-07
-1.808181e-08 7.061382e-08 -3.511083e-08 -6.452382e-10 2.998227e-09 -7.061491e-09
-1.572605e-08 8.584679e-08 -5.152538e-08 -5.762954e-09 4.786682e-09 -7.046782e-09
-1.409457e-08 7.898578e-08 -4.601123e-08 -3.092202e-09 2.978719e-09 -6.721689e-09
-1.374197e-08 8.046816e-08 -4.756678e-08 -1.705040e-09 3.777896e-09 -4.603419e-09
2.010905e-07 -3.158673e-08 -1.076702e-07 9.854855e-08 -4.068169e-10 2.740727e-08
1.475252e-07 -3.608323e-09 -9.540205e-08 9.439569e-08 1.945118e-08 3.134078e-08
1.728221e-07 -1.400642e-09 -1.065612e-07 1.300517e-07 2.033783e-08 4.269961e-08
1.958868e-07 -2.921978e-08 -9.982642e-08 9.589948e-08 1.809738e-08 2.859975e-08
7.167355e-08 1.606704e-08 -6.074412e-08 4.439423e-08 7.778148e-09 7.885905e-09
9.120077e-08 7.486105e-09 -5.219600e-08 4.310956e-08 6.281178e-09 1.132551e-08
7.573837e-08 1.172521e-08 -4.648247e-08 3.590958e-08 -9.525683e-10 4.926061e-09
7.829690e-08 6.647886e-09 -5.216591e-08 3.519972e-08 6.186924e-09 8.851250e-09
3.644978e-07 -4.197965e-08 -1.573884e-07 1.546623e-07 -7.718578e-08 -6.210415e-08
2.512129e-07 1.759528e-08 -1.724891e-07 8.053500e-08 -5.174556e-08 -1.630084e-08
3.177033e-07 -2.218487e-08 -2.088656e-07 3.187985e-08 -2.542650e-08 5.270676e-10
3.556015e-07 -4.266820e-08 -1.846560e-07 7.755156e-08 -4.852380e-08 -1.944089e-08
4.149491e-07 -8.685154e-08 -1.910107e-07 1.625275e-07 -3.491639e-08 -4.080653e-08
3.019634e-07 4.804741e-09 -2.040738e-07 5.445047e-08 -1.322424e-08 1.574088e-08
6.222781e-09 7.881192e-08 -7.793087e-08 2.063997e-08 -4.798229e-08 -1.627291e-08
1.667539e-08 9.236162e-08 -7.056793e-08 1.351979e-08 -4.105347e-08 -9.822062e-09
1.738868e-08 1.022032e-07 -8.652358e-08 1.721385e-08 -1.680464e-08 -3.470097e-09
7.546079e-09 1.038475e-07 -8.904000e-08 2.118834e-08 -1.718659e-08 -1.151159e-08
-2.071826e-07 4.219475e-07 1.278299e-08 1.575680e-07 1.043133e-07 7.597718e-09
-1.144911e-07 4.029121e-07 -1.214698e-07 1.657703e-07 2.115659e-08 1.656855e-08
-1.597275e-07 3.553737e-07 -1.032953e-07 7.443873e-08 2.583257e-08 1.600921e-09
-1.625054e-07 4.716774e-07 -1.174596e-07 1.018967e-07 2.256669e-08 1.231969e-08
-2.875803e-07 6.457343e-07 -3.708646e-08 -1.819978e-07 2.031274e-08 2.001169e-08
-1.739535e-07 4.818638e-07 -5.952337e-08 -1.924038e-07 -1.379085e-08 -1.262743e-08
-1.558412e-07 5.073978e-07 -9.842256e-08 -1.656565e-07 -9.301035e-08 2.426270e-08
-1.914130e-07 4.452174e-07 -3.542029e-08 -2.284600e-07 -2.118536e-08 1.570977e-09
1.673692e-07 -3.478779e-08 -6.832653e-08 -2.838509e-08 -6.772981e-09 3.082396e-08
2.145996e-07 -6.848641e-08 -1.056513e-07 -3.957235e-08 -3.762437e-09 3.944244e-08
2.306192e-07 -5.479220e-08 -9.164862e-08 -2.167327e-08 -3.853406e-09 3.547611e-08
2.121788e-07 -5.433034e-08 -1.018211e-07 -4.139486e-08 6.632898e-09 1.685299e-08
1.076999e-08 1.010392e-07 -8.769854e-08 -3.844596e-08 -7.705461e-09 3.139620e-09
2.191246e-07 -6.186384e-08 -9.828103e-08 -3.372316e-08 3.256103e-09 4.543271e-08
3.182600e-08 2.923009e-08 -2.840019e-08 -1.580751e-08 -5.489180e-09 1.117662e-08
3.240896e-08 2.913523e-08 -2.834113e-08 -1.617230e-08 -1.151596e-08 1.557698e-08
2.351198e-08 3.596832e-08 -4.110659e-08 -2.182005e-08 -1.678963e-08 1.737176e-08
4.227856e-08 5.717986e-08 -6.767270e-08 -4.115127e-08 -1.702995e-08 1.354928e-08
4.307359e-08 2.835243e-08 -3.542478e-08 -2.116378e-08 -8.491677e-09 1.123158e-08
4.971215e-08 3.615811e-08 -4.206010e-08 -3.268321e-08 -9.901803e-09 1.109514e-08
8.351043e-08 -1.150835e-08 -3.296818e-08 -1.097113e-08 -1.473866e-09 3.844139e-09
8.335234e-08 -9.333695e-09 -3.238220e-08 -1.027600e-08 -2.664197e-09 3.305737e-09
8.223345e-08 -9.485974e-09 -3.118750e-08 -8.593485e-09 -1.357236e-09 5.894506e-09
8.780025e-08 -1.763147e-08 -3.142432e-08 -9.871485e-09 -9.416927e-10 1.348707e-08
8.928822e-08 -1.154924e-08 -3.408843e-08 -1.533525e-08 -2.166320e-09 8.254107e-09
9.028013e-08 -1.602860e-08 -3.615966e-08 -1.001888e-08 -1.207130e-09 5.644026e-09
8.465403e-08 -1.623416e-08 -2.979018e-08 -7.617133e-09 -1.631360e-09 1.063241e-08
1.810455e-07 3.195563e-08 -1.634892e-07 -1.022859e-07 3.381734e-08 -1.727156e-08
1.820324e-07 -3.780365e-09 -1.711734e-07 -9.000274e-08 5.325157e-08 -2.782780e-08
1.746342e-07 5.476435e-09 -9.726756e-08 -8.867597e-08 1.068956e-07 -6.254413e-08
9.791059e-08 1.014125e-07 -1.273928e-07 -1.162381e-07 1.072083e-07 -7.055822e-08
1.768482e-07 6.922497e-08 -1.625228e-07 -1.135559e-07 4.341254e-08 -2.355508e-08
8.747918e-08 -1.912929e-08 -2.929897e-08 3.262371e-09 1.041198e-09 5.402083e-09
-4.543139e-08 1.517890e-07 -1.131964e-07 2.621106e-08 -1.053530e-07 -3.325165e-08
9.817273e-08 -1.993291e-08 -3.216864e-08 1.123723e-09 3.392410e-10 3.391332e-09
9.321754e-08 -1.892810e-08 -3.220909e-08 1.055903e-09 4.865598e-10 2.826611e-09
9.166379e-08 -1.729693e-08 -3.203627e-08 3.808770e-09 9.877184e-10 9.575578e-09
8.907049e-08 -1.703749e-08 -3.251234e-08 2.110886e-09 8.153379e-10 1.401696e-09
9.109938e-08 -1.740787e-08 -3.257983e-08 6.541603e-10 5.005892e-10 1.409384e-09
9.174178e-08 -1.878097e-08 -3.270950e-08 9.761382e-10 7.379440e-11 1.463200e-09
2.038376e-07 -4.015557e-08 -8.767099e-08 4.986066e-08 5.609228e-09 3.045381e-08
2.057114e-07 -4.976672e-08 -9.933762e-08 4.787549e-08 -5.171825e-09 1.876594e-08
1.736410e-07 -3.608103e-08 -8.829424e-08 6.306638e-08 1.697194e-08 2.870837e-08
1.803941e-07 -4.530921e-08 -9.860346e-08 6.725087e-08 7.179180e-09 3.230332e-08
1.216425e-07 5.899544e-08 -1.114146e-07 1.490126e-07 8.927174e-09 1.034000e-08
1.696143e-07 3.037575e-08 -1.026921e-07 1.748456e-07 1.956810e-08 2.773575e-08
2.252503e-07 2.089097e-08 -1.176545e-07 2.173227e-07 2.727418e-08 3.022943e-08
1.327394e-07 6.835688e-08 -9.888847e-08 1.682740e-07 2.993275e-08 3.840845e-08
1.910712e-07 7.616770e-08 -1.297569e-07 2.399665e-07 2.234274e-09 9.902072e-09
-3.564268e-07 5.062374e-07 4.257414e-07 -4.319754e-07 9.411131e-09 1.195229e-07
-2.974983e-07 2.910083e-07 8.585309e-07 -6.037140e-07 1.108158e-07 -1.827493e-07
-3.570467e-07 3.279403e-07 7.016438e-07 -5.906382e-07 5.398116e-08 4.605661e-09
-4.279950e-07 4.619255e-07 6.130132e-07 -5.614991e-07 3.712504e-07 -2.333727e-08
-6.504654e-07 4.530673e-07 1.092573e-06 -4.914561e-07 2.391253e-07 1.203121e-07
1.242726e-07 -2.557956e-08 -4.697254e-08 -2.541606e-09 -6.298329e-10 9.584157e-09
1.227284e-07 -2.820966e-08 -5.363746e-08 -1.889169e-10 5.606073e-09 4.447430e-09
1.500006e-07 -3.159847e-08 -6.158467e-08 1.875213e-09 4.736392e-10 1.640672e-08
1.213190e-07 -3.154225e-08 -6.170878e-08 1.521028e-09 2.739305e-10 1.258869e-08
-1.154279e-06 -1.755785e-06 5.491606e-06 3.073481e-07 1.573909e-07 1.174753e-06
3.793238e-07 -6.486692e-07 9.552728e-07 5.527194e-07 1.240079e-08 2.761203e-07
3.334158e-07 -3.027935e-08 -2.110489e-07 -3.071749e-08 9.969137e-09 2.757250e-16
-1.467522e-08 -1.669909e-06 4.008233e-06 -2.707879e-08 -5.569748e-07 1.157505e-06
-2.524669e-07 -1.755963e-06 5.581874e-06 1.979629e-07 1.877104e-07 8.869758e-07
5.281543e-07 -1.147655e-06 2.158865e-06 9.227688e-08 4.011288e-07 5.742274e-07
5.685393e-09 7.083888e-08 -5.246168e-08 -2.919976e-09 3.238633e-08 -9.561192e-10
-6.318064e-08 -1.319592e-06 3.090707e-06 -9.080810e-08 -4.876200e-08 7.496908e-07
3.249356e-07 -1.376727e-07 -9.590803e-08 -1.012359e-07 -1.431745e-08 4.699726e-08
2.437012e-07 -6.489383e-08 -1.056672e-07 -7.240239e-08 -1.483128e-08 3.806703e-08
2.994582e-07 -8.106545e-08 -1.164439e-07 -1.163142e-07 -1.086043e-08 8.197621e-09
2.703988e-07 -4.482652e-08 -1.141122e-07 -1.294814e-07 -2.377576e-08 5.532509e-08
2.795944e-07 -4.443453e-08 -1.188768e-07 -1.225664e-07 -1.175125e-08 2.367562e-08
3.140100e-07 -1.259231e-07 -1.057130e-07 -1.059374e-07 -7.133968e-09 5.752878e-08
3.789735e-07 -1.034528e-07 -1.017747e-07 -1.730309e-07 -1.228412e-08 4.083203e-08
4.048834e-07 -1.411468e-07 -8.287348e-08 -1.499232e-07 7.474656e-10 1.489511e-08
3.427800e-07 -1.056707e-07 -1.143053e-07 -1.031327e-07 -4.308159e-10 4.236674e-08
2.804626e-07 -7.867132e-08 -1.069330e-07 -1.447835e-07 -1.448542e-08 4.848311e-08
3.667715e-07 -7.047485e-08 -1.116691e-07 -1.724389e-07 -1.901250e-08 5.663930e-08
2.621981e-08 3.480901e-08 -2.403623e-08 9.287927e-09 3.553624e-09 6.274281e-09
2.549866e-08 3.256157e-08 -2.142577e-08 6.407522e-09 2.898609e-09 3.980497e-09
3.196551e-08 3.191722e-08 -2.332353e-08 1.003793e-08 3.809768e-09 4.101559e-09
3.271312e-08 3.000632e-08 -2.290286e-08 7.652490e-09 1.749458e-09 4.588119e-09
3.184911e-08 2.840624e-08 -2.050274e-08 1.106936e-08 3.871501e-09 3.397704e-09
3.175260e-08 2.854390e-08 -2.506525e-08 1.125604e-08 4.215314e-09 2.487132e-09
1.381973e-07 7.846156e-08 -1.227417e-07 -1.939267e-07 -5.396542e-09 4.524784e-09
5.814309e-08 1.380936e-07 -1.122415e-07 -1.880688e-07 -3.943873e-08 3.451106e-08
1.266056e-07 1.273307e-07 -1.143639e-07 -2.592492e-07 -6.509533e-08 7.506694e-08
1.517099e-07 1.247489e-07 -1.124636e-07 -2.542315e-07 -1.029885e-08 1.565830e-08
7.648476e-08 1.405228e-07 -1.176296e-07 -2.621295e-07 -5.792236e-08 5.443089e-08
6.797023e-08 2.372325e-08 -4.703183e-08 -3.756837e-08 -6.226416e-09 9.370075e-09
7.190892e-08 1.800238e-08 -5.293249e-08 -4.093665e-08 -3.778042e-09 1.465209e-08
7.026390e-08 1.521365e-08 -5.906161e-08 -4.330709e-08 -3.336090e-09 6.730593e-09
7.828867e-08 1.516933e-08 -4.677771e-08 -3.965417e-08 -4.608907e-09 8.354743e-09
6.678705e-08 1.065221e-08 -4.552980e-08 -2.733252e-08 -2.713918e-09 5.637297e-09
5.183947e-07 -2.109196e-07 1.886980e-07 3.325489e-07 -7.413080e-08 -1.553755e-08
6.012606e-07 -4.153426e-07 4.515058e-07 2.232035e-07 1.065143e-07 3.192838e-09
5.451650e-07 -3.549613e-07 3.442903e-07 2.819389e-07 -6.279633e-08 -7.345992e-08
5.065374e-07 -2.518561e-07 1.498038e-07 2.329224e-07 -7.338559e-10 4.672153e-08
5.497743e-07 -3.115826e-07 5.892155e-08 1.161419e-07 3.621978e-08 3.247693e-08
5.813199e-07 -2.411852e-07 -3.115703e-08 2.434185e-07 -5.935211e-08 4.824221e-08
-5.281564e-08 1.944581e-07 -1.001452e-07 2.585353e-08 3.804875e-08 8.315501e-09
-6.587192e-08 2.106390e-07 -1.110886e-07 3.858484e-08 5.816715e-08 2.535665e-12
-4.523325e-08 2.083314e-07 -1.003427e-07 3.977709e-08 2.991389e-08 5.785896e-09
-6.323259e-08 1.984660e-07 -1.200049e-07 3.994767e-08 1.576078e-08 1.427201e-09
-7.821465e-08 2.612627e-07 -1.223677e-07 6.874471e-08 2.587505e-08 -4.395401e-09
-4.708998e-08 1.733116e-07 -1.096289e-07 9.168996e-09 -1.724280e-08 -8.023514e-09
-3.824539e-08 1.758648e-07 -9.367815e-08 4.590873e-08 3.717329e-08 1.072556e-08
6.436570e-09 5.782060e-08 -7.258635e-08 -1.545487e-08 5.448764e-08 -1.287826e-08
-1.250601e-09 6.134078e-08 -4.782993e-08 -4.796716e-09 3.627763e-08 -1.208536e-08
-7.327842e-09 8.744103e-08 -7.589997e-08 -2.723495e-08 2.333727e-08 -8.431784e-09
2.381906e-08 9.426822e-08 -7.215411e-08 -3.553706e-08 4.692512e-08 -2.487649e-08
4.825524e-09 8.802813e-08 -7.210515e-08 -2.169714e-08 2.280391e-08 -8.108548e-09
1.346679e-07 -3.272263e-08 -7.373622e-08 -2.204160e-08 4.356668e-10 1.660237e-09
1.482707e-07 -3.119235e-08 -5.842668e-08 -8.990994e-09 -1.189620e-09 1.182356e-08
1.182062e-07 -2.431536e-08 -4.461477e-08 -7.477610e-09 -8.723930e-10 8.592890e-09
1.144903e-07 -2.689592e-08 -5.967648e-08 -1.039267e-08 1.303888e-09 1.031652e-09
1.146787e-07 -2.630104e-08 -5.836268e-08 -1.429572e-08 -2.408358e-09 1.522391e-08
1.140636e-07 -2.314396e-08 -4.310553e-08 -1.085985e-08 -2.312812e-09 1.084303e-08
1.457825e-07 -3.653985e-08 -6.767562e-08 -3.105072e-09 6.427399e-09 2.147592e-08
1.165135e-07 -2.517428e-08 -4.265431e-08 -5.790240e-09 -1.949485e-09 1.436210e-08
8.132707e-08 2.572318e-08 -5.816457e-08 -5.286972e-08 -1.011796e-08 1.329303e-08
6.991302e-08 1.754860e-08 -5.826390e-08 -4.216859e-08 -4.792649e-09 6.337364e-09
8.327602e-08 2.203618e-08 -6.637014e-08 -5.868074e-08 -1.133304e-09 1.313788e-08
6.873985e-08 2.818241e-08 -6.985951e-08 -5.954951e-08 -1.550218e-08 1.510226e-08
6.878689e-08 2.402125e-08 -7.297168e-08 -5.776540e-08 -7.761251e-09 8.725393e-09
6.863273e-08 3.844693e-08 -5.724497e-08 -5.441384e-08 -1.118091e-08 1.308994e-08
2.890061e-07 2.410969e-08 -1.800577e-07 1.525663e-07 -1.587135e-08 -9.900365e-09
-3.940220e-08 1.583014e-07 -1.015979e-07 1.187374e-08 -1.497664e-08 -1.035079e-08
-3.853474e-08 1.413826e-07 -9.263413e-08 9.024627e-09 -8.515856e-09 -1.189763e-08
-3.273655e-08 1.506692e-07 -1.009911e-07 4.669236e-09 -1.261029e-08 -1.236577e-08
-3.951174e-08 1.355343e-07 -7.765578e-08 6.331243e-09 -2.204813e-08 -1.463787e-08
-3.272351e-08 1.432415e-07 -9.911012e-08 1.052804e-08 -1.367637e-08 -1.459506e-08
-3.024140e-08 8.603980e-08 -6.919581e-08 5.876252e-09 -3.295790e-08 -2.094703e-08
3.704144e-07 -1.509221e-07 -1.116481e-07 -1.649976e-07 -1.080865e-09 -7.469777e-08
5.205552e-07 -1.662918e-07 -1.516267e-07 -1.572539e-07 1.310234e-08 -9.633186e-09
4.855524e-07 -1.856873e-07 -8.577924e-08 -2.652592e-07 6.675117e-08 -8.727125e-08
-2.087514e-07 5.103430e-07 -6.173545e-08 2.112394e-07 -1.629970e-09 1.825077e-08
-3.902397e-07 5.064291e-07 5.125236e-07 2.582800e-07 3.712696e-09 1.595918e-07
-3.055049e-07 3.427858e-07 7.689808e-07 5.423205e-07 -1.975517e-07 -1.834279e-07
-2.115140e-07 3.020147e-07 2.411969e-07 5.436834e-07 -1.154844e-07 3.110036e-08
-4.481067e-07 6.169809e-07 5.186814e-07 3.757527e-07 -6.818413e-08 -7.088362e-08
-7.536393e-08 4.059777e-07 -6.357599e-08 2.801740e-07 -9.113210e-08 -4.243964e-08
-9.857194e-08 3.029603e-07 -6.363920e-08 2.202539e-07 -6.379888e-08 -3.569073e-08
-4.584106e-08 2.747774e-07 7.483322e-08 3.837640e-07 -3.659341e-08 -1.699020e-08
7.013840e-08 2.506046e-07 -1.266822e-07 2.466427e-07 -6.812474e-08 -4.321254e-08
-2.234202e-09 2.728603e-07 -9.098898e-08 2.500259e-07 -7.373361e-08 -5.965656e-08
-1.692780e-08 2.545120e-07 -1.036808e-07 2.673315e-07 -2.929247e-08 -1.256100e-08
8.631295e-09 2.516106e-07 -1.077845e-07 2.494735e-07 -6.361738e-08 -4.002553e-08
3.137875e-07 -1.001486e-08 -1.112468e-07 -2.318883e-07 -4.943254e-08 7.875172e-08
2.686843e-07 -2.007873e-08 -1.202814e-07 -2.101637e-07 -1.338165e-08 3.916334e-08
2.275732e-07 -3.989268e-08 -1.193666e-07 -1.812799e-07 4.330801e-09 1.742389e-08
1.876708e-07 2.968072e-08 -1.006097e-07 -2.244259e-07 -3.095583e-08 3.842773e-08
2.331562e-07 -4.019920e-08 -1.091162e-07 -1.825337e-07 -2.460864e-08 3.940656e-08
-1.606884e-07 4.625595e-07 -3.083117e-08 -2.007097e-07 9.322319e-08 -2.658956e-08
5.171258e-08 1.145237e-08 -2.196761e-08 -5.220710e-09 6.498408e-11 6.538591e-10
-4.421964e-07 6.115208e-07 7.200208e-07 -3.427102e-07 -1.354423e-07 7.727404e-08
-3.363623e-07 4.819531e-07 1.904150e-07 -2.517584e-07 -1.714580e-08 -1.202612e-08
-4.087174e-07 6.632817e-07 3.129513e-07 -1.421514e-07 5.700729e-09 -5.872980e-08
2.762327e-08 6.676793e-08 -5.971040e-08 -3.944845e-08 -8.336123e-09 1.205402e-08
3.101339e-08 6.749460e-08 -6.740806e-08 -4.611269e-08 -1.473400e-08 9.932983e-09
3.163896e-08 7.315609e-08 -7.276958e-08 -4.701856e-08 -3.734700e-09 8.501667e-09
3.859435e-08 6.968500e-08 -8.839771e-08 -5.975670e-08 -4.118690e-10 2.647452e-09
3.746460e-08 5.804193e-08 -5.571165e-08 -3.817094e-08 -7.822945e-09 9.244917e-09
6.614461e-08 4.690763e-09 -2.906905e-08 -1.231629e-08 -6.721070e-10 3.459054e-09
6.461630e-08 4.810006e-09 -3.060214e-08 -1.375712e-08 -1.055253e-09 1.770801e-09
5.747613e-08 1.010416e-08 -2.473351e-08 -8.652806e-09 -5.668253e-10 7.952328e-10
6.229282e-08 5.521656e-09 -2.654598e-08 -7.546662e-09 -1.586431e-09 3.977414e-10
6.462588e-08 8.458056e-09 -3.375635e-08 -1.538500e-08 -2.223066e-10 -4.076737e-10
6.190984e-08 9.432165e-09 -2.756435e-08 -1.527299e-08 -1.756457e-09 1.222864e-09
6.009687e-08 9.102935e-09 -2.622348e-08 -1.046547e-08 1.236593e-10 1.751973e-09
-5.851761e-07 -5.224396e-07 2.362940e-06 -8.559627e-07 3.154361e-07 -3.064516e-07
-6.431499e-07 -4.540879e-08 1.723231e-06 -7.290293e-07 4.272103e-07 -2.984685e-08
-2.375045e-07 -1.000466e-07 1.036271e-06 -7.907721e-07 1.548824e-07 -1.024548e-07
-1.929119e-07 -5.419891e-08 1.662742e-06 -6.990008e-07 -3.246824e-08 -3.568829e-08
-3.798711e-07 -5.785385e-08 1.483106e-06 -7.581539e-07 3.024276e-08 1.482607e-07
1.196293e-07 -4.750528e-07 1.934094e-06 -5.700239e-07 -5.995287e-08 -2.390046e-08
2.024146e-07 -4.825065e-07 1.336127e-06 -5.869621e-07 1.034427e-07 -2.541524e-07
1.986634e-07 -8.775121e-08 9.749697e-07 -6.091484e-07 -7.848025e-08 7.897701e-09
2.337757e-07 -1.789322e-07 9.519458e-07 -6.836792e-07 2.266926e-07 -3.638284e-07
2.152122e-07 6.271687e-08 -1.650434e-07 1.887354e-07 -6.798878e-08 -6.037851e-08
2.917797e-07 2.081449e-08 -1.683841e-07 1.527520e-07 -8.025532e-08 -6.572677e-08
2.005749e-07 2.036353e-08 -1.665205e-07 1.112048e-07 -3.799224e-08 -1.996391e-08
2.053736e-07 3.653008e-08 -1.719637e-07 2.001217e-08 -5.817793e-08 -1.566950e-08
1.983131e-07 5.763864e-08 -1.822145e-07 4.257951e-08 -1.436701e-08 1.029007e-08
1.634138e-07 9.284460e-08 -1.678505e-07 1.671640e-07 -1.279650e-08 5.312748e-09
1.421181e-07 8.761271e-08 -1.670095e-07 8.879352e-08 -1.388300e-08 5.618698e-09
2.098674e-07 4.265984e-09 -1.730453e-07 8.535990e-08 -4.878821e-08 -4.332540e-08
8.633487e-08 -1.004769e-08 -3.317378e-08 1.007515e-08 1.495257e-09 3.924355e-09
9.518677e-08 -1.307605e-08 -3.502570e-08 1.275796e-08 2.527932e-09 6.896071e-09
9.304137e-08 -1.332097e-08 -3.730593e-08 1.229475e-08 3.689860e-10 3.040516e-09
-7.327105e-07 5.837632e-07 9.250214e-07 3.477689e-07 7.655104e-08 -5.503579e-08
8.720989e-08 -8.646962e-09 -3.476338e-08 1.370740e-08 1.880636e-10 6.088505e-09
1.419230e-08 2.735631e-07 1.044739e-07 4.192717e-07 -8.507324e-09 -5.724036e-09
-1.313141e-07 3.753897e-07 1.282761e-07 4.153842e-07 5.523204e-08 6.918404e-08
-7.722824e-08 3.324940e-07 1.522147e-08 3.953841e-07 6.044460e-08 4.208895e-08
-9.418074e-08 3.452060e-07 1.892568e-07 4.010440e-07 -1.803096e-08 -7.059857e-08
-1.600941e-07 3.979516e-07 1.259835e-07 -4.606255e-07 -4.204674e-08 3.418126e-08
-1.121370e-07 3.704730e-07 2.529811e-07 -4.709898e-07 4.065483e-08 -8.887224e-08
-3.564234e-07 4.678916e-07 5.807005e-07 -4.652116e-07 6.866884e-08 -3.791637e-08
-1.599111e-07 4.295607e-07 1.582767e-07 -3.604678e-07 -1.046874e-07 6.373772e-09
-1.098564e-07 1.768953e-07 7.431785e-07 -6.199389e-07 1.661444e-07 -2.527423e-07
-3.580541e-07 2.780633e-07 7.798588e-07 -6.325941e-07 6.271615e-08 6.424189e-08
-7.167571e-08 3.216100e-07 3.709238e-07 -5.015373e-07 -4.831758e-08 -2.245145e-08
1.204467e-07 -2.877991e-08 -5.294882e-08 1.458949e-09 6.126858e-09 1.424079e-08
1.234545e-07 -2.518735e-08 -4.627923e-08 4.962205e-09 4.825232e-10 9.684289e-09
1.070655e-07 -2.339650e-08 -4.342068e-08 2.508568e-09 2.921345e-09 2.316557e-09
1.057590e-07 -2.517824e-08 -4.587951e-08 4.098003e-09 4.430012e-10 4.195623e-09
3.367169e-08 1.497466e-07 -1.122415e-07 1.462294e-07 5.166970e-08 2.812925e-08
3.680605e-10 2.972279e-08 -3.077343e-08 -1.200191e-08 -3.363452e-08 2.573612e-08
6.759323e-08 1.278849e-07 -1.238247e-07 1.756089e-07 2.272296e-08 1.949403e-08
3.185506e-07 -1.417401e-08 -2.066722e-07 1.211210e-07 -2.691904e-08 -6.827270e-09
5.168667e-08 1.390137e-07 -1.128091e-07 1.754127e-07 5.703634e-08 4.068190e-08
8.709582e-08 1.610049e-07 -1.253437e-07 2.218054e-07 2.259472e-08 2.757820e-08
8.047064e-08 9.266258e-08 -1.101728e-07 1.373579e-07 8.348843e-09 8.694665e-09
3.371742e-08 1.524502e-07 -1.127954e-07 1.740824e-07 5.060511e-08 3.387072e-08
6.471972e-08 2.594625e-09 -2.426592e-08 -6.063230e-09 -1.260251e-09 7.747220e-10
6.721431e-08 1.673815e-08 -5.817124e-08 4.720971e-08 1.074441e-08 1.405269e-08
5.902208e-08 7.264116e-09 -2.452048e-08 -5.303213e-09 -5.186829e-10 3.303397e-10
6.387185e-08 5.521175e-09 -2.307045e-08 -7.539427e-09 -1.571805e-09 2.750076e-09
2.484007e-07 4.303858e-08 -1.534777e-07 1.914467e-07 -2.377812e-08 2.143865e-09
6.176520e-08 4.653728e-09 -2.358649e-08 -2.922106e-09 5.897274e-10 4.141421e-11
6.460774e-08 2.856667e-09 -2.361750e-08 -3.636596e-09 -2.545533e-10 4.285282e-10
6.645815e-08 1.975663e-09 -2.629641e-08 -7.187554e-09 4.131315e-11 1.504661e-09
2.463640e-07 -1.031006e-07 -8.731261e-08 -3.499750e-08 4.312589e-08 -1.430537e-08
5.408240e-07 -2.382237e-07 -1.162978e-07 7.508886e-08 -2.286472e-08 -1.254817e-07
2.451331e-07 -1.241153e-07 -1.216578e-07 1.767650e-08 -4.668214e-08 -4.625401e-08
2.533418e-07 -1.218923e-07 -1.200732e-07 3.234410e-08 -3.376234e-08 -4.169353e-08
4.469172e-07 -1.863021e-07 -1.353972e-07 2.887290e-08 -1.170422e-08 -5.252477e-08
4.626340e-07 -1.860950e-07 -1.356576e-07 5.534927e-09 -1.573257e-08 -5.191777e-08
1.277498e-07 -1.023944e-07 -7.233180e-08 6.028785e-08 -2.590281e-08 -2.159509e-08
2.894430e-07 -1.300805e-07 -7.156016e-08 1.363711e-08 -1.767657e-08 2.006483e-08
3.371264e-08 1.519948e-07 -1.179363e-07 1.740015e-07 1.466692e-08 2.227431e-08
3.821464e-08 1.746292e-07 -1.245268e-07 1.910554e-07 3.042214e-08 2.203907e-08
2.899149e-08 1.861417e-07 -1.201884e-07 2.502642e-07 6.542322e-09 2.260740e-08
2.664628e-08 1.181589e-07 -9.612653e-08 1.163461e-07 3.526553e-08 2.515159e-08
4.357411e-08 1.153062e-07 -1.079412e-07 1.520363e-07 3.646385e-08 3.881892e-08
4.582445e-08 1.981107e-07 -1.071688e-07 2.096575e-07 7.606794e-08 3.617906e-08
9.919251e-08 1.279407e-07 -6.210549e-08 -3.795622e-07 -7.055936e-08 6.903410e-08
8.576523e-08 1.725479e-07 -1.075277e-07 -2.925926e-07 -4.058721e-08 4.127975e-08
1.264684e-07 1.676729e-07 -9.435749e-08 -2.847957e-07 -4.059021e-08 1.482124e-08
1.137031e-07 8.992679e-08 -1.091289e-07 -2.132413e-07 -3.247615e-08 3.263727e-08
6.255824e-08 1.491240e-07 -1.297565e-07 -1.988336e-07 -3.068791e-08 2.307049e-08
2.266121e-08 1.990484e-07 -1.359892e-07 -2.164749e-07 -1.431010e-08 2.726599e-08
7.453133e-08 2.070653e-07 -8.828770e-08 -3.231624e-07 -8.750200e-08 8.131597e-08
1.901431e-08 5.413993e-08 -5.398918e-08 -3.087238e-08 -2.116607e-08 2.713661e-08
1.926932e-08 5.735851e-08 -3.971292e-08 -1.784160e-08 -1.552326e-08 1.684640e-08
2.074801e-08 4.570690e-08 -3.816240e-08 -1.661586e-08 -1.246174e-08 1.901637e-08
2.893754e-08 4.860405e-08 -4.973425e-08 -1.874858e-08 -1.962548e-08 1.713475e-08
3.860689e-08 3.075128e-08 -3.516506e-08 -2.301562e-08 -1.498275e-08 1.223313e-08
2.690271e-08 3.174436e-08 -3.324064e-08 -1.030725e-08 -6.006256e-09 9.641213e-09
3.811541e-08 5.644607e-08 -4.796134e-08 -3.938673e-08 -1.726723e-08 1.537871e-08
2.752764e-08 4.317250e-08 -3.622889e-08 -1.755594e-08 -1.269281e-08 1.634971e-08
2.045502e-08 5.549896e-08 -3.383804e-08 1.198187e-08 1.290434e-09 2.160846e-09
1.783146e-08 4.468115e-08 -3.237484e-08 3.235163e-09 1.357163e-09 4.700151e-09
1.642872e-08 4.989190e-08 -3.420661e-08 6.350655e-09 2.645193e-09 2.820485e-09
1.233371e-08 6.904404e-08 -4.455448e-08 1.262971e-08 2.128053e-09 2.853239e-09
1.426722e-08 5.655355e-08 -3.486114e-08 1.387776e-08 8.211673e-09 8.142067e-09
1.176088e-08 4.845421e-08 -3.272285e-08 8.659774e-09 6.424246e-09 7.168909e-09
1.759282e-07 1.296752e-07 -6.799010e-08 3.653545e-07 -3.715970e-09 1.643372e-08
1.639551e-08 5.339878e-08 -3.889656e-08 1.409324e-08 4.555125e-09 7.732697e-09
2.914214e-08 8.964987e-08 -8.020695e-08 -5.465498e-08 -3.059056e-09 8.256515e-09
1.694848e-08 4.274025e-08 -2.976724e-08 7.754175e-09 4.892468e-09 6.430828e-09
-5.035967e-09 7.346231e-08 -3.946099e-08 3.621045e-09 7.313991e-09 9.672115e-09
6.748577e-09 5.335501e-08 -3.403975e-08 1.063273e-08 1.276105e-08 1.447838e-08
3.008693e-07 -8.050028e-08 -1.097964e-07 -1.464809e-08 -1.475841e-09 2.557866e-08
2.888830e-07 -9.526584e-08 -1.050411e-07 -2.919385e-08 2.669799e-09 5.673203e-08
2.811757e-07 -1.084416e-07 -1.155668e-07 -3.953739e-08 -1.602435e-09 2.511115e-08
2.819401e-07 -8.733142e-08 -1.136567e-07 -4.628053e-08 6.474507e-09 2.381183e-08
-3.046820e-09 1.000789e-07 -7.586414e-08 3.562665e-09 -1.927802e-09 -8.093855e-10
2.986694e-08 3.106041e-08 -2.533724e-08 -1.301426e-09 -2.421682e-09 6.872635e-09
-3.704091e-08 1.751764e-07 -1.209534e-07 4.158723e-08 -4.225241e-08 -1.630040e-08
3.444614e-08 2.753897e-08 -2.236263e-08 -7.273479e-09 -4.005256e-09 5.641021e-09
3.258633e-08 2.793176e-08 -2.389774e-08 -3.269383e-09 -2.345165e-09 4.765992e-09
5.668241e-08 2.045104e-08 -3.716470e-08 -2.510940e-08 -5.723164e-09 4.481673e-09
5.541224e-08 1.859837e-08 -2.916888e-08 -1.674292e-08 -2.683451e-09 2.304511e-09
5.209613e-08 1.929755e-08 -3.233228e-08 -1.688248e-08 -2.610397e-09 -9.664210e-10
5.666864e-08 2.015310e-08 -4.035483e-08 -2.513220e-08 1.407206e-09 5.080370e-09
5.647881e-08 1.436089e-08 -3.377999e-08 -1.724247e-08 3.295064e-10 2.787145e-09
5.831116e-08 1.300936e-08 -3.499448e-08 -2.055936e-08 -2.103552e-09 2.434606e-09
5.004984e-08 1.871425e-08 -3.623829e-08 -1.798483e-08 -1.298564e-09 2.930065e-09
-6.531757e-07 -8.730610e-07 3.471890e-06 7.237996e-07 -5.766872e-07 -4.489455e-07
1.764586e-07 -7.102860e-07 1.457034e-06 7.157097e-07 -4.806195e-07 -4.199719e-07
-6.714764e-07 -3.227626e-07 3.364778e-06 7.221397e-07 -4.722186e-07 -4.974664e-07
-1.388673e-07 -3.139977e-07 1.119544e-06 8.290328e-07 -3.730507e-07 -1.286652e-07
2.991371e-08 -3.098514e-07 1.518124e-06 7.483042e-07 -2.280933e-07 -3.915059e-07
5.192633e-08 1.486204e-08 -2.896392e-08 -1.289678e-08 -1.435226e-09 1.562142e-09
5.535747e-08 1.148680e-08 -2.516095e-08 -9.755515e-09 8.043953e-11 1.030012e-09
5.721283e-08 1.375621e-08 -2.822073e-08 -1.181268e-08 5.548833e-10 4.275162e-10
4.962334e-08 1.617019e-08 -2.562738e-08 -6.110579e-09 -1.099283e-10 1.678893e-09
9.180699e-08 1.382449e-08 -6.113137e-08 5.371531e-08 -1.795727e-09 6.330624e-09
5.592585e-08 1.150846e-08 -2.354159e-08 -5.778506e-09 -6.263422e-10 6.971524e-10
5.252708e-08 1.153868e-08 -2.331376e-08 -5.961835e-09 -8.038121e-10 1.728855e-09
2.088299e-07 2.669651e-09 -1.562280e-07 8.338288e-08 -8.280333e-08 -5.310447e-08
2.815687e-07 4.801470e-10 -1.727780e-07 1.369580e-07 -3.495850e-08 -3.342688e-08
1.957011e-07 5.344619e-08 -1.662128e-07 1.175750e-07 -4.347900e-08 -2.293732e-08
1.054602e-07 4.099611e-08 -9.827735e-08 9.675435e-08 -1.178805e-07 -8.064342e-08
-2.406775e-07 4.884257e-07 1.331884e-08 -1.784207e-07 -4.171611e-08 -5.502790e-09
-2.270630e-07 5.135558e-07 -6.810551e-08 -1.530106e-07 -4.422982e-08 2.336463e-08
1.352665e-07 8.097709e-09 -9.965918e-08 1.030229e-07 2.156692e-08 4.219379e-08
-1.331434e-07 3.876083e-07 -1.360871e-07 -1.265010e-07 -4.232038e-08 5.694726e-09
-9.191319e-08 3.337613e-07 -1.268352e-07 -1.699801e-07 -2.506455e-08 9.337814e-09
-1.647902e-07 3.917516e-07 -1.191942e-07 -1.229903e-07 -3.352658e-08 5.315466e-09
7.298332e-08 7.435831e-08 5.143658e-07 6.307359e-07 -3.669230e-08 -6.567916e-08
-4.054170e-07 -4.865134e-09 1.106797e-06 7.483462e-07 1.081478e-07 6.346008e-08
-1.456551e-07 1.551341e-07 8.928104e-07 6.866623e-07 -2.649471e-08 -8.366613e-10
1.930747e-07 -2.183503e-07 8.251517e-07 6.878789e-07 7.467367e-08 1.083738e-07
2.569938e-07 -3.461964e-07 1.358986e-06 7.175897e-07 4.803700e-07 3.732395e-07
2.442711e-07 -3.799541e-07 1.192798e-06 6.966370e-07 -1.836674e-07 -1.082097e-08
2.447127e-08 -5.816624e-08 6.152108e-07 6.468372e-07 1.295049e-07 2.328096e-07
4.919511e-07 -1.343096e-07 -4.494775e-08 -3.843187e-07 3.943703e-08 -3.291285e-08
1.834590e-07 -3.687386e-07 1.682941e-06 -6.646781e-07 -1.760022e-07 1.246745e-07
3.059649e-07 -4.754986e-07 7.981868e-07 -5.998323e-07 -3.237877e-08 2.797600e-07
1.171509e-07 -1.877059e-07 6.271204e-07 -6.640713e-07 2.256726e-08 5.844142e-08
2.508340e-07 -4.125089e-07 1.191499e-06 -6.243790e-07 9.452409e-08 2.268057e-07
5.493743e-07 -3.506005e-07 2.591020e-07 4.070161e-07 6.384617e-09 8.811049e-08
5.613496e-07 -3.314661e-07 2.479933e-07 4.717810e-07 -1.431240e-08 1.013728e-07
4.641964e-07 -3.555810e-07 4.153656e-07 3.842580e-07 -7.639685e-09 8.471286e-08
6.975035e-07 -5.615269e-07 6.692613e-07 1.988743e-07 4.039283e-08 -4.097487e-08
1.051635e-07 -2.006577e-08 -3.943874e-08 5.226554e-09 1.079074e-09 7.579743e-09
1.192179e-07 -2.802525e-08 -5.163052e-08 9.282233e-09 -4.222513e-09 1.445275e-08
1.049535e-07 -2.247578e-08 -4.290380e-08 4.364268e-09 -2.732333e-09 3.090229e-09
1.207144e-07 -2.704336e-08 -5.246599e-08 7.962067e-09 5.596579e-09 4.164811e-09
1.182500e-07 7.216277e-09 -6.696895e-08 7.206307e-08 7.136915e-09 1.606996e-08
1.196892e-07 1.807621e-08 -9.331369e-08 8.696696e-08 6.721432e-09 5.711457e-09
9.395715e-08 7.385029e-09 -6.443639e-08 5.162814e-08 2.983031e-09 8.705435e-09
9.211464e-08 7.462655e-09 -5.773565e-08 4.539776e-08 5.117077e-09 1.668629e-08
8.685822e-08 2.302322e-08 -5.641966e-08 5.686737e-08 4.950518e-09 9.834888e-09
8.305331e-08 2.180216e-08 -6.531056e-08 6.061581e-08 9.018269e-09 3.338664e-09
1.134332e-07 4.444780e-09 -7.542563e-08 6.567646e-08 7.399630e-09 9.692895e-09
1.539051e-07 -2.563125e-08 -6.856268e-08 3.825342e-08 4.743715e-09 2.153036e-08
1.297496e-07 -2.402694e-08 -6.272416e-08 2.664601e-08 6.167461e-09 3.194358e-09
1.251670e-07 -2.564728e-08 -6.911680e-08 3.088574e-08 2.886268e-09 1.680510e-08
1.380398e-07 -3.615011e-08 -7.354038e-08 2.164573e-08 2.183155e-09 1.793728e-08
-5.118421e-09 1.944654e-07 -1.238228e-07 -1.227235e-07 -5.775949e-08 2.245463e-08
-2.943067e-09 1.685227e-07 -1.119757e-07 -1.098925e-07 -2.998586e-08 1.857575e-08
-1.461667e-08 2.214353e-07 -1.221505e-07 -1.055477e-07 -3.907784e-08 2.385124e-08
-8.486564e-09 1.956967e-07 -1.254346e-07 -1.228895e-07 -5.801782e-08 2.486614e-08
4.326201e-08 1.826130e-08 -1.885017e-08 1.188314e-09 3.518220e-10 8.248024e-11
8.444493e-08 -2.220664e-08 -2.838838e-08 6.104372e-09 2.150530e-09 1.703630e-08
4.429249e-08 1.737239e-08 -2.075590e-08 3.075892e-09 5.203974e-10 1.041922e-09
4.549632e-08 1.750018e-08 -1.996813e-08 2.128423e-09 2.511435e-10 2.471974e-10
4.425850e-08 1.805779e-08 -1.932225e-08 6.066216e-10 1.843386e-10 -4.074028e-10
4.703575e-08 1.753683e-08 -1.956140e-08 1.580971e-09 4.638418e-10 -2.481512e-10
4.693756e-08 1.701822e-08 -1.946919e-08 1.821015e-09 4.609142e-10 1.135552e-09
4.459018e-08 1.753306e-08 -1.959575e-08 1.860959e-09 4.052265e-10 9.366261e-11
4.379134e-08 1.850651e-08 -1.918107e-08 1.667963e-09 9.032017e-11 3.863305e-10
3.687185e-07 -1.326658e-07 -1.091051e-07 -4.043299e-08 3.984468e-09 2.846337e-08
5.011239e-07 -1.677841e-07 -9.635195e-08 -3.579643e-08 -3.151169e-09 6.767869e-08
2.676303e-07 -7.588683e-08 -1.133047e-07 -6.468193e-08 -1.119440e-08 1.239596e-08
3.410137e-07 -9.565600e-08 -1.164027e-07 -7.363042e-08 -1.456174e-08 5.435585e-08
3.670858e-07 -1.670090e-07 -1.010230e-07 -2.934243e-08 -5.192952e-10 2.580666e-08
2.096750e-07 -4.305200e-07 1.119424e-06 6.206657e-07 4.547496e-08 -3.670387e-08
2.106822e-07 -3.316613e-10 6.206944e-07 5.875642e-07 8.493158e-09 -6.622100e-08
6.560670e-08 -2.093070e-08 6.665736e-07 6.288472e-07 -8.837101e-08 -1.583058e-07
-5.904066e-08 -2.092299e-08 5.261854e-07 6.572020e-07 -1.232948e-07 -2.455409e-08
-1.288621e-07 -3.554525e-07 1.385225e-06 8.320123e-07 -2.475199e-07 -2.189260e-07
-2.389307e-07 7.020596e-08 1.251479e-06 7.025222e-07 -1.264400e-07 -1.487501e-07
1.715693e-07 6.916112e-09 -1.122666e-07 -1.324169e-07 -7.702082e-09 1.151104e-08
1.344954e-07 4.437331e-08 -1.095172e-07 -1.405794e-07 -5.454874e-09 6.276963e-09
1.948599e-07 2.673363e-08 -1.195056e-07 -1.943734e-07 -6.256981e-09 3.317155e-09
2.406861e-07 -2.704326e-08 -1.227415e-07 -1.648008e-07 -8.827359e-09 1.217424e-08
2.170853e-07 -1.982838e-08 -1.204721e-07 -1.375635e-07 -5.143928e-09 3.170382e-08
5.008951e-08 2.064707e-08 -3.321113e-08 -1.642934e-08 -3.753694e-09 1.287137e-09
5.007344e-08 1.871042e-08 -3.499735e-08 -1.797341e-08 -1.145302e-09 1.821348e-09
5.033151e-08 1.467691e-08 -2.551239e-08 -8.028519e-09 -9.939915e-10 1.966321e-09
5.144279e-08 1.673554e-08 -2.571132e-08 -1.007752e-08 -1.188192e-09 1.710583e-09
4.563993e-08 2.099656e-08 -2.681814e-08 -7.415311e-09 -1.742899e-09 2.204911e-09
5.613303e-08 1.516733e-08 -2.931602e-08 -1.699258e-08 -1.704672e-09 2.688142e-09
5.209620e-08 1.590187e-08 -3.658378e-08 -1.695813e-08 1.240427e-09 -8.948589e-10
5.404056e-08 1.627773e-08 -2.585890e-08 -1.170846e-08 -2.764910e-09 2.596886e-09
1.077789e-07 -2.608058e-08 -4.501170e-08 2.249582e-09 4.786964e-10 1.078303e-08
4.118001e-08 4.190022e-08 -5.807997e-08 4.030972e-08 1.093896e-09 1.258184e-09
4.398951e-08 3.124486e-08 -4.103049e-08 2.984829e-08 3.033300e-09 9.413170e-09
4.760469e-08 3.630477e-08 -5.716773e-08 4.413481e-08 6.519594e-09 5.545434e-09
5.037976e-08 2.757980e-08 -4.576238e-08 3.470988e-08 2.776117e-09 3.021718e-09
5.985653e-08 3.285132e-08 -4.507430e-08 4.455443e-08 6.305142e-09 5.750085e-09
5.233273e-08 3.467627e-08 -5.116823e-08 4.459277e-08 6.520500e-09 1.369409e-08
-5.348655e-07 6.909960e-07 5.988371e-07 -2.097461e-07 3.439672e-08 -1.133338e-07
-6.212886e-07 6.064733e-07 7.681120e-07 -3.045418e-07 7.225712e-08 -1.000337e-08
-6.343854e-07 7.172424e-07 6.625811e-07 3.836935e-08 8.501681e-08 1.668673e-07
-7.486541e-07 6.953678e-07 6.160811e-07 -5.898442e-09 3.082100e-07 5.805598e-08
-7.540180e-07 6.822880e-07 8.192932e-07 -2.447061e-08 5.885482e-08 2.668628e-08
3.280774e-07 2.003938e-08 -1.534777e-07 2.525137e-07 -1.884519e-08 -2.694937e-08
-2.674088e-08 5.008373e-08 -3.861338e-08 2.302482e-09 -4.996835e-08 -2.744240e-08
-2.775623e-08 8.701757e-08 -4.285004e-08 3.220597e-09 -2.634298e-08 -2.346472e-08
-2.564043e-08 7.890273e-08 -3.625531e-08 6.497529e-09 -2.703073e-08 -1.840367e-08
2.057556e-07 1.103398e-07 -1.665636e-07 2.081583e-07 -1.875111e-08 -1.494370e-08
-9.145919e-08 2.827047e-07 -1.083426e-07 -1.034344e-07 4.457176e-08 -1.588583e-08
-9.037650e-08 2.716300e-07 -1.252311e-07 -9.663402e-08 6.167818e-08 -1.930917e-08
-5.005121e-08 2.622336e-07 -1.255188e-07 -9.095262e-08 5.777462e-08 -2.458937e-08
-3.310452e-08 2.211479e-07 -1.259297e-07 -1.069943e-07 4.444651e-08 -1.754834e-08
-4.429140e-08 1.767926e-07 -1.229414e-07 9.937122e-09 -2.637041e-09 -7.900172e-11
-7.293165e-08 2.473692e-07 -1.081787e-07 -1.239146e-07 5.811847e-08 -2.896931e-08
1.463184e-07 -4.180152e-08 -7.651825e-08 -4.243370e-09 -6.257856e-10 1.925812e-08
2.148730e-08 2.187395e-07 -1.245670e-07 -1.468919e-07 5.390702e-08 -2.599619e-08
-1.191636e-08 2.180640e-07 -1.218449e-07 -1.496132e-07 6.586594e-08 -2.352244e-08
-3.566941e-08 2.800794e-07 -1.255944e-07 -1.400672e-07 3.384119e-08 -5.831450e-09
-3.522141e-08 2.365004e-07 -1.265786e-07 -1.554997e-07 1.512296e-08 -6.000894e-09
3.288264e-07 -6.883404e-08 -4.701379e-08 2.848549e-07 1.052438e-08 1.972197e-08
3.373570e-07 -9.609512e-08 -7.864574e-08 2.074019e-07 -1.183405e-08 2.991509e-08
3.102161e-07 -4.721567e-08 -1.065166e-07 2.027835e-07 1.717485e-09 -8.986039e-10
4.031423e-07 -1.113869e-07 -1.308720e-08 2.767414e-07 4.224857e-08 7.499276e-08
3.178530e-07 -8.595659e-08 -6.423786e-08 2.168468e-07 2.471577e-08 6.369226e-08
4.756155e-07 -1.306993e-07 -6.872154e-08 2.336688e-07 5.016042e-09 4.411906e-08
-1.825875e-07 3.976710e-07 3.463893e-07 4.187396e-07 7.278901e-08 -3.717897e-08
8.649150e-09 1.989980e-07 3.567235e-07 5.240278e-07 -8.093228e-08 -1.215796e-07
-8.720215e-08 3.520546e-07 2.207308e-07 4.217036e-07 6.017113e-08 2.390495e-09
-1.314577e-07 3.823988e-07 4.094550e-08 3.786845e-07 -2.686242e-08 2.205241e-08
-2.213418e-07 4.344801e-07 1.877379e-07 4.001888e-07 6.057554e-08 5.744440e-08
-2.164293e-07 4.354026e-07 1.802343e-07 2.715961e-07 1.019281e-07 1.095720e-08
-7.304216e-08 3.397513e-07 4.530080e-09 3.164647e-07 1.050773e-08 1.895624e-09
-2.086974e-08 1.112977e-07 -7.623100e-08 -2.399019e-08 2.127048e-08 -8.169325e-09
-3.607204e-08 1.424547e-07 -8.519135e-08 -2.502697e-08 2.631467e-08 -4.791204e-09
-3.657665e-08 1.651365e-07 -9.519684e-08 -3.256802e-08 1.114008e-08 -2.697702e-09
-2.375960e-08 1.231685e-07 -8.026158e-08 -2.784429e-08 2.158786e-08 -6.115562e-09
-2.457590e-08 1.178838e-07 -7.592453e-08 -2.110229e-08 2.651301e-09 4.565339e-10
-3.360990e-08 1.661743e-07 -1.044892e-07 -5.193342e-08 1.524849e-08 -1.035771e-08
-5.271563e-08 2.027768e-07 -1.142561e-07 -6.928339e-08 2.357185e-08 2.803106e-10
-2.357113e-08 1.273939e-07 -8.185167e-08 -3.053077e-08 7.986862e-09 -6.242481e-09
9.079260e-09 8.155634e-08 -6.227540e-08 3.655052e-08 7.498422e-09 2.414389e-11
-3.153300e-08 1.316105e-07 -9.012208e-08 1.842854e-08 -5.035033e-08 -3.004471e-08
6.098921e-09 8.563697e-08 -5.969971e-08 3.394792e-08 3.324483e-09 -1.171689e-10
1.391171e-08 7.856128e-08 -6.500850e-08 3.768470e-08 4.076805e-09 -1.167544e-09
1.268435e-08 6.346088e-08 -4.801583e-08 2.029158e-08 1.020235e-09 1.903335e-10
-6.798178e-08 2.252963e-07 -1.325559e-07 3.250527e-08 -4.725025e-08 -8.248393e-09
-6.800244e-08 2.739522e-07 -1.471360e-07 4.360770e-08 -6.554603e-08 -1.982647e-08
-7.686383e-08 2.548022e-07 -1.347942e-07 6.532030e-08 -5.841779e-08 -1.846518e-08
-7.658711e-08 2.849980e-07 -1.497681e-07 7.972360e-08 -3.368683e-08 -1.082393e-08
1.221465e-07 -2.792450e-08 -5.256176e-08 -5.136622e-09 -5.837344e-09 4.162158e-09
-5.017152e-08 2.361199e-07 -1.335115e-07 6.112112e-08 -5.542996e-08 -2.476902e-08
-4.027639e-08 2.065180e-07 -1.286591e-07 5.299478e-08 -1.639548e-08 -2.610256e-09
-3.269317e-08 1.325495e-07 -9.021104e-08 3.955805e-09 -4.975602e-09 -1.106500e-08
-5.172741e-07 6.508979e-07 5.207134e-07 -9.475089e-08 -8.486568e-08 3.611442e-08
-3.371278e-07 7.189988e-07 1.565375e-07 -2.061401e-07 6.118550e-09 -4.197605e-08
-5.169292e-07 6.492062e-07 2.436371e-07 -9.082346e-08 2.833567e-08 3.609682e-08
-4.171010e-07 6.751521e-07 2.721500e-07 -3.031735e-08 -6.183402e-09 -1.759446e-08
-2.562453e-07 5.905147e-07 3.640412e-08 -6.264037e-08 8.375774e-08 -9.046460e-09
-4.044654e-07 5.712789e-07 7.601964e-08 -7.055429e-09 7.262430e-08 -7.745224e-10
9.525910e-08 -2.109415e-08 -3.627990e-08 -5.683151e-09 -1.886878e-09 1.210068e-08
9.093014e-08 -2.026540e-08 -2.745015e-08 -2.777500e-09 -2.329188e-10 7.385959e-09
1.137784e-07 -2.180973e-08 -4.187834e-08 -1.127834e-08 5.638703e-10 7.698718e-10
1.024365e-07 -2.317727e-08 -3.887856e-08 3.350770e-09 -2.323657e-09 1.470012e-08
8.988112e-08 -2.026023e-08 -3.189505e-08 -2.868997e-09 -1.901458e-10 1.020692e-08
7.849622e-08 3.363278e-09 -3.578170e-08 2.236635e-08 3.836560e-09 5.929592e-09
1.610275e-07 -2.315140e-08 -8.787568e-08 6.835589e-08 5.764217e-09 3.670258e-08
1.550793e-07 -2.101005e-08 -9.424952e-08 7.344087e-08 8.237033e-09 2.967719e-08
1.326274e-07 -1.936176e-08 -7.038683e-08 4.477362e-08 1.278183e-08 1.976402e-08
1.451569e-07 -1.049409e-08 -7.789017e-08 6.428064e-08 5.125078e-09 1.121401e-08
-4.513465e-08 1.527911e-07 -1.014302e-07 -4.482798e-09 -3.935409e-09 4.482657e-09
1.691895e-07 -2.571092e-08 -8.208249e-08 6.136106e-08 8.791649e-09 2.898538e-08
9.294245e-08 -1.729774e-08 -3.178956e-08 3.819909e-09 8.161156e-10 4.699650e-09
9.218970e-08 -1.937870e-08 -2.507895e-08 4.271560e-09 5.327684e-10 1.190121e-08
9.189952e-08 -1.937676e-08 -3.366315e-08 4.292969e-09 4.667336e-10 1.356035e-08
9.121882e-08 -1.865348e-08 -3.347496e-08 6.349598e-09 7.986818e-11 1.211067e-08
1.092943e-07 -2.452339e-08 -4.417092e-08 6.293883e-09 1.038222e-09 1.168208e-08
9.474686e-08 -2.226617e-08 -3.285549e-08 2.730708e-09 1.465041e-09 1.208023e-08
1.040382e-07 -2.104626e-08 -4.315602e-08 6.740555e-09 -8.697713e-10 1.102423e-08
1.509995e-07 6.831172e-08 -3.513998e-08 4.137225e-07 -1.879667e-08 2.018068e-08
2.577866e-07 -6.823810e-08 1.523633e-08 4.067127e-07 -3.047081e-08 5.741411e-09
2.094055e-07 7.467130e-08 -2.535285e-10 3.924132e-07 -3.642801e-09 -2.660958e-08
2.689766e-07 7.327963e-08 1.444181e-08 3.798212e-07 6.543261e-08 6.863047e-08
-1.265631e-06 -1.775380e-06 5.810402e-06 4.103858e-07 4.242904e-07 5.936268e-07
-1.087437e-06 -1.147129e-06 5.235449e-06 7.454374e-07 1.328635e-06 1.210803e-06
-2.206333e-06 -2.112406e-06 7.243685e-06 2.715223e-07 -1.791792e-08 2.416785e-07
-2.346409e-06 -2.488849e-06 8.868555e-06 -9.872213e-08 -1.186399e-07 9.285136e-07
-2.649746e-06 -2.688717e-06 8.899734e-06 2.297626e-07 -7.062045e-08 7.490751e-07
-2.791013e-08 1.072554e-07 -4.902830e-08 -1.736455e-10 1.428302e-08 1.697682e-09
-2.711814e-08 7.846350e-08 -5.079123e-08 9.913303e-09 2.192181e-08 4.253122e-09
-2.585015e-08 9.741158e-08 -4.750489e-08 4.956310e-09 1.000910e-08 7.021654e-09
-2.530059e-08 8.289875e-08 -3.011046e-08 4.545756e-09 2.417669e-08 3.776995e-09
3.403935e-08 9.816007e-08 -9.504361e-08 8.441441e-08 9.326448e-09 1.627331e-09
-2.525390e-08 7.649804e-08 -4.316626e-08 2.804452e-09 5.838609e-09 4.245164e-09
-2.378804e-08 2.852847e-07 -1.091977e-07 2.830230e-07 8.731249e-09 2.642031e-08
2.856726e-07 -3.669755e-08 -6.530267e-08 2.234112e-07 1.681276e-08 7.683726e-08
7.027279e-08 -2.399506e-09 -2.194255e-08 -1.043323e-09 -1.268327e-09 1.232855e-09
5.878783e-08 1.670974e-07 -1.251615e-07 1.914276e-07 2.522625e-08 1.450236e-08
7.544797e-08 -7.126689e-09 -2.265576e-08 -1.052787e-09 -1.267510e-09 1.654076e-09
7.240553e-08 -5.160570e-09 -2.307556e-08 -2.905341e-09 -1.531497e-09 1.224377e-09
4.440594e-08 1.842063e-08 -1.908746e-08 7.515286e-10 1.588776e-10 4.527550e-10
-2.049027e-09 2.274801e-07 -1.196173e-07 1.978838e-07 5.859305e-08 3.437686e-08
-5.408750e-09 2.040767e-07 -1.163959e-07 1.568688e-07 6.239252e-08 2.481845e-08
4.602202e-08 1.977622e-07 -1.178265e-07 2.098777e-07 1.480156e-08 1.470378e-08
3.182149e-08 2.010451e-07 -1.177459e-07 2.111351e-07 7.520646e-08 4.838293e-08
4.117670e-08 4.325371e-08 -4.883853e-08 3.816893e-08 6.294839e-09 -9.336016e-10
-5.774230e-08 2.619126e-07 -1.205338e-07 1.529654e-07 2.333219e-08 9.056756e-09
4.677963e-08 7.613970e-08 -1.116871e-07 -2.110550e-08 4.368018e-08 -6.316622e-09
-1.144931e-07 4.028937e-07 -9.953832e-08 1.657625e-07 7.630551e-08 2.565519e-08
-8.137992e-08 3.133731e-07 -7.540591e-08 1.905780e-07 5.293041e-08 1.533988e-08
-5.776326e-08 3.124274e-07 -1.268275e-07 1.965799e-07 1.895161e-08 2.113161e-08
3.901303e-07 -6.412533e-08 -1.021808e-07 -2.595617e-07 7.376336e-08 -4.643510e-08
-2.379202e-08 1.593667e-07 -9.775800e-08 -3.303480e-08 -1.757300e-08 1.026875e-08
3.250828e-07 -1.375103e-07 -1.114412e-07 -6.902113e-08 4.166723e-08 -8.439206e-08
-2.031517e-08 2.338382e-07 -1.463058e-07 1.274269e-07 -2.980904e-08 -8.837127e-09
-2.944944e-07 5.326761e-07 7.133529e-08 3.084216e-07 -7.661572e-08 1.160534e-08
-6.307107e-09 1.202080e-07 -9.054064e-08 -2.015829e-08 -1.699335e-08 1.836770e-08
-3.215312e-08 3.512411e-08 -3.830774e-08 -1.027000e-08 -6.230480e-08 -2.380855e-08
-2.126232e-09 1.269675e-07 -9.247551e-08 -2.871433e-08 -7.342737e-09 7.086049e-09
-4.279191e-09 1.266364e-07 -9.344875e-08 -3.977287e-08 -2.461832e-08 1.569121e-08
-5.646760e-09 1.197973e-07 -9.848256e-08 -4.662894e-08 -6.632910e-09 -3.576954e-09
-1.730971e-09 1.260799e-07 -7.787259e-08 -2.807827e-08 -6.706642e-09 1.021016e-08
-8.810495e-09 1.202591e-07 -7.373216e-08 -2.293224e-08 -2.423134e-08 1.837613e-08
-1.716649e-08 1.189633e-07 -7.430862e-08 -2.623419e-08 -2.286081e-08 2.164318e-08
8.597890e-08 -1.725142e-08 -2.389447e-08 5.439693e-10 1.945252e-10 1.442809e-09
9.033576e-08 -2.111459e-08 -3.086758e-08 6.348088e-10 1.736135e-09 9.379990e-09
9.400632e-08 -2.200967e-08 -2.884875e-08 2.631699e-09 -1.494385e-09 8.377960e-09
8.895257e-08 -1.698332e-08 -2.725830e-08 1.754805e-09 4.602459e-10 2.074801e-09
-8.526212e-07 4.704774e-07 1.883386e-06 -3.990987e-07 -4.240133e-08 -4.999668e-08
8.702562e-08 -2.023664e-08 -2.435363e-08 3.110535e-10 -3.738146e-10 6.902391e-09
9.537151e-08 -2.143164e-08 -3.269615e-08 1.801048e-09 9.737222e-10 1.239649e-08
8.634755e-08 -1.907499e-08 -2.681772e-08 3.196961e-09 2.310170e-10 8.534841e-09
5.190086e-08 8.554744e-08 -1.244342e-07 2.012345e-08 -4.747161e-08 -1.010476e-08
4.390454e-08 6.837398e-08 -1.050560e-07 3.797267e-08 -6.850519e-08 -2.689869e-08
8.718228e-08 -1.947614e-08 -2.417180e-08 6.675202e-10 5.649131e-14 7.073111e-09
6.041978e-08 9.051538e-08 -1.009952e-07 5.891527e-08 -7.775386e-08 -4.140938e-08
9.865039e-08 6.837347e-08 -1.465779e-07 3.672645e-08 -5.615304e-08 -1.550746e-08
7.811059e-08 -7.934025e-09 -2.958114e-08 -6.163707e-09 -2.946821e-09 2.990331e-09
5.966579e-08 1.100817e-07 -1.023801e-07 6.097938e-08 -6.851935e-08 -3.807281e-08
3.208076e-08 8.651886e-08 -9.874841e-08 3.199270e-08 -6.325012e-08 -2.535881e-08
7.295210e-08 6.829121e-08 -1.479592e-07 5.510399e-08 -5.426898e-08 -2.359717e-08
-5.634250e-07 5.599902e-07 5.472656e-07 -1.602538e-07 -6.504570e-08 4.471055e-08
-6.632960e-07 6.463822e-07 1.104666e-06 -2.048025e-07 -4.355906e-08 -6.430341e-10
-9.092486e-07 4.852798e-07 1.299386e-06 1.311135e-08 -1.194707e-07 -6.524526e-08
-5.709354e-07 6.386162e-07 3.724492e-07 5.129619e-08 -8.340398e-08 6.828063e-08
-6.915580e-07 6.596320e-07 8.245797e-07 1.966111e-07 1.123372e-07 1.897432e-08
-4.136840e-07 4.864387e-07 2.852612e-07 -3.393795e-07 2.952004e-08 -4.832101e-08
-3.092446e-08 1.543618e-07 -1.062413e-07 9.394061e-09 1.621164e-10 -5.814073e-09
-5.337146e-07 6.394902e-07 5.468984e-07 -1.087162e-07 -9.453128e-08 -1.691065e-08
-5.548569e-07 6.653348e-07 6.240936e-07 3.128334e-08 -1.026206e-07 1.422023e-08
-5.281564e-08 1.921299e-07 -1.073872e-07 2.579902e-08 4.278990e-08 8.371015e-09
1.444147e-07 2.802485e-08 -1.057297e-07 1.322112e-07 1.139996e-08 1.988761e-08
-1.355395e-07 3.889808e-07 2.080353e-08 2.867115e-07 -2.424147e-08 -2.828185e-08
1.576848e-07 3.118866e-08 -9.892889e-08 1.393746e-07 1.522470e-08 2.702806e-08
6.692452e-07 -3.604418e-07 2.943392e-08 -1.499000e-07 -7.154183e-09 -5.054990e-08
1.940624e-07 -9.275677e-09 -1.079097e-07 1.419922e-07 2.368140e-08 3.595749e-08
1.644661e-07 -3.577382e-09 -1.059213e-07 1.072211e-07 7.672600e-09 1.381351e-08
1.708939e-07 1.413433e-08 -1.117486e-07 1.312403e-07 1.084632e-08 9.588659e-09
1.051046e-07 -2.421353e-08 -4.602153e-08 -2.982597e-09 4.627203e-10 9.948539e-10
2.135035e-08 5.002217e-08 -5.157304e-08 -2.364776e-08 -1.795369e-08 2.102270e-08
2.164240e-08 3.312897e-08 -2.738512e-08 -3.747767e-09 -4.025162e-09 9.781526e-09
2.773024e-07 -1.628862e-07 -1.046477e-07 -3.403689e-10 1.699292e-08 -1.022642e-08
-3.262993e-07 4.810321e-07 3.318260e-07 3.609761e-07 -2.347455e-08 -6.016581e-09
-8.578825e-08 3.033290e-07 -1.426771e-07 3.166361e-08 -7.032148e-08 -3.823110e-09
2.592666e-08 3.320686e-08 -2.651456e-08 -4.816803e-09 -3.327923e-09 7.681455e-09
2.903623e-08 3.489948e-08 -3.396421e-08 -2.716593e-09 -1.465974e-09 9.502452e-09
4.290796e-08 4.362792e-08 -5.018464e-08 -3.959123e-08 -1.821855e-08 2.051158e-08
-8.506785e-07 6.510860e-08 1.883386e-06 -4.483677e-07 6.950250e-09 -3.709545e-08
3.078081e-08 3.739417e-08 -3.050740e-08 -3.995323e-09 -3.879425e-09 8.973463e-09
2.264660e-08 4.815061e-08 -4.226002e-08 -4.070158e-09 -1.566070e-09 9.279513e-09
1.018410e-07 -2.180973e-08 -4.187834e-08 -9.264410e-09 -3.582604e-11 2.547202e-09
-2.331129e-08 1.015139e-07 -6.519143e-08 -1.707695e-08 -5.513582e-08 2.797253e-08
-2.787024e-08 9.283731e-08 -6.746086e-08 -3.603168e-08 -5.838563e-08 2.271024e-08
-2.508615e-08 1.204424e-07 -6.595188e-08 -2.799758e-08 -4.505679e-08 2.473138e-08
-2.319485e-08 9.102252e-08 -3.640511e-08 -1.928249e-08 -7.225145e-08 3.525264e-08
-1.454154e-08 9.253715e-08 -5.774248e-08 -2.295873e-08 -4.479909e-08 3.180433e-08
-2.534911e-08 9.919056e-08 -6.911336e-08 -3.069308e-08 -5.384509e-08 2.342353e-08
7.909263e-08 1.156318e-09 -4.303038e-08 2.748788e-08 2.192242e-09 5.755654e-09
-1.448764e-08 6.367102e-08 -4.689956e-08 -2.032332e-08 -4.185038e-08 3.334675e-08
-8.762148e-09 1.698442e-07 -1.274262e-07 -1.078729e-07 -2.626606e-08 9.067084e-09
7.108946e-09 1.686560e-07 -1.116256e-07 -9.717565e-08 -2.951809e-08 2.378391e-08
6.982005e-09 1.987949e-07 -1.265207e-07 -1.719819e-07 -7.096892e-08 4.239691e-08
-2.017089e-08 2.215936e-07 -1.355289e-07 -1.562257e-07 -1.860274e-08 2.209607e-08
-8.948663e-09 1.592203e-07 -1.153902e-07 -1.021140e-07 -3.633599e-08 2.320818e-08
-9.199118e-08 3.338726e-07 -1.043579e-07 -1.697607e-07 -9.546568e-08 2.129385e-08
-7.410600e-08 2.940511e-07 -1.159052e-07 -1.471883e-07 -6.069140e-08 2.561123e-08
-4.810104e-08 2.983431e-07 -1.466240e-07 -1.594098e-07 -2.678250e-08 2.543017e-08
-9.079595e-08 3.587541e-07 -1.329758e-07 -1.487828e-07 -1.551385e-08 4.590011e-09
4.609818e-07 -3.429983e-07 8.495287e-07 -5.018257e-07 -6.891771e-09 -8.563901e-08
-4.674667e-08 1.820843e-07 -1.138751e-07 -6.146038e-10 -2.239095e-08 -1.642236e-09
4.149722e-07 -2.306173e-07 4.432891e-07 -4.955952e-07 -1.250647e-07 6.462601e-08
5.770855e-07 -5.237924e-07 6.919262e-07 -4.374223e-07 1.104224e-07 8.102277e-08
5.128231e-07 -5.047680e-07 8.801048e-07 -4.736879e-07 -5.285660e-08 9.925280e-08
-1.304490e-07 4.640723e-07 -1.121568e-07 -1.900055e-07 -4.677639e-08 1.114489e-08
6.857000e-07 -5.305480e-07 2.905678e-07 -3.640571e-07 3.930193e-08 1.559789e-07
-3.508337e-08 1.353375e-07 -9.997776e-08 -2.920787e-08 -7.062905e-08 2.369896e-08
-3.754323e-08 1.330149e-07 -7.487999e-08 -2.270332e-08 -5.095099e-08 2.147279e-08
-3.910362e-08 4.908054e-08 -3.793459e-08 1.194513e-08 -7.494426e-08 4.385077e-08
-1.394315e-08 1.049635e-07 -7.305896e-08 -3.678167e-08 -3.333014e-08 2.603282e-08
-9.161825e-09 6.336895e-08 -3.981151e-08 -4.201775e-08 -8.706395e-08 3.524722e-08
3.981573e-08 4.184664e-08 -4.435535e-08 -1.144428e-08 -1.715859e-09 4.109845e-09
-3.210209e-08 1.876697e-07 -9.825821e-08 -5.103891e-08 -6.529304e-08 2.163203e-08
-2.222558e-08 1.348908e-07 -1.002360e-07 -5.453176e-08 -9.201756e-08 3.067016e-08
6.481143e-08 1.363559e-09 -2.480051e-08 -3.598101e-09 -1.677291e-09 2.772103e-10
-2.764145e-08 9.517369e-08 -8.462236e-08 -3.870907e-08 -6.112172e-08 3.345002e-08
7.199518e-07 -2.768442e-07 7.425617e-08 2.915665e-07 -5.975913e-08 -1.346864e-08
-1.757764e-08 8.117163e-08 -5.072431e-08 1.914626e-09 -5.334350e-09 -1.271735e-08
1.455421e-07 -2.954913e-08 -5.770642e-08 1.345457e-08 1.811753e-09 1.152683e-08
1.379965e-07 -3.614947e-08 -7.181148e-08 2.164817e-08 1.521698e-09 9.425972e-09
1.396402e-07 -3.283808e-08 -6.499787e-08 1.932463e-08 -3.737332e-09 2.185470e-08
1.677170e-07 -4.442599e-08 -4.139853e-08 4.381666e-08 -9.908284e-08 -1.378385e-07
1.193221e-07 -2.966376e-08 -5.791724e-08 9.900521e-09 8.300850e-10 7.324815e-09
4.147503e-08 2.044267e-08 -1.877887e-08 4.938787e-10 1.570743e-11 -5.588200e-11
2.119605e-07 1.419418e-08 -1.438549e-07 -5.329289e-08 8.672398e-08 -4.076533e-08
1.554753e-07 1.265765e-08 -1.205338e-07 -1.725333e-08 8.620280e-08 -3.068738e-08
6.895633e-08 -4.330061e-09 -2.217306e-08 1.008846e-08 3.560871e-09 7.419423e-09
-2.919432e-08 1.355083e-08 -4.361247e-08 -1.868026e-09 -1.382142e-07 -1.523678e-08
1.494589e-07 3.137597e-08 -1.332072e-07 -9.378753e-08 9.317150e-08 -6.048127e-08
8.371354e-08 -8.178975e-09 -3.295083e-08 1.658332e-08 1.425511e-09 8.134434e-09
7.656353e-08 3.081120e-09 -6.669645e-08 -1.205354e-08 8.611319e-08 -4.632796e-08
-1.055638e-08 1.871775e-07 -1.390715e-07 9.171204e-08 -2.236463e-08 -1.798141e-08
-3.362280e-09 -8.345465e-09 -5.966319e-08 8.774233e-10 8.666038e-08 -2.914715e-08
-1.151770e-08 1.276775e-07 -1.033794e-07 3.709334e-08 -3.107883e-08 -1.405460e-08
7.684422e-08 1.314929e-08 -5.885151e-08 -4.919336e-09 7.978361e-08 -1.658922e-09
8.214129e-08 1.276293e-07 4.437460e-08 4.541793e-07 4.082793e-08 2.987558e-08
3.663315e-08 2.968030e-08 -4.049671e-08 -2.385188e-08 -1.252834e-08 1.266224e-08
2.904225e-08 3.304346e-08 -3.385843e-08 -8.596241e-09 -5.417657e-09 1.073394e-08
3.596941e-08 3.243524e-08 -3.375937e-08 -6.314691e-09 -1.975856e-09 4.001105e-09
-8.312883e-08 2.895239e-07 -1.268469e-07 -7.844495e-08 1.230902e-08 -2.834836e-09
-8.641952e-08 2.685298e-07 -1.147996e-07 -1.170886e-07 5.804809e-08 -1.365704e-08
6.876346e-08 5.090091e-09 -3.663797e-08 2.031838e-08 3.054186e-09 7.951607e-09
-8.099268e-08 3.199188e-07 -9.434238e-08 -1.716612e-07 -3.527997e-09 1.163109e-08
-1.396386e-07 3.539660e-07 -1.306373e-07 -9.660543e-08 4.576179e-08 -4.202223e-09
-8.850602e-08 3.049247e-07 -1.254366e-07 -7.029493e-08 8.225472e-08 -1.868633e-08
2.218993e-07 5.900525e-08 -5.669229e-08 3.514110e-07 2.965653e-08 6.540357e-08
2.647680e-07 3.856066e-08 -7.454577e-08 2.900197e-07 5.776214e-09 1.155171e-08
2.626725e-07 -6.750613e-08 1.468156e-08 4.097097e-07 4.283380e-08 7.302925e-08
6.966606e-08 1.200194e-09 -2.592524e-08 -8.866201e-09 -1.845631e-09 3.891614e-09
1.999005e-07 2.616572e-08 -2.689444e-08 3.190073e-07 1.135716e-08 1.280584e-08
5.686498e-08 4.650787e-08 -7.124405e-08 -5.284516e-08 -1.114511e-08 1.751119e-08
8.100388e-08 -1.758084e-08 -2.743616e-08 -8.491873e-09 -4.644126e-09 1.447018e-08
-2.857173e-07 -8.332616e-07 3.431147e-06 -6.434408e-07 -4.594806e-07 3.991406e-07
6.249030e-08 2.306313e-09 -2.146133e-08 -4.756204e-10 -2.897067e-10 3.901261e-10
-9.510703e-07 -5.391137e-07 3.366927e-06 -6.829762e-07 -3.429956e-07 5.109696e-07
-7.809516e-07 -9.521536e-08 1.901111e-06 -7.644222e-07 -2.000633e-07 1.609701e-07
-9.458674e-07 -8.175190e-07 3.010564e-06 -7.825917e-07 -2.782293e-07 5.433603e-07
8.298583e-08 -9.092246e-09 -2.873884e-08 5.363810e-09 2.414966e-10 1.293992e-09
3.988611e-08 2.268512e-08 -1.986939e-08 4.060801e-09 1.596771e-10 1.069639e-09
1.598788e-09 3.633860e-08 -2.977662e-08 -8.748743e-09 -1.636792e-08 1.920934e-08
7.928721e-08 -9.824326e-09 -2.722358e-08 3.348441e-09 1.790619e-10 2.283487e-09
8.378721e-08 -1.099130e-08 -3.070371e-08 3.800079e-09 -4.410299e-10 1.413974e-09
8.323326e-08 -1.430376e-08 -2.372261e-08 1.350642e-09 -3.067936e-11 1.205295e-09
5.921805e-07 -1.933660e-07 -2.291765e-07 1.953475e-08 -7.002645e-09 -1.383813e-15
8.255146e-08 -1.099130e-08 -3.001440e-08 2.971602e-09 -2.250846e-10 2.527541e-10
-5.931696e-08 1.713129e-07 -8.720450e-08 -9.342091e-09 -6.826163e-08 -3.272249e-09
8.548453e-08 -1.337313e-08 -2.679825e-08 2.266270e-09 1.254398e-09 1.718518e-09
9.380513e-08 -1.077185e-08 -4.190481e-08 -1.481901e-08 -3.214899e-09 5.918841e-09
8.557422e-08 -1.318255e-08 -3.085773e-08 2.353598e-09 1.315854e-09 1.620415e-09
-2.855590e-08 8.493264e-08 -4.212808e-08 -3.464660e-09 -3.973193e-08 6.396347e-09
8.045996e-08 -1.335709e-08 -2.826847e-08 2.448556e-09 2.969609e-10 2.214222e-09
5.037840e-08 1.265317e-08 -2.027621e-08 -2.156883e-09 -4.661057e-10 -1.763753e-10
5.191476e-08 1.231351e-08 -1.978962e-08 -1.777947e-09 -5.501597e-10 5.459501e-10
-1.974331e-08 2.204003e-08 -3.102377e-08 4.710890e-09 7.578667e-08 -2.998919e-08
4.238180e-08 2.022559e-08 -1.870368e-08 3.346531e-10 -2.452769e-11 -1.909711e-10
5.218084e-08 1.215055e-08 -1.979603e-08 -1.760633e-09 -4.099960e-10 3.561784e-10
5.138384e-08 1.272635e-08 -2.235696e-08 -6.254991e-09 -1.348743e-09 1.497244e-09
2.326764e-08 4.707409e-08 -3.623929e-08 6.864945e-09 1.272893e-09 -5.268035e-10
5.322530e-08 1.052957e-08 -2.012707e-08 -3.781755e-09 -9.911948e-10 6.664343e-10
5.086793e-08 1.385316e-08 -2.239211e-08 -4.175606e-09 -5.819326e-10 2.495307e-09
5.085481e-08 1.315176e-08 -2.058483e-08 -3.598854e-09 -4.176204e-10 9.768387e-10
-7.210223e-07 6.704981e-07 1.012142e-06 1.542417e-07 -3.680355e-08 3.685002e-09
6.627751e-09 5.597665e-08 -3.585996e-08 -2.645610e-09 4.149199e-08 2.361875e-09
-6.096640e-07 6.992984e-07 5.572330e-07 2.122518e-07 4.208465e-08 1.019073e-07
-7.830776e-07 7.150487e-07 9.085158e-07 4.890264e-07 1.070761e-07 -9.130185e-08
-8.242506e-08 2.838703e-07 -8.573442e-08 -1.867211e-07 4.324637e-08 -6.713846e-09
1.615165e-07 -3.979777e-08 -8.804162e-08 4.081334e-08 3.602735e-09 2.505766e-08
-9.970746e-07 4.563027e-07 1.601801e-06 4.582783e-07 -2.165025e-09 4.580030e-09
6.328309e-08 2.997479e-09 -2.350313e-08 -8.709085e-09 -3.744006e-09 4.129776e-09
5.059564e-08 1.259601e-08 -2.107936e-08 -1.776079e-09 -2.159100e-10 6.765797e-10
-1.072286e-06 5.222252e-07 2.496530e-06 2.356769e-07 3.500162e-07 1.373782e-07
8.530491e-08 -2.019964e-08 -2.621866e-08 -2.722970e-09 -1.364269e-09 1.487582e-08
-7.614252e-07 6.575666e-07 9.292416e-07 2.562448e-07 6.759773e-07 3.451755e-09
-4.033625e-07 6.702924e-07 1.186223e-07 3.805091e-08 -1.032625e-08 5.489740e-08
5.195321e-07 -8.034888e-07 1.265187e-06 -3.931566e-07 1.689424e-07 -3.201610e-07
-2.262169e-06 -2.442582e-06 7.543595e-06 -1.040374e-08 -5.265067e-07 3.845594e-07
-9.781849e-07 6.063031e-07 1.431782e-06 -1.464554e-07 4.702833e-07 3.240795e-07
4.572762e-08 7.100784e-08 -6.968076e-08 -5.592485e-08 -1.668548e-08 1.233468e-08
-9.067440e-07 6.410105e-07 1.453933e-06 8.729465e-08 1.528195e-07 3.709469e-07
-3.247457e-07 4.003112e-07 4.604537e-07 4.979710e-07 -2.268553e-07 -2.937170e-08
-4.904129e-07 1.936348e-07 9.277071e-07 6.826586e-07 -2.142623e-07 -1.553248e-09
-3.189166e-08 2.434736e-07 5.384478e-07 5.469478e-07 -6.566969e-08 -5.094846e-08
-2.380633e-07 7.603658e-08 1.433869e-06 7.002733e-07 -2.529347e-08 -1.876125e-07
-3.360356e-07 1.058811e-07 1.115822e-06 7.090742e-07 -9.732377e-08 1.356157e-08
7.697732e-08 -8.284608e-09 -2.401154e-08 2.943276e-09 7.861324e-10 1.663900e-09
-1.302626e-07 3.684953e-08 9.486635e-07 6.931564e-07 4.122468e-08 1.434685e-07
4.750939e-07 -2.048899e-07 -6.235651e-08 2.486749e-07 7.868420e-08 4.335602e-08
-1.430333e-06 1.643857e-07 3.675860e-06 1.498110e-07 5.569004e-07 2.285789e-07
2.085420e-08 6.569957e-08 -5.647193e-08 -1.056733e-08 -1.264933e-09 2.688615e-09
-1.459676e-06 -2.144488e-07 3.635547e-06 2.603336e-07 7.155181e-07 1.910051e-07
-7.418917e-07 1.881763e-07 1.702168e-06 7.341859e-07 4.712862e-07 2.025513e-07
1.657670e-09 -5.742981e-08 -1.806915e-08 4.479191e-09 -4.640714e-08 -6.857447e-08
-2.292850e-08 1.010684e-07 -7.812031e-08 3.894927e-09 -4.593787e-09 -1.470933e-08
-4.209239e-08 1.562744e-07 -1.011353e-07 1.560926e-09 -5.315753e-09 -3.154435e-09
-7.219221e-07 3.118200e-07 1.945949e-06 5.586294e-07 2.449331e-07 4.001160e-07
-1.152241e-06 3.483885e-07 1.700614e-06 4.305959e-07 4.132242e-07 -1.688627e-08
-1.788182e-06 -9.565047e-07 5.312771e-06 3.669715e-07 1.237683e-07 1.200619e-07
-9.742534e-07 3.364039e-07 2.136543e-06 4.454729e-07 4.184622e-07 2.700230e-07
-3.966738e-08 1.783614e-07 -1.191175e-07 2.613491e-08 -4.887668e-09 -8.946388e-09
-1.589592e-06 -1.878515e-06 5.736986e-06 4.086317e-07 -2.347568e-07 -5.964873e-07
-4.400859e-07 -1.385719e-06 3.061319e-06 5.911055e-07 -5.441255e-07 -6.961971e-07
-3.486198e-07 -1.670208e-06 4.270361e-06 5.068781e-07 -1.046240e-06 -1.338712e-06
-7.039609e-07 -1.846567e-06 5.755768e-06 2.320439e-07 -1.871312e-07 -7.910118e-07
3.175449e-07 -2.734210e-08 -1.778729e-07 -8.255940e-08 4.660745e-08 -2.917515e-08
3.975513e-07 -7.107344e-08 -2.050338e-07 -7.339704e-08 2.376155e-09 -9.408892e-09
3.430106e-07 -5.372646e-08 -1.471299e-07 -1.774155e-07 7.039096e-08 -4.210896e-08
4.268673e-07 -9.874411e-08 -1.958194e-07 -7.441050e-08 3.838563e-08 -3.405738e-08
4.873896e-07 -1.442569e-07 -1.715824e-07 -1.402737e-07 3.190797e-08 -3.594916e-08
4.545815e-07 -1.024271e-07 -2.218720e-07 -1.300896e-07 3.760143e-08 7.886310e-09
7.675136e-08 2.567905e-09 -3.728874e-08 2.113678e-08 7.787741e-10 4.081398e-09
2.052533e-07 -1.813795e-08 -1.065954e-07 1.337710e-07 2.690514e-08 4.578891e-08
-1.321515e-08 1.183468e-07 -7.486849e-08 3.574265e-08 1.703497e-08 1.004940e-08
3.167511e-07 -2.323282e-08 -2.020920e-07 -1.191238e-07 3.237869e-08 -1.684609e-10
-1.062485e-08 1.397608e-07 -9.531506e-08 -4.282124e-08 -2.476236e-08 1.209762e-08
-1.019749e-08 1.060313e-07 -7.297108e-08 -2.817632e-08 -2.492228e-08 1.746285e-08
-1.189990e-08 7.278454e-08 -5.793966e-08 -1.591768e-08 -3.064307e-08 2.210657e-08
-2.768653e-09 9.393791e-08 -5.639769e-08 -3.156173e-08 -3.770474e-08 2.591897e-08
5.819447e-08 6.031087e-09 -2.017121e-08 9.672112e-09 3.361866e-09 4.192191e-09
4.191776e-08 2.214159e-08 -2.218746e-08 6.946511e-09 2.223757e-10 6.147909e-10
-9.178206e-09 1.057489e-07 -9.104966e-08 -2.832967e-08 -2.247301e-08 1.692576e-08
-8.555049e-09 9.312348e-08 -6.102594e-08 -7.913279e-09 -1.409878e-08 2.406662e-08
-6.797887e-08 2.884456e-07 -1.552294e-07 1.275404e-07 -2.795744e-08 3.436441e-09
5.233970e-08 2.873221e-08 -5.626444e-08 4.883259e-08 1.320421e-08 1.163463e-08
3.653064e-08 3.876102e-08 -3.857213e-08 2.386199e-08 2.886558e-09 -1.236537e-09
3.828761e-08 2.309945e-08 -2.492810e-08 1.005453e-08 1.660227e-09 1.735718e-09
-6.820301e-08 3.597018e-07 -1.162309e-07 1.627292e-07 -9.005560e-08 -4.596851e-08
-1.429378e-07 3.500858e-07 -1.507779e-07 3.623460e-08 -3.048031e-08 -9.953322e-10
-4.458301e-08 2.122774e-07 -1.248560e-07 9.715681e-08 1.465426e-08 -1.681001e-09
-1.085418e-07 4.076085e-07 -1.526158e-07 9.105751e-08 -3.447418e-08 -1.040237e-08
-7.191155e-08 3.041283e-07 -1.458484e-07 1.101208e-07 -1.023934e-08 -5.074353e-10
-8.164489e-08 3.116408e-07 -1.588684e-07 1.062522e-07 -8.739233e-08 -3.127425e-08
7.075025e-08 -3.517554e-09 -2.329568e-08 2.871651e-09 4.940623e-10 7.532634e-10
4.170295e-08 1.979510e-08 -1.876188e-08 1.903082e-10 1.745892e-11 1.486120e-10
4.538867e-08 2.218928e-08 -2.458931e-08 -8.859225e-09 -3.281158e-09 5.289367e-09
8.587564e-08 -4.218276e-09 -4.938589e-08 2.334799e-08 -2.339279e-09 7.912784e-10
4.054053e-08 2.382234e-08 -2.794563e-08 -8.811787e-09 -4.274826e-09 3.596550e-09
4.430570e-08 2.453816e-08 -2.712986e-08 -4.690455e-09 -1.352616e-09 1.670102e-09
6.098921e-09 7.998143e-08 -5.969971e-08 2.370874e-08 3.446249e-09 3.237347e-10
4.306006e-08 2.311851e-08 -3.023218e-08 -8.744600e-09 -2.591844e-09 1.873126e-09
2.370557e-07 3.875599e-08 -7.505988e-08 3.001413e-07 6.059574e-09 3.632329e-09
2.931066e-07 -3.756327e-08 -9.862730e-08 2.491073e-07 2.018819e-08 1.444989e-08
1.467084e-07 1.657623e-07 -2.740992e-08 3.642213e-07 8.652763e-09 6.009028e-09
1.592743e-07 1.050448e-07 7.197307e-08 4.513137e-07 4.453029e-08 7.709815e-08
1.516380e-07 6.850679e-08 -1.245394e-08 4.143141e-07 4.313807e-08 5.734400e-08
1.222766e-07 -2.016682e-08 -6.081595e-08 -3.266446e-08 -9.700498e-10 1.987307e-08
1.419256e-08 2.737474e-07 1.377252e-07 4.193040e-07 9.060501e-08 2.870689e-08
4.607205e-08 1.080082e-07 -1.145305e-07 -4.816116e-08 9.676827e-09 -6.516164e-09
-3.431373e-07 7.143486e-07 1.335543e-07 -8.426196e-08 5.000496e-08 -1.157953e-08
6.792670e-09 1.580940e-07 -1.253940e-07 -1.011794e-07 1.660224e-08 -1.742133e-08
1.662415e-07 1.116233e-08 -4.569884e-08 3.417627e-07 -6.927543e-09 3.881445e-08
-2.124900e-07 -5.755919e-07 1.821904e-06 -7.533510e-07 -3.609099e-07 7.896680e-07
2.635179e-07 7.559003e-08 1.502717e-08 3.776929e-07 -1.069467e-08 2.353667e-09
2.362397e-08 3.624364e-08 -2.331978e-08 1.656094e-08 1.141286e-08 8.267884e-09
1.779296e-08 4.486687e-08 -3.050239e-08 1.377581e-08 7.623873e-09 5.505645e-09
3.266098e-07 -8.809465e-08 -1.142801e-07 8.741543e-08 1.735502e-08 5.089796e-08
1.631464e-08 5.312558e-08 -3.814128e-08 3.794784e-09 1.528552e-10 2.243401e-09
8.323326e-08 -1.307633e-08 -2.558943e-08 6.291312e-10 8.935001e-10 1.499536e-09
3.043232e-08 4.001958e-08 -3.360766e-08 2.058949e-08 9.940895e-09 8.435050e-09
6.492269e-08 1.538980e-09 -2.229565e-08 2.587870e-09 1.015592e-10 6.313848e-10
8.612881e-08 -8.449210e-09 -3.570163e-08 1.380694e-08 2.755248e-09 2.050490e-09
2.459744e-08 4.585162e-08 -3.250617e-08 1.490353e-08 7.884995e-09 6.343363e-09
2.292797e-08 4.592099e-08 -3.578539e-08 2.225462e-08 9.535371e-09 1.000019e-08
1.168401e-08 4.986137e-08 -3.086408e-08 1.896994e-08 1.146629e-08 1.087592e-08
2.537432e-08 4.135380e-08 -3.252404e-08 2.047225e-08 8.177950e-09 6.077149e-09
5.238524e-07 -1.727332e-07 -1.173252e-07 1.546743e-07 -4.568129e-08 -7.998969e-08
-1.487545e-06 -1.896332e-06 5.832115e-06 3.066482e-07 -2.782150e-07 -8.872300e-07
-2.749821e-08 8.530423e-08 -6.405450e-08 -1.769027e-09 -7.339218e-09 1.560551e-08
6.022935e-07 -2.573914e-07 -1.109580e-07 1.037320e-07 -3.261363e-09 -2.305486e-08
2.255052e-08 4.284667e-08 -3.544065e-08 2.191475e-08 1.569950e-08 1.278046e-08
-3.203982e-08 2.003705e-08 -4.463347e-08 4.324110e-09 -1.302719e-07 3.606269e-08
-4.973799e-08 6.281339e-08 -4.287812e-08 -3.452282e-08 -9.752064e-08 -3.812375e-08
1.448097e-08 6.509428e-08 -5.700790e-08 -3.202664e-08 -3.254015e-08 2.498477e-08
-8.555670e-09 3.837090e-08 -3.308482e-08 -8.687204e-09 -3.801979e-08 2.786396e-08
-6.388137e-09 3.222938e-08 -3.050603e-08 -1.149792e-08 -3.824721e-08 3.107055e-08
1.755049e-09 7.777218e-08 -5.316832e-08 -2.719226e-08 -2.709768e-08 2.508421e-08
-2.084887e-08 2.450498e-07 7.685192e-09 -3.424808e-07 3.517022e-08 -1.709377e-08
-1.357873e-06 -6.930600e-07 3.632672e-06 -5.099290e-07 6.900623e-07 -3.645745e-07
1.196570e-08 4.944383e-08 -4.765525e-08 -1.486713e-08 -2.440707e-08 2.098305e-08
9.028571e-09 4.636983e-08 -3.049543e-08 -2.138549e-08 -2.473274e-08 2.166497e-08
-1.374480e-06 -3.127795e-08 3.044855e-06 -4.803658e-07 -9.264494e-07 2.690240e-07
1.609715e-07 1.133137e-08 -1.075889e-07 -1.034123e-07 -1.659114e-09 2.117666e-08
8.273097e-09 4.513142e-08 -4.172323e-08 -9.479145e-09 -1.345915e-08 1.852497e-08
7.975608e-08 -8.895340e-09 -2.679013e-08 -1.184055e-09 -6.557521e-11 1.031576e-09
-1.339138e-07 -1.116336e-06 2.388094e-06 6.269240e-07 2.250396e-08 -4.966062e-08
-1.730714e-07 4.358123e-07 -8.234446e-10 2.843563e-07 5.782123e-08 4.093106e-08
-5.935941e-08 2.834588e-07 -1.393450e-07 2.349519e-07 -3.100975e-08 -4.592520e-08
-1.302864e-07 3.524874e-07 8.079000e-08 2.847180e-07 5.297026e-08 -9.341632e-10
3.095170e-08 2.378387e-07 -1.584096e-07 1.661232e-07 -2.712338e-08 -1.989729e-08
7.091859e-10 2.369844e-07 -1.487127e-07 1.723039e-07 -3.154293e-08 -9.630719e-09
2.596977e-08 2.018642e-07 -1.337555e-07 1.781855e-07 -6.834802e-08 -3.465691e-08
2.685394e-07 3.978939e-09 -1.174407e-07 -2.490021e-07 1.845090e-08 -2.465551e-08
2.481039e-08 2.520517e-07 -1.165480e-07 2.555497e-07 -3.719210e-08 -1.536607e-08
-1.909837e-08 2.485732e-07 -1.170908e-07 2.122428e-07 3.921297e-08 1.950208e-08
8.842169e-09 2.675401e-07 -7.592622e-08 2.882290e-07 2.328244e-09 -6.563630e-09
-2.873621e-08 2.688253e-07 -7.997129e-08 2.279638e-07 8.161087e-08 2.962248e-08
3.650114e-09 1.736838e-07 -1.121031e-07 1.321978e-07 1.711072e-08 1.733335e-08
1.341920e-08 5.533883e-08 -7.092415e-08 -1.826759e-09 5.522811e-08 -3.971261e-09
3.214701e-08 5.565963e-08 -7.495119e-08 -4.396352e-09 5.663925e-08 -1.091782e-08
3.195846e-08 1.593733e-07 -1.047546e-07 1.782289e-07 4.301516e-08 2.823461e-08
-2.656121e-08 9.272792e-08 -8.067641e-08 -1.177745e-08 -3.637955e-08 1.576228e-08
-2.756673e-08 7.616471e-08 -4.956894e-08 -2.577403e-09 -2.415637e-08 1.374972e-08
-3.236592e-08 1.066932e-07 -7.165210e-08 2.445678e-08 -5.820142e-08 -2.216776e-08
4.131210e-08 2.025531e-08 -1.914162e-08 1.229237e-09 5.047736e-12 4.878930e-10
3.458208e-08 4.981975e-08 -8.765604e-08 -1.056820e-08 6.751807e-08 9.219590e-10
-1.442981e-08 4.010184e-08 -4.323282e-08 -1.346924e-09 -5.561070e-08 -4.009137e-09
-1.425901e-08 -4.189070e-08 4.021765e-08 -9.993747e-09 6.088197e-08 -1.785528e-07
4.064667e-07 -1.667264e-07 -1.792532e-07 -7.829844e-09 2.530113e-08 -5.267851e-08
5.708637e-07 -2.149109e-07 -1.278437e-07 -1.138093e-07 -9.076738e-09 -1.450122e-08
4.534704e-07 -3.133158e-07 8.286234e-09 6.273059e-08 1.582011e-08 -5.590279e-09
-2.472157e-08 5.612984e-08 -4.371166e-08 1.191332e-08 -1.545325e-08 1.878784e-08
-3.178986e-08 1.367128e-07 -8.060072e-08 1.357963e-08 4.949141e-09 5.864202e-09
-3.715407e-08 1.099343e-07 -7.420376e-08 -3.823238e-09 -4.885618e-08 1.605556e-08
-1.768121e-08 1.134553e-07 -7.161729e-08 -5.389550e-09 -1.853787e-08 2.016433e-08
1.857860e-07 -4.173824e-08 -7.609006e-08 -5.850383e-09 -8.900860e-10 2.501694e-08
-3.167121e-08 1.226666e-07 -7.633528e-08 7.314263e-09 2.747139e-09 1.007619e-09
-1.156437e-07 2.918849e-07 -1.291281e-07 3.023826e-08 2.517794e-08 1.430739e-09
1.444995e-07 -4.065156e-08 -7.432417e-08 9.351252e-09 7.863058e-10 9.945913e-09
1.789457e-07 -4.950590e-08 -8.238193e-08 4.695299e-09 9.536327e-09 3.118764e-08
1.836479e-07 -4.065663e-08 -7.482424e-08 1.138379e-08 9.948639e-10 2.522425e-08
-1.030839e-07 2.829321e-07 -1.486981e-07 -8.474398e-08 -3.070658e-08 6.563461e-09
-2.539979e-08 4.948104e-08 -2.395370e-08 4.380534e-10 3.843065e-08 -1.571793e-08
-8.993740e-08 3.807174e-07 -1.354737e-07 -1.300334e-07 -7.354948e-08 2.658462e-08
-1.304466e-07 3.664683e-07 -1.121568e-07 -1.437225e-07 -2.823762e-08 -6.437458e-09
5.862389e-08 9.162609e-08 -1.281449e-07 -4.223381e-08 1.012513e-08 -2.481290e-09
-1.421544e-07 3.940150e-07 -1.259933e-07 -1.156599e-07 -9.980103e-08 2.713836e-08
5.082809e-07 -2.197883e-07 -1.635799e-07 -3.814187e-08 1.335012e-08 -3.434243e-08
6.403863e-08 2.945741e-09 -2.536700e-08 -7.560548e-09 -2.888323e-09 2.490953e-09
-1.028098e-07 3.650317e-07 -1.591429e-07 -1.009344e-07 -6.488528e-08 2.982816e-08
-1.321093e-07 4.100201e-07 -1.324374e-07 -9.653412e-08 -2.708995e-08 5.289827e-09
9.629281e-08 -1.793051e-08 -3.381521e-08 1.032503e-08 9.885710e-10 9.121066e-09
8.826054e-08 -1.432199e-08 -3.666825e-08 9.730165e-09 2.501292e-09 1.580048e-08
7.441797e-08 -6.815226e-09 -2.329828e-08 -1.578397e-09 -2.054491e-09 2.053168e-09
8.679265e-08 -1.588269e-08 -3.263124e-08 1.085518e-08 2.805426e-09 8.574670e-09
8.644542e-08 -1.782931e-08 -2.869672e-08 2.807091e-09 3.234600e-10 4.951494e-09
8.813306e-08 -1.628295e-08 -3.111651e-08 6.493029e-09 1.507428e-09 1.115567e-08
8.777676e-08 -1.629137e-08 -2.441522e-08 6.437152e-09 1.510529e-09 1.086436e-08
8.941823e-08 -2.086510e-08 -3.088921e-08 8.503460e-09 1.539679e-10 1.291528e-08
5.894305e-08 1.020212e-08 -2.428670e-08 -1.131514e-08 -2.216332e-09 2.728202e-09
4.937180e-08 1.578382e-08 -2.055191e-08 -8.692274e-10 -3.119601e-10 7.495590e-10
9.496582e-08 -1.957467e-08 -3.598095e-08 6.204227e-09 1.764565e-09 1.384888e-08
1.890924e-07 9.531874e-08 -1.336456e-07 2.303705e-07 -5.482854e-08 -6.570970e-08
2.507243e-07 4.303281e-08 -1.729173e-07 1.711262e-07 -3.313609e-09 1.062606e-08
7.300484e-08 -3.343755e-09 -2.656189e-08 1.661342e-09 -6.253344e-10 -2.077789e-18
9.064461e-08 -1.625598e-08 -3.107071e-08 1.016481e-09 -2.894596e-10 -4.446777e-16
8.540229e-08 -2.116676e-08 -2.655223e-08 -3.994115e-10 -2.482048e-10 1.497814e-08
1.694716e-07 4.443634e-08 -1.663349e-07 4.809761e-08 -6.617815e-08 -2.579582e-08
1.618302e-07 6.838539e-08 -1.515554e-07 5.646640e-08 -4.729009e-08 -1.808319e-08
8.386148e-08 -1.281617e-08 -3.263382e-08 4.698733e-09 -6.705050e-10 2.335047e-09
1.295900e-07 4.528122e-08 -1.360317e-07 6.571317e-08 -8.926857e-08 -4.853150e-08
1.248465e-07 9.127028e-08 -1.513806e-07 9.923456e-08 -4.822585e-08 -2.482248e-08
5.674180e-08 1.193934e-08 -2.680269e-08 1.209133e-08 1.597442e-10 -2.097833e-10
-8.084045e-09 9.777932e-08 -6.578401e-08 -1.877159e-08 5.960170e-09 -2.765664e-09
-1.136789e-08 9.788671e-08 -6.227156e-08 -1.967686e-08 1.177929e-08 -8.194190e-09
-1.366612e-08 8.618838e-08 -4.924305e-08 -1.092202e-08 8.309532e-09 -2.914310e-09
-1.051089e-08 9.750726e-08 -6.015578e-08 -1.646568e-08 1.342612e-08 -6.016698e-09
8.042089e-08 -1.316495e-08 -2.328654e-08 1.029725e-09 6.740774e-10 1.771143e-09
8.213498e-08 -1.026333e-08 -2.732556e-08 1.430575e-09 -4.161694e-11 1.002494e-09
7.424216e-08 -8.341447e-09 -2.463503e-08 5.950636e-10 2.657050e-10 9.190810e-10
8.251012e-08 -1.535757e-08 -2.432843e-08 2.250906e-09 9.459269e-10 2.277591e-09
-1.264369e-08 9.124817e-08 -6.092520e-08 -2.086069e-08 1.564341e-08 -4.336053e-09
-1.918307e-10 1.130574e-07 -7.608720e-08 -3.790321e-08 2.231644e-08 -1.109365e-08
-1.878485e-08 1.165332e-07 -8.558281e-08 -3.308155e-08 1.550226e-08 -6.408034e-09
-1.623782e-07 -1.582600e-06 3.811183e-06 -2.524872e-07 3.675847e-07 9.893676e-07
-1.146152e-06 -1.715394e-06 5.257219e-06 -4.902728e-07 -2.893824e-07 9.866851e-07
-9.457401e-07 -8.174634e-07 3.404791e-06 -7.817095e-07 -4.326167e-07 5.310671e-07
4.257364e-08 2.007218e-08 -1.875731e-08 3.539444e-10 -1.152342e-10 -1.804528e-10
-1.154980e-06 -1.611372e-06 4.061791e-06 -4.679657e-07 -1.663807e-07 8.256721e-07
1.557273e-08 5.330278e-08 -5.011074e-08 -9.044432e-09 -5.659504e-09 1.192995e-08
1.594175e-08 6.246995e-08 -5.949422e-08 -1.452590e-08 -6.367419e-09 7.798053e-09
1.602464e-08 6.275320e-08 -6.530448e-08 -1.413174e-08 -8.547676e-09 8.007438e-09
1.941644e-08 5.726774e-08 -5.420258e-08 -2.312091e-08 -1.135796e-08 1.309975e-08
4.103408e-08 2.367474e-08 -2.940789e-08 -1.654865e-08 -8.725071e-09 6.732214e-09
2.840255e-08 4.756126e-08 -4.105339e-08 -5.401836e-09 -1.477150e-09 4.621642e-09
1.318495e-08 1.012689e-07 -8.027316e-08 7.913053e-08 2.758720e-08 2.355976e-08
2.707056e-08 6.252494e-08 -5.360426e-08 -1.812218e-08 -3.896062e-09 6.280705e-09
4.606722e-08 1.897429e-08 -1.950485e-08 1.212948e-09 3.727384e-10 -3.832603e-11
3.368180e-08 2.774031e-08 -2.316400e-08 1.651976e-09 5.235638e-10 2.018310e-09
2.085420e-08 6.491429e-08 -5.816598e-08 -1.754221e-08 -4.378608e-09 7.212393e-10
3.275895e-08 2.850263e-08 -2.210445e-08 4.841240e-09 1.519196e-09 1.366175e-09
8.308885e-08 -8.178975e-09 -3.479066e-08 1.625707e-08 2.790394e-09 9.661041e-09
7.811286e-08 2.042904e-08 -8.050363e-08 6.428253e-08 1.326525e-08 1.087611e-08
3.651754e-08 2.715162e-08 -2.014267e-08 6.620850e-09 2.265410e-09 1.034704e-09
4.153833e-08 2.157560e-08 -2.968808e-08 1.514992e-08 2.745933e-09 2.822144e-09
4.200900e-08 2.328360e-08 -2.214909e-08 8.847603e-09 2.169281e-09 1.294290e-09
3.886627e-08 2.493339e-08 -2.106144e-08 6.239903e-09 1.717622e-09 2.014212e-09
3.829537e-08 2.293164e-08 -2.246523e-08 1.001074e-08 1.966306e-09 2.056375e-09
8.952400e-08 -1.721748e-08 -2.927880e-08 -4.006493e-10 -6.159570e-10 8.880834e-10
4.191218e-08 2.366473e-08 -2.408594e-08 9.638514e-09 2.373754e-09 3.604640e-09
3.647395e-08 2.459713e-08 -2.215288e-08 8.747238e-09 2.231107e-09 1.096888e-09
8.557125e-09 4.943381e-08 -2.624660e-08 3.816065e-09 4.414322e-09 5.239282e-09
4.765817e-09 4.852478e-08 -2.440473e-08 1.500260e-08 1.602250e-08 1.156753e-08
9.235935e-08 -1.913192e-08 -2.975597e-08 -1.044444e-10 1.466449e-10 1.515388e-09
6.736637e-09 3.848013e-08 -2.641289e-08 1.337833e-08 2.162790e-08 1.381456e-08
1.566479e-08 4.738698e-08 -3.625046e-08 1.373564e-08 6.803692e-09 4.138301e-09
1.213045e-08 6.545685e-08 -4.637860e-08 2.092880e-08 7.800530e-09 6.380315e-09
1.840326e-08 6.448316e-08 -4.332743e-08 2.908108e-08 1.533152e-08 1.249676e-08
4.221343e-08 1.950769e-08 -1.864280e-08 1.614477e-10 0.000000e+00 5.353096e-11
-4.809311e-08 2.986984e-07 -1.346182e-07 -1.595027e-07 -6.620314e-08 2.728962e-08
4.221343e-08 1.945963e-08 -1.853706e-08 3.284200e-10 -2.306557e-10 -3.927525e-11
8.914981e-08 -2.156791e-08 -2.312670e-08 -1.801650e-09 -4.574506e-10 9.465912e-09
5.520123e-08 9.215665e-09 -2.228195e-08 -3.325264e-09 -7.607632e-10 6.183577e-10
-3.389012e-08 2.812829e-07 -1.366081e-07 -1.670808e-07 -1.494624e-08 1.281053e-08
-9.198005e-08 3.398897e-07 -1.264247e-07 -1.647189e-07 -9.404253e-08 3.220203e-08
-7.202883e-08 3.036294e-07 -1.362069e-07 -1.380880e-07 -6.284069e-08 3.525377e-08
-3.386166e-08 2.600821e-07 -1.345972e-07 -1.828810e-07 -2.489077e-08 1.427593e-08
-3.529147e-08 2.996303e-07 -1.137330e-07 -2.141305e-07 5.000431e-08 -1.439701e-08
-1.943874e-08 -8.818788e-09 -5.324977e-08 1.792174e-09 1.020083e-07 -4.089012e-08
-6.050362e-08 3.933416e-07 -8.855007e-08 -2.428700e-07 4.917126e-08 -1.439726e-08
-1.139027e-07 3.827515e-07 -1.287063e-07 5.321723e-09 2.532459e-08 6.904622e-12
-1.700609e-08 2.186448e-07 -1.229425e-07 -1.449095e-07 5.419443e-08 -3.473739e-08
-1.812423e-08 2.037517e-08 -3.560044e-08 5.332820e-09 7.105655e-08 -3.227284e-08
2.925723e-07 -5.700557e-08 -1.531496e-07 -5.386825e-08 8.058187e-08 -5.062085e-08
-1.625237e-08 2.212955e-07 -1.194533e-07 -2.327905e-07 6.038907e-08 -5.909457e-08
-4.492277e-08 1.664169e-07 -1.085731e-07 7.133680e-09 -6.554526e-08 -1.981810e-08
-4.798968e-08 2.002846e-07 -1.121107e-07 4.619959e-08 -1.021829e-07 -1.648390e-08
-9.208892e-09 3.355210e-08 -4.208936e-08 -7.696594e-10 5.345573e-08 -3.171329e-09
-4.271194e-08 3.560935e-08 -4.678501e-08 -4.383889e-09 -8.181179e-08 -7.222505e-09
-6.153004e-08 2.219381e-07 -1.048180e-07 2.123144e-08 -7.310346e-08 -1.334878e-08
4.382860e-08 1.848860e-08 -2.537690e-08 1.085199e-08 1.814390e-09 2.179648e-09
-1.919389e-08 9.312518e-09 -3.573713e-08 6.049444e-09 8.602256e-08 -3.973599e-08
6.803211e-07 -6.754530e-07 8.169199e-07 -3.068410e-07 1.598212e-07 4.538370e-09
6.868419e-07 -5.304877e-07 5.215208e-07 -3.637460e-07 1.688758e-09 6.567814e-08
2.058242e-08 7.717656e-08 -7.540524e-08 -1.361088e-08 3.320341e-08 -6.669549e-09
6.380665e-07 -7.994782e-07 1.157770e-06 -2.327203e-07 -3.951434e-08 1.604111e-07
1.034766e-07 1.150005e-07 -1.571886e-07 -8.899930e-08 1.613054e-08 -1.174571e-08
-1.012183e-07 2.644075e-07 -8.116554e-08 -2.107685e-07 4.207382e-08 -1.527999e-08
5.221627e-07 -3.808776e-07 3.636557e-07 -4.287741e-07 6.419087e-09 2.243883e-07
4.641521e-07 -3.643265e-07 6.986412e-07 -4.756998e-07 -1.979983e-07 1.571502e-07
2.255213e-07 -7.979482e-08 -1.036814e-07 2.034456e-08 1.205020e-09 4.071482e-08
2.359823e-07 -5.641427e-08 -9.244409e-08 4.440993e-09 6.071036e-10 2.141615e-08
1.750512e-07 -5.399161e-08 -8.993867e-08 2.269900e-08 2.718769e-09 3.051323e-08
-1.763155e-08 9.907397e-08 -7.182153e-08 3.390120e-09 -3.622190e-09 -1.161616e-08
-1.629581e-08 1.042158e-07 -8.240887e-08 1.546978e-08 -3.288789e-08 -2.099620e-08
2.253288e-07 -6.567977e-08 -1.014607e-07 2.404826e-08 -8.138655e-09 1.561919e-08
-4.567024e-08 2.184426e-07 -1.259629e-07 4.446716e-08 -7.098080e-09 -2.025737e-09
2.910149e-07 -4.410508e-08 -1.671768e-07 1.100869e-07 -3.225648e-08 -1.964019e-08
4.357514e-08 3.175009e-08 -6.206270e-08 -3.135381e-08 8.158876e-08 -3.604213e-08
1.633874e-07 5.224038e-09 -1.348155e-07 1.586747e-08 -7.792569e-08 -2.866994e-08
3.088197e-07 -2.095837e-08 -1.832882e-07 2.495259e-08 -5.524029e-08 -1.429156e-08
9.463260e-09 3.610898e-08 -4.932545e-08 9.822570e-09 -6.699639e-08 -2.185810e-08
3.261433e-07 -1.417415e-08 -2.066722e-07 6.948519e-08 -5.849178e-10 -8.763400e-09
2.917056e-07 -6.023943e-08 -1.247406e-07 9.887496e-08 -9.192390e-08 -6.711472e-08
3.178639e-07 -4.754887e-08 -1.546078e-07 5.294592e-08 -6.922689e-08 -4.060092e-08
3.898446e-07 -4.701512e-08 -1.670022e-07 1.722305e-07 -3.017689e-09 -2.654542e-08
-1.313227e-08 8.501160e-08 -4.778997e-08 1.541002e-09 -2.828016e-09 -7.369269e-09
2.950276e-07 -7.299855e-08 -1.718208e-07 9.542839e-08 -4.772295e-08 -3.393805e-08
3.318447e-07 -5.485811e-08 -1.915655e-07 5.030523e-08 -4.697682e-08 -1.112414e-08
9.521607e-09 1.165317e-07 -1.147445e-07 3.767132e-08 -6.424702e-09 -3.103520e-11
-1.273578e-07 4.090970e-07 -4.449936e-08 2.598836e-07 -1.009715e-07 -2.534515e-08
-1.837733e-08 1.453523e-07 -1.005039e-07 2.600461e-08 -5.331604e-09 -9.541931e-09
-2.635032e-07 4.121580e-07 1.118403e-07 3.789069e-07 -7.482208e-08 -1.189203e-07
-8.710358e-08 3.842363e-07 -2.014346e-09 3.073136e-07 -1.287340e-08 -5.295608e-08
-4.174141e-08 3.846172e-07 -9.533754e-08 3.031295e-07 -1.738274e-08 -1.277367e-08
-1.241736e-07 4.287705e-07 9.838987e-08 4.271367e-07 -4.978395e-08 -4.027593e-08
5.512586e-08 1.003172e-08 -2.080167e-08 -2.673856e-09 8.113266e-11 2.033507e-10
5.694337e-08 7.935735e-09 -2.141554e-08 -9.395752e-10 -5.044639e-10 1.636775e-10
6.162217e-08 5.747816e-09 -2.441496e-08 -9.540010e-09 -9.016213e-10 9.676682e-10
-2.526938e-08 4.991363e-08 -3.510461e-08 -9.092465e-11 6.843961e-08 -1.768128e-08
5.705047e-08 9.778600e-09 -2.238558e-08 -6.002275e-09 -9.028611e-10 1.258214e-09
-2.043967e-08 9.623532e-09 -2.968850e-08 5.244709e-09 9.177381e-08 -3.634667e-08
5.638681e-08 8.757025e-09 -2.127841e-08 -1.802623e-09 -1.357780e-10 -4.275702e-10
9.651901e-08 -4.662590e-09 -5.770952e-08 3.907343e-08 6.304705e-09 8.814309e-09
7.827259e-08 6.663484e-09 -4.946567e-08 3.519309e-08 3.001683e-09 6.014048e-09
2.701792e-07 -1.589690e-09 -1.764221e-07 -1.898199e-07 1.041440e-08 -1.027004e-08
7.940941e-08 5.064678e-09 -4.081011e-08 2.689160e-08 -6.512860e-10 4.383397e-09
4.835687e-08 3.374472e-08 -8.698472e-08 -5.088327e-09 7.207038e-08 -6.167738e-09
8.810819e-08 -8.214847e-09 -4.572396e-08 2.261583e-08 -2.120698e-09 3.780031e-09
8.463499e-08 -1.068073e-09 -4.297933e-08 3.030745e-08 2.988534e-09 6.496764e-09
7.845349e-08 3.841917e-09 -4.124349e-08 2.823724e-08 5.997380e-09 7.575665e-09
5.460668e-08 1.301337e-08 -2.428670e-08 -7.695519e-09 -2.696956e-09 2.509774e-09
2.505535e-07 3.196542e-08 -1.655278e-07 -1.270647e-07 6.037369e-08 -5.357856e-08
4.445076e-08 7.613662e-08 -9.900977e-08 -2.119593e-08 4.349832e-08 -8.899183e-09
5.022005e-08 1.300449e-08 -2.304119e-08 -7.856296e-09 -2.724058e-09 2.170096e-09
4.664631e-08 2.240639e-08 -2.549811e-08 1.241967e-08 4.165237e-10 -6.761436e-11
5.026612e-08 1.505616e-08 -2.001890e-08 -3.568038e-09 -8.277393e-10 4.642210e-10
5.077809e-08 1.296741e-08 -2.060076e-08 -3.332308e-09 -5.552180e-10 1.339438e-09
4.964118e-08 1.609785e-08 -2.300167e-08 -6.025338e-09 -1.505428e-09 1.582134e-09
5.052567e-08 1.422253e-08 -2.013400e-08 -3.079333e-09 -1.213765e-09 8.769571e-10
4.736778e-07 -2.955660e-07 1.622954e-07 -3.605038e-07 4.104852e-08 -3.280279e-08
2.430497e-07 -8.854580e-08 -9.377284e-08 -5.071033e-09 2.068255e-08 -1.548912e-08
4.805240e-07 -1.070455e-07 1.197454e-07 -4.012673e-07 -4.314746e-08 7.385961e-08
2.195464e-07 -1.357619e-07 -5.018583e-08 6.017168e-08 1.662690e-08 -9.853704e-08
4.178950e-07 -9.796075e-08 3.813831e-08 -3.873823e-07 -2.365977e-08 7.629320e-08
3.376626e-07 -1.342526e-07 -1.887948e-08 -3.342867e-07 -4.546724e-08 8.201107e-08
3.375499e-07 8.629478e-09 -2.181819e-08 -3.368678e-07 -6.171372e-08 8.143121e-08
4.168257e-07 -8.302552e-08 -2.220386e-08 -2.746016e-07 -9.632845e-10 -4.339577e-09
1.143992e-07 8.207163e-09 -9.503238e-08 9.089792e-08 2.541654e-08 2.651846e-08
-1.001062e-08 -2.320054e-08 -3.468092e-08 -7.130365e-09 1.200268e-07 -1.058599e-07
1.219237e-07 4.618178e-08 -1.058954e-07 1.183408e-07 1.205981e-08 1.069661e-08
1.670083e-07 1.500611e-08 -1.055634e-07 1.277708e-07 4.887578e-09 8.580862e-09
1.522329e-07 8.997309e-09 -1.062254e-07 1.020956e-07 4.853258e-09 1.862439e-08
9.774121e-08 4.163332e-08 -1.069148e-07 1.340405e-07 4.789531e-08 5.543206e-08
8.428199e-08 -1.647842e-08 -2.368852e-08 6.776704e-10 5.985164e-10 2.123363e-09
6.049174e-08 6.062993e-09 -2.400150e-08 -6.017886e-09 -4.453905e-11 1.166312e-09
8.940363e-08 -2.190792e-08 -2.742240e-08 7.356188e-10 3.523523e-09 1.447808e-08
9.033137e-08 -2.116781e-08 -2.284491e-08 -6.977664e-10 -9.427166e-11 1.016921e-08
9.877924e-08 7.005503e-08 -1.070820e-07 1.447238e-07 2.713701e-08 4.087349e-08
9.409821e-08 6.192707e-08 -1.095660e-07 1.565752e-07 3.619008e-08 3.745834e-08
1.856092e-07 5.531160e-08 -1.297569e-07 1.816072e-07 1.455458e-08 3.605617e-08
1.354175e-07 2.361562e-08 -1.132089e-07 1.567999e-07 1.442302e-08 1.760117e-08
1.581755e-07 3.134348e-08 -1.142240e-07 1.397146e-07 1.252014e-08 1.708837e-08
3.223116e-08 4.033461e-08 -4.230707e-08 2.327324e-08 2.769079e-09 4.364235e-09
4.022627e-08 3.688389e-08 -3.519092e-08 2.491827e-08 3.362441e-09 3.817105e-09
-2.543124e-08 9.509327e-08 -4.519033e-08 -9.239824e-09 2.700331e-08 -1.127034e-08
4.026570e-08 3.452833e-08 -4.027046e-08 2.634306e-08 -5.321857e-10 4.466478e-09
3.599245e-08 3.060188e-08 -3.426541e-08 1.905475e-08 1.353477e-09 1.399415e-09
3.668849e-08 3.179023e-08 -2.971893e-08 1.415218e-08 1.132755e-09 9.217290e-10
3.389634e-08 3.807258e-08 -3.049386e-08 1.374813e-08 2.895817e-09 2.478454e-09
7.094827e-08 2.519044e-08 -4.742516e-08 4.533096e-08 4.383753e-09 7.260911e-09
6.025868e-08 2.064010e-08 -4.605268e-08 3.778135e-08 4.234630e-09 5.423186e-09
1.081889e-07 7.962783e-09 -7.703555e-08 5.484954e-08 -8.187146e-08 -3.902718e-08
7.098254e-08 1.554465e-08 -5.220147e-08 4.117779e-08 4.983784e-09 2.247493e-09
7.757661e-08 3.346653e-08 -1.084766e-07 -3.796229e-08 1.012493e-07 -6.218338e-08
1.232236e-07 8.188318e-08 -1.639212e-07 7.105493e-08 -1.369209e-08 -4.348793e-09
6.644189e-08 1.579662e-08 -4.469762e-08 3.103332e-08 5.769839e-09 6.291386e-09
5.672936e-08 2.151045e-08 -4.322037e-08 3.305499e-08 6.270743e-09 1.874693e-09
-9.056163e-07 -7.572802e-07 4.314802e-06 -5.807396e-07 5.593064e-07 -5.021554e-07
-2.118741e-08 5.294996e-08 -3.355722e-08 -1.293283e-09 -3.816743e-08 -1.591741e-08
-3.022025e-08 -1.151316e-06 2.983108e-06 -4.788493e-07 4.016347e-07 -1.323961e-07
-5.623386e-09 9.551357e-08 -7.017478e-08 -5.110028e-10 0.000000e+00 -2.914154e-09
-1.871599e-08 7.019209e-08 -4.087238e-08 6.651592e-09 -1.308259e-08 -1.760173e-08
2.780657e-07 -9.600146e-07 2.197067e-06 -2.349983e-07 2.367646e-08 -5.516701e-07
-1.202815e-07 -5.019517e-07 2.063881e-06 -7.263684e-07 1.892152e-07 -4.867490e-07
-4.641231e-07 -1.239844e-06 3.800543e-06 -6.342831e-07 2.701342e-07 -7.247841e-07
4.220315e-07 -7.502853e-07 1.934094e-06 -2.841704e-07 9.681962e-08 3.179452e-08
-8.101315e-07 -1.150819e-06 4.306925e-06 -6.853934e-07 5.353435e-07 -5.507289e-07
-2.750955e-08 5.073813e-08 -3.164699e-08 2.034694e-09 4.564983e-08 -2.311566e-09
-2.923752e-08 1.132310e-07 -5.915521e-08 4.031946e-09 3.179939e-08 1.461363e-08
-1.198758e-08 7.057336e-08 -4.310753e-08 -1.125969e-09 6.257548e-09 -2.583804e-09
-3.363682e-08 1.414768e-07 -7.805552e-08 -2.184500e-09 -2.430792e-08 1.364671e-08
-3.350877e-08 1.421426e-07 -7.942354e-08 8.023012e-09 4.830503e-09 3.575416e-10
9.010161e-09 1.232369e-07 -1.234493e-07 -6.818616e-08 9.617250e-09 -1.667001e-09
-3.987790e-08 1.432778e-07 -9.853355e-08 -1.029189e-08 -1.305977e-09 1.044206e-08
-3.337869e-08 9.644735e-08 -8.522285e-08 -6.188770e-09 -4.227294e-08 1.204568e-08
-3.859268e-08 1.199386e-07 -7.568336e-08 -3.328328e-09 -7.717958e-08 1.251319e-08
1.410879e-08 1.361127e-07 -9.703299e-08 -6.616573e-08 2.029517e-08 -1.447148e-08
-4.569984e-08 1.359206e-07 -8.996411e-08 -1.034357e-08 -3.730677e-08 4.755162e-09
9.963961e-08 1.046972e-07 -1.412908e-07 1.210540e-07 -4.455219e-08 -2.670039e-08
1.883208e-07 6.314520e-08 -1.824601e-07 1.135552e-07 -3.711508e-08 -2.122210e-08
1.308162e-07 6.808629e-08 -1.626695e-07 1.990369e-08 -2.670360e-08 -3.517527e-10
8.917272e-08 1.354661e-07 -1.603402e-07 1.124942e-07 -2.248287e-08 -1.638807e-09
1.546821e-07 6.089802e-08 -1.674977e-07 -2.033050e-08 9.732946e-09 -3.957512e-16
1.468629e-07 6.677440e-08 -1.728319e-07 4.352891e-08 -1.805915e-08 -1.228409e-08
1.234046e-08 4.768467e-08 -3.595846e-08 1.972733e-08 1.503554e-08 1.046925e-08
1.453620e-08 5.499990e-08 -3.919699e-08 3.871603e-09 -2.034239e-10 3.643541e-09
9.305192e-08 9.297757e-08 -1.308072e-07 4.323497e-08 -3.645465e-08 -1.026824e-08
8.379745e-08 6.845467e-08 -1.271247e-07 -3.219883e-08 5.090000e-08 -1.237315e-08
1.762170e-09 8.337149e-08 -5.349172e-08 3.657100e-08 1.414499e-08 1.053492e-08
9.147367e-09 6.739920e-08 -4.109736e-08 2.046201e-08 1.711914e-08 1.218888e-08
-3.313671e-09 5.952597e-08 -4.226367e-08 1.980321e-08 2.464253e-08 1.377904e-08
4.495134e-08 1.856127e-08 -2.050076e-08 5.272445e-09 8.607401e-10 1.323215e-09
8.583048e-09 6.056006e-08 -4.095162e-08 6.540206e-09 3.205880e-09 8.708606e-09
3.119409e-08 2.937496e-08 -2.168045e-08 6.214373e-09 2.014139e-09 1.575078e-09
-7.245007e-09 6.775135e-08 -4.472369e-08 1.060862e-08 1.312700e-08 9.168044e-09
2.222401e-09 6.728616e-08 -4.586063e-08 2.690064e-08 2.151401e-08 1.307190e-08
5.102228e-08 1.389868e-08 -2.198064e-08 9.552084e-09 2.863013e-09 2.425730e-09
-2.723158e-09 6.737384e-08 -2.796133e-08 1.971034e-08 2.730723e-08 1.624957e-08
2.777869e-08 7.866115e-08 -7.573596e-08 6.600836e-08 5.059466e-09 3.585849e-09
4.147608e-08 2.044266e-08 -1.920341e-08 3.935092e-10 8.058665e-11 2.721694e-10
5.264326e-08 1.094495e-08 -2.153428e-08 1.013492e-09 9.540846e-10 4.645255e-10
6.662919e-08 1.532099e-10 -2.210991e-08 1.969397e-09 5.555807e-10 1.648337e-09
3.324846e-08 3.152305e-08 -2.776846e-08 1.556889e-08 5.172291e-09 4.522910e-09
-2.612175e-09 6.901966e-08 -4.251858e-08 2.082991e-08 2.672206e-08 1.275212e-08
-5.318835e-09 7.112722e-08 -4.474307e-08 2.502826e-08 2.907538e-08 1.011105e-08
4.633036e-08 1.876477e-08 -2.144125e-08 4.846855e-09 3.180258e-10 3.928767e-10
4.218673e-08 2.048915e-08 -1.925999e-08 8.040369e-10 6.137268e-11 1.514122e-10
4.059931e-08 2.072739e-08 -1.924788e-08 7.124124e-10 1.952194e-10 3.317686e-10
4.378735e-08 2.019704e-08 -2.019805e-08 2.917663e-09 9.652390e-11 5.111843e-11
4.061034e-08 2.096648e-08 -1.945195e-08 7.843577e-10 -4.166483e-10 1.060483e-11
4.153242e-08 2.057852e-08 -1.922228e-08 8.853736e-10 -7.603482e-12 -1.773428e-11
4.066584e-08 2.180042e-08 -2.050049e-08 3.368437e-09 -1.974476e-10 8.505945e-10
4.142751e-08 2.138093e-08 -1.914311e-08 6.733503e-10 4.928813e-11 2.058917e-10
1.418530e-07 7.185014e-08 -1.449077e-07 -5.395136e-08 4.352632e-08 -1.131285e-08
1.979655e-07 5.336473e-08 -1.831658e-07 -5.500045e-08 4.474533e-09 -1.573111e-08
2.215988e-07 3.195872e-08 -1.685583e-07 -6.958818e-08 4.726861e-08 -1.509046e-08
9.830445e-08 2.854608e-09 -6.457439e-08 6.287902e-08 -8.092431e-08 -3.463499e-08
-1.707929e-07 5.656408e-07 -1.076090e-07 1.047801e-07 -5.600425e-08 -1.484649e-08
-1.221299e-07 4.005701e-07 -9.946234e-08 2.217576e-07 -5.137378e-08 -1.395093e-08
7.867849e-08 3.102587e-08 -3.773826e-08 1.231498e-07 -1.361968e-07 -1.485392e-07
4.405234e-07 -9.917993e-08 -1.008575e-07 3.057927e-07 -2.557662e-08 -4.911883e-08
2.738516e-07 3.195698e-08 -1.943732e-07 -1.085699e-07 3.709936e-08 -1.751419e-08
5.839017e-08 4.887506e-08 -7.169861e-08 -6.548394e-08 -1.616785e-08 1.725648e-08
1.146754e-08 1.344098e-07 -1.219662e-07 7.483238e-08 -4.134492e-08 -1.463417e-08
3.524306e-07 -1.657796e-07 5.518518e-07 5.743742e-07 1.997823e-07 1.098199e-07
9.022316e-08 5.213433e-08 -9.803987e-08 -1.131073e-07 -2.460219e-08 3.255401e-08
2.563145e-07 -1.303234e-07 -1.100628e-07 -7.743099e-09 1.076925e-08 -2.104809e-08
3.790060e-07 -2.809074e-07 8.797090e-08 2.505306e-07 -2.834131e-08 -5.629751e-08
1.122841e-07 6.950215e-08 -1.100765e-07 -1.351794e-07 -9.848197e-09 1.261430e-08
4.660353e-08 -8.833197e-08 -6.138395e-08 5.274627e-09 -1.289140e-08 -5.451449e-08
2.545046e-08 -5.155282e-08 -4.820535e-08 9.023816e-09 -8.398269e-08 -9.071771e-08
-1.207770e-07 5.478781e-07 -1.307864e-08 3.895526e-07 -3.998466e-08 -1.254317e-08
5.503348e-08 6.915037e-08 -8.743271e-08 -9.219715e-08 -2.460209e-08 2.143906e-08
9.083884e-09 1.077677e-07 -1.146113e-07 4.151260e-08 -3.597869e-08 -1.671038e-08
7.485825e-08 7.673447e-08 -1.008980e-07 -9.973796e-08 -1.010582e-08 5.069023e-09
5.468197e-08 5.142694e-08 -7.917415e-08 -7.683752e-08 -2.105782e-08 2.485831e-08
-1.533603e-08 1.533387e-07 -1.030594e-07 -3.401411e-08 -8.318168e-09 6.110346e-09
8.637135e-08 6.165203e-08 -9.578556e-08 -1.102041e-07 -5.496381e-09 1.599438e-08
4.319130e-08 2.974089e-08 -2.986631e-08 1.854878e-08 2.094890e-09 2.513723e-09
3.598297e-08 3.407309e-08 -3.047855e-08 1.547984e-08 1.936769e-09 2.059607e-09
3.380679e-08 3.806766e-08 -3.321153e-08 1.370725e-08 1.682613e-09 1.008936e-09
-2.853702e-08 1.845329e-08 -4.793866e-08 -6.394224e-09 -8.413582e-08 -3.797049e-09
-3.938434e-08 1.393950e-07 -1.026763e-07 -6.281788e-08 -8.996946e-08 3.735455e-08
3.908563e-08 2.492027e-08 -2.879301e-08 1.358142e-08 7.180993e-10 8.003173e-10
-3.530824e-08 8.308582e-08 -5.647766e-08 8.577797e-10 -2.666127e-08 -1.025049e-08
3.894525e-08 2.619350e-08 -2.606760e-08 1.041396e-08 3.450516e-10 8.308101e-10
3.001895e-08 3.613839e-08 -3.020795e-08 1.062944e-08 1.122397e-09 2.000227e-09
2.250239e-08 4.891654e-08 -5.016596e-08 -3.247577e-08 -2.245644e-08 2.268019e-08
3.541389e-08 5.566512e-08 -6.070848e-08 -4.680258e-08 -2.844307e-08 2.430527e-08
2.958011e-07 -9.792218e-08 -1.131241e-07 1.528247e-08 -8.543466e-09 1.894126e-08
-2.907869e-08 5.680433e-08 -4.508509e-08 1.454050e-08 -1.713700e-08 1.480261e-08
3.028191e-07 -7.925394e-08 -1.097014e-07 2.686181e-08 2.165539e-09 2.625243e-08
2.133128e-08 7.736374e-08 -6.148615e-08 -3.088216e-08 3.311192e-09 2.783522e-09
2.904543e-07 -1.175225e-07 -1.151834e-07 5.044180e-09 -2.956211e-10 2.320930e-08
2.197470e-07 -5.651552e-08 -9.957918e-08 3.925719e-08 9.450471e-09 1.113790e-08
2.791828e-07 -1.047866e-07 -1.160347e-07 5.498328e-08 3.762938e-09 2.248509e-08
-3.190718e-08 1.333403e-08 8.091733e-07 6.772046e-07 2.826626e-07 2.014705e-07
-3.282089e-07 -2.045586e-07 1.451052e-06 8.428301e-07 3.388985e-07 4.308075e-07
-1.876199e-07 -1.146969e-06 3.107667e-06 5.812289e-07 -6.767483e-08 7.767978e-07
3.231989e-07 -5.992448e-07 1.403330e-06 6.016406e-07 3.185740e-07 1.900103e-07
3.353005e-08 1.202104e-07 -1.180402e-07 -9.807897e-08 -9.732601e-09 -2.135830e-09
3.690806e-08 4.605414e-08 -6.688375e-08 -4.101499e-08 -7.415373e-09 6.323023e-09
2.992316e-08 3.802292e-08 -3.387548e-08 -2.934324e-08 -2.673154e-08 2.634097e-08
-7.766057e-07 -8.199840e-08 2.999258e-06 5.829886e-07 8.209261e-08 -5.127500e-08
3.577560e-08 4.204924e-08 -4.922276e-08 -3.043308e-08 -8.328657e-09 1.397473e-08
-2.874829e-08 1.257021e-07 -9.050081e-08 -1.432133e-08 1.813742e-09 1.278262e-08
-9.515263e-07 -2.138037e-07 3.048673e-06 7.181290e-07 1.091927e-06 7.147711e-07
-1.697586e-06 -5.666550e-07 4.500929e-06 5.527989e-07 8.030586e-07 3.188532e-07
-1.038098e-06 -1.206314e-06 5.424037e-06 4.818394e-07 1.479464e-07 -2.274251e-09
-1.104395e-06 -5.693313e-07 2.826049e-06 9.536667e-07 8.051247e-07 9.100452e-07
9.044817e-08 -1.872783e-08 -2.714243e-08 -1.020500e-10 -1.163922e-10 1.442720e-09
-1.167907e-06 -9.811090e-07 4.062993e-06 7.826248e-07 4.353487e-07 6.477198e-07
7.795917e-08 -7.542194e-09 -2.543445e-08 -6.719855e-09 -2.279057e-09 5.197449e-09
8.787644e-08 -1.854788e-08 -2.415713e-08 1.631620e-10 -8.234313e-11 1.951344e-09
8.959953e-08 -1.928522e-08 -2.776298e-08 1.580958e-09 -7.745944e-10 2.615690e-09
8.775039e-08 -1.993661e-08 -2.582510e-08 9.647582e-09 -7.074205e-10 1.409285e-08
8.757761e-08 -1.907671e-08 -2.326182e-08 3.173133e-09 3.229340e-10 6.173737e-09
-2.681280e-08 2.343105e-07 -1.185595e-07 1.366450e-07 5.765893e-08 2.602633e-08
-5.648521e-08 2.714747e-07 -1.159428e-07 1.442912e-07 7.861629e-08 2.560521e-08
-4.281510e-08 2.481605e-07 -1.201706e-07 1.274054e-07 5.688724e-08 3.023943e-08
2.215721e-08 2.126181e-07 -1.179442e-07 2.038198e-07 5.997705e-09 6.440631e-09
5.400703e-09 2.342049e-07 -1.074609e-07 2.172951e-07 2.898715e-08 2.020365e-09
1.195493e-07 -2.330069e-08 -4.653830e-08 8.067352e-09 -1.095683e-10 2.204825e-09
-2.878033e-08 2.688565e-07 -1.003300e-07 2.279005e-07 2.016356e-08 9.756303e-09
-3.789323e-08 2.799463e-07 -1.039891e-07 2.204638e-07 8.486008e-08 4.627017e-08
-3.963452e-08 2.935023e-07 -1.061899e-07 2.086374e-07 7.456918e-09 1.755369e-09
4.326569e-09 1.002046e-07 -6.410554e-08 2.283460e-08 -3.075788e-08 -1.480795e-08
4.846040e-08 1.432684e-08 -2.109388e-08 -5.882682e-09 -7.359902e-10 1.630196e-09
9.010339e-08 -1.843234e-08 -2.941831e-08 2.988118e-10 2.126688e-10 1.318097e-09
9.154601e-08 -2.306511e-08 -2.920330e-08 4.717178e-09 8.811292e-10 1.536167e-08
-5.630254e-09 9.659336e-08 -7.702206e-08 4.474409e-09 -4.706673e-09 -1.855346e-09
-1.284298e-08 9.311347e-08 -5.683739e-08 5.311724e-09 -9.673626e-09 -1.099208e-08
-1.160492e-08 9.389836e-08 -6.508797e-08 6.503012e-09 -6.235851e-09 -9.419380e-09
-1.362749e-08 8.599305e-08 -5.047925e-08 8.949009e-09 -2.195439e-08 -1.103192e-08
-1.028476e-08 8.602170e-08 -6.478513e-08 2.948958e-09 -1.274641e-08 -6.139097e-09
7.712847e-08 -3.193948e-09 -3.267464e-08 8.393231e-09 -2.038835e-10 2.712862e-09
-1.028001e-08 8.533042e-08 -4.699343e-08 3.158135e-09 -1.134068e-08 -5.379022e-09
-1.748219e-08 9.523433e-08 -5.841730e-08 3.273014e-09 -1.034996e-08 -1.378418e-08
-2.487952e-08 8.106389e-08 -5.538376e-08 1.536576e-09 -1.145325e-08 -2.059181e-08
5.864476e-08 8.413331e-09 -2.713867e-08 1.232782e-08 3.410349e-09 4.914977e-09
6.114554e-08 6.697308e-09 -2.525498e-08 6.231338e-09 -6.971899e-10 1.909563e-09
-2.745558e-08 9.332983e-08 -5.745761e-08 -2.270994e-09 -8.390445e-09 -1.827644e-08
4.942754e-08 1.382533e-08 -2.065416e-08 9.373178e-10 9.042171e-10 4.532907e-11
-1.771458e-08 8.956407e-08 -5.425612e-08 1.146033e-08 -2.384870e-08 -1.968269e-08
-2.708836e-08 6.904822e-08 -3.768451e-08 -7.112006e-09 -9.568244e-09 -1.981366e-08
-2.340791e-08 8.189968e-08 -3.343316e-08 1.791334e-09 -1.990299e-09 -1.529855e-08
-3.320810e-08 8.619216e-08 -3.671979e-08 5.572561e-09 -3.388608e-08 -2.024164e-08
-3.214973e-08 2.558646e-08 -3.752513e-08 -8.273821e-09 -5.988864e-08 -2.508067e-08
7.490846e-08 3.838617e-09 -3.658512e-08 2.542520e-08 3.445179e-09 8.529255e-09
-3.363278e-08 3.450338e-08 -4.039582e-08 5.793920e-09 -7.388394e-08 -2.155163e-08
5.466502e-08 1.130702e-08 -2.574375e-08 1.008702e-08 1.006905e-09 -5.875228e-10
-3.867468e-08 1.211712e-07 -8.337856e-08 9.925118e-09 -3.290548e-08 -1.399818e-08
5.362912e-08 1.118438e-08 -1.995235e-08 -1.014716e-09 -7.363587e-10 6.789409e-10
4.214355e-08 2.183016e-08 -2.241837e-08 -1.771817e-09 -6.392229e-10 2.653179e-09
-4.092038e-08 1.313313e-07 -7.308176e-08 1.463513e-08 -5.265470e-08 -1.892192e-08
-3.430272e-08 4.130036e-08 -4.094898e-08 -2.654530e-09 -5.818638e-08 -2.661520e-08
-1.868743e-08 1.198409e-07 -5.413814e-08 2.999854e-08 -7.210058e-08 -4.014772e-08
5.393317e-08 1.109524e-08 -2.051179e-08 -5.784408e-09 -1.098499e-09 1.462408e-09
3.654369e-07 -6.453988e-07 1.706351e-06 -6.096239e-07 -5.590741e-07 5.213504e-07
5.241223e-08 1.312708e-08 -1.990022e-08 1.574012e-10 -2.010505e-10 2.123999e-10
6.202095e-07 -6.594282e-07 1.143069e-06 -3.533591e-07 -2.330169e-08 -5.101088e-08
7.908745e-07 -3.716556e-07 9.823326e-08 -7.007755e-08 -2.976514e-08 9.996194e-09
7.200358e-07 -4.764572e-07 2.850348e-07 -1.778856e-07 -1.019037e-07 3.311714e-08
5.089953e-08 1.236206e-08 -1.958306e-08 -1.071459e-10 -8.834578e-11 2.127210e-10
6.737111e-07 -4.165881e-07 2.689113e-07 -2.226914e-07 1.028879e-07 -1.441173e-08
-3.275778e-08 1.775658e-07 -1.042748e-07 5.558279e-08 7.593314e-09 9.923602e-09
3.641218e-09 1.736063e-07 -1.103620e-07 1.321715e-07 4.601586e-08 2.670904e-08
-5.815982e-10 1.607189e-07 -1.075231e-07 9.767980e-08 7.706105e-09 1.072738e-08
5.282802e-08 1.312708e-08 -1.994545e-08 -8.882746e-16 -6.788247e-11 6.324118e-11
-3.317840e-08 1.674174e-07 -1.102122e-07 6.554207e-08 1.642481e-08 5.300234e-09
6.227807e-08 4.164336e-09 -2.356386e-08 -1.172057e-09 -5.828213e-10 -6.380759e-10
-1.792599e-08 1.564468e-07 -8.765810e-08 5.838937e-08 1.635250e-08 8.154946e-09
8.750151e-08 -1.444992e-08 -3.057044e-08 1.143759e-09 6.785558e-10 5.984209e-10
7.518462e-08 -9.456964e-09 -2.543122e-08 7.269347e-09 2.398279e-09 6.107917e-09
-2.756777e-08 1.614904e-07 -1.007346e-07 6.095674e-08 1.727642e-08 -3.417295e-09
-1.185471e-08 1.245090e-07 -8.669026e-08 5.621340e-08 2.846330e-08 2.092219e-08
8.607556e-08 -1.414772e-08 -3.516668e-08 9.450229e-09 8.424610e-10 2.061916e-09
8.323326e-08 -1.557047e-08 -2.613502e-08 3.616825e-10 3.100709e-10 1.098965e-09
-1.001672e-08 1.236490e-07 -7.956209e-08 5.646130e-08 2.986176e-08 1.628204e-08
8.896274e-08 -1.541922e-08 -3.279477e-08 7.027224e-09 -4.492002e-10 2.534603e-09
1.168889e-07 -2.607557e-08 -5.114324e-08 8.895554e-09 6.379235e-09 1.225060e-08
1.206576e-07 -2.856603e-08 -5.268390e-08 1.499930e-09 -5.805763e-09 1.413027e-08
1.482467e-07 -3.119249e-08 -6.044675e-08 -8.988554e-09 -1.374628e-09 1.747389e-08
6.277523e-08 4.109317e-09 -2.523517e-08 3.818417e-09 -7.183889e-10 -1.843879e-10
1.444914e-07 -4.065179e-08 -7.526171e-08 9.354305e-09 4.275282e-10 1.901382e-08
1.427490e-07 -3.520829e-08 -6.568098e-08 9.405780e-09 7.940215e-09 2.025652e-08
8.002021e-08 -8.120965e-09 -2.870483e-08 1.656936e-09 -2.983505e-10 -9.886950e-19
9.107456e-08 -2.036954e-08 -3.294702e-08 -2.790053e-09 -9.969022e-10 7.419269e-09
1.441336e-07 -3.491271e-08 -6.792855e-08 1.068761e-08 -5.889589e-09 7.428132e-09
1.436654e-07 -4.001724e-08 -7.801818e-08 2.177257e-09 -2.148003e-10 1.005877e-09
9.185387e-08 -1.478519e-08 -3.279477e-08 4.377733e-09 -2.465181e-10 9.595896e-10
1.471981e-07 -3.637114e-08 -6.846114e-08 -1.902691e-09 -6.649799e-09 6.843166e-09
7.611310e-08 -1.097464e-08 -2.400783e-08 4.162374e-09 1.405723e-09 5.041964e-09
8.508271e-08 -1.249659e-08 -3.007793e-08 1.256429e-09 -3.267385e-10 -1.333089e-15
-5.055738e-09 1.946666e-07 -1.328620e-07 -1.228600e-07 -2.002573e-08 1.141663e-08
-1.387142e-08 1.674052e-07 -1.185501e-07 -9.622072e-08 -4.079700e-08 2.715510e-08
-1.453309e-08 2.214769e-07 -1.281590e-07 -1.056384e-07 -2.289559e-08 1.538109e-08
5.500452e-08 1.022896e-08 -2.091986e-08 1.850152e-09 4.023605e-10 -4.923170e-10
7.719561e-08 -8.302732e-09 -2.681139e-08 1.664078e-09 9.894148e-10 1.109522e-09
6.488874e-08 -3.214735e-10 -2.368478e-08 3.329330e-09 8.119716e-10 1.332118e-09
7.792703e-08 -1.097427e-08 -2.636663e-08 4.605412e-09 9.696376e-10 5.343229e-09
-3.759908e-08 2.280268e-07 -1.368805e-07 -1.086034e-07 -2.692195e-08 6.723398e-10
5.241223e-08 1.240157e-08 -1.990529e-08 -2.763749e-10 -1.683518e-10 7.510636e-11
-4.948333e-08 2.379134e-07 -1.410884e-07 -1.179299e-07 -2.010992e-08 7.814712e-09
-1.182057e-07 3.621572e-07 -3.920104e-08 -2.284689e-07 5.098832e-08 -1.283565e-08
-9.878597e-08 3.095764e-07 -1.010099e-07 -1.580530e-07 9.922867e-08 -1.824159e-08
5.228307e-08 1.127647e-08 -1.955189e-08 -3.593093e-10 -1.011430e-10 7.522560e-11
5.241223e-08 1.233139e-08 -1.967467e-08 -2.376659e-10 5.478463e-11 9.370593e-11
-1.713817e-07 3.541018e-07 4.257076e-08 -2.347672e-07 1.063720e-07 -2.214907e-08
4.962434e-08 1.275246e-08 -2.126785e-08 -2.771779e-09 2.301928e-10 2.235812e-11
-1.718727e-07 4.993636e-07 2.764554e-07 -3.892449e-07 -3.585782e-08 4.196092e-08
-1.804032e-07 4.308676e-07 -2.098353e-08 -1.352169e-07 4.793718e-08 -6.585685e-09
5.416584e-08 1.108982e-08 -2.205096e-08 -5.842927e-09 -1.856421e-09 2.781577e-09
-1.795945e-07 4.004448e-07 -9.451053e-08 -1.317359e-07 1.010326e-07 -7.854802e-09
5.104138e-08 1.216740e-08 -1.968815e-08 -1.686713e-10 8.881784e-16 1.258775e-10
5.136899e-08 1.289011e-08 -1.994386e-08 -2.579252e-10 -1.537059e-11 -5.213866e-11
-2.346696e-08 5.623955e-08 -3.712435e-08 -2.380703e-09 -3.501530e-08 -1.278990e-08
-2.200653e-08 1.157457e-07 -7.798499e-08 1.173695e-08 -9.345258e-09 -1.510686e-08
-2.834021e-08 1.108991e-07 -6.558165e-08 1.402461e-08 -4.447287e-08 -2.660752e-08
-1.777454e-08 5.582265e-08 -4.006796e-08 -4.158091e-10 -3.249346e-08 -6.387853e-09
-9.492697e-08 3.833692e-07 -1.068257e-07 -1.233219e-07 1.150479e-08 -5.455016e-09
-5.850367e-09 8.331120e-08 -4.985057e-08 5.965185e-10 -1.827989e-08 -1.038306e-09
5.171215e-09 1.066551e-07 -9.234886e-08 1.431880e-08 -6.392064e-09 -1.099991e-10
-9.075486e-08 2.707417e-07 -1.271019e-07 -9.604779e-08 2.604895e-08 7.198837e-10
-2.393731e-08 3.937704e-08 -4.569692e-08 -1.325285e-09 -6.837964e-08 -3.633187e-08
-4.194540e-08 2.003632e-07 -1.306693e-07 5.870846e-08 -1.222426e-08 -4.759488e-09
-1.996225e-07 4.628000e-07 -5.796629e-08 -1.875345e-07 1.042011e-08 -1.876303e-08
2.617180e-07 2.219506e-08 -1.525992e-07 -1.634531e-07 5.310342e-08 -2.879013e-08
6.477617e-08 4.732259e-08 -1.097482e-07 -5.861366e-08 6.732132e-08 -1.712267e-08
1.694864e-07 2.218306e-08 -1.274424e-07 -8.655935e-08 8.300117e-08 -7.340131e-08
1.444503e-07 -4.059529e-08 -6.972413e-08 -1.328202e-07 7.395060e-08 -7.298759e-08
-1.824982e-08 1.142589e-07 -9.439847e-08 3.142527e-08 -7.185597e-08 -3.994858e-08
1.006087e-07 3.587101e-09 -1.160631e-07 -1.625681e-08 8.315744e-08 5.141535e-09
1.429184e-07 4.718157e-08 -1.522871e-07 -4.184497e-08 5.885737e-08 -1.540642e-08
2.201546e-07 8.667453e-09 -1.753958e-07 -5.491194e-08 5.859811e-08 -1.790288e-08
-5.623386e-09 9.199122e-08 -7.514257e-08 5.734125e-10 -4.286560e-09 -1.306267e-09
-2.123710e-08 6.751167e-08 -3.827972e-08 9.843746e-09 -1.074970e-08 -1.219799e-08
2.271506e-07 2.732316e-08 -1.202739e-07 -1.852703e-07 -6.014585e-09 1.675417e-08
2.304268e-07 -2.771665e-08 -1.176201e-07 -2.274235e-07 -1.900804e-08 2.419716e-08
2.842432e-07 -8.429462e-08 -1.180542e-07 -1.328264e-07 -8.560059e-09 2.136291e-08
-2.517409e-08 1.205145e-07 -8.079214e-08 4.864530e-09 -5.421258e-09 -1.187925e-08
2.966954e-07 -2.004336e-08 -1.034122e-07 -2.457614e-07 -4.094048e-08 8.488302e-08
2.257822e-07 -4.061358e-08 -1.230127e-07 -1.800187e-07 -3.123526e-08 5.267182e-08
2.696079e-07 -4.310164e-08 -1.244906e-07 -1.299308e-07 -1.066757e-09 3.264766e-08
2.063000e-07 -3.132851e-08 -1.167328e-07 -1.267680e-07 -2.174726e-08 3.864489e-08
5.213173e-08 1.278867e-08 -2.126785e-08 -2.405535e-09 2.519425e-10 3.673879e-10
-4.429004e-08 1.973705e-07 -1.229414e-07 2.007989e-08 -5.270267e-09 -2.674638e-09
8.295773e-08 4.168567e-08 -8.379891e-08 8.562911e-08 2.147606e-08 1.501399e-08
5.548767e-08 6.042895e-08 -8.208538e-08 8.297171e-08 1.768916e-08 2.226682e-08
-5.015058e-08 2.362954e-07 -1.393613e-07 6.118696e-08 -1.713860e-08 -4.797188e-09
-1.264187e-07 3.276570e-07 -1.504106e-07 2.204596e-08 -2.773579e-08 -5.711869e-09
3.417487e-08 7.345224e-08 -7.808855e-08 6.859354e-08 9.563626e-09 4.791744e-09
7.899109e-08 5.024891e-08 -7.809952e-08 8.265872e-08 1.241580e-08 1.374974e-08
-6.952465e-08 2.408309e-07 -1.392785e-07 2.418444e-08 -1.697738e-08 -9.006806e-09
6.178959e-08 4.275488e-08 -7.607815e-08 6.269751e-08 1.130625e-08 1.247536e-08
4.420602e-08 4.748731e-08 -5.400263e-08 5.253321e-08 1.179800e-08 8.210756e-09
-2.516825e-08 1.352273e-07 -9.648093e-08 6.635161e-09 -2.312343e-09 -7.744741e-09
6.404930e-08 5.316674e-08 -7.582887e-08 7.668492e-08 2.024733e-08 1.788754e-08
5.307281e-08 5.521699e-08 -7.191794e-08 7.710728e-08 1.728840e-08 1.528392e-08
-7.210485e-08 2.697339e-07 -1.501096e-07 9.139865e-08 -2.280976e-08 -9.174735e-09
7.832968e-08 3.434180e-08 -6.220489e-08 6.237837e-08 1.123118e-08 1.252158e-08
-8.480201e-09 1.092383e-07 -8.314601e-08 8.726299e-09 -2.313044e-09 4.117770e-11
6.515786e-08 2.474041e-08 -5.420740e-08 4.716413e-08 6.183811e-09 7.654500e-10
-1.998656e-08 7.039412e-08 -3.529698e-08 6.371642e-09 -7.289011e-09 -9.311195e-09
-2.330203e-08 8.189967e-08 -5.443773e-08 1.372471e-09 -3.874508e-09 -1.739506e-08
-2.895476e-08 5.732766e-08 -4.151968e-08 -2.783103e-09 -1.761632e-08 -2.044378e-08
7.094777e-08 2.523775e-08 -5.010445e-08 4.534463e-08 6.581303e-09 8.578956e-09
-2.288938e-08 1.010684e-07 -5.645348e-08 3.935964e-09 -4.998047e-09 -1.600171e-08
7.236628e-08 1.558525e-08 -5.040796e-08 4.160522e-08 5.457019e-09 1.348420e-08
7.123889e-08 1.709965e-08 -5.346113e-08 4.541030e-08 1.206454e-08 8.220838e-09
3.868726e-08 2.385344e-08 -1.989804e-08 8.449597e-10 1.825553e-10 7.261105e-10
4.682795e-08 1.798188e-08 -2.050076e-08 8.075745e-09 2.146189e-09 1.739539e-09
3.520654e-08 2.754320e-08 -2.232332e-08 2.072809e-09 2.919200e-10 8.706675e-10
7.811479e-08 2.124080e-08 -7.548113e-08 6.424223e-08 5.461492e-09 1.119574e-08
6.023738e-08 2.431083e-08 -6.340283e-08 4.890580e-08 6.582842e-09 6.227863e-09
5.584579e-08 1.473771e-08 -2.747066e-08 1.868181e-08 2.943058e-09 5.453492e-09
8.548353e-08 2.161734e-09 -4.721776e-08 3.629941e-08 6.221243e-09 1.402259e-08
2.601007e-07 3.582674e-08 3.229377e-08 -4.291833e-07 -3.857334e-08 7.508533e-08
5.295143e-08 1.102005e-08 -2.053614e-08 8.692759e-09 2.273055e-09 2.765330e-09
3.404748e-07 7.963862e-09 -3.119930e-08 -3.376902e-07 4.165984e-09 2.644054e-09
4.389220e-08 3.303098e-08 -3.359639e-08 2.761438e-08 7.536789e-09 7.147592e-09
3.432932e-09 7.155437e-08 -4.978100e-08 1.228568e-08 3.185480e-09 3.882548e-09
2.766367e-07 9.241777e-09 -3.267586e-08 -3.559869e-07 4.257145e-09 -2.064257e-08
5.474581e-08 1.439277e-08 -2.427934e-08 1.251993e-08 1.599354e-09 2.343720e-09
2.968833e-07 5.383273e-08 1.320315e-07 -4.553154e-07 1.560881e-08 -1.205408e-08
6.254806e-08 5.785223e-09 -2.401873e-08 3.108099e-09 8.304751e-10 8.940109e-10
7.602051e-08 -1.719730e-09 -3.128855e-08 1.703612e-08 3.140890e-09 7.399920e-09
4.932941e-08 1.368648e-08 -2.422247e-08 8.223269e-09 7.297490e-10 1.368401e-09
-1.589819e-08 3.227267e-07 -4.822059e-08 -3.556672e-07 -8.745412e-08 8.335501e-08
-2.684140e-08 1.918349e-07 -1.165119e-07 1.064548e-07 5.547014e-08 1.766658e-08
-7.892121e-08 2.855802e-07 -1.256439e-07 4.143303e-08 3.094842e-08 1.291714e-08
-1.963393e-08 1.726324e-07 -1.061383e-07 9.207989e-08 4.203179e-08 2.645825e-08
-2.679548e-08 2.044133e-07 -1.164098e-07 9.567482e-08 1.047844e-08 1.141216e-08
-2.577561e-07 4.447498e-07 3.148527e-07 -4.733726e-07 -4.730087e-08 1.001224e-07
-1.440869e-08 9.237303e-08 -5.400450e-08 4.615017e-09 3.881870e-09 6.607327e-09
4.285959e-08 2.017019e-08 -1.882992e-08 1.161950e-09 5.947006e-12 -1.058909e-10
2.208445e-08 3.738591e-08 -2.255492e-08 2.739914e-09 1.725993e-09 2.068185e-09
-7.203207e-08 1.589767e-07 3.505480e-07 -6.125551e-07 1.098929e-08 8.317236e-09
4.942460e-08 1.346564e-08 -2.016946e-08 -6.701848e-10 4.442077e-16 -8.839774e-11
8.801993e-08 5.859878e-08 -9.836161e-08 1.096664e-07 2.863308e-08 2.666806e-08
-4.382668e-08 1.249532e-07 -8.252831e-08 1.960779e-09 7.634076e-08 -2.622206e-09
-6.079064e-08 2.382206e-07 4.157486e-08 -4.283812e-07 6.240102e-08 -5.001926e-08
-3.716398e-08 1.863075e-07 -9.126808e-08 4.848831e-08 3.566271e-08 8.937871e-09
-3.432454e-08 1.062051e-07 -4.915498e-08 2.921101e-10 1.410654e-08 -2.875924e-10
-4.569563e-08 2.368449e-07 -1.174249e-07 7.654983e-08 1.750939e-08 3.078134e-09
-1.169571e-07 4.057583e-07 -5.903428e-09 -3.521609e-07 -5.765674e-08 5.299538e-08
-1.139278e-07 3.722139e-07 4.060711e-08 -3.238665e-07 -2.108279e-08 -2.988897e-08
7.703875e-08 -6.429588e-09 -3.083644e-08 -1.182915e-08 -4.629084e-10 1.226992e-09
-2.836909e-08 7.042045e-08 -3.357307e-08 9.715216e-09 1.169716e-08 -2.521428e-09
-3.454849e-08 9.920370e-08 -5.121708e-08 -7.866405e-09 3.520940e-08 -2.410899e-09
-3.120417e-08 1.066782e-07 -4.908201e-08 1.522884e-09 1.449591e-08 8.669178e-10
-3.070972e-08 8.411656e-08 -3.089949e-08 1.119436e-09 2.551882e-08 -3.033998e-09
-2.834627e-08 6.671557e-08 -3.218997e-08 -5.713382e-09 9.785267e-09 8.298628e-10
9.872104e-08 -8.210537e-09 -5.261098e-08 -2.993189e-08 -5.520393e-09 1.494216e-08
7.747559e-08 -9.127986e-09 -2.408799e-08 -7.126281e-10 -1.792924e-09 1.281236e-09
1.316686e-08 8.575600e-08 -7.253749e-08 -2.612673e-08 -4.244644e-09 3.997547e-09
1.417994e-07 -4.137417e-09 -8.051228e-08 -7.753946e-08 -8.172255e-09 3.022736e-08
5.114903e-08 2.066737e-08 -3.763752e-08 2.442513e-08 4.425976e-09 3.683977e-09
6.097231e-08 1.441229e-08 -3.966738e-08 2.664230e-08 3.291464e-09 7.351361e-10
5.498208e-08 1.955636e-08 -2.993487e-08 1.989847e-08 1.263845e-09 2.946006e-09
5.359331e-08 1.858803e-08 -3.419026e-08 2.140048e-08 3.293929e-09 -1.779394e-10
5.005666e-08 1.792342e-08 -2.991024e-08 1.578261e-08 1.154268e-09 2.252403e-09
5.599980e-08 1.070208e-08 -2.025143e-08 -4.135499e-09 -1.203882e-09 1.590371e-09
9.626584e-08 -6.471073e-09 -4.704666e-08 -2.578007e-08 6.833736e-10 5.009345e-09
5.755982e-08 1.360384e-08 -3.030133e-08 1.748734e-08 8.727361e-10 4.952485e-09
1.149948e-07 1.589664e-08 -7.591539e-08 -6.888961e-08 -5.935181e-09 1.016797e-08
3.261020e-07 -4.960588e-08 -1.861917e-07 -6.615510e-08 6.022906e-08 -3.977235e-08
1.798712e-07 4.267430e-08 -1.658317e-07 -1.866525e-08 5.432787e-08 -4.907285e-09
3.431462e-07 -1.840617e-08 -1.584158e-07 -1.439756e-07 5.343722e-08 -6.295229e-08
3.491783e-07 -2.215338e-08 -1.661005e-07 -1.410315e-07 1.062933e-08 3.405974e-08
3.632167e-08 3.100363e-08 -3.543506e-08 -1.164996e-08 -3.936099e-09 7.403644e-09
8.812497e-08 2.640683e-08 -1.027987e-07 -1.051479e-07 9.225364e-08 -6.573651e-08
1.691992e-07 -2.570649e-08 -7.973349e-08 6.142875e-08 8.361312e-09 1.607383e-08
2.635943e-07 1.693559e-08 -1.961156e-07 -4.501895e-08 1.281736e-08 1.093309e-08
1.261270e-07 -1.864357e-08 -7.600270e-08 5.035847e-08 9.138819e-09 2.612007e-08
2.033628e-07 5.214931e-08 -1.700647e-07 -1.506220e-07 3.914694e-09 5.737803e-09
1.226162e-07 -2.024547e-08 -5.976995e-08 2.905512e-08 -5.267090e-09 7.697153e-09
8.360547e-08 -2.665293e-09 -4.049745e-08 2.432347e-08 1.817577e-09 9.726725e-09
1.091666e-07 1.491615e-08 -8.190878e-08 7.557451e-08 -1.769325e-09 7.432807e-09
4.314998e-09 2.615137e-07 -1.141291e-07 -2.522697e-07 -9.048259e-08 6.037734e-08
1.565859e-07 -3.231077e-08 -7.979410e-08 3.867122e-08 -5.056731e-09 1.262623e-08
9.149822e-08 -2.376837e-08 -2.946259e-08 -5.436771e-09 -1.952880e-09 1.648352e-08
5.396370e-08 1.871656e-07 -1.258579e-07 -2.165185e-07 -7.415822e-09 6.259293e-09
4.774182e-08 2.610347e-07 -3.326947e-08 -3.421030e-07 -4.903786e-08 9.204655e-09
1.916797e-07 -3.086430e-08 -8.853541e-08 5.623846e-08 2.549615e-09 1.101355e-08
1.402799e-07 4.180280e-08 -1.018072e-07 1.239136e-07 2.203560e-08 3.024435e-08
9.395819e-08 -1.649836e-08 -3.796839e-08 4.216295e-09 -8.073018e-10 3.273259e-09
1.212539e-07 -1.506439e-08 -5.415356e-08 2.859876e-08 3.371287e-09 1.279225e-08
4.232281e-08 2.063634e-08 -1.889174e-08 2.191398e-10 2.235900e-11 -3.049045e-10
2.993954e-08 3.117831e-08 -2.203713e-08 1.427621e-08 7.699759e-09 5.977313e-09
9.390382e-08 -1.680303e-08 -3.253762e-08 3.299084e-09 2.261502e-10 1.466176e-09
-3.686096e-08 3.420916e-07 -2.744860e-08 -3.445143e-07 5.469267e-09 -2.377431e-08
-1.388174e-08 2.685140e-07 -1.024188e-07 -3.080382e-07 -2.540189e-08 5.600582e-08
-2.319330e-07 -1.163728e-06 3.884975e-06 -5.706453e-07 -8.028375e-07 1.047100e-06
-6.329824e-09 3.069250e-07 -3.745010e-09 -3.666383e-07 -5.290367e-09 4.096889e-09
-2.574954e-06 -2.535807e-06 7.804852e-06 7.193668e-08 -8.968020e-08 -2.995996e-07
-7.446380e-08 3.448500e-07 1.309470e-07 -4.124167e-07 4.248324e-08 2.005545e-08
5.178825e-07 -1.629435e-07 -2.003552e-07 -1.950031e-08 9.827167e-09 1.421708e-08
1.714840e-07 1.149128e-08 -1.664034e-07 -2.039299e-08 6.652526e-08 -6.713256e-13
7.453573e-08 1.929718e-07 5.574729e-07 -5.570759e-07 3.568822e-08 -9.035560e-08
-1.783333e-08 -5.310271e-09 -2.949204e-08 4.165747e-09 1.054729e-07 -8.441232e-08
2.382788e-07 -1.565755e-07 -4.095936e-08 -2.315253e-08 -1.564078e-08 -1.530618e-07
2.401584e-08 -6.069475e-08 -6.722037e-08 -1.280639e-08 5.255859e-08 -4.920586e-08
-1.790080e-08 8.501871e-08 -4.552959e-08 -1.935703e-09 3.154542e-09 -4.118742e-09
-2.508351e-06 -2.304169e-06 7.666298e-06 -1.355332e-07 1.987118e-07 5.807092e-08
-2.940354e-08 7.247645e-08 -3.378452e-08 8.291801e-09 1.007427e-08 -9.375452e-09
-9.069398e-09 2.204042e-08 -4.617730e-08 1.405192e-09 6.376656e-08 -1.428997e-08
-2.421024e-06 -1.974808e-06 7.008013e-06 -3.099590e-07 8.035782e-07 -3.272752e-07
-1.778468e-06 1.292677e-07 3.884911e-06 -3.878919e-08 5.346024e-07 -2.763669e-07
-7.632517e-08 3.020975e-07 -1.287750e-07 -6.653190e-08 1.962402e-08 -1.169596e-09
-1.520505e-06 2.415720e-07 3.368156e-06 -2.149415e-07 6.558388e-07 -5.755053e-07
-1.082293e-06 5.604394e-07 2.290850e-06 -3.585967e-08 2.346323e-09 2.181869e-08
2.255198e-07 3.195009e-08 -1.923542e-07 -7.491836e-08 2.044544e-08 -7.593355e-09
-1.469140e-06 -2.655379e-06 6.962031e-06 1.624711e-07 7.412346e-07 1.603493e-06
-7.508037e-07 6.858057e-07 9.966252e-07 -1.053849e-08 2.515628e-07 2.202375e-08
4.225911e-07 -2.066145e-07 -6.386113e-08 -1.228970e-08 -2.612706e-08 -8.429627e-08
5.392080e-07 -2.845409e-07 1.765931e-07 3.511046e-07 7.256613e-08 -6.039750e-08
2.782381e-07 -3.020326e-08 -4.254408e-08 2.061586e-07 -5.148578e-08 -7.254655e-08
-8.364276e-07 5.285715e-07 1.633225e-06 -3.593311e-07 4.650954e-07 -4.048990e-07
4.706965e-07 -2.975437e-07 5.147344e-07 5.153839e-07 1.225401e-07 7.267690e-08
4.986936e-07 -1.325820e-06 2.623553e-06 1.685666e-07 1.482619e-07 7.338928e-07
3.708851e-07 -8.708389e-07 2.140762e-06 5.990946e-07 3.500686e-07 6.009096e-07
-7.215912e-07 6.322564e-07 5.344402e-07 -2.423542e-07 6.951232e-07 2.067293e-08
-1.095643e-06 2.138603e-07 2.452747e-06 -2.774834e-07 3.629667e-07 -1.257149e-07
4.351131e-08 2.158298e-08 -1.941735e-08 1.012187e-09 3.495588e-10 4.190131e-11
4.237760e-08 2.003307e-08 -1.932720e-08 2.315466e-09 2.280893e-10 1.624253e-10
4.284326e-08 2.023575e-08 -1.920771e-08 1.171694e-09 3.164432e-10 -3.313539e-10
4.262200e-08 2.007752e-08 -1.922299e-08 2.177376e-09 3.029017e-10 -1.332015e-10
4.120467e-08 2.169084e-08 -1.941858e-08 2.163336e-09 3.716841e-10 -1.214701e-11
3.627155e-08 2.600841e-08 -2.108949e-08 4.317375e-09 1.230261e-09 4.631277e-10
3.956754e-08 2.200209e-08 -1.992206e-08 5.107977e-09 4.346785e-10 3.746958e-10
4.026343e-08 2.309805e-08 -1.946793e-08 1.139822e-09 -1.305862e-10 -1.247849e-10
-2.051343e-07 4.951054e-07 4.035062e-08 2.219546e-07 1.399337e-08 -2.902784e-08
4.000462e-08 2.175410e-08 -1.925436e-08 7.375321e-10 2.216029e-10 2.939269e-10
1.205605e-07 2.563022e-08 -1.138934e-07 -1.695649e-08 8.000300e-08 -1.950386e-08
5.685414e-07 -2.376900e-07 -6.208218e-08 -1.269851e-07 -1.292812e-08 1.084953e-08
1.234834e-08 1.688789e-07 -7.677204e-08 -2.435601e-07 6.515795e-08 -3.878978e-08
9.131386e-08 1.235487e-07 -1.223513e-07 -1.309446e-07 9.634988e-08 -6.550326e-08
9.405346e-08 6.963613e-08 -1.302524e-07 -1.273781e-07 8.890763e-08 -7.636521e-08
2.701457e-07 -1.559198e-09 -1.534286e-07 -1.898257e-07 4.310126e-08 -5.118780e-08
5.479009e-07 -2.631772e-07 2.175363e-08 -1.502230e-07 1.121711e-08 2.522581e-08
5.512159e-07 -3.849398e-07 2.589228e-07 -6.754278e-08 2.037738e-08 7.163618e-08
3.516965e-07 -1.684219e-07 -8.874406e-08 7.928218e-09 3.144828e-09 8.067135e-08
6.531118e-07 -3.510656e-07 2.020666e-07 -2.228737e-07 -2.532054e-08 5.485148e-08
6.459438e-07 -4.187171e-07 2.663079e-07 7.993920e-08 4.707012e-08 1.150730e-08
1.409452e-07 -2.009927e-08 -6.818670e-08 3.976302e-08 9.379272e-10 4.956299e-09
9.595227e-08 -1.319193e-08 -5.041082e-08 2.422810e-08 5.518953e-09 1.571549e-08
2.795967e-07 -3.814754e-08 -1.214134e-07 1.824455e-07 1.197974e-08 2.104059e-08
4.159419e-07 -1.135324e-07 3.547005e-07 -4.293861e-07 7.157802e-08 -6.137843e-08
6.020197e-07 -3.878692e-07 2.551999e-07 -1.257954e-07 -9.222915e-10 7.559148e-08
2.646847e-07 -6.508779e-08 -1.139585e-07 1.373380e-07 9.031634e-09 3.739166e-08
5.630264e-08 9.784416e-09 -2.456522e-08 -6.192009e-09 -1.085834e-09 -1.926726e-10
6.812460e-08 1.557340e-09 -2.648103e-08 8.048765e-09 7.342883e-10 2.532339e-09
5.912918e-08 9.224890e-09 -2.442232e-08 -9.211062e-09 -8.445833e-10 8.283578e-10
-9.994388e-08 2.545152e-07 -1.120330e-07 5.033361e-08 7.262892e-08 8.675369e-09
4.982586e-08 1.412089e-08 -2.135305e-08 -3.857340e-09 -4.832294e-10 -7.455119e-11
5.282773e-08 1.129926e-08 -2.202472e-08 -4.421270e-09 1.599116e-10 2.543952e-10
5.480493e-08 1.381009e-08 -2.516994e-08 -8.236461e-09 -2.791238e-10 1.201012e-09
-2.163899e-07 4.355524e-07 8.392616e-08 2.717343e-07 2.492129e-08 -9.657104e-10
5.370130e-08 1.115653e-08 -2.568411e-08 -1.071960e-08 -6.992127e-10 -1.071587e-11
5.183288e-08 1.382785e-08 -2.328663e-08 -4.067714e-09 -9.027889e-10 1.052512e-09
-1.503370e-07 3.743315e-07 -1.163091e-07 2.316256e-08 2.317891e-08 3.451670e-10
-2.133273e-08 1.406527e-07 -8.520856e-08 4.256432e-08 -5.112998e-08 -2.517594e-08
-9.496713e-09 1.308472e-07 -1.028370e-07 4.101339e-08 -9.301042e-09 -4.253197e-09
-1.013197e-08 1.308618e-07 -9.467296e-08 3.137223e-08 -2.210479e-08 -1.803349e-08
-1.005015e-07 2.852871e-07 -1.308020e-07 3.249221e-08 2.911392e-08 -3.189290e-09
-1.302996e-07 3.104798e-07 -9.087590e-08 9.474880e-08 8.231964e-08 1.405967e-08
-1.026616e-08 1.310804e-07 -9.869343e-08 4.041131e-08 -2.720708e-08 -1.446327e-08
2.367971e-07 5.942169e-08 -9.448639e-08 -2.638314e-07 -5.974408e-08 6.838176e-08
1.252060e-07 -2.564856e-08 -6.766842e-08 3.087875e-08 2.221966e-09 7.989985e-09
2.676569e-09 1.242886e-07 -1.088059e-07 4.823397e-08 -2.524705e-08 -1.575763e-08
9.166378e-08 -3.337698e-09 -4.469540e-08 -3.482906e-08 -5.244335e-09 1.586245e-08
6.588981e-08 -8.306625e-10 -2.462139e-08 -1.149816e-08 -4.576913e-09 6.939422e-09
5.079908e-08 1.224822e-08 -1.917059e-08 8.881340e-16 -9.565237e-11 2.324743e-10
3.091732e-09 1.491519e-07 -1.191416e-07 6.922739e-08 -1.784736e-08 -6.535128e-10
1.676027e-09 1.003814e-07 -8.499639e-08 2.421611e-08 -2.348202e-08 -6.182955e-09
5.672559e-08 7.915742e-09 -2.101749e-08 -6.884475e-10 5.893265e-11 5.097824e-10
-2.853347e-07 -1.361831e-06 4.706398e-06 3.660821e-07 -6.694247e-07 -1.505819e-06
-7.582062e-07 -1.433404e-06 4.235432e-06 3.969230e-07 1.220265e-07 -2.090793e-07
4.649840e-07 -1.504972e-07 -1.009537e-07 -7.098573e-08 -5.388003e-09 3.869423e-08
-7.208679e-07 -1.312824e-06 3.547882e-06 3.298148e-07 -1.075627e-07 -8.467590e-08
9.091188e-08 -1.946079e-07 6.936388e-07 -7.366563e-07 3.134752e-07 -1.601833e-07
2.643147e-07 -1.382045e-06 3.065836e-06 4.890321e-07 -5.229166e-07 -7.841043e-07
1.017866e-07 -2.253866e-08 -4.534300e-08 1.015676e-08 9.893997e-10 7.616347e-09
2.157744e-07 -1.153747e-06 3.343963e-06 4.010962e-07 6.445002e-07 -5.488998e-07
1.024410e-07 -1.426770e-06 2.995704e-06 2.907159e-08 -1.086809e-08 -2.573600e-07
2.739831e-07 -1.137042e-06 2.304386e-06 2.693126e-07 -5.850072e-07 -5.084881e-07
2.598830e-07 -1.061553e-06 2.323962e-06 3.588275e-07 -6.370158e-07 -5.259485e-07
2.857645e-07 -1.096829e-07 -1.157423e-07 -1.690092e-08 6.946414e-10 1.106532e-08
6.506543e-08 1.670903e-09 -2.209682e-08 -1.802008e-09 -9.862972e-10 -2.363431e-10
2.678864e-07 -1.122863e-07 -1.038654e-07 2.902722e-08 5.067037e-09 6.924610e-08
1.086080e-07 -2.394658e-08 -4.006534e-08 6.463014e-09 4.318707e-09 9.371621e-09
2.283544e-07 -6.643140e-08 -1.023041e-07 -1.636182e-08 8.252614e-09 1.573115e-08
5.937114e-08 7.249431e-09 -2.077778e-08 -1.565476e-09 -6.400686e-10 -3.325490e-11
5.976171e-08 5.731530e-09 -2.133056e-08 -1.260036e-09 -1.269799e-09 2.435014e-10
6.112210e-08 5.276468e-09 -2.100521e-08 -1.038575e-09 -3.194225e-10 8.882029e-10
5.969177e-08 7.649842e-09 -2.230981e-08 -4.442074e-09 -1.057136e-09 9.658698e-10
3.246506e-08 5.717678e-08 -5.132139e-08 -2.607749e-08 1.188909e-09 2.525459e-09
4.655833e-08 1.676364e-08 -2.143103e-08 6.742248e-09 2.143575e-10 3.134716e-10
4.119802e-08 2.008053e-08 -1.904630e-08 1.461024e-09 -1.725964e-10 2.084611e-10
4.633635e-08 1.870447e-08 -2.085968e-08 4.889736e-09 3.521143e-10 2.205705e-10
4.225518e-08 1.848068e-08 -2.084044e-08 5.928163e-09 2.408800e-10 9.711556e-10
8.257534e-08 1.379576e-07 -6.192941e-08 -3.501716e-07 2.886961e-08 -3.593133e-08
7.437242e-08 -9.290236e-10 -3.471910e-08 -1.605382e-08 -2.078229e-09 2.551777e-09
1.921977e-07 7.636625e-10 -1.217684e-07 1.751539e-07 1.050167e-08 2.257931e-08
2.171754e-07 1.155769e-07 -4.520753e-08 -3.568343e-07 -2.330274e-09 7.253813e-09
7.258329e-08 1.340485e-09 -2.944078e-08 -1.595802e-08 -2.304353e-09 5.772848e-09
6.471970e-08 2.586262e-09 -2.664404e-08 -6.064161e-09 -5.712257e-10 7.814424e-10
7.159423e-08 -2.315459e-09 -2.613899e-08 -7.241066e-09 -1.836771e-09 1.173284e-09
6.554100e-08 4.440959e-09 -2.653603e-08 -1.104927e-08 -1.169164e-09 1.451557e-09
7.084109e-08 4.034431e-09 -3.153599e-08 -1.770465e-08 -1.804858e-09 3.279401e-09
7.310899e-08 2.476140e-09 -3.759031e-08 -1.796000e-08 -9.083498e-10 -9.957102e-10
6.520224e-08 6.062214e-09 -2.615717e-08 -1.320031e-08 -2.712125e-09 4.343412e-09
1.420176e-07 -3.034640e-08 -5.660962e-08 -1.198670e-08 -2.672155e-09 2.206923e-08
5.718446e-08 5.817085e-08 -8.789021e-08 -9.030139e-08 1.385216e-07 -1.293534e-07
1.778266e-07 -5.474759e-08 -9.130377e-08 -1.631068e-08 -2.321054e-09 2.871049e-08
1.785680e-07 -4.779835e-08 -8.246321e-08 -1.356651e-08 5.587254e-09 3.206679e-08
-1.117837e-06 2.485019e-07 2.011902e-06 -4.152086e-07 -2.683306e-07 -1.334700e-07
2.138201e-07 -5.265379e-08 1.138655e-07 4.647193e-07 2.456978e-08 4.440440e-08
-3.180586e-07 4.505462e-07 4.928035e-07 3.875514e-07 -3.826076e-08 -4.457029e-08
-3.166878e-08 2.449437e-07 5.866109e-07 5.480970e-07 2.445767e-08 -4.131989e-08
2.405167e-07 1.038617e-07 -4.324905e-08 -3.579060e-07 8.687361e-08 -6.146613e-08
-1.031413e-08 1.705964e-07 -1.199688e-07 1.032405e-07 1.322710e-08 -2.989961e-10
1.798150e-07 -5.641292e-08 -9.361107e-08 3.559464e-09 4.139526e-10 2.875744e-08
-9.046227e-07 6.783792e-07 1.455243e-06 1.983256e-07 -3.826297e-07 -9.941103e-08
1.452542e-07 -3.148996e-08 -5.824806e-08 -4.055249e-09 -8.264041e-10 2.367831e-08
-4.807254e-07 5.798044e-07 4.877494e-07 3.026736e-07 -1.339944e-07 -1.060255e-07
1.693815e-07 -4.743611e-08 -9.393412e-08 -2.560689e-08 1.036866e-09 2.519774e-09
1.412694e-07 -3.654386e-08 -7.532676e-08 -1.681063e-08 -1.416668e-09 1.704310e-08
1.857924e-07 -4.173828e-08 -7.425964e-08 -5.849834e-09 -6.534674e-10 1.692286e-08
9.357729e-08 1.413481e-08 -6.657481e-08 -5.823325e-08 -9.141016e-09 5.221501e-09
1.240251e-07 2.215421e-10 -7.972066e-08 -6.963454e-08 -6.963147e-09 1.302731e-08
4.896275e-08 1.861341e-08 -2.942315e-08 2.228679e-08 3.888649e-09 2.547140e-09
3.168944e-07 -4.660031e-08 4.625914e-07 5.169336e-07 -7.839905e-08 -8.108324e-08
1.323644e-07 -3.543518e-09 -8.660742e-08 -8.911107e-08 -1.023375e-08 1.250321e-08
-9.175256e-09 4.651374e-08 -2.534261e-08 1.148545e-08 3.030391e-08 1.757750e-08
4.340506e-08 6.403982e-08 -7.710378e-08 8.301169e-08 2.236536e-08 2.592140e-08
1.084307e-07 1.218963e-08 -7.902382e-08 -7.397123e-08 -2.249164e-09 1.474782e-08
3.129862e-07 -1.209058e-07 3.681461e-07 -4.968533e-07 -1.115568e-07 8.388396e-08
1.773947e-09 1.023000e-07 -6.235235e-08 4.368171e-08 3.305245e-08 1.882511e-08
9.302881e-08 6.382830e-09 -6.575203e-08 -4.823347e-08 -5.730115e-09 1.289117e-08
9.519886e-08 2.201429e-08 -1.035880e-07 9.380881e-08 3.048491e-08 4.195312e-08
9.637362e-08 4.086335e-08 -9.196942e-08 9.946991e-08 1.551758e-08 3.708369e-08
1.470723e-07 -3.342460e-08 -8.127654e-08 4.612840e-08 9.308815e-09 3.186372e-08
1.246326e-07 2.142344e-08 -9.022997e-08 -9.159504e-08 -5.774151e-09 6.682313e-09
-1.100499e-08 1.365167e-07 -1.137306e-07 -6.579812e-08 2.591701e-08 -1.358781e-08
-4.044496e-07 6.935706e-07 1.252452e-07 1.605493e-07 -1.586182e-07 5.201032e-08
-1.767008e-06 -2.109743e-06 5.886036e-06 6.650868e-08 -9.922754e-09 -4.709414e-08
-1.341809e-09 1.370933e-07 -1.061385e-07 -6.913930e-08 2.920493e-08 -2.223854e-08
-1.492394e-08 1.337182e-07 -8.497244e-08 -4.763331e-08 2.149447e-08 -7.944499e-09
-1.982585e-08 7.807384e-08 -3.832048e-08 -4.326462e-09 3.930724e-09 -8.626987e-09
-3.075217e-07 4.922044e-07 5.047348e-07 3.936704e-07 9.318315e-08 -2.100366e-08
-4.307428e-09 1.070034e-07 -8.690490e-08 -4.312050e-08 3.234007e-08 -3.938384e-09
1.412722e-08 1.366837e-07 -9.979787e-08 -6.606163e-08 3.081515e-08 -1.222375e-08
1.592970e-08 5.259624e-08 -3.672236e-08 -9.132648e-09 -5.993582e-09 1.412089e-08
-3.795973e-08 2.621032e-07 -1.273041e-07 -1.116960e-07 1.320992e-08 1.106727e-09
-1.612865e-07 3.970353e-07 6.182742e-08 2.538478e-07 3.440567e-08 -2.547035e-08
1.375430e-07 -2.153987e-08 -6.246389e-08 4.100957e-08 8.866780e-09 2.606924e-08
1.428720e-07 4.766049e-08 -1.297569e-07 2.000753e-07 1.859113e-08 2.433299e-08
1.533588e-08 4.202638e-08 -2.644537e-08 -3.117355e-09 -2.344753e-09 1.064032e-08
4.675661e-08 8.945076e-08 -9.278099e-08 1.016526e-07 2.650265e-08 2.470230e-08
2.395073e-07 -1.743984e-08 -1.203190e-07 1.934182e-07 2.649336e-08 5.300893e-08
6.949478e-09 4.890673e-08 -2.726712e-08 -1.675336e-08 -2.489020e-08 2.553941e-08
1.595189e-08 3.891550e-08 -2.622944e-08 -1.474531e-08 -1.679935e-08 2.073177e-08
6.985836e-07 -3.647715e-07 8.506168e-08 1.372033e-07 -7.607970e-09 -2.624098e-09
7.121983e-07 -6.875103e-07 1.027969e-06 -2.025902e-07 1.656287e-07 -4.946797e-07
1.127087e-08 4.023377e-08 -2.848020e-08 -3.664729e-10 -4.365700e-09 1.354643e-08
1.149554e-08 5.722369e-08 -4.125532e-08 -1.608393e-08 -1.669482e-08 2.068373e-08
2.314481e-07 -4.670139e-08 -1.114427e-07 8.074266e-08 1.671415e-08 3.667337e-08
3.520423e-07 -1.181819e-07 -1.163989e-07 8.078073e-08 1.319186e-08 2.247967e-08
1.125634e-07 1.095837e-07 -1.586466e-07 -1.368914e-07 2.888363e-08 -1.290188e-08
1.924675e-07 3.288865e-08 -8.632264e-08 2.611827e-07 4.105273e-08 4.648510e-08
2.249468e-07 -6.875702e-07 1.511668e-06 5.743743e-07 -1.901200e-07 -3.962565e-07
3.876446e-07 -4.437400e-08 2.645544e-07 4.691508e-07 5.225345e-08 6.060559e-08
-8.855863e-08 2.694269e-07 2.207308e-07 5.270426e-07 4.898857e-08 3.083077e-08
8.353935e-08 -5.146950e-08 3.569319e-07 6.087522e-07 4.982128e-08 3.180226e-08
3.573598e-07 -8.995229e-07 1.652860e-06 3.408065e-07 2.281481e-08 2.989595e-08
4.201921e-07 -7.943768e-07 1.368095e-06 4.253441e-07 -1.981846e-07 -2.098225e-07
2.203608e-07 -9.107926e-09 -1.178466e-07 1.624692e-07 1.965586e-08 5.789048e-08
6.135915e-07 -5.797528e-07 6.708513e-07 2.929481e-07 1.515810e-07 1.887651e-08
5.555466e-07 -5.738683e-07 9.512611e-07 3.572257e-07 -3.202223e-08 4.841694e-08
2.083690e-07 -7.008410e-09 6.793755e-07 5.831084e-07 -1.031561e-07 -1.050682e-07
5.509956e-07 -2.756696e-07 9.644881e-09 3.153556e-07 4.628719e-08 -2.440977e-08
5.678457e-07 -3.381247e-07 2.455662e-07 4.126681e-07 -1.455988e-08 -1.596925e-07
-1.321061e-06 -1.145730e-06 5.258592e-06 7.108990e-07 -1.313324e-06 -9.627725e-07
4.146087e-07 -4.101610e-07 8.934463e-07 5.516885e-07 5.134152e-08 9.360840e-08
-3.938434e-08 1.731504e-07 -1.183838e-07 -6.801917e-08 -4.135096e-08 2.157376e-08
8.628663e-08 4.780561e-08 -8.753657e-08 -1.080462e-07 -2.197223e-08 2.458326e-08
-9.164169e-07 2.699378e-07 1.929911e-06 5.130864e-07 -3.801653e-07 -3.284815e-07
1.462366e-07 -2.974941e-08 -6.178849e-08 7.380746e-09 2.393985e-10 3.632688e-09
-2.562447e-06 -2.417234e-06 8.578488e-06 -5.685998e-08 1.245997e-06 -6.627000e-07
9.274986e-08 2.911672e-08 -8.477506e-08 -8.459981e-08 -1.697445e-08 1.966066e-08
1.116840e-07 1.238248e-08 -9.116812e-08 -1.016491e-07 -2.335441e-08 2.788317e-08
1.565225e-07 3.990638e-08 -1.110705e-07 -1.374488e-07 -9.475196e-09 1.616688e-08
7.548505e-08 5.400980e-08 -9.438932e-08 -1.154002e-07 -2.731680e-08 3.808375e-08
9.636251e-08 7.158324e-08 -1.098989e-07 -1.367415e-07 -4.048973e-08 4.277074e-08
5.984978e-07 -4.085413e-07 7.660841e-07 -4.180312e-07 1.574003e-07 -2.262740e-07
1.587484e-07 1.373588e-09 -1.117490e-07 -1.421642e-07 -2.899487e-08 4.215281e-08
1.561091e-07 6.058468e-08 -1.206229e-07 -1.606125e-07 -1.885383e-08 1.448644e-08
1.407875e-07 3.850513e-08 -1.145112e-07 -1.432872e-07 -3.319817e-08 4.936517e-08
3.109719e-08 4.847236e-08 -5.132139e-08 -1.825955e-08 -1.575525e-10 2.649625e-09
1.280765e-07 -1.642884e-08 -7.824443e-08 4.970482e-08 1.459454e-10 5.520665e-09
1.068881e-07 -1.277806e-08 -5.646373e-08 3.303353e-08 9.530279e-09 1.238405e-08
1.099745e-07 -1.319186e-08 -5.033931e-08 3.040479e-08 6.065136e-09 1.673979e-08
-2.238288e-07 -5.849276e-07 1.570132e-06 8.084942e-07 1.260926e-07 3.574534e-07
1.497741e-07 -3.088930e-08 -8.853541e-08 4.406397e-08 -1.355789e-09 4.280281e-09
4.307479e-07 -4.347106e-07 7.659536e-07 4.706999e-07 -4.629621e-09 -8.527498e-08
1.538935e-07 -2.563183e-08 -6.700475e-08 3.824540e-08 4.441605e-09 1.341855e-08
1.445302e-07 -2.563887e-08 -7.432010e-08 4.606186e-08 1.307171e-09 3.013713e-08
1.394852e-07 -2.351218e-08 -8.268483e-08 4.960601e-08 5.030879e-09 2.357532e-08
1.220099e-07 -2.139432e-08 -5.836269e-08 2.810734e-08 1.012059e-08 1.485651e-08
1.316686e-08 8.143708e-08 -6.811629e-08 -2.248204e-08 -4.991559e-09 8.867878e-10
-3.294481e-08 4.862438e-08 -3.256076e-08 2.933070e-09 7.041484e-08 -1.569762e-08
-8.250923e-08 2.851820e-07 -1.165031e-07 -6.313412e-09 6.357070e-08 -2.831054e-09
1.646773e-08 7.965002e-08 -6.302350e-08 -3.141997e-08 -1.140903e-08 7.925111e-09
1.967135e-08 8.069603e-08 -6.542279e-08 -2.260092e-08 -4.448735e-09 5.464423e-09
-2.748522e-08 5.042943e-08 -2.773107e-08 -3.097043e-10 4.082702e-08 -1.220409e-08
9.419342e-09 7.983222e-08 -7.017113e-08 -3.047895e-08 -1.345743e-08 1.630248e-08
1.294290e-08 9.160111e-08 -7.931306e-08 -3.104151e-08 -3.634324e-09 8.942877e-09
-2.895491e-08 5.210699e-08 -3.015545e-08 2.629678e-09 4.321766e-08 -9.286299e-09
-3.620311e-08 1.948191e-07 -1.034381e-07 4.477072e-08 1.707248e-08 2.909690e-09
6.256043e-09 7.814627e-08 -7.289898e-08 -2.641991e-08 -1.856788e-08 1.014100e-08
2.352420e-09 7.612519e-08 -7.790048e-08 -2.296157e-08 -2.187797e-08 1.672446e-08
-1.893980e-06 -1.022119e-06 5.077067e-06 3.440501e-07 -1.613313e-07 4.292823e-08
1.507383e-08 8.780273e-08 -7.404582e-08 -2.866537e-08 -3.286262e-09 4.346911e-09
-5.441870e-09 1.267983e-07 -1.076527e-07 -3.942232e-08 -1.286515e-08 3.115116e-10
1.347479e-07 4.219994e-08 -1.157133e-07 1.557382e-07 5.288805e-09 1.586292e-08
5.166823e-08 1.263181e-07 -1.196002e-07 -1.760715e-07 -4.928971e-08 4.229553e-08
-3.376000e-08 5.177929e-08 -3.198843e-08 2.680354e-09 4.489748e-08 -5.589198e-09
-2.403900e-08 1.098078e-07 -6.438327e-08 9.052308e-09 9.926580e-09 5.487570e-09
-4.383061e-08 8.191429e-08 -3.842162e-08 2.415541e-09 7.929275e-08 -2.577581e-09
2.235841e-08 4.735716e-08 -4.412385e-08 2.458582e-08 1.438211e-08 1.601101e-08
1.746016e-08 1.635227e-07 -1.161786e-07 -1.428508e-07 -3.843297e-08 3.592537e-08
2.265827e-08 9.796150e-08 -8.456938e-08 7.940804e-08 2.347438e-08 2.111758e-08
5.916557e-08 1.350275e-07 -1.232979e-07 -1.483538e-07 -1.320810e-08 1.367492e-08
2.777543e-08 7.447340e-08 -6.331324e-08 5.036829e-08 3.904478e-09 2.131326e-09
2.950466e-08 1.589229e-07 -1.232612e-07 -1.412650e-07 -1.743432e-08 2.373136e-08
4.943849e-08 1.465074e-07 -1.221148e-07 -1.433567e-07 -6.923233e-09 1.122703e-08
-1.791124e-08 7.913875e-08 -4.405160e-08 2.663637e-09 5.071368e-09 7.420172e-09
4.894620e-08 1.859589e-08 -3.655918e-08 2.230973e-08 2.597852e-09 3.147737e-09
5.427147e-08 2.481767e-08 -4.727981e-08 3.469200e-08 5.820414e-10 2.070885e-09
4.741210e-08 2.058787e-08 -2.750398e-08 1.559381e-08 1.001268e-09 4.514878e-09
5.124073e-08 2.775066e-08 -3.526506e-08 -2.360482e-08 -7.128057e-09 9.100179e-09
5.004925e-08 1.779885e-08 -2.650642e-08 1.571093e-08 -7.995735e-10 2.201402e-09
5.161541e-08 4.411159e-08 -5.700220e-08 -4.671452e-08 -1.352469e-08 1.043580e-08
4.898638e-08 2.252290e-08 -3.421512e-08 2.191077e-08 -5.108679e-10 3.470006e-09
4.533939e-08 2.075537e-08 -2.970934e-08 1.636105e-08 1.927228e-09 2.359337e-09
5.882492e-08 1.814256e-07 -1.548468e-07 1.773674e-07 -2.928607e-08 -9.647797e-09
9.558814e-08 1.812756e-07 -1.469263e-07 1.729967e-07 -4.964018e-08 -3.160543e-08
5.064187e-08 1.357547e-08 -2.302616e-08 -8.439989e-09 -1.830287e-09 1.510849e-09
9.927498e-08 1.175808e-07 -1.628420e-07 1.819930e-07 -1.966980e-08 -1.186188e-08
6.596821e-08 3.267179e-09 -2.650689e-08 -1.171633e-08 -2.367925e-09 4.906737e-09
6.511746e-08 1.386638e-09 -2.324024e-08 -3.955255e-09 -1.268165e-09 1.785434e-09
5.942365e-08 7.538320e-09 -2.451835e-08 -6.531968e-09 4.348717e-10 8.333423e-11
4.765825e-08 2.838749e-08 -4.091440e-08 -2.336926e-08 -6.719737e-09 2.937570e-09
7.090423e-08 1.330787e-07 -1.489178e-07 9.931274e-08 -1.938565e-08 -1.354938e-08
8.586791e-08 -2.036601e-08 -2.666406e-08 2.408827e-09 3.639624e-10 8.631805e-09
9.233137e-08 -2.330123e-08 -2.883009e-08 8.062674e-10 6.220207e-10 1.748171e-08
4.479997e-08 1.355258e-07 -1.571840e-07 1.205515e-07 -1.852807e-08 -9.129917e-09
9.699903e-08 -1.754835e-08 -4.228602e-08 1.088171e-08 1.770200e-10 8.971954e-09
1.478052e-07 5.941200e-08 -1.789568e-07 9.489670e-08 -3.501829e-08 4.969734e-09
9.157273e-08 -1.741456e-08 -3.136251e-08 6.899889e-10 3.086736e-10 3.224891e-10
8.228972e-08 -1.348448e-08 -2.750055e-08 3.000983e-09 7.538339e-10 3.421749e-09
4.536379e-08 2.268588e-08 -2.834847e-08 -9.171724e-09 -3.142439e-09 6.119322e-09
4.056235e-08 2.297911e-08 -2.992431e-08 -8.739599e-09 -2.844383e-09 3.362100e-09
1.165675e-07 -3.199044e-08 -5.768514e-08 5.810789e-09 1.501807e-09 1.853749e-08
4.002442e-08 2.253677e-08 -2.563667e-08 -6.226726e-09 -2.217944e-09 4.641480e-09
3.878331e-08 2.427295e-08 -2.316785e-08 -9.440775e-09 -5.644193e-09 5.741914e-09
3.956560e-08 2.292667e-08 -2.265000e-08 -1.350232e-08 -6.005055e-09 7.483667e-09
9.577284e-08 -1.829377e-08 -3.233445e-08 2.143917e-09 -3.399636e-10 -4.759749e-11
9.274413e-08 -2.308499e-08 -3.363193e-08 4.729680e-09 4.689516e-10 1.339281e-08
9.283483e-08 -1.750447e-08 -3.279477e-08 4.415751e-09 7.415519e-10 3.521590e-10
4.483503e-08 2.035753e-08 -2.439374e-08 -6.994108e-09 -1.856702e-09 5.125968e-09
4.440598e-08 1.816170e-08 -2.524019e-08 -1.187819e-08 -4.912249e-09 3.955404e-09
4.433360e-08 1.820677e-08 -2.509117e-08 -1.072279e-08 -3.351842e-09 3.961837e-09
8.409483e-08 -3.378224e-09 -4.255565e-08 -1.937548e-08 -1.320388e-09 -5.087584e-10
6.933307e-08 2.288099e-09 -3.036581e-08 -1.360517e-08 -2.163026e-11 1.884915e-10
7.926246e-08 -3.030226e-09 -3.443048e-08 -2.005096e-08 -2.376523e-09 4.017815e-09
-4.125146e-08 2.480216e-07 -1.345642e-07 -9.263789e-08 -1.029738e-08 2.097270e-10
3.187504e-10 1.213116e-07 -9.058337e-08 4.027114e-08 -2.270264e-08 -8.483927e-09
7.253092e-08 1.340485e-09 -3.069254e-08 -1.586102e-08 -3.060473e-09 6.057263e-09
1.076715e-07 -1.347573e-08 -5.235104e-08 -3.627620e-08 -5.333113e-09 1.727121e-08
1.017306e-07 -3.014123e-09 -6.429836e-08 -4.280529e-08 -9.591033e-09 2.112024e-08
6.075991e-08 2.600262e-08 -5.021357e-08 -3.825465e-08 -6.751399e-09 -5.731904e-10
4.581503e-08 1.730323e-07 -1.388064e-07 1.105623e-07 -2.223962e-08 -1.594379e-08
1.631874e-08 1.473754e-07 -1.158677e-07 6.598110e-08 -3.095628e-08 -2.009798e-08
4.029402e-08 1.366233e-07 -1.184516e-07 7.157714e-08 -3.613241e-08 -1.620873e-08
6.663907e-09 1.228385e-07 -1.031497e-07 4.424503e-08 -2.712762e-08 -9.926079e-09
6.384491e-08 2.255958e-09 -2.350604e-08 -1.246994e-09 -1.454152e-09 4.899541e-10
2.132381e-08 1.112555e-07 -1.131618e-07 4.861142e-08 -1.278484e-08 -5.466738e-09
1.783246e-08 1.073713e-07 -1.125383e-07 2.944853e-08 -9.865329e-09 -7.080960e-09
-2.632278e-08 1.243148e-07 -7.818052e-08 -1.719335e-08 5.913279e-09 -1.576043e-09
-2.029249e-08 9.961715e-08 -5.919235e-08 -4.436697e-09 4.646288e-10 -3.208515e-09
7.119705e-08 -4.158418e-09 -2.347113e-08 -1.154940e-08 -2.391566e-09 8.391612e-09
5.094831e-08 1.494698e-08 -2.389563e-08 9.858101e-09 2.630185e-10 1.552736e-11
1.142346e-07 -6.799413e-09 -7.419085e-08 -5.150137e-08 -1.439704e-08 2.785428e-08
9.243882e-08 -6.574474e-10 -4.730064e-08 -3.419130e-08 -1.535279e-09 1.903665e-09
7.040248e-08 -5.159894e-09 -2.203890e-08 -4.772282e-09 -2.081129e-09 2.691546e-09
5.556319e-08 9.843698e-09 -2.183606e-08 -3.812813e-09 -9.647445e-10 8.818037e-11
6.169917e-08 4.163980e-09 -2.269682e-08 -1.100762e-09 -8.338492e-10 2.711387e-10
-2.471680e-08 1.061154e-07 -6.554312e-08 -9.399936e-09 3.506352e-09 -2.751477e-09
-2.571916e-08 1.190829e-07 -6.791178e-08 -1.421421e-08 3.335123e-09 -5.259706e-09
-1.247521e-08 1.280784e-07 -9.840488e-08 -2.479456e-08 -4.827220e-09 -8.041229e-10
-7.345513e-09 8.351348e-08 -5.196849e-08 9.095201e-09 5.061251e-09 4.082990e-09
-2.683872e-08 8.201789e-08 -4.477354e-08 4.859349e-10 5.007238e-09 2.488920e-09
-8.961279e-09 1.089092e-07 -7.792880e-08 -1.595762e-08 -7.753774e-09 1.084860e-08
-4.064149e-09 1.082338e-07 -8.772843e-08 -1.690055e-08 -5.699796e-09 1.871352e-09
7.108945e-09 1.348947e-07 -9.532742e-08 -7.317446e-08 -3.053871e-08 1.803200e-08
1.369253e-08 1.764733e-07 -1.239523e-07 1.482130e-07 1.727876e-08 1.569333e-09
7.191279e-09 9.890118e-08 -7.804829e-08 -3.591284e-08 -1.961006e-08 1.640629e-08
-1.337440e-08 1.684653e-07 -1.067592e-07 -7.019800e-08 -1.420689e-08 1.384693e-08
5.734758e-08 1.152432e-08 -2.524388e-08 8.429194e-09 6.321330e-10 1.063464e-09
-1.540432e-08 1.024633e-07 -6.224351e-08 4.885662e-09 4.722028e-18 4.832531e-10
-1.578088e-08 1.106609e-07 -7.686881e-08 2.251941e-08 1.451000e-09 -1.761886e-09
5.663658e-08 9.992608e-09 -2.205239e-08 3.105080e-09 4.694618e-10 5.871725e-10
6.284974e-08 7.124713e-09 -2.735165e-08 1.000356e-08 -5.954791e-10 1.652345e-09
-5.281564e-08 1.466373e-07 -7.939975e-08 2.244789e-08 6.989958e-08 9.307242e-09
-5.281564e-08 1.615399e-07 -8.808227e-08 2.310921e-08 2.542557e-08 5.296566e-09
5.423379e-08 1.000857e-08 -2.225246e-08 3.309545e-09 9.486178e-10 3.447027e-10
5.582489e-08 1.000325e-08 -2.184544e-08 2.987895e-09 4.092837e-10 1.778456e-09
-1.994842e-08 9.696832e-08 -6.230405e-08 2.685752e-08 4.643962e-08 1.809980e-08
5.160243e-08 1.245442e-08 -2.177703e-08 1.039488e-09 2.661521e-10 -5.752497e-10
-2.862846e-08 1.203462e-07 -7.560170e-08 4.103185e-08 5.200649e-08 1.747019e-08
-2.060153e-08 1.237229e-07 -8.566490e-08 4.475669e-08 2.602676e-08 6.524937e-09
5.237963e-08 1.372456e-08 -2.188420e-08 6.584494e-09 3.589959e-10 1.847750e-09
-2.495466e-08 8.337082e-08 -5.385093e-08 4.035542e-09 2.408410e-08 6.086724e-09
-3.665803e-08 1.110529e-07 -5.115066e-08 5.822968e-09 3.678952e-08 2.014900e-09
-4.359631e-08 1.336823e-07 -7.469260e-08 1.033370e-09 1.876938e-08 7.424747e-10
-3.520659e-08 1.401895e-07 -9.603371e-08 -5.389662e-09 -4.402921e-09 7.003116e-09
1.655993e-08 4.408627e-08 -3.997831e-08 -1.068341e-08 -1.169675e-08 1.380051e-08
7.233134e-08 -5.159744e-09 -2.460366e-08 -5.188393e-09 -1.615214e-09 2.755066e-09
-3.438784e-08 1.250836e-07 -7.087575e-08 4.706016e-10 1.174183e-08 -1.693093e-09
-3.383623e-08 1.252492e-07 -7.214507e-08 7.730075e-10 1.233785e-08 -6.398058e-10
-6.748213e-08 2.965684e-07 -1.493646e-07 6.720137e-08 -2.393347e-08 -1.548300e-08
6.249843e-08 5.742999e-09 -2.236458e-08 -6.595169e-09 -2.205459e-09 2.122064e-09
-1.002399e-08 1.088782e-07 -7.950160e-08 -1.639182e-08 -7.377664e-09 1.224246e-08
1.325422e-08 3.377277e-08 -3.612776e-08 -2.016243e-08 -3.305395e-08 3.263162e-08
-3.689337e-08 1.237538e-07 -7.238640e-08 3.386222e-09 1.151328e-08 2.336579e-10
-2.790515e-08 8.203606e-08 -4.499901e-08 -1.475697e-12 4.817613e-09 1.546385e-09
-5.104997e-08 2.183381e-07 -1.185282e-07 3.605280e-08 -3.542877e-08 -1.115318e-08
-4.842716e-08 2.302497e-07 -1.305973e-07 6.724300e-08 -6.030614e-08 -2.720797e-08
-4.166530e-08 2.281922e-07 -1.370002e-07 6.836400e-08 -1.171547e-08 -1.711496e-10
-4.775393e-09 6.955710e-08 -3.235042e-08 -2.442542e-08 -4.477210e-08 3.301173e-08
-3.902831e-08 1.484424e-07 -9.820766e-08 3.050817e-09 -5.652598e-09 -9.480258e-09
3.654719e-08 2.512346e-08 -2.123192e-08 6.673724e-09 1.443743e-09 2.756632e-09
-2.122045e-08 1.330378e-07 -9.058264e-08 6.520637e-09 -2.178769e-17 -1.670672e-09
-2.343944e-08 1.135711e-07 -9.186496e-08 1.166717e-08 -2.197140e-08 -1.539991e-08
3.656197e-08 2.693722e-08 -1.951839e-08 5.476069e-09 2.054245e-09 2.170860e-09
3.658404e-08 2.459535e-08 -2.420193e-08 1.080679e-08 3.335094e-09 4.148334e-09
4.167100e-08 2.242014e-08 -2.058895e-08 7.717639e-09 1.258840e-09 1.668865e-09
3.593499e-08 2.487568e-08 -2.106428e-08 4.948561e-09 6.177575e-10 7.309468e-10
3.608690e-08 2.534570e-08 -2.012211e-08 4.082158e-09 9.344760e-10 1.560694e-09
3.836608e-08 2.370723e-08 -2.036743e-08 8.752966e-09 2.602741e-09 1.893271e-09
-1.154927e-06 -1.611423e-06 5.172096e-06 -4.679768e-07 -3.127702e-07 9.466654e-07
-1.993584e-06 -1.496358e-06 6.131886e-06 -4.970517e-07 -8.031068e-07 7.517511e-07
-1.136413e-06 -1.492279e-06 5.446989e-06 -4.175514e-07 -4.665458e-07 5.788412e-07
-9.636853e-07 -9.712858e-07 4.513159e-06 -7.189217e-07 -1.199926e-06 1.039017e-06
-1.086097e-07 3.073222e-07 -1.493646e-07 6.440781e-08 -2.781071e-08 -6.826763e-09
3.935682e-07 -2.517068e-07 2.455891e-07 4.670370e-07 1.852562e-08 -4.821943e-08
2.073177e-07 -3.246967e-08 4.003356e-07 5.576441e-07 2.109922e-08 1.086033e-07
1.942480e-07 -5.773246e-08 2.075437e-07 5.284167e-07 2.835399e-08 3.500512e-08
2.026649e-07 -4.013671e-08 4.381525e-07 5.479410e-07 -7.682285e-08 -1.543179e-07
3.803145e-07 -4.526779e-08 2.540427e-07 4.650843e-07 -4.992826e-08 -4.320611e-08
5.553845e-08 9.959761e-09 -2.379303e-08 6.683327e-09 3.852576e-10 1.243125e-09
5.398981e-08 1.329627e-08 -2.355641e-08 9.417846e-09 8.816967e-10 8.417489e-10
8.193420e-07 -3.726557e-07 -1.435635e-09 -3.498197e-08 1.548526e-09 -4.384638e-08
5.329491e-08 1.439277e-08 -2.386334e-08 1.173185e-08 1.289717e-09 3.081395e-09
1.541203e-07 1.025071e-07 -1.084706e-07 -1.799868e-07 1.100628e-07 -9.190003e-08
5.241001e-07 -1.620799e-07 -7.566174e-08 2.073849e-07 -2.859340e-08 -2.422695e-08
6.140349e-08 9.068097e-09 -2.804478e-08 1.235444e-08 6.740661e-10 3.228129e-09
2.521866e-09 9.819574e-08 -8.543274e-08 7.795155e-09 -5.784096e-09 -1.444543e-09
5.479647e-07 -2.809074e-07 3.823850e-07 2.887811e-07 8.069452e-09 2.734459e-08
7.394104e-08 -8.573047e-09 -2.454183e-08 -6.698744e-09 -3.357755e-09 5.229926e-09
9.043584e-08 -1.598262e-08 -3.261366e-08 -5.094285e-09 -1.584087e-09 8.544097e-10
5.554414e-08 1.364584e-08 -3.067996e-08 1.730531e-08 2.510044e-09 -2.401523e-10
4.177282e-07 -8.474726e-08 2.178762e-07 4.132356e-07 -7.597623e-09 -7.882387e-08
5.786318e-08 1.208355e-08 -3.283694e-08 1.568630e-08 5.805600e-10 -1.289277e-09
2.978991e-07 2.115702e-08 -2.010812e-07 1.283544e-07 -4.239280e-08 -1.511862e-08
1.905626e-07 1.105215e-07 -1.502943e-07 2.369818e-07 -4.588510e-09 -2.028722e-09
3.715064e-08 1.057632e-07 -1.068128e-07 2.082362e-08 -6.895411e-09 -3.746545e-09
5.985303e-08 9.308646e-09 -3.118127e-08 1.366580e-08 2.139459e-09 9.725082e-10
-4.866810e-08 1.806794e-07 -9.928306e-08 -2.750150e-08 4.020368e-08 -1.231675e-08
-4.586677e-08 1.838658e-07 -9.794622e-08 -2.247726e-08 1.224600e-08 -1.428437e-09
9.347729e-09 8.790168e-08 -6.867856e-08 4.238989e-08 1.596737e-08 8.003360e-09
-3.711432e-08 1.359387e-07 -8.167048e-08 -1.184888e-08 1.933021e-08 -5.739166e-09
6.013756e-08 4.247197e-08 -5.900388e-08 6.061749e-08 1.606718e-08 1.106743e-08
-3.792411e-08 1.407372e-07 -8.115541e-08 -2.880308e-08 3.049980e-08 -5.171578e-09
-4.591831e-08 1.534620e-07 -8.178116e-08 -1.588613e-08 2.209674e-08 -3.377060e-09
7.181117e-08 -5.158791e-09 -2.551369e-08 1.379429e-08 3.789851e-09 8.910762e-09
-6.349392e-08 2.132072e-07 -1.093055e-07 -2.496100e-08 2.024384e-08 -2.508699e-09
5.314936e-08 3.788691e-08 -4.613844e-08 4.044127e-08 1.117680e-09 1.394728e-09
9.640794e-08 -1.511010e-08 -4.218269e-08 -1.752126e-08 -1.922428e-09 7.401700e-09
-4.208114e-08 1.582442e-07 -9.027983e-08 -9.137387e-09 3.246864e-08 -2.516014e-09
-5.029725e-08 1.741056e-07 -9.479631e-08 -3.573418e-08 3.527544e-08 -1.006113e-08
-9.384599e-09 3.056536e-08 -4.368821e-08 -1.468688e-08 9.593769e-08 -5.114300e-08
2.215881e-08 6.792719e-08 -8.829969e-08 -5.444498e-08 7.628350e-08 -4.985118e-08
9.401101e-08 2.217570e-08 -1.202795e-07 -9.092525e-08 8.208964e-08 -6.469656e-08
5.242365e-08 4.701085e-08 -1.030800e-07 -6.291331e-08 8.736132e-08 -6.193357e-08
-2.052008e-08 8.248940e-08 -3.322259e-08 7.714506e-09 1.907165e-08 8.409246e-09
-1.981212e-08 7.134036e-08 -3.704421e-08 2.366468e-08 5.551389e-08 2.189361e-08
1.715160e-07 1.552655e-07 -1.730069e-07 2.455107e-07 -1.814286e-08 -2.815815e-08
2.019763e-07 6.203987e-08 -1.124321e-07 2.368786e-07 -7.267633e-08 -4.315134e-08
3.726613e-08 2.466737e-08 -2.171989e-08 2.420775e-09 2.699227e-10 7.340879e-10
4.197560e-08 2.130604e-08 -2.064030e-08 3.640997e-09 3.337159e-10 1.126668e-09
-1.996861e-07 4.288471e-07 -1.038786e-07 1.100834e-07 -1.075725e-07 -2.640168e-08
3.322554e-08 2.922215e-08 -2.479794e-08 4.042290e-09 2.969125e-10 2.721133e-09
2.060098e-07 9.606708e-08 -1.787535e-07 1.415504e-07 -1.731130e-08 -1.146682e-08
8.213497e-08 -1.026399e-08 -2.939123e-08 1.885875e-09 9.209070e-10 5.137526e-10
2.182196e-07 6.243345e-08 -1.417205e-07 2.175711e-07 -5.296920e-08 -3.735725e-08
4.713016e-08 2.622387e-08 -3.554663e-08 -1.273173e-08 -1.599733e-09 1.629436e-09
4.772042e-08 2.470442e-08 -4.369112e-08 -2.499821e-08 -2.494281e-09 3.120061e-09
4.749309e-08 2.689775e-08 -3.554769e-08 -1.886475e-08 -1.604233e-09 1.915893e-09
5.005070e-08 2.256879e-08 -3.501916e-08 -1.478128e-08 -2.366791e-10 3.365581e-09
8.402403e-08 -1.183634e-08 -3.003248e-08 1.964790e-09 -8.337098e-11 5.447949e-10
9.642726e-08 -1.541922e-08 -3.713984e-08 1.002533e-08 -4.226351e-11 1.395386e-09
8.582191e-08 -1.099130e-08 -3.201253e-08 5.650142e-09 4.745924e-10 5.952055e-10
1.024733e-07 -2.330069e-08 -4.653830e-08 6.719643e-09 -4.678560e-10 -6.498802e-11
8.132297e-08 -8.791634e-09 -2.963214e-08 8.838210e-09 7.305925e-10 -6.943331e-10
5.006965e-08 2.261483e-08 -3.127654e-08 -1.475173e-08 -1.685359e-09 2.461219e-09
8.615900e-08 -1.556357e-08 -2.912574e-08 8.505398e-10 7.288441e-10 1.292047e-09
8.206501e-08 -1.040263e-08 -3.056630e-08 6.414085e-09 8.304204e-10 6.689193e-09
5.208829e-08 2.138973e-08 -4.515627e-08 -2.524885e-08 7.428176e-10 2.764189e-10
7.935020e-08 -6.436643e-09 -3.321431e-08 1.329527e-08 1.877141e-09 5.276730e-09
6.468103e-08 1.607614e-09 -2.589185e-08 3.212205e-09 9.632790e-10 1.179758e-09
5.670461e-08 2.409958e-08 -3.572028e-08 -2.423415e-08 -3.333284e-09 4.904248e-09
5.265804e-08 2.022885e-08 -2.935745e-08 -1.663413e-08 -3.897525e-09 4.444206e-09
7.689674e-08 -6.238359e-09 -2.868562e-08 1.686946e-09 7.163460e-10 2.885865e-10
7.780046e-08 -5.739870e-09 -2.963214e-08 6.732148e-09 -9.905405e-12 7.622490e-10
7.197808e-08 -4.130232e-09 -2.580604e-08 1.346441e-09 1.582857e-09 1.004820e-09
9.618124e-08 1.123240e-07 -1.356216e-07 -1.525416e-07 6.227937e-08 -2.675884e-08
7.719561e-08 -6.254110e-09 -2.668860e-08 1.381654e-09 2.135916e-10 1.134878e-09
5.520097e-08 9.039953e-09 -2.087069e-08 -9.085470e-10 2.751639e-10 -4.999987e-19
4.144065e-08 2.090827e-08 -2.305687e-08 -7.342322e-10 -2.827298e-10 2.386883e-09
1.978386e-08 7.445834e-08 -7.142088e-08 -2.361861e-08 -1.084926e-08 1.352778e-08
1.925215e-08 6.186720e-08 -4.814952e-08 -1.791230e-08 -9.776631e-09 1.587834e-08
1.965711e-07 7.288812e-08 -1.605231e-07 -1.837041e-07 3.331419e-08 -2.203916e-08
1.779019e-07 7.299032e-08 -1.422860e-07 -1.823209e-07 3.992451e-08 -2.644412e-08
4.971215e-08 3.003738e-08 -5.473360e-08 -3.699665e-08 -1.176714e-08 1.198806e-08
5.404056e-08 1.627682e-08 -2.580521e-08 -1.171304e-08 -2.651766e-09 3.728461e-09
-5.037129e-08 2.456344e-07 -1.368347e-07 -1.093047e-07 -7.645314e-08 2.490316e-08
-3.938434e-08 2.184115e-07 -1.277316e-07 -8.818935e-08 -4.982365e-08 3.526318e-08
-4.070193e-08 1.686817e-07 -1.112751e-07 -2.502914e-08 -2.301910e-08 4.139592e-09
-5.287862e-08 1.969709e-07 -1.179081e-07 -6.008254e-08 -4.654981e-08 5.244511e-09
6.821267e-08 1.204240e-09 -2.894775e-08 -8.946909e-09 -1.699296e-09 7.094476e-10
-5.119146e-08 2.694044e-07 -1.374437e-07 -8.107601e-08 -6.183116e-08 2.410673e-08
1.076999e-08 1.133695e-07 -8.769854e-08 -5.541330e-08 -7.158616e-09 1.634636e-09
-1.778024e-08 9.801652e-08 -7.732871e-08 -2.019712e-08 -3.092483e-08 2.366188e-08
4.925187e-08 1.660775e-08 -2.887625e-08 -1.081762e-08 7.846616e-11 8.348197e-10
4.988745e-08 1.362418e-08 -1.955022e-08 -3.493398e-10 -8.263612e-11 -1.964243e-10
4.241907e-08 2.418281e-08 -3.021241e-08 -5.525559e-09 -4.800984e-11 5.096289e-09
3.207948e-08 4.216055e-08 -4.097914e-08 -5.048029e-09 -4.520844e-16 7.919072e-10
4.719389e-08 2.388990e-08 -3.080020e-08 -1.036598e-08 -6.913382e-11 5.979644e-10
4.139589e-08 2.301768e-08 -2.824438e-08 -1.967082e-09 -3.846199e-10 3.825428e-09
5.411391e-08 1.057703e-08 -2.061138e-08 -3.999813e-09 -8.587344e-10 3.687702e-10
-3.481066e-08 1.737317e-07 -1.271412e-07 -7.268731e-08 -1.826671e-08 1.028572e-08
-1.009933e-07 3.207591e-07 -1.498410e-07 5.071499e-08 -3.639270e-08 -4.225843e-09
-5.278162e-10 2.201353e-07 -1.291045e-07 -2.141177e-07 -5.014690e-08 5.036130e-08
-5.653500e-08 2.230054e-07 -1.250213e-07 2.725573e-08 -3.937371e-08 -8.038743e-09
-6.798112e-08 2.250403e-07 -1.248826e-07 3.204505e-08 -3.997913e-08 -8.494326e-09
-8.481460e-08 3.310847e-07 -1.504106e-07 3.716606e-08 -2.852258e-08 -1.131122e-08
-7.425942e-08 2.521592e-07 -1.330030e-07 1.070258e-08 -5.198469e-08 -6.427256e-09
-7.244660e-08 2.209083e-07 -1.276584e-07 3.920957e-08 -5.135136e-08 -9.085168e-09
-7.240758e-08 2.585926e-07 -1.417786e-07 1.563824e-08 -2.440097e-08 1.995559e-09
2.068164e-08 6.111076e-08 -5.010878e-08 -4.817123e-09 -1.457255e-09 5.146667e-09
-4.017434e-08 1.484424e-07 -9.642262e-08 3.186401e-09 -5.976876e-09 -8.482923e-09
-1.019928e-08 2.098876e-07 -1.292864e-07 -1.130777e-07 -1.139841e-08 1.308511e-08
-1.903441e-08 2.362398e-07 -1.400295e-07 1.293133e-07 -6.852989e-08 -2.810782e-08
8.292460e-08 -6.513789e-09 -3.303241e-08 -8.218665e-09 -1.802665e-10 1.722834e-09
-1.534248e-08 1.682072e-07 -1.251559e-07 -7.227613e-08 -9.939511e-09 -4.433006e-09
1.488059e-09 1.128747e-07 -8.642136e-08 -3.108451e-08 -5.273290e-09 2.777734e-09
7.503149e-08 -4.642758e-09 -3.199631e-08 -1.268952e-08 -1.786776e-09 4.968835e-09
-3.521929e-08 1.635512e-07 -1.094286e-07 -5.364548e-09 -2.089318e-08 7.550044e-09
8.869439e-08 -1.122691e-08 -3.612648e-08 -1.251198e-08 -1.619556e-09 2.083467e-09
-3.426802e-08 1.328196e-07 -1.004006e-07 -4.355192e-08 -9.709135e-08 3.377281e-08
-6.445461e-09 4.315639e-08 -3.898777e-08 -1.800052e-09 -1.350577e-08 2.076072e-08
-3.172946e-08 1.735402e-07 -1.065022e-07 -7.007648e-08 -3.918011e-08 1.093059e-08
8.348715e-08 -9.078338e-09 -3.145487e-08 5.651852e-09 1.796732e-09 2.437319e-09
-4.401889e-08 1.866620e-07 -1.208236e-07 -3.687584e-09 -2.176370e-09 2.230643e-09
-5.483608e-08 1.519622e-07 -1.035854e-07 -2.342764e-08 -1.120303e-07 2.807407e-08
8.724035e-08 -1.434180e-08 -3.344892e-08 8.006881e-09 1.974697e-09 5.829844e-09
-1.222467e-07 3.336374e-07 -1.489849e-07 9.072397e-08 -8.833082e-08 -2.936839e-08
9.169482e-08 -1.296815e-08 -3.197669e-08 7.678298e-09 1.173807e-10 3.211311e-09
9.884320e-08 -1.628547e-08 -3.892470e-08 1.182974e-08 3.200743e-09 2.636666e-09
-2.315563e-07 1.873845e-07 8.928104e-07 6.246789e-07 -2.344472e-08 -1.438874e-08
-7.737523e-07 -2.118518e-07 2.030705e-06 8.509191e-07 2.435565e-07 2.506322e-07
-1.458881e-08 9.594964e-08 -7.822042e-08 -7.824554e-09 -1.148848e-08 1.326974e-08
-4.101793e-08 1.816549e-07 -1.188720e-07 -4.733063e-09 -4.416752e-16 -2.550083e-10
8.905822e-08 -1.262911e-08 -3.558884e-08 6.334874e-09 8.734296e-10 7.979658e-10
-5.830753e-08 2.646752e-07 -1.362144e-07 -3.814796e-08 -1.650782e-08 3.461088e-09
-3.329595e-08 1.668342e-07 -1.123593e-07 -6.566085e-09 4.302387e-16 1.054709e-09
-2.380471e-08 1.190244e-07 -8.818810e-08 -5.774202e-09 -3.577350e-09 9.393888e-09
1.681769e-07 1.025071e-07 -1.723849e-07 -1.894000e-07 4.205370e-08 -4.554421e-08
3.024801e-07 1.179255e-09 -1.488651e-07 -2.197929e-07 3.793256e-08 -4.010543e-08
2.847575e-07 1.606040e-09 -1.239444e-07 -2.240012e-07 2.873906e-08 -8.571089e-09
1.242719e-08 -7.547533e-08 -6.924493e-09 1.324705e-08 3.494539e-08 -6.954513e-08
2.756226e-07 -4.680099e-09 -2.025746e-07 -2.939211e-08 2.474049e-08 6.559534e-10
4.557610e-08 2.430133e-08 -6.024294e-08 -1.173256e-08 7.913053e-08 -3.147245e-08
6.581849e-07 -3.593553e-07 9.589170e-08 -8.449484e-08 -3.188760e-08 3.260992e-08
7.222469e-07 -3.604418e-07 2.943391e-08 -2.138086e-07 -1.292495e-08 -4.815695e-08
1.705565e-07 2.236975e-08 -1.229885e-07 -9.725095e-08 1.031174e-07 -7.559159e-08
-4.128239e-09 2.154783e-07 -1.278530e-07 -1.338793e-07 5.015763e-08 -2.415437e-08
-1.869143e-06 -2.355104e-06 7.871410e-06 -9.225174e-08 1.104179e-07 -7.929529e-08
3.481799e-07 -6.312424e-08 -1.372624e-07 -1.607829e-07 5.000502e-08 -4.865081e-08
6.229907e-07 -2.402035e-07 -1.924877e-07 -5.549658e-09 -1.415187e-09 -1.229755e-08
-7.977803e-10 1.575656e-07 -1.209197e-07 -1.086205e-07 4.778777e-08 -1.516195e-08
7.278741e-07 -3.726557e-07 -1.435630e-09 -2.688935e-08 5.634253e-09 -6.693611e-08
-3.198324e-08 3.042276e-07 -1.089889e-07 -1.809069e-07 4.510343e-08 -1.654582e-08
-4.763271e-08 2.877906e-07 -1.029529e-07 -2.007305e-07 4.385864e-08 -2.516238e-08
-2.329433e-08 -3.766331e-08 -3.875682e-08 -3.863050e-09 1.156578e-07 -6.095372e-08
-7.837559e-08 2.885507e-07 -1.284433e-07 -1.508425e-07 3.431841e-08 2.971892e-10
-9.791987e-08 3.711985e-07 -9.960316e-08 -1.875547e-07 1.934720e-08 -1.384255e-08
-4.377884e-08 2.745900e-07 -1.270328e-07 -1.532772e-07 3.030351e-08 -9.880952e-09
1.982533e-08 1.830078e-07 -1.359051e-07 -1.583574e-07 1.263534e-08 -1.642138e-08
-4.398652e-08 2.525728e-07 -9.686563e-08 -2.353794e-07 3.455734e-08 -1.692892e-08
5.756755e-08 9.247079e-09 -2.275971e-08 5.440896e-09 1.158256e-09 1.520026e-09
5.169710e-08 1.222100e-08 -2.106610e-08 4.103210e-09 8.705150e-10 8.919759e-10
4.394949e-07 -2.607717e-07 -3.348245e-08 1.416860e-07 -8.535840e-08 -1.297988e-08
5.254376e-08 1.096050e-08 -2.040542e-08 1.132945e-09 4.597972e-10 5.188175e-10
-6.105778e-09 7.060566e-08 -6.463565e-08 9.181074e-09 -3.774770e-08 -6.454691e-09
1.098536e-07 4.492982e-08 -1.448753e-07 1.415021e-08 -6.615840e-08 -2.747504e-09
-2.535707e-10 1.249464e-07 -9.833256e-08 3.796506e-08 -6.076246e-09 -1.268402e-09
5.768554e-08 6.360020e-09 -2.201388e-08 1.056088e-09 7.074297e-10 3.760491e-10
-2.695403e-08 5.297564e-08 -4.569692e-08 -5.704866e-09 -7.041874e-08 -3.451168e-08
5.916145e-08 6.858857e-09 -2.109516e-08 1.712108e-09 8.269485e-10 1.945805e-10
1.295790e-08 1.361067e-07 -1.349987e-07 7.452190e-08 -1.624900e-08 -6.767315e-09
5.572105e-08 9.472566e-09 -2.074608e-08 1.318729e-09 1.771556e-10 9.189203e-10
8.216355e-08 -1.440017e-08 -2.592194e-08 7.462003e-09 1.175728e-09 6.844735e-09
8.551854e-08 -1.813082e-08 -2.487799e-08 1.271408e-09 4.827882e-10 2.388601e-09
-1.395301e-08 8.030362e-08 -4.809139e-08 -2.740476e-09 -6.543123e-09 -3.138310e-09
9.421074e-08 -1.916290e-08 -3.320922e-08 1.465100e-09 -4.485298e-10 5.825348e-09
8.553922e-08 -1.556296e-08 -2.647033e-08 8.491402e-10 7.775275e-10 2.057665e-09
-7.050925e-09 8.523514e-08 -5.903930e-08 3.937075e-09 -3.321726e-08 -3.586652e-09
9.320409e-08 -1.841066e-08 -2.836519e-08 5.398285e-09 1.217909e-09 7.027532e-09
9.035053e-08 -1.906939e-08 -3.001628e-08 4.062531e-10 1.841990e-10 2.120241e-09
-1.149954e-06 1.385413e-07 2.571232e-06 3.030645e-07 -4.374229e-08 8.255448e-08
3.434158e-08 -4.525251e-08 -5.806766e-08 3.604478e-08 -9.246516e-08 -4.069737e-08
-1.303360e-06 -6.630013e-07 4.290544e-06 6.000349e-07 -6.264733e-07 -3.919484e-07
-5.293877e-07 -1.088641e-06 3.161454e-06 7.897094e-07 -1.284429e-07 -6.785540e-07
-9.499168e-07 -1.095560e-06 4.574394e-06 7.288568e-07 -1.143429e-07 -1.479775e-07
1.995199e-07 1.235170e-07 -1.325195e-07 3.294784e-07 -1.877987e-08 -3.268189e-08
5.587845e-08 1.204389e-07 -1.215680e-07 1.058507e-07 -1.059709e-07 -5.636725e-08
-5.850364e-09 8.334215e-08 -7.254392e-08 7.535529e-10 -1.767197e-08 -3.207039e-09
-1.474088e-06 -1.054919e-07 3.681780e-06 -3.661775e-07 1.549688e-07 -7.552909e-09
4.376056e-07 -7.841589e-08 3.163508e-07 -4.902915e-07 -6.974410e-08 5.964949e-08
-7.036376e-07 -3.053671e-07 2.403818e-06 7.161480e-07 -3.876417e-07 -3.645582e-07
-1.379515e-06 -5.506993e-07 3.644727e-06 6.293365e-07 -4.674385e-07 -4.438156e-07
-4.909029e-08 1.987471e-07 -1.280654e-07 1.984484e-08 -6.495273e-09 -7.949862e-09
-2.863002e-08 1.632093e-07 -1.133169e-07 -1.285462e-08 -2.386957e-09 6.845287e-09
-8.132087e-08 2.907270e-07 -1.491532e-07 -7.166004e-08 -2.542035e-08 1.454047e-08
-5.160417e-08 2.273698e-07 -1.010002e-07 -3.903976e-08 -5.967499e-08 1.609897e-08
-5.478740e-08 2.183298e-07 -1.405854e-07 -9.602474e-09 -1.517913e-08 -4.322584e-09
-5.550059e-08 2.148556e-07 -1.215881e-07 -2.364549e-08 -4.303087e-08 2.822501e-09
-5.977280e-08 2.430630e-07 -1.404453e-07 -5.699323e-08 -3.107535e-08 -9.584819e-11
-2.260740e-07 4.875033e-07 -8.056069e-08 1.867820e-07 -5.023526e-08 -2.075801e-08
-7.253457e-08 2.503664e-07 -1.342986e-07 -1.755368e-08 -4.406938e-08 -2.566383e-09
-9.226069e-08 3.044853e-07 -1.407767e-07 -5.232544e-09 -6.440417e-08 -1.432096e-09
-1.214076e-07 3.649572e-07 -1.103277e-07 -1.062308e-07 -7.641391e-08 2.018927e-08
-1.095811e-07 2.881152e-07 -1.518383e-07 -3.117554e-08 -5.827631e-08 2.939998e-09
1.057283e-07 -1.780496e-08 -4.291747e-08 1.637219e-08 9.011661e-10 7.118230e-09
-1.506488e-07 3.755769e-07 -1.173229e-07 1.805406e-07 -9.766978e-08 -3.246769e-08
1.352127e-07 -2.479958e-08 -5.765136e-08 2.234647e-08 2.744458e-09 1.554349e-08
-9.040416e-08 3.156077e-07 -1.442752e-07 9.375432e-08 -7.646711e-08 -1.123974e-08
-2.018277e-07 4.408803e-07 -1.144351e-07 6.415743e-10 -3.478061e-08 -2.261078e-09
1.615293e-07 -3.979606e-08 -8.677062e-08 4.082820e-08 2.899887e-09 1.320436e-08
-1.030935e-07 2.831850e-07 -1.285764e-07 -8.476429e-08 -7.239146e-08 1.867908e-08
-5.332609e-08 1.660070e-07 -1.180847e-07 -2.535057e-08 -3.622750e-08 8.116176e-09
1.931189e-08 1.302544e-07 -1.127273e-07 -9.333227e-08 -2.355081e-08 1.267246e-08
-2.973045e-08 2.183396e-07 -1.396984e-07 -1.145490e-07 -1.682448e-08 -2.552052e-09
1.249592e-07 -2.184860e-08 -5.117083e-08 2.561280e-08 6.101762e-09 1.946387e-08
-4.740221e-08 1.995850e-07 -1.411953e-07 -5.782975e-08 -2.411022e-08 9.520866e-09
-2.847740e-07 5.117171e-07 7.091227e-08 -1.368609e-07 -1.126046e-07 4.306834e-09
1.287369e-07 -2.559536e-08 -6.256663e-08 2.791812e-08 -6.336106e-10 2.168447e-08
9.998407e-08 -1.718777e-08 -5.171246e-08 2.176684e-08 3.065364e-09 1.313789e-08
2.372459e-07 5.214782e-08 -1.831658e-07 -1.338369e-07 2.054434e-08 1.590922e-08
9.930199e-08 -1.431273e-08 -4.116240e-08 1.719766e-08 4.135389e-09 1.042493e-08
1.785383e-07 7.451302e-08 -1.631541e-07 -1.585042e-07 5.012188e-08 -4.903586e-08
1.080023e-07 -2.044382e-08 -4.855645e-08 1.642276e-08 5.996582e-09 1.011158e-08
6.537070e-08 2.352299e-07 1.654802e-08 -3.085870e-07 5.680122e-08 -1.514322e-08
-4.451322e-08 2.607983e-07 -1.351263e-07 1.315114e-07 -6.521477e-08 -3.296476e-08
-1.691192e-08 4.488130e-08 -3.133042e-08 -1.490774e-09 4.675866e-08 -1.751068e-08
3.623689e-07 -4.351956e-08 -2.242028e-07 1.521402e-07 -5.066783e-08 9.264218e-09
3.392572e-07 -3.688589e-08 -1.145284e-07 2.643225e-07 -3.768089e-08 -2.635387e-08
4.455671e-07 -7.537194e-08 -1.645666e-07 1.845746e-07 -5.416307e-08 -5.210264e-08
-1.487997e-07 4.273665e-07 -9.295781e-08 1.992427e-07 -6.820708e-08 -1.342860e-08
2.474150e-08 7.828947e-08 -7.428747e-08 -3.192865e-08 6.289630e-08 -2.394551e-08
6.058658e-08 6.750912e-08 -1.071086e-07 -5.247250e-08 6.873463e-08 -3.332890e-08
-1.349635e-08 9.258418e-08 -4.562639e-08 1.982366e-08 2.835473e-08 1.245764e-08
-2.515510e-08 9.188020e-08 -4.672416e-08 1.506246e-08 3.145212e-08 1.091958e-08
-2.447763e-08 9.986091e-08 -6.350826e-08 1.889680e-08 4.887902e-08 1.312203e-08
-1.513729e-08 1.000776e-07 -7.311064e-08 3.811061e-08 5.260171e-08 1.164841e-08
-3.719089e-09 8.340356e-08 -8.012769e-08 -3.208472e-08 5.681447e-08 -2.812575e-08
-1.554588e-08 5.959925e-08 -4.372502e-08 -1.201011e-08 5.915251e-08 -1.457996e-08
-2.227407e-08 1.372029e-07 -6.545515e-08 3.189007e-08 3.505030e-08 1.229751e-08
-1.393614e-08 7.990242e-08 -4.995890e-08 2.390250e-08 3.578032e-08 1.018533e-08
-1.355514e-08 8.813156e-08 -6.438491e-08 2.742860e-08 4.203321e-08 1.751954e-08
2.516034e-08 1.231914e-07 -1.087487e-07 -5.771242e-08 8.693229e-09 -5.702293e-09
4.250193e-08 1.719969e-07 -1.415458e-07 -1.470760e-07 4.775633e-08 -2.713841e-08
1.062250e-07 -1.491037e-08 -4.377504e-08 -2.143640e-08 -6.768608e-10 8.014835e-09
6.593251e-08 1.083183e-07 -1.408049e-07 -9.180297e-08 1.151266e-08 -9.403843e-09
-1.021023e-08 9.148929e-08 -5.409438e-08 -1.324187e-08 -8.268031e-11 -8.146710e-10
2.620482e-08 8.201354e-08 -8.244536e-08 -5.240555e-09 2.931661e-08 -3.905002e-09
1.973233e-08 1.198103e-07 -8.567098e-08 -6.137804e-08 5.855585e-08 -3.034299e-08
-1.397569e-09 2.176288e-07 -1.300890e-07 -1.474025e-07 2.891498e-08 -4.553689e-09
2.415547e-07 1.188713e-08 9.398601e-08 -3.329555e-07 3.915411e-08 -1.295971e-08
-3.689323e-08 1.350635e-07 -7.526428e-08 5.222029e-09 1.729080e-08 -1.462056e-10
1.125136e-07 -1.930692e-08 -5.099422e-08 -2.194061e-08 6.398610e-10 1.513200e-08
-3.966687e-08 1.802964e-07 -1.238674e-07 -3.538407e-08 -9.169233e-09 1.508814e-09
9.637795e-08 -1.599997e-08 -3.604997e-08 -5.968327e-09 -7.997827e-10 6.496519e-09
1.566337e-08 1.409413e-07 -1.174181e-07 -1.107190e-07 -2.383116e-08 1.702218e-08
3.887392e-08 2.719755e-08 -3.600656e-08 -2.375612e-08 -1.051689e-08 8.878514e-09
1.157565e-07 -9.007322e-07 1.934094e-06 -4.988906e-07 3.589513e-08 -5.306835e-08
7.732743e-08 -3.937872e-09 -2.699644e-08 -9.459785e-09 -1.783335e-09 4.184531e-09
6.871235e-08 3.271585e-08 -6.749300e-08 -5.586631e-08 1.137760e-10 9.545807e-09
3.953146e-08 5.348039e-08 -6.223817e-08 -4.545281e-08 -1.504274e-08 1.203123e-08
8.650634e-08 -1.016950e-08 -3.515384e-08 -1.406602e-08 -5.699250e-10 1.097457e-09
3.979272e-08 1.647450e-07 -1.305030e-07 -1.560664e-07 -2.194890e-08 2.095635e-09
1.004071e-07 -1.653005e-08 -4.013794e-08 -1.026111e-08 2.057261e-10 6.487604e-09
9.720642e-08 -1.661790e-08 -3.972924e-08 -1.080110e-08 -2.578900e-09 2.493442e-09
4.163541e-07 -1.431945e-07 -3.865679e-08 -3.172040e-07 2.200089e-08 -3.339418e-08
3.534538e-07 -1.010360e-07 -1.235545e-07 -1.920817e-07 4.593149e-08 -7.299276e-08
-7.010136e-08 2.910719e-07 -1.551952e-07 1.266360e-07 -7.343128e-08 -2.467915e-08
1.707596e-08 1.520874e-07 -1.138803e-07 -1.066623e-07 -1.632429e-08 2.006588e-08
2.519449e-08 9.872706e-08 -9.461860e-08 -7.732788e-08 -9.081430e-09 6.415961e-09
3.633737e-07 -1.109764e-07 2.931314e-07 -5.398677e-07 -3.376440e-08 1.098813e-07
4.552535e-07 -1.031025e-07 -1.876168e-07 -1.304429e-07 2.486179e-08 -1.411339e-08
-1.534248e-08 1.888301e-07 -1.251559e-07 -9.362612e-08 -1.672978e-08 9.626316e-09
-4.131426e-07 3.343242e-07 1.308015e-06 -6.667394e-07 2.912956e-07 -2.487399e-07
3.950377e-07 -1.053752e-07 4.970279e-08 -3.329419e-07 -2.783266e-08 1.445146e-08
1.836479e-07 1.074890e-07 -1.632266e-07 -1.845636e-07 1.951574e-08 -1.138983e-08
6.003255e-08 2.874286e-08 -5.536843e-08 4.604046e-08 -5.840609e-10 7.294519e-09
5.388253e-09 2.424761e-07 -1.074609e-07 2.658351e-07 3.045425e-08 1.924002e-08
-3.318724e-09 4.618723e-08 -2.935014e-08 6.313002e-09 1.927601e-08 1.351960e-08
1.032401e-07 3.409574e-08 -9.596634e-08 1.010143e-07 3.294352e-09 8.143142e-09
2.201458e-07 9.388020e-08 -1.003448e-07 -2.917506e-07 3.141106e-08 -4.184992e-08
3.530750e-07 -2.776491e-08 -1.697848e-07 -1.746083e-07 5.475186e-09 -1.144274e-08
1.679680e-07 1.367769e-07 -6.836017e-08 3.180147e-07 4.709108e-08 2.280227e-08
3.857784e-07 -5.544167e-08 -1.403655e-07 -3.397028e-07 -1.336360e-08 -3.196607e-08
2.871660e-08 4.180564e-08 -3.065173e-08 1.375007e-08 -1.460933e-09 1.087137e-09
2.652069e-07 5.019329e-08 -1.635238e-07 -2.447894e-07 3.314722e-08 -4.417962e-08
1.547540e-08 1.335519e-07 -1.008618e-07 1.193583e-07 3.937851e-08 3.409872e-08
4.569512e-08 2.318799e-08 -3.712112e-08 2.202193e-08 -4.436798e-10 3.762610e-10
4.319013e-08 2.973927e-08 -2.806750e-08 1.853904e-08 3.032718e-09 2.561377e-09
3.405807e-08 1.004805e-07 -9.504361e-08 1.027652e-07 9.602021e-09 5.985871e-09
5.409587e-09 6.434768e-08 -4.323425e-08 3.916025e-09 2.176565e-09 5.845411e-09
4.188749e-08 2.499480e-08 -2.736055e-08 1.281387e-08 1.319102e-09 -1.215318e-09
3.379711e-08 5.627105e-08 -6.259975e-08 5.211415e-08 2.826152e-09 2.377847e-09
8.190115e-09 6.774499e-08 -4.819501e-08 9.034983e-09 1.781335e-10 -2.027508e-09
9.210092e-08 -1.817423e-08 -3.212490e-08 -2.245065e-10 -7.549238e-10 4.673133e-10
5.870559e-08 1.901754e-08 -4.540374e-08 -2.956032e-08 -4.516322e-09 9.592831e-09
6.833828e-07 -2.402035e-07 -1.924877e-07 -9.752317e-09 7.170974e-10 -2.761798e-08
-4.156646e-07 -4.591577e-08 1.174407e-06 -7.957806e-07 5.994022e-07 -2.133838e-07
4.524865e-08 2.073540e-08 -2.967044e-08 1.631717e-08 1.524152e-09 1.256380e-09
3.907937e-08 2.492467e-08 -3.041228e-08 1.358825e-08 2.308007e-10 1.012152e-09
-5.692879e-08 2.044289e-07 -1.118094e-07 3.301728e-08 2.315950e-08 -5.858800e-09
-5.556604e-09 2.759024e-07 1.993466e-07 -4.805691e-07 4.063511e-08 -7.404314e-08
-1.823371e-08 2.556934e-07 -5.300440e-08 2.668107e-07 -8.627304e-08 -5.180213e-08
-3.166372e-08 1.387102e-07 -7.469648e-08 1.204812e-08 8.388430e-09 3.364270e-09
-2.407673e-07 5.974709e-07 1.331885e-08 -2.361502e-07 -5.682651e-08 1.050812e-08
-4.051791e-08 1.468337e-07 -8.179383e-08 1.157895e-08 2.486981e-08 4.068263e-09
-4.395741e-08 1.591323e-07 -1.004416e-07 2.768669e-08 2.329953e-08 3.852444e-09
-2.591160e-07 5.174595e-07 2.068744e-07 -4.119825e-07 -5.810939e-08 1.464778e-08
-1.914316e-07 4.454303e-07 3.057223e-08 -2.284196e-07 -1.175721e-07 1.710518e-08
-2.317579e-08 1.552817e-07 -1.257426e-07 5.903873e-08 -2.511365e-08 -1.421385e-08
-5.289670e-08 1.683299e-07 -1.182866e-07 -4.849492e-09 -3.178930e-08 6.114497e-09
-3.102790e-07 5.799216e-07 1.264849e-07 -2.448480e-07 -5.976561e-08 8.251549e-08
-5.885311e-08 1.673759e-07 -9.134568e-08 9.031636e-09 3.369513e-08 3.395879e-09
4.134722e-07 -1.241312e-07 -6.696536e-08 1.876543e-07 -1.472612e-08 -2.942690e-08
3.714130e-07 -1.100069e-07 -8.226963e-08 2.101363e-07 -5.619465e-08 -7.405079e-08
4.497285e-07 -5.591241e-08 -1.058639e-07 2.746092e-07 -3.424191e-08 -3.341528e-08
4.967004e-08 5.846155e-08 -7.144229e-08 6.327686e-08 1.866148e-08 1.199497e-08
2.032921e-07 -5.104453e-08 -9.315766e-08 4.568023e-08 1.336194e-08 3.361740e-08
3.535812e-07 -1.035960e-07 -8.026790e-08 1.103138e-07 -7.047999e-08 -1.123284e-07
6.470701e-07 -2.498440e-07 -9.435995e-08 1.996537e-07 -3.203918e-08 -7.002824e-08
5.498512e-07 -2.769084e-07 -9.756141e-08 4.384326e-08 7.836298e-10 -2.703473e-08
3.928253e-07 -7.572133e-08 -1.745191e-07 1.564728e-07 -2.508747e-08 -1.989884e-08
4.133216e-07 -1.283651e-07 -1.677224e-07 1.249192e-07 -2.957128e-08 -5.766700e-09
5.315228e-08 3.469847e-08 -5.071581e-08 4.436835e-08 6.664145e-09 -4.826029e-10
3.573686e-07 2.995969e-09 -1.601672e-07 2.325535e-07 -2.970510e-08 -4.315093e-08
4.314434e-07 -1.203751e-07 1.243384e-07 4.135195e-07 -8.162964e-08 -4.947473e-08
1.433953e-07 8.401601e-08 -1.297569e-07 1.768574e-07 2.713260e-08 1.352037e-08
5.492091e-08 1.428768e-08 -3.659749e-08 2.209548e-08 3.667675e-09 5.989069e-09
4.806205e-07 -1.508859e-07 -5.662089e-08 2.464558e-07 -2.936870e-08 1.209730e-08
5.219232e-07 -1.227464e-07 -1.465455e-07 1.509731e-07 -1.663508e-08 3.463974e-08
1.606744e-08 1.025066e-07 -8.165598e-08 -4.304223e-08 2.387573e-08 -1.035530e-08
5.433040e-08 1.604601e-08 -3.717472e-08 2.029866e-08 4.113846e-10 -8.397878e-10
4.067451e-08 1.045529e-07 -1.288912e-07 -6.931298e-08 1.576821e-08 -3.662589e-09
1.710289e-08 1.010866e-07 -9.668115e-08 -6.536588e-08 6.566165e-08 -4.166979e-08
6.358155e-08 1.013838e-07 -9.640514e-08 -6.122787e-08 6.623989e-08 -3.669346e-08
4.958506e-07 -4.780854e-07 8.889229e-07 5.268672e-07 1.571987e-07 2.099170e-07
-9.207211e-08 3.482824e-07 -1.164901e-07 1.832280e-07 -1.680781e-08 -6.928440e-09
-1.295623e-07 2.959810e-07 -1.271812e-07 1.281338e-08 -9.551687e-08 1.101423e-10
-1.994425e-06 -5.933491e-07 5.185768e-06 1.387216e-07 1.981347e-07 9.531590e-08
-2.018393e-07 5.781536e-07 -1.144351e-07 -1.495779e-09 -4.519154e-08 -1.910696e-09
-6.261163e-07 4.749096e-07 1.291285e-06 -4.687644e-07 1.337655e-07 -2.508068e-07
-2.551819e-07 4.567752e-07 1.182364e-07 -4.165096e-07 1.418308e-07 7.501986e-09
2.383082e-08 7.742390e-08 -8.580073e-08 -3.500766e-08 6.275809e-08 -2.556143e-08
9.104328e-08 1.435364e-07 -1.186160e-07 -2.179762e-07 4.996608e-08 -2.077345e-08
-1.646401e-06 -5.985350e-07 5.185768e-06 1.416816e-07 2.007241e-07 7.257415e-08
-1.096990e-06 2.638485e-07 2.290850e-06 5.762114e-08 6.588313e-08 -1.238448e-08
6.468037e-07 -2.962735e-07 -1.272795e-07 -5.737156e-08 3.206340e-09 -3.776665e-08
9.031865e-08 1.367192e-07 -1.510489e-07 -1.528082e-07 8.304717e-09 -1.063706e-08
-8.683339e-07 -6.713125e-08 2.972331e-06 -6.441393e-07 7.414263e-07 -4.720113e-07
3.896968e-08 1.621282e-07 -1.283368e-07 -1.529990e-07 4.822742e-08 -2.740400e-08
-4.574255e-08 3.395110e-07 3.489582e-07 5.761209e-07 5.412879e-08 9.350585e-08
1.224582e-07 1.075518e-07 -1.189868e-07 -2.236481e-07 2.028341e-08 -8.771500e-09
-5.817026e-07 3.747312e-07 1.057291e-06 6.075128e-07 1.221979e-07 3.964994e-08
1.389640e-07 1.416575e-07 -1.435047e-07 -2.078126e-07 5.731926e-08 -4.054679e-08
9.618692e-08 1.125748e-07 -1.543503e-07 -1.525887e-07 1.917566e-08 -1.379414e-08
5.119290e-07 -2.281478e-07 -8.777981e-08 -3.300622e-08 -3.996082e-08 2.362379e-08
-1.189747e-06 1.067790e-07 2.622921e-06 -3.932106e-07 2.849520e-07 -3.469994e-07
-1.964822e-06 -3.979945e-07 5.009492e-06 -8.876624e-08 1.742348e-06 3.120286e-07
-8.718953e-07 5.760318e-08 1.576670e-06 -5.425436e-07 8.945077e-07 -2.506592e-07
-9.026629e-07 1.285261e-08 2.668643e-06 -5.887251e-07 6.428632e-07 -7.161300e-07
3.136476e-07 -4.146010e-07 9.125638e-07 6.476936e-07 -1.591017e-08 -4.530906e-08
-2.914049e-07 -2.065169e-07 2.021896e-06 7.729338e-07 2.591495e-07 2.118117e-07
-1.933598e-06 -6.693812e-07 5.105785e-06 -4.663551e-07 1.068013e-06 -8.147233e-07
-1.810862e-06 -2.759903e-07 3.864661e-06 7.611214e-08 6.357105e-07 -3.059885e-07
-1.409832e-06 -2.839446e-07 3.510966e-06 -4.722618e-07 -2.090925e-08 -1.300424e-07
3.542901e-08 -4.337429e-08 1.105573e-06 7.270249e-07 1.163832e-07 5.242221e-08
4.274511e-08 1.914987e-08 -1.883597e-08 4.981273e-10 6.768364e-11 1.447027e-10
4.294694e-08 1.985255e-08 -1.896056e-08 1.102894e-09 1.857698e-10 3.514611e-10
4.180935e-08 2.019623e-08 -1.894167e-08 5.071943e-10 6.929789e-11 -4.067570e-11
-3.033704e-07 4.938456e-07 4.743553e-08 -7.039725e-08 -9.521173e-08 6.627355e-09
4.178946e-08 2.003646e-08 -1.879771e-08 3.793939e-10 6.616052e-11 1.337206e-10
1.691073e-07 6.964122e-08 -1.301449e-07 -1.093946e-07 9.345932e-08 -6.665198e-08
9.525196e-08 -2.638529e-09 -1.149852e-07 -3.005626e-08 7.758225e-08 -3.382887e-08
-2.875742e-07 6.456547e-07 3.835213e-08 -1.818402e-07 -6.643811e-08 1.826358e-08
-4.730846e-08 1.716404e-07 -8.967666e-08 -1.137929e-08 -7.029924e-08 6.235123e-09
1.098065e-07 8.918926e-08 -1.408673e-07 -8.563715e-08 4.259609e-08 -2.186758e-08
2.093832e-08 9.937060e-08 -1.191407e-07 -6.624968e-08 4.303175e-08 -1.891400e-08
-3.554207e-09 9.429742e-08 -7.198529e-08 -3.686290e-08 4.704814e-08 -2.493016e-08
-1.112820e-06 -1.608229e-06 5.166291e-06 -4.304220e-07 -7.079231e-07 4.775542e-07
-1.103216e-06 -1.079735e-06 3.321154e-06 7.501492e-07 2.972197e-07 6.087094e-07
3.391517e-07 -4.780916e-07 6.979498e-07 6.813327e-07 9.398079e-08 4.753060e-07
2.689034e-09 9.095020e-08 -6.976666e-08 -3.300712e-08 4.747458e-08 -2.049328e-08
-3.039783e-07 -3.519478e-07 1.953228e-06 8.231578e-07 1.670362e-07 2.705057e-07
-4.553293e-08 3.389369e-07 3.392939e-07 5.760947e-07 -3.749782e-08 3.381480e-08
8.047530e-08 1.216994e-07 -1.328933e-07 -9.895992e-08 3.913908e-08 -2.293867e-08
-2.240104e-07 -5.846301e-07 1.999631e-06 8.089311e-07 2.158272e-07 3.411506e-07
-7.089947e-07 1.231067e-07 2.130510e-06 7.007573e-07 4.385546e-07 1.572894e-07
2.207738e-08 1.545821e-07 -1.546611e-07 1.124642e-07 -7.862913e-09 1.077011e-09
3.193563e-08 7.455497e-08 -9.001216e-08 -2.799819e-08 5.920011e-08 -1.912096e-08
1.022269e-07 2.281880e-08 -8.013142e-08 8.004449e-08 1.434071e-08 2.095687e-08
5.196318e-08 1.970108e-08 -2.942335e-08 2.031591e-08 2.848611e-09 3.678193e-09
-1.822660e-07 5.488118e-07 -3.709010e-08 1.571510e-07 -3.462663e-08 7.699832e-09
2.880883e-07 -1.008221e-07 -9.787429e-08 1.253776e-07 1.461663e-08 5.410865e-08
1.644570e-07 -3.478641e-09 -1.063829e-07 1.074263e-07 1.439883e-08 4.192526e-08
1.159746e-07 -2.737824e-09 -8.167330e-08 6.722324e-08 1.933651e-08 2.214020e-08
1.071086e-07 -5.472834e-09 -5.889052e-08 4.538746e-08 4.557895e-09 9.994422e-09
-1.520295e-09 9.656388e-08 -7.714483e-08 4.920796e-09 -3.419290e-09 -7.371797e-10
-5.765167e-09 8.927595e-08 -6.897479e-08 -9.894343e-10 -1.296140e-08 -4.860372e-09
1.150806e-07 -1.252281e-08 -6.840015e-08 4.680827e-08 1.259701e-08 1.659592e-08
1.215252e-07 -1.452233e-08 -7.629993e-08 5.395563e-08 6.351900e-09 1.965017e-08
-1.340695e-07 3.632484e-07 -1.369038e-07 1.371276e-07 -3.236291e-08 -1.639067e-08
9.229242e-08 -1.782087e-08 -3.164828e-08 2.798467e-10 -4.704704e-11 -2.633191e-20
8.314108e-08 -1.446808e-08 -2.936803e-08 8.707880e-09 4.473265e-10 1.000610e-08
-4.353090e-09 9.786220e-08 -7.738466e-08 1.078421e-08 -4.420308e-09 -4.017335e-09
1.257985e-07 -1.036546e-08 -6.776610e-08 4.963257e-08 8.217350e-09 6.203218e-09
9.940513e-08 -6.466579e-09 -5.571941e-08 -2.975014e-08 -3.047660e-09 1.875911e-09
-7.915653e-09 6.165195e-08 -4.182811e-08 -3.777026e-09 2.771921e-08 -8.450159e-09
2.559720e-07 -1.217785e-07 5.516673e-07 -5.966399e-07 6.737631e-08 -1.575198e-07
1.678732e-07 5.908318e-08 -6.836018e-08 3.668916e-07 3.458478e-08 3.852546e-08
2.852106e-08 1.323750e-07 -1.115554e-07 1.293962e-07 2.256322e-08 9.746788e-09
6.037850e-09 8.899495e-08 -7.286236e-08 -2.015874e-08 1.898903e-08 -9.758990e-09
-6.942510e-08 3.451504e-07 -1.241220e-07 1.736212e-07 -1.017487e-07 -4.044581e-08
3.253696e-09 9.338147e-08 -7.669017e-08 -2.826667e-08 8.377762e-09 -3.791609e-09
-6.327779e-09 2.574752e-07 -1.066615e-08 3.020988e-07 5.501760e-08 2.930093e-08
-1.598895e-08 7.456805e-08 -5.039681e-08 -8.349356e-09 2.668950e-08 -1.511767e-08
-6.404863e-09 9.323932e-08 -5.495593e-08 -2.244789e-08 2.505124e-08 -1.164621e-08
5.547439e-07 -3.722861e-07 1.555481e-07 1.324943e-08 -1.022665e-08 1.667320e-08
1.557614e-09 1.082947e-07 -8.519160e-08 -3.916839e-08 2.408065e-08 -1.640627e-08
7.305403e-10 1.070034e-07 -7.420477e-08 -4.021328e-08 2.945685e-08 -1.283949e-08
2.474888e-09 8.930100e-08 -6.863505e-08 -2.008778e-08 1.793981e-08 -6.985707e-09
1.840372e-07 6.385999e-09 -1.095688e-07 1.473124e-07 2.921923e-08 4.438084e-08
-6.879693e-09 8.945798e-08 -6.578266e-08 -2.033398e-08 1.864806e-08 -6.268003e-09
1.314079e-07 1.153382e-07 -1.152193e-07 2.280301e-07 4.122461e-08 3.721903e-08
2.089999e-09 6.549596e-08 -3.518534e-08 3.696553e-09 2.521733e-09 7.365637e-09
-1.031440e-08 7.481644e-08 -4.800396e-08 -6.475981e-09 1.667528e-08 -5.030283e-09
1.903460e-07 6.171776e-08 -1.016226e-07 2.356660e-07 2.974054e-08 3.441426e-08
3.722921e-07 -1.082700e-07 -1.191257e-07 -5.045684e-08 -4.151241e-09 2.917182e-08
6.093849e-08 5.868006e-09 -2.311253e-08 2.645745e-09 4.913101e-10 1.364820e-09
6.602831e-08 1.930920e-09 -2.382301e-08 4.129941e-09 8.090499e-10 1.902296e-09
-5.098229e-07 4.718818e-07 8.109247e-07 -4.999724e-07 -4.807191e-08 1.326522e-08
6.032404e-08 3.743076e-09 -2.064203e-08 4.258763e-09 1.991011e-09 1.258078e-09
-2.370618e-07 4.586197e-07 4.896309e-08 2.190062e-07 -9.580800e-08 -2.251275e-08
6.471246e-08 2.879148e-09 -2.443613e-08 -3.490190e-09 -7.747793e-10 3.439739e-10
6.739902e-08 1.797353e-10 -2.437483e-08 -1.429538e-09 -9.756709e-10 3.662177e-10
6.985189e-08 1.203571e-09 -2.495685e-08 -8.906746e-09 -1.650509e-09 3.310053e-09
6.497458e-08 2.627019e-09 -2.393549e-08 -5.636942e-09 3.972468e-11 1.966421e-09
-1.305997e-07 4.005385e-07 -5.139913e-08 -2.441843e-07 -4.185689e-08 -5.178901e-09
5.914667e-08 6.291586e-09 -2.262748e-08 -2.976468e-09 -6.123084e-10 3.023584e-10
7.049517e-08 -1.494462e-09 -2.538123e-08 -4.379092e-09 -3.858410e-10 8.073470e-10
6.855759e-08 -8.627792e-10 -2.543557e-08 -2.874897e-09 2.063603e-10 1.064878e-09
3.322053e-07 -8.399943e-08 -1.509281e-07 5.924767e-08 -7.317736e-08 -7.197008e-08
5.558460e-08 -8.167582e-08 -5.431478e-09 1.687192e-08 -1.441272e-08 -6.895464e-08
-7.596322e-07 6.615098e-07 1.008279e-06 1.229958e-07 1.586412e-07 1.711260e-08
1.747407e-07 -3.132773e-08 -1.235819e-07 1.031395e-07 -9.737052e-08 -9.324176e-08
6.978927e-08 9.694682e-08 -1.072012e-07 -1.163992e-07 -1.077455e-08 1.413124e-08
4.876605e-07 -1.724593e-07 -1.895910e-07 1.166468e-07 -6.589564e-10 -2.805255e-08
3.203661e-07 -7.994400e-08 -1.383668e-07 7.560689e-08 -6.560088e-08 -5.254331e-08
-2.024904e-08 2.215882e-07 -1.266264e-07 -1.560967e-07 -5.656825e-08 3.365730e-08
4.213655e-07 -7.244943e-08 -1.089034e-07 1.654257e-07 -5.917462e-08 -6.112445e-08
2.033144e-07 -1.019405e-07 2.912223e-08 8.876397e-08 -3.815896e-08 -5.902073e-08
4.807911e-07 -1.964460e-07 -1.419032e-07 4.899218e-08 -4.389041e-08 -7.541910e-08
2.658910e-08 1.146356e-07 -1.070943e-07 -9.653603e-08 -3.893203e-08 3.297139e-08
2.209138e-07 -8.726964e-08 -1.091532e-07 5.474910e-08 -1.062297e-07 -1.517352e-07
2.152936e-07 -1.456037e-07 -6.268319e-08 3.327738e-08 -7.111106e-08 -1.581359e-07
5.251559e-07 -2.384279e-07 -2.788018e-08 9.499219e-08 -1.313741e-08 -4.315858e-08
-4.783350e-08 -1.404230e-07 1.024193e-07 1.419973e-07 -4.390266e-08 -1.475768e-07
-1.659317e-08 5.513858e-08 -3.341468e-08 1.044568e-09 1.225112e-08 8.718033e-09
-2.740720e-08 2.949925e-07 -1.244503e-07 -2.323936e-07 -7.413710e-08 4.185862e-08
-1.219751e-08 7.155722e-08 -3.099327e-08 9.174768e-09 1.908298e-08 1.056295e-08
1.598572e-07 2.137409e-08 -1.207570e-07 -2.089470e-07 -1.770017e-09 1.892184e-08
-2.091472e-07 2.584029e-07 4.990850e-07 -6.018185e-07 -4.988008e-08 2.220328e-08
3.193929e-07 4.703059e-08 4.484210e-08 -4.021912e-07 -5.177577e-08 3.912353e-08
3.200600e-07 -6.476887e-08 -1.076331e-07 -1.889216e-07 -2.434306e-08 8.147286e-08
-1.795422e-08 7.913875e-08 -2.931296e-08 3.271411e-09 1.862553e-09 6.137810e-09
8.391709e-08 -1.317642e-08 -3.067667e-08 -5.394493e-09 -8.105650e-10 3.655025e-09
8.457196e-08 -8.679930e-09 -3.467486e-08 -1.288162e-08 -2.161974e-09 6.258765e-09
-6.350920e-07 -8.661491e-07 2.608096e-06 7.349848e-07 -4.499294e-07 -2.512053e-07
-2.915185e-07 4.602870e-07 1.800540e-07 2.418296e-07 1.410252e-08 -2.446673e-08
-1.144331e-07 3.180438e-07 -9.053301e-08 1.241807e-07 8.081994e-08 1.412138e-08
6.387272e-08 -4.041278e-07 1.299788e-06 7.062872e-07 -1.753616e-07 -1.381068e-07
9.670386e-08 -1.973226e-08 -3.670550e-08 -6.931551e-09 -2.621552e-09 5.659949e-09
-2.285888e-07 5.482295e-07 -2.064023e-09 1.419832e-07 4.463839e-08 6.567701e-09
1.026873e-07 -2.046175e-08 -4.131927e-08 -8.147742e-09 8.866101e-10 3.386700e-09
1.048374e-07 -2.119794e-08 -4.537542e-08 -7.629993e-09 -8.905883e-10 5.403794e-09
1.098384e-07 -2.221756e-08 -5.032232e-08 -1.432781e-08 -5.837707e-09 5.197825e-09
9.875778e-08 -1.550490e-08 -3.652792e-08 -1.223282e-08 -1.939030e-09 8.427992e-09
8.553684e-08 2.047277e-07 5.653224e-08 3.677899e-07 2.679883e-08 1.416581e-08
-1.763384e-07 3.683656e-07 -7.080400e-08 1.153130e-08 8.715723e-08 -9.341857e-10
-4.448043e-08 2.483705e-07 -1.243768e-07 1.444281e-07 3.339613e-08 7.167716e-09
-5.090225e-08 2.935774e-07 -2.332922e-08 2.825492e-07 3.791883e-08 4.719026e-09
-2.246326e-07 4.238988e-07 3.746092e-09 1.244918e-07 7.782197e-08 7.479123e-09
4.070937e-07 -2.053064e-07 4.627261e-07 5.635484e-07 -1.961135e-10 -2.068145e-09
-1.624995e-07 4.715300e-07 -8.936763e-08 1.017524e-07 8.626805e-08 1.099712e-08
-5.743622e-07 6.643885e-07 8.246877e-07 2.226100e-07 1.109025e-07 8.288560e-09
-2.285587e-07 4.423811e-07 -2.064026e-09 1.048618e-07 2.645232e-08 -6.195504e-09
1.078194e-07 1.747064e-07 3.509340e-07 5.165461e-07 -6.553491e-08 -9.676548e-08
-1.790881e-08 2.803967e-07 -2.575550e-08 3.809325e-07 4.185442e-08 2.490867e-08
-1.625724e-07 4.658011e-07 -1.045136e-07 6.992613e-08 5.155970e-08 5.526413e-09
5.012986e-07 -1.569255e-07 6.036914e-08 3.307559e-07 2.173304e-08 5.284363e-08
-2.232186e-07 4.590792e-07 -5.102609e-08 4.731067e-08 6.403183e-08 1.308890e-08
-7.287638e-07 -6.159652e-07 3.276267e-06 -5.907247e-07 8.236861e-08 -1.509145e-07
-2.651376e-07 4.642819e-07 -1.265741e-08 4.023612e-09 3.593259e-08 -3.567915e-09
-2.207187e-07 4.738624e-07 -6.574360e-08 -1.705229e-08 2.730923e-08 4.522440e-09
-6.392799e-07 3.709376e-07 1.712258e-06 -5.538952e-07 1.441576e-07 -1.587412e-07
4.911287e-08 1.401640e-08 -2.126907e-08 -1.017554e-09 7.920221e-11 3.752733e-10
-8.734195e-07 4.531347e-07 1.794772e-06 -4.292704e-07 5.121019e-07 -2.884144e-07
5.182952e-08 1.313348e-08 -2.145232e-08 -3.717372e-09 -9.657288e-10 5.194072e-10
-4.748792e-07 7.384563e-07 4.173233e-07 -1.500638e-07 -2.454645e-08 8.003445e-09
-1.354828e-06 8.771568e-08 2.952095e-06 -4.594879e-07 5.405890e-07 1.811588e-07
4.868719e-08 1.425333e-08 -2.073427e-08 -2.254779e-09 -4.977831e-10 1.004703e-09
-9.193312e-07 6.114613e-07 1.481539e-06 -1.271005e-07 1.546982e-07 -2.346929e-07
-2.333735e-07 4.710518e-07 -3.747066e-08 2.258466e-07 -3.159357e-08 7.204396e-09
3.766253e-07 -6.445567e-08 1.244246e-07 3.744455e-07 -8.373585e-09 -4.830745e-08
-3.902317e-07 -1.445305e-06 4.409855e-06 -6.192121e-07 7.627915e-07 -1.088880e-06
4.972744e-08 -4.318354e-07 1.112133e-06 6.758060e-07 -2.533005e-07 -2.485914e-07
-1.855818e-06 -2.169549e-06 7.453897e-06 1.617202e-07 -1.367071e-07 -8.039789e-08
4.949085e-08 1.531211e-08 -2.344496e-08 -2.085404e-09 1.353477e-10 9.620492e-10
4.905689e-08 1.440940e-08 -2.312066e-08 -3.980974e-09 -5.893887e-10 1.189544e-09
-1.300778e-08 5.550484e-08 -3.819804e-08 1.062122e-09 -3.260122e-08 -1.059742e-08
-1.384127e-08 7.289034e-08 -3.175359e-08 -4.375627e-11 -2.170725e-08 -1.187785e-08
-7.050925e-09 7.054665e-08 -3.420018e-08 1.978370e-09 -2.802527e-08 1.469043e-09
-1.072402e-08 7.472145e-08 -5.525673e-08 1.855835e-09 -2.193675e-08 -7.152519e-09
1.508509e-09 9.070026e-08 -6.510628e-08 7.561790e-09 -2.705167e-08 -8.550479e-09
-1.209696e-06 -2.046790e-06 5.757746e-06 7.782957e-08 6.945275e-09 -1.815680e-06
-9.082151e-09 7.060262e-08 -3.568173e-08 8.976450e-09 -3.901320e-08 -1.417341e-08
-1.802261e-06 -2.534180e-06 7.892602e-06 3.439657e-08 -7.751002e-08 -5.981449e-07
4.487071e-09 8.522219e-08 -6.569762e-08 3.586329e-09 -3.268244e-08 -7.116843e-09
-3.673753e-09 7.511960e-08 -6.147765e-08 1.148971e-09 -3.838146e-08 -4.103824e-09
-2.533937e-06 -2.525874e-06 8.633675e-06 -3.010466e-08 -4.237732e-08 8.416699e-08
3.318530e-07 -9.949187e-08 -7.611986e-08 -2.910749e-07 -2.407561e-08 3.778149e-08
3.829143e-07 -1.787867e-07 8.936111e-08 2.398002e-07 -5.447627e-09 5.046990e-08
-6.507275e-09 7.847093e-08 -5.568928e-08 -2.351775e-09 -2.406895e-08 -5.676218e-09
1.494388e-09 9.236054e-08 -7.235468e-08 1.398580e-08 -4.097939e-08 -1.703450e-08
-1.317058e-09 5.286172e-08 -5.095687e-08 1.386751e-08 -5.378493e-08 -1.764147e-08
-2.402760e-07 -1.492271e-06 3.439327e-06 3.357795e-07 -4.490775e-07 -1.513832e-06
-2.005729e-08 5.897572e-08 -3.585006e-08 -4.134762e-09 -4.042245e-08 -1.566525e-08
-2.093435e-08 5.909857e-08 -3.589805e-08 -4.110672e-09 -3.008751e-08 -1.433006e-08
4.386601e-07 -1.942568e-07 1.433683e-07 1.942244e-07 2.282187e-08 -7.943595e-09
-5.427692e-09 9.088338e-08 -6.642976e-08 9.181434e-09 -2.111364e-08 -3.950777e-09
-5.873713e-09 8.070984e-08 -6.121906e-08 7.405022e-09 -2.721914e-08 -7.527375e-09
-1.309045e-08 6.087284e-08 -3.914281e-08 -5.716594e-09 -3.507679e-08 -4.266789e-09
7.220205e-07 -3.879438e-07 1.334241e-07 -1.163408e-07 -1.138557e-08 6.972798e-08
-3.830760e-08 1.523691e-07 -7.694087e-08 -1.959799e-08 1.946165e-08 -5.255737e-09
7.605446e-08 -3.595008e-09 -3.494907e-08 1.465305e-08 -7.956391e-10 2.237205e-09
7.023230e-08 4.088267e-09 -2.838216e-08 1.440601e-08 1.622368e-09 5.057733e-09
7.813517e-08 -4.080274e-09 -3.417997e-08 1.536894e-08 2.788232e-09 4.076905e-09
5.809425e-08 8.985525e-08 -1.162865e-07 -1.894079e-08 1.145073e-08 2.435486e-09
7.076875e-08 4.679374e-09 -3.374516e-08 1.577390e-08 6.377881e-10 2.409176e-09
7.087560e-08 -3.080983e-10 -3.375699e-08 1.693074e-08 3.296957e-10 2.428674e-09
1.386781e-09 6.969299e-08 -4.195737e-08 -2.893929e-08 6.423965e-08 -2.613290e-08
-1.766273e-08 5.789389e-08 -3.023018e-08 2.768114e-10 2.094885e-08 -6.577568e-09
6.719379e-08 4.092923e-09 -2.997578e-08 1.381457e-08 1.554126e-09 1.539569e-09
6.347916e-07 -2.870688e-07 2.657097e-08 3.732731e-08 3.373942e-08 4.712453e-08
-1.861085e-08 4.815392e-08 -3.240223e-08 3.722062e-10 3.643691e-08 -1.131551e-08
5.948314e-08 6.234950e-08 -1.212363e-07 -9.938665e-09 5.334281e-08 -1.523626e-09
7.684423e-08 1.197558e-08 -1.093599e-07 -3.972457e-09 7.527965e-08 -1.008015e-09
6.567847e-07 -3.643729e-07 4.383520e-08 -7.449617e-08 -7.252479e-09 -5.220502e-08
-1.351372e-08 2.037916e-08 -3.613100e-08 -1.979851e-09 7.367548e-08 -3.235797e-08
5.331745e-08 1.329565e-07 -1.234809e-07 -9.994075e-08 4.789290e-08 -2.646416e-08
6.571839e-07 -3.630562e-07 -8.343227e-08 -7.528075e-08 -2.958469e-09 -5.787042e-08
-1.230524e-08 7.213522e-08 -4.050590e-08 -1.746938e-09 3.736264e-09 -6.708867e-10
-3.635655e-09 6.136688e-08 -3.784854e-08 -3.580389e-09 3.661525e-08 -6.986322e-09
6.720266e-07 -2.832816e-07 -8.339755e-08 -3.579064e-08 -8.551610e-09 -5.934224e-08
4.365426e-07 -2.012745e-07 -8.067541e-08 -3.778150e-08 2.399714e-08 -8.274737e-09
5.845304e-07 -2.212815e-07 -1.672505e-07 -5.541646e-08 9.593308e-09 -3.785198e-08
4.934189e-07 -2.885735e-07 2.930356e-08 3.878951e-09 -1.151537e-08 2.912047e-08
-5.499355e-08 1.678244e-07 -9.414335e-08 -1.225591e-08 9.827220e-09 -1.197643e-09
6.745654e-07 -2.902415e-07 -1.115446e-07 4.845718e-09 2.197196e-08 -7.833786e-08
-1.085290e-08 6.369839e-08 -2.478206e-08 -1.295042e-09 1.688586e-08 1.821339e-09
-1.427109e-08 6.845763e-08 -3.239486e-08 1.071871e-09 4.464989e-09 -1.130586e-09
-9.834407e-09 7.411211e-08 -4.782357e-08 -3.670655e-10 2.947786e-09 -6.816591e-10
-1.369823e-08 7.002287e-08 -3.403312e-08 -8.959487e-16 3.548307e-09 -1.094913e-09
4.330067e-07 -1.374289e-07 -1.978389e-07 -2.067103e-08 3.925261e-08 9.077674e-09
4.734356e-07 -1.601690e-07 -2.064852e-07 -3.936312e-08 2.519114e-08 -4.130351e-09
6.023415e-07 -2.405881e-07 -2.016033e-07 -3.509219e-08 1.024118e-08 -3.690326e-09
-1.062098e-08 7.942096e-08 -5.059019e-08 -3.662541e-09 2.336569e-09 -9.623324e-10
6.063438e-07 -2.201096e-07 -1.977535e-07 -4.567381e-08 1.309092e-09 6.651537e-10
-2.693554e-08 6.951286e-08 -3.124906e-08 5.349129e-09 8.731516e-09 -9.925518e-09
-3.268695e-08 1.088584e-07 -6.075091e-08 5.492620e-09 1.762469e-09 2.125550e-09
-5.532105e-08 1.556539e-07 -8.423986e-08 -7.842087e-09 6.846747e-08 -7.187427e-09
5.097412e-07 -2.400864e-07 -1.713245e-07 -4.551281e-08 -1.741390e-09 -3.603064e-08
4.905808e-07 -1.747990e-07 -1.796049e-07 -2.647096e-08 2.720735e-08 -5.172866e-08
4.997790e-07 -2.023526e-07 -2.073353e-07 8.974280e-09 -8.330860e-09 2.548635e-08
6.885865e-08 3.468827e-08 -6.913248e-08 6.452758e-08 8.945048e-09 2.074445e-08
6.168936e-08 3.683498e-08 -7.671035e-08 6.446298e-08 9.171392e-09 1.335429e-08
7.274363e-08 3.430112e-08 -6.619882e-08 6.400881e-08 9.702301e-09 2.573251e-09
-3.677885e-08 1.813364e-07 -1.077104e-07 4.970959e-08 -9.136062e-08 -2.550641e-08
7.284377e-08 4.184024e-08 -6.078373e-08 6.103311e-08 2.035321e-09 3.999710e-09
5.950048e-07 -2.464922e-07 -7.566174e-08 2.430340e-07 -2.010902e-08 -3.637189e-08
-1.397024e-08 8.067665e-08 -4.835052e-08 5.581794e-09 -5.454310e-09 -6.658470e-09
1.414736e-07 -5.095770e-08 -5.497864e-08 2.905968e-08 -8.309148e-08 -7.547016e-08
3.541389e-08 5.958709e-08 -6.644921e-08 -4.846709e-08 -1.457228e-08 1.219663e-08
3.541389e-08 7.294134e-08 -7.798876e-08 -5.773833e-08 -1.587786e-08 2.176889e-08
2.175481e-08 5.955126e-08 -5.475154e-08 -2.842942e-08 -1.722798e-08 1.627727e-08
1.759450e-08 9.215019e-08 -8.660695e-08 1.466752e-08 -3.246915e-08 -7.665190e-09
1.989821e-08 7.329173e-08 -6.382822e-08 -2.230235e-08 -8.586663e-09 6.597404e-09
7.726182e-07 -2.959028e-07 -1.376715e-07 3.375547e-08 2.804149e-09 -2.090341e-08
6.104280e-08 6.446962e-08 -8.879271e-08 9.749358e-09 -6.313883e-08 -2.253486e-09
6.224284e-08 8.883185e-08 -1.124094e-07 1.443524e-08 -3.996235e-08 -4.181112e-09
1.830324e-08 7.894414e-08 -6.443606e-08 -4.292248e-08 -2.360961e-08 1.475031e-08
2.133130e-08 7.096676e-08 -7.029760e-08 -3.534742e-08 -4.302850e-09 -1.646407e-09
1.688702e-08 7.915840e-08 -7.750385e-08 -3.092556e-08 -8.630211e-09 4.070221e-09
2.127413e-08 4.809928e-08 -8.268483e-08 1.583606e-09 -6.250348e-08 -6.290116e-09
4.866603e-08 1.408316e-08 -2.001499e-08 -1.937004e-09 -4.346181e-10 2.348268e-10
4.873238e-08 1.581388e-08 -2.103117e-08 -1.286074e-09 7.652825e-11 4.602531e-10
-7.019443e-09 2.532389e-08 -5.184992e-08 1.487664e-09 -6.858632e-08 -5.921712e-09
3.137772e-09 5.249048e-08 -6.055655e-08 3.927837e-08 -9.909078e-08 -7.012664e-08
1.446433e-07 -3.447164e-08 -6.701686e-08 -1.316127e-08 4.172541e-09 2.234149e-08
5.108618e-08 1.388908e-08 -2.023542e-08 -2.286832e-09 -2.201419e-10 8.464161e-10
5.063747e-08 1.399579e-08 -1.966068e-08 -1.904856e-09 -6.030012e-10 6.804496e-10
1.508374e-07 7.558914e-08 1.187840e-07 4.208750e-07 -1.253045e-08 -4.012800e-08
5.058566e-08 1.424103e-08 -2.044740e-08 -1.097138e-09 -1.812567e-10 3.382508e-10
2.691815e-07 -4.319711e-09 -1.749685e-07 -2.342268e-08 5.494513e-08 -1.255952e-08
5.019899e-08 4.182794e-08 -1.059689e-07 -4.956918e-08 9.324296e-08 -6.604766e-08
5.192017e-08 1.351396e-08 -1.946820e-08 -1.426182e-09 -9.817882e-10 1.283184e-10
-5.477374e-08 2.151463e-07 -1.314291e-07 -4.283321e-09 -1.166892e-08 5.805537e-10
2.482591e-07 -2.790339e-08 -1.807489e-07 -2.471950e-08 6.314766e-08 4.821315e-09
1.262465e-07 -2.818326e-08 -1.262441e-07 -4.838247e-09 7.229078e-08 -1.771608e-09
4.786154e-07 -2.148242e-07 8.229688e-09 -2.493507e-07 -4.856720e-09 -2.644440e-08
1.543153e-07 7.185969e-08 -1.754293e-07 -9.799815e-08 1.979846e-08 -2.126159e-08
-6.049746e-08 2.172864e-07 -1.393342e-07 -1.329201e-08 -1.050281e-08 -5.515376e-10
-5.477419e-08 1.867958e-07 -1.281868e-07 -4.030573e-09 -5.993280e-09 4.411107e-10
-5.477593e-08 1.783315e-07 -1.187059e-07 -4.602941e-09 -3.107222e-08 -1.686604e-10
-2.497552e-08 -2.425532e-08 -2.576812e-08 9.200997e-09 1.087369e-07 -8.343005e-08
8.649607e-08 -2.753952e-08 -7.071028e-08 -1.384223e-08 9.685168e-08 -4.604609e-08
1.215912e-08 8.435603e-08 -7.942810e-08 -1.150943e-08 7.252394e-09 -1.918448e-09
-4.822349e-08 1.959077e-07 -1.268138e-07 -1.935322e-08 -1.194015e-08 1.170066e-08
-4.826396e-08 1.841565e-07 -1.305597e-07 -2.788602e-08 -1.965170e-08 8.945878e-09
4.358804e-08 2.007184e-08 -1.912202e-08 2.753996e-09 -9.585156e-11 -3.420187e-10
4.193545e-08 1.916234e-08 -1.909042e-08 1.494005e-09 9.217618e-12 -1.327042e-10
-1.589951e-08 5.919360e-08 -2.758977e-08 -2.052715e-11 1.329751e-08 -7.944130e-10
4.328893e-08 1.829584e-08 -1.923499e-08 1.219114e-09 3.321150e-10 7.952172e-11
4.369747e-08 1.837493e-08 -2.026886e-08 3.635434e-09 -2.769693e-10 2.315166e-10
4.260695e-08 1.927969e-08 -1.931556e-08 1.166665e-09 1.323530e-10 -5.344904e-11
4.803455e-08 1.329565e-07 -1.018729e-07 -9.624783e-08 8.022498e-08 -4.835642e-08
5.511203e-07 -2.877556e-07 -1.120313e-07 -7.583435e-09 1.220337e-08 -1.381792e-08
6.428275e-07 -4.634252e-07 3.333042e-08 -2.887304e-08 9.847689e-09 2.002505e-08
-1.085290e-08 7.233862e-08 -4.073631e-08 -2.635028e-09 2.127764e-08 -1.531033e-09
6.633496e-07 -3.578689e-07 5.175286e-08 3.569713e-08 1.869678e-08 -5.045971e-08
5.962764e-07 -2.895978e-07 9.994107e-08 2.342634e-08 -4.216876e-08 -7.159124e-08
5.439903e-08 1.066170e-08 -1.989440e-08 -5.587904e-10 5.296454e-12 3.158989e-10
4.573597e-08 9.085406e-08 -1.131821e-07 -2.767247e-08 1.395896e-08 -2.660074e-09
2.544610e-08 9.263605e-08 -1.013425e-07 -2.628255e-08 7.879815e-09 -1.427966e-09
-1.752645e-08 4.304137e-08 -3.406079e-08 -2.212288e-10 4.835634e-08 -1.868322e-08
6.627751e-09 6.981621e-08 -6.446213e-08 -4.614421e-09 4.553233e-08 -1.624317e-09
-1.632844e-08 3.945234e-08 -3.236820e-08 -5.573655e-10 5.068383e-08 -1.648109e-08
5.340551e-08 9.317523e-09 -2.000733e-08 -1.941047e-09 -1.334801e-10 -9.423469e-11
5.696378e-08 9.374009e-09 -2.054614e-08 -2.313515e-09 -6.296794e-10 1.531111e-10
5.429556e-08 9.544072e-09 -2.003245e-08 -7.317644e-10 -4.525580e-10 2.119180e-10
-1.100712e-08 6.219481e-08 -2.734121e-08 -8.997821e-10 2.377050e-08 -5.280562e-09
-2.531885e-08 7.739213e-08 -3.933084e-08 -5.581602e-10 4.466403e-09 -9.088274e-09
1.128419e-07 -1.946387e-08 -5.498634e-08 -2.170137e-08 -2.300179e-09 1.366403e-08
5.183496e-08 1.234888e-08 -1.918482e-08 -1.744940e-09 -7.221407e-10 2.254860e-10
5.208914e-08 1.112269e-08 -1.996056e-08 -2.079584e-09 2.560387e-11 5.034286e-10
-5.272301e-07 -5.511647e-08 2.287303e-06 -6.994196e-07 3.617885e-07 -1.804893e-07
5.571014e-08 9.221906e-09 -2.118962e-08 -2.996412e-09 -3.103367e-10 1.365692e-09
-3.538000e-08 1.234423e-07 -7.555200e-08 -4.670164e-09 3.237192e-09 -1.656192e-09
5.412480e-08 1.069257e-08 -2.104111e-08 -3.950636e-09 -1.024848e-09 2.161299e-10
5.655708e-08 1.016806e-08 -2.104428e-08 -3.776551e-09 -9.612825e-10 3.011697e-10
-5.144929e-08 2.271165e-07 -1.302464e-07 -1.376570e-07 2.268314e-08 -2.692464e-08
2.676291e-08 1.537121e-07 4.528447e-07 -5.905671e-07 6.038188e-08 -1.296621e-07
5.394644e-08 9.487811e-09 -2.048168e-08 -2.286219e-09 -7.040032e-10 4.468375e-10
-3.352951e-08 1.232376e-07 -7.327270e-08 -5.114871e-09 2.259005e-09 6.443228e-10
5.571188e-08 1.045229e-08 -2.021088e-08 -1.432250e-09 -3.213594e-10 -6.840266e-11
5.234148e-08 1.201345e-08 -1.974535e-08 -8.333156e-11 -1.756688e-10 1.423501e-10
-3.036744e-08 1.242945e-07 -7.608130e-08 -1.662487e-08 1.542178e-08 -8.684291e-09
-3.226543e-08 9.728561e-08 -3.203149e-08 3.680481e-09 5.474560e-08 5.741096e-10
5.291745e-08 1.307181e-08 -2.049989e-08 -2.636296e-09 -4.112025e-10 -3.058451e-12
-4.650734e-09 6.326814e-08 -3.228250e-08 5.184102e-09 8.070451e-09 8.046813e-09
-3.340429e-08 9.146677e-08 -5.068506e-08 -1.464259e-09 3.850190e-08 -5.343830e-09
4.749553e-09 -3.539558e-08 -2.224398e-08 1.107739e-08 1.025748e-07 -7.025809e-08
-3.856233e-08 1.104327e-07 -5.125358e-08 -4.015141e-10 3.596355e-08 -2.794044e-09
2.144408e-08 4.598757e-08 -3.382392e-08 3.486992e-09 1.457525e-09 2.868776e-09
-1.985753e-08 6.251551e-08 -3.270155e-08 -5.289346e-09 9.535285e-09 9.470273e-09
-3.867280e-08 1.093191e-07 -5.813054e-08 -1.396674e-09 4.486279e-08 -1.914745e-09
-3.340703e-08 1.093593e-07 -5.557316e-08 -2.020895e-09 4.547618e-08 -5.951386e-09
9.614631e-08 -2.027959e-08 -3.383812e-08 -6.854834e-10 -7.683118e-10 1.284468e-09
8.670509e-08 -1.558357e-08 -2.982540e-08 -4.067971e-09 -4.970950e-10 5.666904e-09
-4.532436e-07 -2.576613e-08 1.350226e-06 -7.534439e-07 -1.195788e-08 2.394685e-08
9.119372e-08 -1.733696e-08 -2.975666e-08 -8.750208e-09 -1.702645e-09 1.110112e-08
8.907700e-08 -1.931483e-08 -3.105237e-08 -2.272749e-09 -1.138305e-09 9.966372e-09
8.920262e-08 -2.155885e-08 -3.102278e-08 -1.853361e-09 -4.345450e-10 1.072418e-08
-8.719618e-09 5.321773e-08 -2.646843e-08 1.642155e-09 4.757890e-09 7.440893e-09
8.446040e-08 -1.764392e-08 -2.545386e-08 -3.224097e-09 -1.634405e-09 6.434877e-09
2.239289e-08 4.907097e-08 -3.768848e-08 -3.202973e-08 -2.429285e-08 2.099328e-08
-2.992198e-08 1.245553e-07 -7.519408e-08 1.909003e-08 5.353412e-08 2.142998e-08
3.709586e-08 3.077381e-08 -2.947440e-08 -2.348520e-08 -1.671405e-08 1.817192e-08
-1.659041e-08 7.011096e-08 -3.011058e-08 5.807123e-09 1.984041e-08 1.022612e-08
2.719605e-08 2.508333e-08 -2.429973e-08 -1.455616e-08 -1.160008e-08 1.436399e-08
1.596405e-08 2.770661e-08 -2.969339e-08 -1.271299e-08 -2.306194e-08 2.175174e-08
2.697290e-08 4.304112e-08 -3.846293e-08 -6.770538e-09 -2.490653e-09 7.291029e-09
3.924823e-08 2.420406e-08 -2.168870e-08 4.727143e-09 3.461631e-10 1.121914e-09
3.160253e-08 2.795531e-08 -2.544608e-08 -1.022449e-08 -8.218211e-09 8.530124e-09
3.977985e-08 2.240959e-08 -2.114687e-08 7.375171e-09 2.294673e-09 2.012027e-09
3.940109e-08 2.204955e-08 -1.960636e-08 1.001490e-09 -6.539528e-19 -3.264900e-10
-3.405644e-08 9.979673e-08 -5.593321e-08 -9.398464e-09 4.613985e-08 -5.517389e-09
-2.470115e-09 6.358133e-08 -3.627667e-08 2.179956e-09 3.030043e-09 9.684887e-09
-3.452458e-08 1.078130e-07 -5.107146e-08 -5.821659e-09 3.579406e-08 -5.947305e-09
4.057932e-08 2.132744e-08 -1.970095e-08 1.433706e-09 4.748296e-10 -5.147105e-11
-3.776087e-08 1.448848e-07 -7.616910e-08 -3.129371e-08 5.999770e-08 -3.537219e-09
-3.469808e-08 9.641987e-08 -5.244258e-08 9.360363e-09 2.579218e-08 -3.835857e-09
-3.034890e-08 8.300363e-08 -4.405101e-08 2.666967e-10 5.181875e-09 -2.297826e-09
-4.160607e-08 1.551144e-07 -7.021955e-08 -9.414662e-09 4.587645e-08 -7.550763e-09
3.853839e-08 2.324986e-08 -2.047661e-08 1.169850e-09 1.024205e-10 6.350176e-10
-1.932907e-07 -6.013530e-07 1.662742e-06 -7.693991e-07 -5.111130e-08 -4.043493e-08
7.971029e-08 1.071323e-08 -6.125594e-08 -4.804174e-08 -1.264362e-09 1.096730e-08
8.860300e-08 6.413785e-09 -6.175216e-08 -4.415941e-08 -3.005812e-09 1.415010e-08
9.385436e-08 1.529734e-09 -5.511236e-08 -4.804561e-08 -9.231187e-09 3.969587e-09
7.829692e-08 1.519727e-08 -5.944671e-08 -3.962024e-08 -3.504217e-09 1.105827e-08
8.019705e-08 9.474315e-09 -5.252458e-08 -4.234549e-08 -1.106996e-08 7.545325e-09
3.740212e-08 2.476672e-08 -2.131030e-08 1.321060e-09 -1.051007e-18 -3.977894e-10
8.614417e-08 4.076912e-09 -5.182384e-08 -3.595335e-08 -4.937814e-09 9.446703e-09
2.871000e-08 5.678316e-08 -4.899175e-08 4.536971e-08 1.052296e-08 5.777717e-09
4.075539e-08 8.459246e-08 -8.766331e-08 7.940034e-08 2.681795e-08 1.709992e-08
3.377591e-08 6.732623e-08 -6.361184e-08 6.368497e-08 6.852262e-09 1.006256e-08
2.423745e-08 9.417534e-08 -7.856256e-08 7.640018e-08 2.264085e-08 1.549881e-08
2.022562e-08 8.427298e-08 -7.815305e-08 5.943980e-08 2.213145e-08 1.132346e-08
2.340313e-08 1.025486e-07 -9.069823e-08 8.379130e-08 1.407999e-08 3.887880e-09
-5.690863e-09 8.505314e-08 -5.729299e-08 -1.305508e-08 1.074569e-08 -4.278397e-09
-1.678883e-08 1.528540e-07 -1.018459e-07 -4.777189e-08 1.140170e-08 -7.935536e-09
3.300379e-08 7.056523e-08 -7.374900e-08 6.598409e-08 1.912441e-08 1.933971e-08
2.622537e-08 7.253655e-08 -6.922480e-08 6.612957e-08 2.211861e-08 1.996141e-08
8.809257e-08 -1.911482e-08 -2.749477e-08 1.293102e-10 -1.165798e-09 2.992161e-09
9.156312e-08 -1.795494e-08 -3.266043e-08 -1.637911e-09 -4.931353e-10 1.936284e-09
9.221666e-08 -1.707201e-08 -3.217686e-08 -2.805172e-09 1.722519e-10 1.182713e-09
-4.548932e-07 3.362622e-07 1.350226e-06 -5.961500e-07 -6.872276e-08 -2.567538e-08
-1.796251e-08 1.099693e-07 -7.310521e-08 -1.667824e-08 6.104302e-09 -1.909499e-09
-9.569227e-09 6.248793e-08 -5.002498e-08 -5.767591e-10 3.147717e-08 3.089591e-10
-1.527335e-08 4.637504e-08 -3.590854e-08 9.821863e-09 5.174330e-08 2.416763e-08
-1.404114e-08 7.188127e-08 -4.187477e-08 -9.529906e-10 2.737080e-09 -4.505513e-09
9.682897e-08 -1.971166e-08 -3.840763e-08 -5.138655e-09 3.758963e-10 1.589421e-09
1.058693e-07 8.613874e-09 -1.179596e-07 1.051460e-07 -8.695272e-08 -8.361174e-08
1.180966e-08 5.514958e-08 -4.459118e-08 8.181476e-09 5.183824e-09 4.587714e-09
2.821502e-07 1.272208e-09 -1.453339e-07 1.358965e-07 -6.959120e-08 -2.237740e-08
2.809294e-07 -7.529996e-08 -1.096152e-07 1.982161e-07 -6.037519e-08 -7.187970e-08
3.131026e-07 1.078800e-08 -1.301320e-07 2.842004e-07 -4.456875e-08 -6.307935e-08
-1.019433e-08 9.254473e-08 -5.161585e-08 4.922612e-09 1.268719e-09 3.401506e-09
2.687119e-08 4.357925e-08 -3.866316e-08 1.433235e-08 3.099861e-09 1.325992e-09
2.623061e-08 4.459110e-08 -3.379766e-08 1.210601e-08 5.040040e-10 3.885200e-09
5.564155e-09 7.918071e-08 -4.897856e-08 2.014477e-08 6.416781e-09 3.105222e-09
2.871666e-08 4.017388e-08 -3.523263e-08 1.613348e-08 1.659218e-09 -1.274233e-09
2.676483e-08 4.360069e-08 -3.449588e-08 1.435406e-08 3.822136e-09 3.666080e-09
3.565860e-08 3.423602e-08 -2.872708e-08 1.173196e-08 2.900583e-09 2.296856e-09
1.011022e-08 4.758812e-08 -3.488859e-08 1.860908e-08 1.676255e-08 1.196025e-08
3.064422e-08 3.819323e-08 -3.446704e-08 1.688367e-08 3.399136e-09 3.304047e-09
2.015464e-07 -4.084973e-08 -1.120342e-07 9.547518e-08 5.971727e-09 2.972808e-08
-2.430661e-09 6.358133e-08 -2.619968e-08 3.586632e-09 6.518488e-10 6.671324e-09
2.059648e-07 -3.293640e-08 -9.536221e-08 8.779902e-08 1.740810e-08 3.838245e-08
2.871673e-08 4.163670e-08 -3.906487e-08 1.912071e-08 -4.637177e-11 1.201671e-09
-1.453518e-08 5.549103e-08 -2.666184e-08 1.921537e-09 5.886237e-09 9.361779e-09
2.437726e-07 -4.177163e-08 -1.048156e-07 8.233978e-08 7.619681e-09 2.503936e-08
2.154677e-07 -4.957325e-08 -1.071299e-07 9.112278e-08 3.254688e-09 4.287618e-08
1.534472e-07 -1.861547e-08 -7.523247e-08 6.301780e-08 1.388526e-08 3.227282e-08
1.479225e-07 -1.617955e-08 -8.260790e-08 6.733817e-08 1.649867e-08 2.532190e-08
2.219130e-08 1.149750e-07 -9.790973e-08 6.155149e-08 -7.325724e-08 -3.742256e-08
3.732185e-09 1.187501e-07 -8.465293e-08 4.078152e-08 -4.397952e-08 -2.374226e-08
1.883152e-08 1.344098e-07 -8.900912e-08 7.052423e-08 -5.935945e-08 -2.821599e-08
2.431597e-08 4.310235e-08 -8.610201e-08 2.839914e-08 -9.261299e-08 -4.968421e-08
4.864576e-09 9.796334e-08 -8.900912e-08 3.834221e-08 -5.892606e-08 -2.850730e-08
4.248886e-10 9.022871e-08 -8.056391e-08 8.943592e-09 -2.156760e-08 -2.085722e-09
1.782641e-07 -3.308897e-08 -9.512241e-08 6.832753e-08 -2.699131e-09 2.212798e-08
-1.477065e-08 8.884153e-08 -6.394126e-08 1.392224e-08 -2.673902e-08 -1.444628e-08
1.690148e-07 -2.677863e-08 -1.033148e-07 7.436192e-08 -1.203335e-09 1.222820e-08
-2.466747e-08 4.516196e-08 -4.569692e-08 -4.177732e-09 -7.059402e-08 -3.457824e-08
-5.395207e-09 1.402850e-07 -1.026574e-07 5.090530e-08 -3.574016e-08 -1.615760e-08
1.849612e-07 -2.091346e-08 -9.537613e-08 9.150241e-08 1.126827e-08 1.655181e-08
1.850482e-07 -2.091278e-08 -9.478935e-08 9.151924e-08 1.157612e-08 3.099792e-08
-2.798776e-08 7.776537e-08 -3.763309e-08 7.664829e-10 1.510218e-08 1.032345e-09
-3.153913e-08 6.889432e-08 -3.524111e-08 -2.077619e-08 6.863515e-08 3.699144e-09
-3.227608e-08 9.132147e-08 -4.902244e-08 2.358087e-09 3.998480e-08 2.850859e-10
-3.559679e-08 1.228564e-07 -7.076107e-08 2.069639e-09 4.385360e-08 -6.471981e-09
-4.360085e-08 1.516963e-07 -7.855829e-08 -1.879904e-08 6.356733e-08 1.474429e-09
4.069598e-07 -1.907056e-07 7.890531e-08 3.207673e-07 5.716798e-09 -2.642312e-08
-3.663275e-08 1.271616e-07 -7.027085e-08 5.034176e-09 4.721403e-08 9.169708e-10
-3.666980e-08 1.062178e-07 -5.627935e-08 5.394231e-09 4.389917e-08 2.271459e-09
6.341079e-08 4.438497e-09 -2.591440e-08 8.799420e-09 1.149951e-09 3.698780e-09
-4.416603e-08 1.661770e-07 -7.210512e-08 1.589656e-09 4.692871e-08 -2.698207e-09
5.160274e-08 1.380239e-08 -1.985016e-08 -9.164340e-10 -1.154670e-10 -2.473112e-10
5.319783e-08 1.259018e-08 -1.960825e-08 -1.169390e-09 -5.333089e-10 6.005537e-10
5.116900e-08 1.496359e-08 -2.031790e-08 -1.069037e-09 -2.829453e-10 4.409161e-10
1.356546e-07 -9.335884e-09 -8.864585e-08 7.653495e-08 1.547560e-08 3.629461e-08
5.353538e-08 1.310047e-08 -2.065498e-08 -2.909213e-09 -3.576057e-10 1.977183e-10
6.723850e-08 1.115359e-09 -2.731512e-08 8.236732e-09 8.378605e-10 2.172049e-09
8.962997e-08 5.138785e-08 -1.100107e-07 -9.499334e-08 9.359335e-08 -6.082121e-08
4.952460e-08 1.490627e-08 -2.044085e-08 -3.207165e-09 -1.173999e-09 1.517216e-09
5.438396e-08 1.066366e-08 -2.168790e-08 -4.404106e-09 -1.746282e-09 9.999940e-10
4.672700e-08 1.776957e-08 -2.587000e-08 -5.213658e-09 -2.334783e-12 8.176418e-10
5.147233e-08 1.627721e-08 -2.799217e-08 -1.026542e-08 4.890844e-11 2.553607e-09
4.371049e-08 2.257826e-08 -2.741840e-08 -3.158434e-09 -6.244709e-10 7.572143e-10
4.546027e-08 2.004990e-08 -2.566554e-08 -2.458586e-09 -4.535258e-11 1.003810e-09
1.261501e-07 1.554803e-07 -1.373073e-07 2.596696e-07 -3.283829e-08 -2.266529e-08
-2.201158e-08 1.077467e-07 -6.408334e-08 -1.346116e-08 3.553657e-09 -2.010094e-09
-1.815114e-08 6.297512e-08 -2.395467e-08 -3.868321e-10 4.248540e-09 -5.197971e-09
1.486855e-07 1.106250e-07 -1.167143e-07 2.533510e-07 -2.123342e-08 2.479695e-09
2.019611e-07 6.242309e-08 -1.450522e-07 2.369724e-07 -1.671086e-08 -1.175621e-08
1.927522e-07 7.443916e-08 -2.731535e-08 3.694906e-07 2.944327e-09 -1.072342e-08
1.040806e-07 1.953497e-07 -1.648630e-07 2.465394e-07 -4.492805e-08 -3.730027e-08
1.029843e-07 1.502805e-07 -1.628537e-07 1.706963e-07 -8.441997e-09 -1.487607e-08
1.680008e-07 1.235865e-07 -6.408356e-09 3.745697e-07 -6.509316e-08 -7.798750e-08
-7.785321e-09 8.739626e-08 -6.528526e-08 3.061753e-08 4.140290e-08 2.418742e-08
-8.988836e-08 2.919269e-07 -1.468640e-07 -3.828182e-09 -1.257244e-08 -3.609389e-09
-9.226069e-08 2.923734e-07 -1.460402e-07 -2.857261e-09 -7.334921e-08 -4.687281e-10
-7.505486e-08 2.221454e-07 -1.384039e-07 -3.843038e-09 -1.229080e-08 -3.402459e-10
-1.090326e-07 2.875592e-07 -1.453627e-07 5.370733e-09 -1.486675e-08 2.011172e-09
-1.091249e-07 3.712630e-07 -1.466530e-07 8.798648e-09 -5.890429e-08 -3.277892e-09
-7.344622e-08 2.999036e-07 -1.499785e-07 -1.562865e-08 -1.932523e-08 3.386371e-09
-4.442201e-08 1.754920e-07 -1.039161e-07 -1.479679e-08 -8.048208e-08 1.757344e-08
-3.211363e-08 3.096376e-07 7.728470e-08 4.016959e-07 -1.803602e-08 -4.145413e-08
-8.578825e-08 2.453606e-07 -1.353824e-07 2.005060e-08 -5.701062e-08 -8.469895e-10
8.029983e-08 -8.236797e-09 -3.278806e-08 1.123147e-08 6.632068e-10 1.812373e-09
7.677097e-08 -6.225657e-09 -2.764368e-08 1.585853e-09 1.141950e-09 4.081411e-10
7.505934e-08 -4.793879e-09 -2.753877e-08 2.986469e-09 6.021645e-10 -6.711179e-10
-5.611450e-09 9.012466e-08 -4.811680e-08 1.373665e-08 1.379021e-08 8.044337e-09
7.289201e-08 -5.121752e-09 -2.834777e-08 4.141138e-09 1.533332e-09 5.212555e-10
7.812378e-08 -9.791127e-09 -2.875450e-08 3.369783e-09 1.112879e-10 8.381334e-10
-3.121496e-07 4.038560e-07 5.047348e-07 4.953392e-07 7.279307e-08 2.545623e-08
8.210347e-08 -8.791634e-09 -3.447886e-08 9.761510e-09 -4.639893e-10 6.737862e-10
6.546480e-08 9.869274e-10 -2.401131e-08 5.011490e-09 7.158895e-10 2.224408e-09
8.426415e-08 -9.337687e-09 -3.102686e-08 6.492312e-09 1.803101e-09 8.690443e-10
3.305064e-08 1.130930e-07 -1.165709e-07 3.873521e-08 -1.163136e-08 1.407419e-09
2.130631e-08 1.107725e-07 -1.033766e-07 4.885666e-08 -2.858296e-08 -4.951852e-09
2.824774e-08 1.019375e-07 -1.011571e-07 1.212662e-08 -7.786035e-09 2.211288e-09
9.006486e-09 9.213890e-08 -1.050381e-07 1.877747e-08 -3.168830e-08 -1.253768e-08
2.016263e-08 9.213663e-08 -1.044730e-07 1.434939e-08 -3.183129e-08 -3.735576e-09
5.240367e-08 1.228981e-08 -2.163732e-08 6.618692e-09 8.944838e-10 1.940357e-09
5.881749e-08 1.046237e-08 -3.178326e-08 1.726406e-08 3.033460e-09 5.032729e-09
5.784956e-08 1.030883e-07 -1.039376e-07 3.264192e-08 -2.755010e-08 1.591842e-09
5.338869e-08 1.070989e-07 -1.348190e-07 5.185728e-08 -1.968519e-08 -7.664349e-09
8.646926e-08 -1.273147e-08 -3.228892e-08 5.691168e-09 1.218054e-09 4.141587e-10
9.196743e-08 -1.541922e-08 -3.631356e-08 7.314240e-09 -7.832842e-10 2.297398e-09
6.440273e-08 1.047293e-09 -2.325809e-08 7.756315e-09 2.367797e-09 3.575211e-09
6.559371e-08 1.133064e-09 -2.178288e-08 1.189143e-09 1.122025e-09 1.170960e-09
5.851096e-08 8.224948e-09 -2.035173e-08 4.334508e-09 1.369388e-09 1.833361e-09
8.786366e-08 -1.478519e-08 -3.279477e-08 2.954540e-09 -7.611143e-10 2.382006e-10
8.923574e-08 -1.872066e-08 -2.661189e-08 -9.733174e-10 -5.423656e-10 1.695732e-09
8.666652e-08 -1.342234e-08 -3.108598e-08 2.334346e-09 7.669481e-10 -3.754906e-10
8.628767e-08 -1.813294e-08 -2.317188e-08 2.168042e-09 7.677230e-10 5.168534e-09
-2.844943e-08 1.514373e-07 -1.012586e-07 -1.117495e-08 -1.586533e-08 1.202312e-08
-4.793513e-08 1.855228e-07 -1.168289e-07 -2.720818e-08 -3.347338e-08 3.058393e-09
6.153025e-08 5.737840e-09 -2.576562e-08 -9.608692e-09 -1.392665e-09 5.353571e-10
-5.306152e-08 1.729073e-07 -1.122706e-07 -3.749921e-08 -2.230739e-08 5.296702e-09
9.227787e-08 -1.753317e-08 -3.131677e-08 -5.633689e-10 8.209544e-11 -9.250004e-20
-4.402332e-08 1.789215e-07 -1.122932e-07 -3.272832e-09 -2.228423e-08 4.348118e-09
-4.236030e-08 1.749580e-07 -1.193100e-07 -1.083316e-08 -3.848479e-09 -1.026601e-09
4.304975e-08 2.090828e-08 -2.301059e-08 -1.127542e-09 -2.998126e-10 2.954500e-09
-4.071448e-08 1.660439e-07 -1.125706e-07 -2.524151e-08 -6.609805e-09 6.137926e-09
2.105585e-07 6.018701e-08 1.222157e-07 -4.752543e-07 1.568149e-08 -5.051313e-08
-2.837155e-08 5.131020e-08 -3.181507e-08 2.111510e-09 4.449002e-08 -7.873593e-09
-2.615926e-08 4.744471e-08 -3.689849e-08 7.302092e-09 7.040981e-08 1.759468e-08
-3.034852e-08 1.061427e-07 -6.048551e-08 2.028027e-09 4.145307e-09 1.174992e-09
4.099189e-07 -3.945728e-07 9.028100e-07 -5.660332e-07 -3.661299e-08 2.987355e-08
5.336117e-07 -3.327638e-07 7.752379e-07 -4.769143e-07 -6.136676e-08 1.987881e-08
6.188569e-07 -3.138868e-07 3.798796e-07 -3.871840e-07 4.851021e-09 3.110878e-08
4.925062e-07 -3.110687e-07 3.068462e-07 -3.516830e-07 2.770097e-08 -6.595262e-08
5.025822e-07 -1.975338e-07 -1.828052e-08 -2.351734e-07 -1.581538e-08 7.857047e-08
-3.034040e-08 7.959626e-08 -3.562543e-08 3.210378e-10 1.565339e-08 -1.847945e-09
3.374410e-07 -1.503760e-07 6.739768e-08 -3.749638e-07 1.039611e-08 2.563357e-08
4.809149e-07 -2.897240e-07 1.261040e-07 -3.671275e-07 -3.086403e-08 6.458929e-08
2.733019e-08 3.728112e-08 -2.861921e-08 2.878343e-09 5.130596e-10 2.063341e-09
2.077189e-08 4.813742e-08 -3.648348e-08 6.691157e-09 2.033428e-09 7.593699e-10
2.802978e-08 3.575756e-08 -2.545349e-08 5.063024e-09 2.787768e-09 2.725475e-09
-3.067575e-08 4.671299e-08 -3.504421e-08 3.488699e-09 8.075563e-08 -9.271280e-09
-2.400717e-08 8.879712e-08 -4.784430e-08 -1.025019e-08 2.952279e-08 -1.101183e-08
-5.885311e-08 1.596506e-07 -8.198927e-08 9.317591e-09 7.257088e-08 4.838798e-10
-2.672556e-08 4.559999e-08 -2.724552e-08 4.507657e-09 4.933681e-08 4.372135e-09
-3.162108e-08 9.406658e-08 -5.477656e-08 1.373190e-08 2.695393e-08 2.346810e-09
7.707564e-08 -9.977484e-09 -2.584647e-08 -4.613620e-09 -1.862235e-09 4.348802e-09
2.409934e-08 4.458835e-08 -3.263362e-08 4.990925e-09 -5.401138e-10 1.432182e-09
2.742986e-08 4.813374e-08 -3.892287e-08 2.183042e-08 1.638369e-09 1.850434e-09
-2.339294e-08 8.348428e-08 -4.217791e-08 -1.498777e-08 -3.120756e-08 2.223558e-08
1.661145e-08 4.889283e-08 -3.385129e-08 6.458915e-09 1.861378e-09 2.471055e-09
8.381270e-08 -1.695952e-08 -2.437174e-08 -5.955464e-09 -1.979140e-09 1.251870e-08
1.983176e-08 5.614226e-08 -3.991343e-08 1.487701e-08 5.598377e-10 4.785749e-09
3.088451e-08 3.122824e-08 -3.111520e-08 -1.382919e-09 -8.435612e-10 6.651035e-09
2.841059e-08 4.756126e-08 -4.644874e-08 -5.891298e-09 -6.605978e-10 6.231987e-09
3.878834e-08 4.354823e-08 -4.762390e-08 -2.019916e-08 -1.558822e-09 2.553750e-09
5.679396e-08 1.174696e-08 -2.486755e-08 -8.982323e-09 -2.974927e-10 3.760570e-10
1.881189e-08 5.647106e-08 -4.564677e-08 1.804122e-08 3.289153e-09 1.161222e-09
1.427402e-08 7.274035e-08 -6.533100e-08 -4.374144e-09 -2.364203e-09 6.677430e-09
6.285627e-08 5.383794e-09 -2.361952e-08 4.261394e-09 7.166472e-10 3.108085e-10
7.182867e-09 9.940759e-08 -6.870880e-08 -3.602899e-08 -3.720784e-08 2.503677e-08
5.744691e-08 8.766000e-09 -2.524764e-08 1.050847e-08 7.459297e-10 1.017285e-09
6.935057e-08 1.797006e-09 -2.588592e-08 4.609613e-09 9.122797e-10 1.013197e-09
5.920477e-08 5.854227e-09 -2.175201e-08 3.985062e-09 6.330922e-10 1.818458e-09
1.688794e-07 -1.839272e-07 8.578409e-08 9.521798e-09 -8.701771e-09 -9.187748e-08
5.960964e-08 5.627168e-09 -2.119389e-08 2.140354e-09 4.343445e-10 4.566642e-10
-1.482620e-06 -3.989271e-07 3.474576e-06 -5.688615e-07 -4.735537e-07 2.024753e-07
6.839862e-08 1.842036e-09 -2.715852e-08 5.970382e-09 -6.075430e-10 2.114497e-09
7.030601e-08 -3.884836e-09 -2.744880e-08 4.552054e-09 1.030133e-09 1.178797e-09
-5.773090e-07 5.655563e-07 7.094194e-07 1.458186e-07 -1.055521e-07 -1.723891e-08
5.336819e-07 -1.477134e-07 -2.000787e-07 -1.018432e-07 1.107512e-08 -1.872480e-08
7.283738e-08 -3.382523e-09 -2.759589e-08 7.230479e-09 1.373835e-10 2.780903e-09
-8.556892e-07 5.130195e-07 1.518070e-06 2.104410e-07 -3.778925e-07 -4.375016e-08
5.972698e-08 7.366045e-09 -2.329366e-08 5.076419e-09 4.982265e-10 6.191923e-10
4.952525e-08 -4.760433e-09 1.083727e-06 6.314633e-07 -1.913713e-07 -2.416167e-07
5.846528e-08 6.652255e-09 -2.416641e-08 6.207257e-09 1.517225e-09 -3.517011e-11
1.502957e-07 -3.082042e-08 -1.164396e-07 -4.746237e-08 7.194071e-08 -4.524603e-08
3.475263e-07 -6.482832e-08 -1.863750e-07 -2.191338e-08 4.672933e-08 4.184556e-09
-1.875502e-08 -5.495156e-08 8.745839e-09 -6.044992e-09 9.184826e-08 -1.648053e-07
3.473950e-07 -9.935173e-08 1.949689e-08 -1.977087e-07 5.491494e-08 -9.925959e-08
2.241444e-07 -8.872612e-08 -1.310289e-07 -5.164098e-09 6.417087e-08 -6.548181e-10
6.306115e-08 3.279528e-09 -2.365996e-08 1.604716e-09 1.068652e-09 4.990179e-10
6.063014e-08 4.900178e-09 -2.376650e-08 2.222613e-09 3.649165e-10 -3.394205e-10
-7.283567e-08 3.421667e-07 -8.240428e-08 -2.661941e-07 -2.242298e-08 9.291928e-09
-5.426165e-08 3.211632e-07 -1.155348e-07 -2.507273e-07 -4.884811e-08 2.688802e-08
1.636089e-07 7.135161e-08 -1.104068e-07 -2.076108e-07 6.736281e-08 -3.279632e-08
5.907166e-08 6.814522e-08 -8.350617e-08 -5.126451e-08 7.762206e-08 -3.602331e-08
4.758073e-08 2.127598e-07 -1.178196e-07 -2.364537e-07 -3.313910e-08 6.538329e-09
7.684422e-08 1.328545e-08 -1.001532e-07 -4.328697e-09 8.304114e-08 -5.006648e-09
2.553147e-07 -8.872239e-08 -1.308859e-07 -1.146731e-08 6.405920e-08 2.359847e-09
9.487359e-08 2.149230e-09 -6.097578e-08 4.421099e-08 9.330699e-09 1.707383e-08
9.910491e-08 2.010642e-07 -5.603755e-08 -3.213071e-07 -9.163923e-08 5.288432e-08
7.356116e-08 -6.555255e-09 -2.342992e-08 3.000366e-09 1.657053e-09 1.638581e-09
-3.545760e-08 2.676307e-07 -1.301723e-07 -1.784522e-07 -8.197859e-08 3.502730e-08
-2.743059e-08 2.334780e-07 -1.308719e-07 -1.503431e-07 -5.453645e-08 3.823513e-08
2.167260e-08 1.935669e-07 -1.323271e-07 -1.737608e-07 -1.903012e-08 1.340957e-08
6.226941e-08 6.840154e-09 -2.573167e-08 8.174035e-09 -3.170893e-10 -1.157865e-09
3.840062e-09 1.674268e-07 -1.183859e-07 -1.432089e-07 -4.156117e-08 4.423454e-08
5.928789e-08 6.040043e-09 -2.227102e-08 7.373731e-09 2.029887e-09 2.703970e-09
6.343972e-08 1.033722e-09 -2.111112e-08 1.016976e-08 3.520303e-09 5.578410e-09
-2.981617e-08 2.414373e-07 -1.379031e-07 -1.691124e-07 -3.617091e-08 1.553417e-08
-5.712642e-08 1.331980e-07 -1.010012e-07 7.600198e-09 -7.804623e-08 -3.969126e-08
1.107162e-07 4.524552e-08 -1.340884e-07 5.258123e-08 -7.249848e-08 -3.722773e-08
8.062632e-08 6.543976e-08 -8.786502e-08 1.181415e-07 -1.033621e-07 -7.413550e-08
-6.881919e-09 -1.905645e-08 -4.216307e-08 1.034446e-08 -1.158627e-07 -1.047407e-07
8.280414e-09 2.086674e-07 -1.328004e-07 -1.620772e-07 -8.133954e-09 8.165833e-09
5.740259e-07 -2.941238e-07 -1.676655e-07 -4.197722e-08 4.214797e-08 1.459699e-08
-9.773880e-08 3.342914e-07 1.396958e-07 3.416765e-07 -5.026158e-08 -7.421390e-08
5.679792e-09 6.416650e-08 -5.112828e-08 6.528101e-09 -5.364573e-08 -1.396627e-08
6.606033e-07 -2.902871e-07 -8.690811e-08 3.018875e-09 2.293656e-08 1.194911e-08
4.476951e-07 -1.071920e-07 -1.006947e-07 2.563857e-07 -1.871330e-08 -2.550472e-08
-3.834552e-08 1.346932e-07 -5.315120e-08 1.933980e-08 -8.623490e-08 -1.355673e-08
-2.340293e-08 3.512627e-08 -3.915219e-08 -1.605671e-09 -6.861733e-08 -3.143254e-08
5.426386e-07 -2.383383e-07 -7.810395e-08 7.552515e-08 -2.933428e-08 -6.339083e-08
2.428033e-07 6.804316e-08 6.017248e-08 4.833356e-07 2.891917e-08 6.439536e-08
4.299893e-08 9.531874e-08 -8.817063e-08 1.666297e-07 -1.118251e-07 -1.055995e-07
3.040727e-08 2.843433e-08 -2.523592e-08 -3.351077e-09 -3.035651e-09 7.117325e-09
4.953262e-09 5.591913e-08 -3.702934e-08 -3.288101e-08 -5.425761e-08 3.825836e-08
6.045084e-07 -2.028461e-07 -2.313477e-07 1.213687e-08 -1.166297e-08 8.683332e-09
7.003823e-07 -2.603318e-07 -1.356519e-07 9.518668e-08 2.024299e-09 1.052946e-08
-5.129777e-09 6.993508e-08 -5.255490e-08 -3.369907e-09 -4.345825e-09 1.957562e-08
1.822255e-08 4.522504e-08 -3.680473e-08 -3.419660e-08 -3.871686e-08 3.305010e-08
5.831029e-07 -2.092599e-07 -1.579508e-07 1.015019e-07 -1.058350e-08 7.750178e-09
1.819523e-08 5.858835e-08 -6.780809e-08 -3.906182e-08 -3.462143e-08 3.576632e-08
5.839224e-07 -2.300230e-07 -1.981062e-07 1.069607e-08 -1.171726e-08 -2.981257e-08
6.163554e-07 -2.246034e-07 -2.224559e-07 1.941387e-08 -1.210648e-08 -2.442717e-09
-2.052422e-07 4.687976e-07 1.842610e-09 -1.826493e-07 7.739401e-08 -4.548048e-08
6.867577e-08 3.845370e-08 -5.558998e-08 -5.443139e-08 -8.698765e-09 8.145247e-09
2.085420e-08 6.653195e-08 -6.148615e-08 -2.151269e-08 -1.822823e-09 2.916213e-09
-1.682870e-07 4.939868e-07 2.636928e-07 -3.873710e-07 3.528113e-08 -4.556611e-08
-2.132864e-07 4.100451e-07 2.907929e-07 -4.503617e-07 6.534652e-08 -1.373422e-08
5.890628e-09 2.855368e-07 2.894931e-07 -4.981184e-07 -3.561529e-08 4.631418e-08
1.564063e-08 8.819087e-08 -7.119651e-08 -5.068400e-08 -4.346349e-08 3.187528e-08
1.817401e-07 1.387830e-07 4.043828e-08 -3.765282e-07 -2.047000e-08 1.557619e-08
-2.029681e-07 3.860973e-07 3.010080e-07 -4.490058e-07 -7.602912e-08 2.487556e-08
5.657215e-07 -2.253975e-07 -1.162523e-07 -4.549908e-08 1.816102e-09 -8.318877e-10
5.655320e-07 -1.713561e-07 -1.830900e-07 -1.220453e-07 -9.755534e-09 5.137883e-09
3.894707e-07 -1.529330e-07 2.661038e-07 4.592313e-07 -4.881988e-08 -5.384069e-08
1.021192e-08 -4.632853e-08 -6.844528e-08 2.328259e-09 6.903642e-08 9.902624e-09
-2.361110e-07 4.988735e-07 -2.352458e-08 1.050940e-07 -5.861374e-08 8.606989e-09
6.545674e-07 -2.666569e-07 -1.624588e-07 -4.206671e-08 1.758752e-08 -2.786015e-08
-1.200161e-07 -9.829655e-08 1.551039e-06 -7.623532e-07 4.453221e-07 -4.650022e-07
-3.258971e-08 9.771905e-08 -7.106830e-08 3.243773e-10 -9.013311e-09 6.370841e-09
-5.351803e-08 1.929927e-07 -1.320336e-07 -2.584549e-11 -2.959050e-09 -3.558917e-10
-1.274830e-07 4.488181e-07 -1.490583e-07 -2.792752e-08 -5.183601e-08 -1.750015e-09
1.938132e-08 4.761881e-08 -7.761032e-08 -3.158447e-08 7.359362e-08 -3.089960e-08
5.009191e-08 1.516052e-08 -2.079283e-08 5.544145e-09 1.263345e-09 8.538548e-10
-8.991060e-08 3.807629e-07 -1.550486e-07 -1.300846e-07 -3.089984e-08 1.370944e-08
-1.775020e-07 3.785206e-07 -9.075669e-08 -9.194267e-08 -9.410775e-08 1.244871e-08
-4.692273e-08 1.932386e-07 -1.227778e-07 -2.170395e-09 1.333246e-15 -2.252161e-10
-4.670270e-08 1.901487e-07 -1.225545e-07 -5.325739e-12 -2.265390e-09 -4.700124e-10
1.137860e-08 4.658489e-08 -4.080617e-08 -2.673511e-08 8.837283e-08 -3.974519e-08
-1.028083e-07 2.704418e-07 -1.339310e-07 -6.648406e-08 -7.204100e-08 1.445745e-08
-5.807530e-08 2.359668e-07 -1.460514e-07 -6.254163e-08 -2.372691e-08 2.172301e-09
8.975431e-08 -1.420988e-08 -3.702397e-08 -1.221865e-08 -5.446748e-09 1.256983e-08
1.204843e-09 7.688929e-08 -7.263895e-08 -3.265834e-08 5.998444e-08 -3.229121e-08
2.307993e-08 4.574942e-08 -7.704898e-08 -2.277746e-08 7.658057e-08 -2.944614e-08
1.648400e-07 -4.421681e-08 -8.973271e-08 -3.374382e-08 -4.210912e-09 2.300919e-08
6.642097e-08 1.762322e-08 -4.477625e-08 -2.705485e-08 -2.200504e-09 2.882704e-10
7.728577e-08 -9.983371e-09 -2.369780e-08 -2.512622e-09 -1.131779e-09 1.701216e-09
9.627424e-08 -2.018830e-08 -3.994578e-08 -1.034952e-08 -3.791034e-09 1.533162e-08
3.036912e-08 7.494507e-08 -8.868654e-08 -2.569860e-08 5.489840e-08 -1.807270e-08
2.304491e-08 7.685193e-08 -7.191727e-08 -3.349860e-08 5.994818e-08 -2.755406e-08
-2.224615e-10 7.739566e-08 -8.595192e-08 -3.359535e-08 6.296417e-08 -2.793013e-08
1.054299e-07 -2.608058e-08 -4.039984e-08 2.410057e-09 -1.539049e-10 1.482810e-08
-4.217142e-09 9.076692e-08 -5.987736e-08 1.959591e-08 2.162837e-09 5.628431e-09
-6.212212e-09 8.972363e-08 -6.496444e-08 2.250379e-08 4.840969e-09 1.468818e-09
-9.098197e-09 9.637518e-08 -6.316681e-08 1.525638e-08 4.092454e-09 -1.397021e-09
4.307127e-07 -3.689164e-07 8.514882e-07 4.921295e-07 -1.087322e-07 1.094480e-07
-1.516330e-08 9.005781e-08 -4.815161e-08 1.462516e-08 1.362202e-08 9.343530e-09
-2.072537e-08 1.139124e-07 -7.156174e-08 2.119959e-08 6.023010e-09 -1.138321e-09
8.952400e-08 -1.596284e-08 -3.088318e-08 -1.062087e-09 -7.589533e-10 4.390679e-10
9.340056e-08 -1.869407e-08 -3.140043e-08 -1.720202e-10 -1.155898e-11 3.976754e-21
8.863445e-08 -1.863469e-08 -2.780229e-08 -4.962958e-10 7.967895e-10 1.990551e-09
-1.115170e-08 1.104293e-07 -6.999061e-08 2.368025e-08 2.655078e-09 3.918861e-09
8.952400e-08 -1.596451e-08 -2.895873e-08 -8.223004e-10 4.202272e-11 7.267671e-10
-1.220666e-08 1.074377e-07 -7.110682e-08 2.806184e-08 1.756793e-08 5.494801e-09
-6.458322e-09 9.252461e-08 -5.625389e-08 2.264377e-08 1.004372e-08 2.220069e-09
-1.080083e-08 1.099111e-07 -6.547993e-08 2.504494e-08 1.661569e-08 5.973384e-09
7.651253e-08 -5.739870e-09 -2.963214e-08 3.947145e-09 -8.098260e-10 5.772840e-10
7.756288e-08 -7.475814e-09 -2.910606e-08 3.561489e-09 -4.158775e-10 1.500990e-09
6.638443e-08 7.744808e-09 -3.770567e-08 2.347797e-08 2.030523e-09 3.150993e-09
8.628903e-08 -1.291709e-08 -2.918023e-08 4.557680e-09 8.982336e-10 4.500784e-09
6.551029e-08 7.914587e-09 -3.081936e-08 1.881165e-08 2.243274e-09 3.607997e-09
6.867260e-08 6.275779e-09 -3.225935e-08 1.687755e-08 -9.499315e-10 1.827951e-09
7.454133e-08 -1.694286e-09 -2.956863e-08 1.495479e-08 2.440200e-09 2.303320e-09
4.562743e-08 1.697894e-08 -2.003444e-08 2.094426e-09 7.733427e-10 2.781886e-11
7.237494e-08 7.111823e-10 -3.321571e-08 1.523392e-08 7.043819e-10 5.573526e-09
5.441105e-08 1.044373e-08 -2.069636e-08 1.940330e-09 -2.147611e-10 2.377181e-10
6.778068e-08 5.090091e-09 -3.243952e-08 1.797197e-08 4.418468e-09 4.626898e-09
-1.945439e-08 8.117162e-08 -3.172059e-08 1.466475e-09 -1.079110e-09 -1.208380e-08
-2.125415e-08 6.524304e-08 -3.649251e-08 -6.398052e-09 -9.815826e-09 -1.660209e-08
-1.627050e-08 8.946677e-08 -3.624987e-08 1.175082e-08 -2.164453e-08 -1.373220e-08
4.649968e-08 1.661368e-08 -1.984989e-08 1.477616e-09 1.075606e-10 -3.160070e-10
4.238673e-08 1.874360e-08 -2.012280e-08 4.358587e-09 8.095151e-10 7.514291e-10
5.615127e-08 -3.316862e-07 1.984028e-06 7.744384e-07 -5.447398e-07 -7.791164e-07
-1.504099e-08 6.890995e-08 -4.076454e-08 4.831249e-09 -2.300311e-08 -3.891500e-09
-9.990383e-09 7.823996e-08 -5.200935e-08 1.153694e-08 -2.770169e-08 -1.261908e-08
-1.260890e-08 6.873652e-08 -4.731590e-08 5.387650e-09 -3.132729e-08 -1.208984e-08
-4.392565e-07 1.125418e-07 1.724953e-06 6.862099e-07 -3.699070e-07 -4.350441e-07
-1.662693e-08 7.635730e-08 -5.183483e-08 1.668131e-09 -9.343479e-09 -1.030715e-08
4.745344e-08 2.694024e-08 -3.768395e-08 -1.887718e-08 -4.266420e-09 5.398166e-09
4.393540e-08 3.094381e-08 -3.983908e-08 -1.768286e-08 -1.307331e-09 -2.100308e-09
-9.870154e-09 -3.015422e-08 -6.059495e-08 1.165566e-09 8.763376e-08 -5.503203e-11
4.289446e-08 2.112846e-08 -1.908583e-08 7.572991e-10 2.905919e-11 -2.403804e-10
4.640122e-08 1.822843e-08 -1.953232e-08 1.174328e-09 1.826283e-10 -1.321566e-10
4.458353e-08 1.840955e-08 -1.972424e-08 3.719780e-09 3.904556e-10 -6.017887e-11
4.781732e-08 1.572594e-08 -1.990310e-08 5.569788e-10 -2.912172e-10 3.096481e-10
9.608893e-08 -1.438108e-08 -3.370902e-08 9.938253e-09 1.862766e-09 8.861965e-09
6.924575e-08 -2.407419e-09 -2.721466e-08 6.033873e-09 4.756389e-10 1.666407e-09
4.464958e-08 4.039091e-08 -4.502742e-08 -3.103127e-08 -9.181634e-09 7.176846e-09
5.768213e-08 8.104582e-09 -1.980797e-08 -3.686513e-09 -1.498220e-09 1.495010e-09
7.404783e-08 -2.653351e-09 -2.731512e-08 9.024102e-09 6.591576e-10 -1.618313e-09
4.974711e-08 3.147638e-08 -5.814270e-08 -3.529895e-08 1.506415e-09 5.210552e-10
5.623797e-08 2.879698e-08 -5.191972e-08 -3.572870e-08 1.538216e-09 6.915514e-09
5.124073e-08 2.782792e-08 -3.428745e-08 -2.375120e-08 -6.763523e-09 7.955629e-09
3.838514e-08 2.658461e-08 -2.432241e-08 6.434761e-09 3.409697e-10 9.548728e-10
3.494248e-08 2.783884e-08 -2.280204e-08 2.261886e-09 4.216636e-10 3.579506e-10
3.768301e-08 2.446509e-08 -2.430075e-08 8.935310e-09 5.063281e-10 1.038497e-09
3.837687e-08 2.637824e-08 -2.266877e-08 6.511536e-09 7.903319e-10 5.565734e-10
3.712118e-08 2.685019e-08 -2.211038e-08 2.846809e-09 4.833879e-10 1.516356e-09
3.627026e-08 2.683473e-08 -2.253468e-08 2.731283e-09 3.565259e-11 -2.636425e-10
2.772543e-08 7.307625e-08 -6.103818e-08 -3.475904e-08 -1.258179e-08 1.266116e-08
3.552045e-08 2.929670e-08 -2.276675e-08 3.578110e-09 7.721812e-10 5.329430e-10
4.324227e-08 2.059420e-08 -1.910164e-08 6.141701e-10 2.198508e-10 -3.097881e-11
-1.733446e-08 6.984441e-08 -4.406672e-08 -4.696611e-08 -1.072126e-07 3.194526e-08
4.138614e-08 2.138093e-08 -1.903031e-08 8.848762e-10 2.514966e-11 -2.859935e-10
4.242110e-08 2.235353e-08 -1.937439e-08 1.211302e-09 -4.812659e-10 8.139583e-10
-2.639501e-08 9.186937e-08 -4.108244e-08 -4.709534e-09 -3.960484e-08 1.511089e-08
4.912302e-08 1.436376e-08 -2.071106e-08 -8.310906e-10 -3.720562e-10 8.264992e-11
4.251548e-08 2.078085e-08 -2.007543e-08 3.510797e-09 1.291302e-10 2.873924e-10
6.853904e-08 -1.965967e-09 -2.485614e-08 -1.448108e-09 -1.539398e-09 7.774774e-10
5.276561e-08 1.262065e-08 -2.199342e-08 -3.350512e-09 -1.716895e-10 2.054095e-10
5.139802e-08 1.271111e-08 -2.051761e-08 -6.225091e-09 -1.368808e-09 1.168008e-09
4.471968e-08 2.064142e-08 -1.974000e-08 2.716250e-09 1.935099e-10 -7.381397e-11
5.122044e-08 1.158018e-08 -2.040917e-08 -2.074536e-09 -4.420295e-10 1.636393e-10
4.020243e-08 2.285573e-08 -1.943826e-08 1.265383e-09 2.148104e-10 -3.498380e-10
5.443212e-08 1.103386e-08 -2.130067e-08 6.693278e-09 1.789412e-09 1.385733e-09
4.496584e-08 1.874396e-08 -2.115562e-08 -1.530052e-09 -5.754688e-10 5.695691e-10
4.525192e-08 2.150231e-08 -2.691135e-08 -3.628289e-09 -6.196133e-11 -1.800453e-10
4.870202e-08 1.568409e-08 -2.017491e-08 -1.353488e-09 -4.755970e-10 5.124466e-11
-1.439492e-08 1.262806e-07 -9.422859e-08 -7.558430e-09 -1.607280e-09 8.608732e-09
-1.026385e-08 1.223238e-07 -9.329628e-08 -8.389565e-09 -6.106263e-10 6.560853e-09
-1.776137e-08 1.224777e-07 -8.482517e-08 -3.865198e-09 -5.381875e-09 1.371362e-08
-1.795383e-08 1.190244e-07 -8.489796e-08 -6.129815e-09 -3.887864e-09 1.383232e-08
-1.252178e-08 9.616984e-08 -7.823442e-08 -1.411519e-08 -1.159860e-08 1.991804e-08
5.104138e-08 1.190490e-08 -1.974708e-08 -2.269789e-10 -1.558171e-10 1.121170e-10
6.412826e-08 3.045221e-09 -2.155222e-08 -1.712932e-09 -1.038061e-09 2.140507e-10
7.997292e-08 -1.212326e-08 -2.383863e-08 5.037486e-09 1.565507e-09 5.851095e-09
8.379449e-08 -1.587790e-08 -2.250700e-08 4.575194e-09 1.172004e-09 5.752442e-09
4.008670e-08 2.898620e-08 -3.400368e-08 -5.932026e-09 -1.619978e-09 7.360739e-10
8.657402e-08 -1.391553e-08 -3.022939e-08 4.879240e-09 2.205402e-09 4.587045e-09
8.227163e-08 -1.184882e-08 -2.617156e-08 8.024504e-09 1.952549e-09 7.308885e-09
6.068190e-08 6.376731e-09 -2.073429e-08 -7.777743e-10 -8.830417e-10 6.600683e-10
3.171067e-08 3.122824e-08 -2.351816e-08 -2.189438e-09 -1.061070e-09 4.801573e-09
8.335967e-08 -1.589780e-08 -2.627378e-08 4.945636e-09 7.725540e-10 7.947176e-09
1.684725e-08 4.742174e-08 -3.714469e-08 -8.302458e-10 -4.465331e-09 1.231180e-08
4.692413e-08 2.048292e-08 -2.917615e-08 -7.433306e-09 -4.973686e-10 2.423852e-09
4.221139e-08 2.595364e-08 -3.344461e-08 -1.006114e-08 -5.614656e-10 1.192587e-09
3.891980e-08 3.097362e-08 -3.598918e-08 -7.439583e-09 -1.510202e-09 2.797897e-09
4.271920e-08 2.615450e-08 -2.969833e-08 -4.320978e-09 1.134644e-10 1.206196e-09
4.798712e-08 1.913305e-08 -3.040357e-08 -1.145612e-08 -1.298121e-09 3.069262e-09
3.991591e-08 3.078952e-08 -3.278034e-08 -1.263087e-08 -4.061477e-09 1.954304e-09
3.036474e-08 4.605193e-08 -4.689151e-08 -1.509343e-08 -5.082402e-09 3.945694e-09
4.971215e-08 3.473472e-08 -4.256993e-08 -3.203369e-08 -1.278916e-08 1.367162e-08
3.411330e-08 2.655775e-08 -2.382519e-08 -2.061975e-09 -1.413865e-09 5.297201e-09
4.458467e-08 2.960461e-08 -3.104031e-08 -1.388298e-08 -4.388281e-09 4.920484e-09
4.573434e-08 7.098820e-08 -6.690817e-08 -5.592373e-08 -8.801499e-09 7.246346e-09
4.478274e-08 2.024151e-08 -2.152976e-08 -7.737105e-09 -3.682149e-09 3.293677e-09
4.063769e-08 3.454499e-08 -3.713097e-08 -1.301532e-08 -2.999395e-10 4.201339e-09
3.511299e-08 3.386575e-08 -3.032209e-08 -7.144767e-09 -2.787660e-09 8.014865e-09
-1.427529e-08 3.450475e-08 -3.410573e-08 -3.251938e-09 -4.063694e-08 3.034221e-08
7.108945e-09 1.200076e-07 -8.551364e-08 -6.873831e-08 -5.676419e-08 3.445175e-08
1.927265e-08 5.740871e-08 -5.478244e-08 -1.788093e-08 -1.525353e-08 1.596124e-08
4.220358e-08 2.824193e-08 -3.344461e-08 -5.945819e-09 -1.079943e-09 -6.727987e-10
6.177715e-07 -2.316880e-07 -2.195838e-07 -7.498413e-09 4.774089e-09 -3.352416e-10
5.933371e-07 -2.123882e-07 -1.809549e-07 -1.008363e-08 5.901447e-09 -4.796530e-08
-1.295550e-07 4.144974e-07 -1.504298e-07 1.847929e-08 -7.635370e-08 -1.608794e-09
6.038602e-07 -3.090978e-07 3.422729e-08 -2.460359e-08 -6.394927e-08 -8.335027e-08
-2.247460e-08 1.343980e-07 -9.575873e-08 7.303421e-09 -1.830932e-09 -6.333369e-09
6.371492e-07 -2.563859e-07 -1.677914e-07 2.452051e-08 6.354563e-09 -5.445614e-09
2.393526e-08 3.809791e-08 -3.481667e-08 -2.501389e-09 -2.291106e-09 1.178137e-08
5.209698e-07 -2.239597e-07 -6.432745e-08 -4.956119e-08 -2.173589e-08 -1.045411e-07
-5.584397e-08 1.507455e-07 -1.141405e-07 1.230065e-08 -1.184805e-07 -2.048652e-08
-2.830617e-08 6.016103e-08 -3.411617e-08 5.385125e-10 -6.658769e-09 -1.739198e-08
-4.216946e-08 1.065948e-07 -7.138175e-08 2.545129e-10 -6.395347e-09 -4.038997e-09
-1.313231e-08 8.501161e-08 -6.735077e-08 1.539692e-09 -1.509325e-09 -7.338577e-09
6.123627e-07 -2.311900e-07 -2.146402e-07 8.617017e-10 -5.244344e-09 3.983247e-09
-4.208668e-07 -9.816639e-07 3.148606e-06 6.815517e-07 -1.814553e-07 -6.306562e-07
-2.717481e-08 2.268202e-08 -3.487326e-08 2.532347e-09 -7.146625e-08 1.990039e-08
2.684179e-08 5.828735e-08 -5.190084e-08 -6.008298e-09 8.705491e-16 1.467084e-09
4.393140e-08 3.112991e-08 -3.344461e-08 -1.496169e-08 1.876491e-09 7.154202e-10
-1.494201e-08 1.137585e-07 -6.606452e-08 2.202462e-08 6.961568e-09 4.531809e-09
-1.196912e-08 1.013531e-07 -6.444744e-08 8.125408e-09 1.036466e-08 5.024987e-09
4.346409e-08 1.901368e-08 -2.221888e-08 -5.864396e-09 -1.884564e-09 2.280270e-09
3.641959e-08 2.577489e-08 -2.629298e-08 -1.134243e-09 -6.206830e-10 3.918907e-09
-1.479701e-08 1.056555e-07 -6.507727e-08 7.783859e-09 -4.221557e-10 2.518331e-09
-2.813897e-08 1.282805e-07 -7.884490e-08 1.873051e-08 8.323158e-09 -5.160500e-10
3.429187e-08 2.746269e-08 -2.372408e-08 -2.925055e-09 -2.181362e-09 3.973362e-09
4.000736e-08 2.731166e-08 -3.101940e-08 -3.064368e-09 -5.549774e-10 3.118353e-09
-2.380655e-08 1.208739e-07 -6.987435e-08 1.747624e-08 1.197216e-08 1.132736e-09
-2.488736e-08 1.088338e-07 -7.330650e-08 2.208137e-08 1.965914e-08 6.769444e-09
1.232519e-07 -1.342539e-08 -7.096106e-08 -4.488496e-08 -8.899703e-09 2.307482e-08
1.401933e-07 -1.181254e-08 -9.124072e-08 -1.083423e-07 -1.678889e-08 3.870048e-08
-1.676583e-08 9.204990e-08 -6.213838e-08 1.508250e-08 1.175604e-08 3.593685e-09
1.055433e-07 1.872594e-08 -9.968320e-08 -1.162230e-07 -2.088224e-08 3.885588e-08
4.427609e-08 1.883092e-08 -1.943682e-08 2.099183e-09 5.781662e-10 -1.522651e-10
-7.311307e-09 9.630719e-09 -5.504043e-08 3.313097e-10 7.908576e-08 -2.237185e-08
8.824268e-08 9.755982e-09 -6.966558e-08 5.732498e-08 1.332172e-08 2.251339e-08
4.765820e-08 3.861086e-08 -4.923706e-08 4.209204e-08 1.168112e-08 5.979750e-09
2.566857e-08 4.623363e-08 -7.573724e-08 -1.916917e-08 7.745700e-08 -2.549831e-08
3.941099e-08 5.289201e-08 -5.363878e-08 4.685343e-08 1.038960e-08 9.506532e-09
9.422456e-08 4.595737e-08 -1.126376e-07 -1.227250e-08 7.425051e-08 -2.402343e-08
2.229778e-08 4.783022e-08 -5.084470e-08 -1.746305e-08 6.959203e-08 -2.542097e-08
1.605950e-08 5.660271e-08 -4.019624e-08 1.076458e-08 2.623258e-09 -1.640283e-10
7.875911e-09 3.778857e-08 -5.322016e-08 -2.415975e-08 7.144387e-08 -1.447962e-08
5.986003e-08 4.540841e-08 -6.506161e-08 6.082532e-08 4.294072e-09 1.248078e-08
7.634227e-08 9.305401e-09 -5.235721e-08 3.933290e-08 9.046661e-09 1.548484e-08
-4.343083e-08 1.515091e-07 -7.917456e-08 -1.819036e-08 -6.013016e-08 1.259096e-08
1.913335e-08 3.976075e-08 -2.567479e-08 1.485847e-08 1.130971e-08 4.777710e-09
-4.367381e-08 1.248561e-07 -7.838080e-08 -2.073781e-08 -6.661970e-08 1.200535e-08
-3.378911e-08 1.052806e-07 -6.961563e-08 -1.034146e-08 -6.199267e-08 2.111827e-08
-3.934080e-08 1.165478e-07 -8.421032e-08 -1.555039e-08 -3.547663e-08 1.208232e-08
4.693317e-08 1.716091e-08 -2.175150e-08 -1.065831e-09 -1.341762e-10 1.601576e-09
3.433405e-08 2.227211e-08 -2.333364e-08 -1.332062e-08 -8.405046e-09 1.144446e-08
3.752675e-08 2.251461e-08 -2.404197e-08 -6.932572e-09 -3.484254e-09 4.693063e-09
-5.394623e-08 1.298688e-07 -7.470085e-08 -2.050940e-08 -6.130265e-08 7.758303e-09
5.945934e-08 2.793760e-08 -4.212023e-08 -3.608207e-08 -1.072889e-08 1.179042e-08
3.879100e-08 4.247768e-08 -4.993384e-08 -2.517150e-08 -4.000058e-09 -1.115812e-10
4.386662e-08 2.533019e-08 -3.214704e-08 -1.010933e-08 -3.394161e-10 2.720974e-09
-3.401728e-08 1.276137e-07 -7.067938e-08 -1.709215e-08 -5.784073e-08 1.782252e-08
2.240854e-07 -4.890676e-07 1.516201e-06 5.785234e-07 -1.521107e-07 -3.970751e-07
-3.675703e-08 1.253452e-07 -7.092184e-08 -2.476351e-08 -5.039772e-08 1.930716e-08
2.706289e-08 2.885382e-08 -2.349744e-08 -1.871417e-08 -1.597374e-08 1.469797e-08
-3.535329e-08 1.095598e-07 -7.578027e-08 -3.709530e-08 -6.249645e-08 1.683591e-08
-6.197534e-08 3.128188e-07 -8.815002e-08 2.685622e-07 3.658753e-08 4.281879e-08
-9.247053e-08 3.764722e-07 -1.605912e-08 2.897026e-07 -1.236755e-09 -2.033186e-08
-1.141300e-07 3.608858e-07 -8.196084e-08 2.026943e-07 9.303262e-08 3.915908e-08
-1.126544e-07 3.491336e-07 -7.155869e-08 2.126755e-07 2.357826e-08 6.992651e-09
-5.434732e-09 2.041233e-07 -1.230118e-07 1.568363e-07 1.977699e-08 1.100692e-08
9.972187e-08 -2.063058e-08 -3.611530e-08 -3.301775e-09 8.934687e-10 4.673344e-09
1.197093e-07 -2.608058e-08 -4.302036e-08 1.355606e-09 2.209782e-10 1.595650e-08
-2.144005e-08 2.331516e-07 -9.648022e-08 1.976471e-07 4.583564e-08 2.452396e-08
-7.023219e-08 3.153306e-07 -8.101908e-08 2.182635e-07 3.338899e-08 -8.227806e-10
1.353293e-07 -3.112099e-08 -6.373963e-08 2.067572e-08 9.523009e-09 1.814682e-08
6.211263e-08 1.647753e-07 -8.464399e-08 3.255853e-07 3.215644e-08 2.954909e-08
1.251007e-07 1.334223e-07 -1.021836e-07 2.825776e-07 4.010903e-08 3.386712e-08
-8.813300e-08 3.346094e-07 -1.024770e-07 2.070971e-07 4.493430e-08 1.878420e-08
7.755757e-08 -1.144466e-08 -2.237192e-08 -6.040414e-09 -1.174446e-09 4.837790e-09
8.526839e-08 -1.556787e-08 -2.327410e-08 -2.902984e-09 -7.009858e-10 5.194567e-09
8.315273e-08 -1.444463e-08 -2.455700e-08 -9.883525e-10 -1.501542e-09 1.495843e-09
6.305121e-08 1.065200e-07 -1.045879e-07 1.544477e-07 3.071708e-08 2.842830e-08
8.243309e-08 -1.298674e-08 -2.368068e-08 -1.094984e-09 -3.334028e-10 1.202089e-09
1.150073e-08 5.897051e-08 -4.307995e-08 9.060855e-09 1.847493e-09 2.973202e-09
9.137009e-09 6.953431e-08 -5.188486e-08 2.330525e-08 1.189676e-08 2.285996e-09
8.382106e-08 7.578830e-08 -1.062110e-07 1.756365e-07 2.711579e-08 4.076961e-08
-4.028070e-08 1.742445e-07 -1.201063e-07 -1.083096e-08 -2.940841e-09 -1.892581e-09
1.197841e-09 8.374722e-08 -5.196474e-08 2.392710e-08 2.134760e-08 1.271277e-08
1.656800e-08 1.449387e-07 -1.084639e-07 1.222004e-07 1.311936e-08 7.129944e-09
6.678996e-09 5.502952e-08 -4.328380e-08 1.176627e-08 1.250669e-08 7.927561e-09
8.963399e-09 7.440004e-08 -5.288498e-08 1.979339e-08 1.189399e-09 5.325276e-09
1.254170e-09 8.327439e-08 -5.789328e-08 2.232432e-08 5.936634e-09 -7.693015e-11
6.040983e-07 -6.679671e-07 1.345022e-06 9.311014e-08 2.515040e-07 -2.799829e-07
1.344878e-08 6.820193e-08 -5.210902e-08 2.417830e-08 4.207569e-09 -1.082949e-09
2.381070e-07 9.291382e-08 -1.192840e-07 -2.716994e-07 6.167028e-08 -5.057497e-08
1.205967e-07 -6.287763e-08 1.153587e-06 -6.639130e-07 -2.796046e-07 2.974153e-07
1.223022e-08 6.067997e-08 -4.411362e-08 1.582863e-08 4.298812e-10 4.440749e-09
-6.655737e-09 8.597874e-08 -6.110348e-08 -1.034627e-08 5.899589e-09 -1.838502e-09
-1.205064e-08 7.185062e-08 -5.440752e-08 -1.126153e-08 3.030976e-08 -1.250632e-08
2.712008e-07 -4.391907e-08 4.030820e-07 -5.123648e-07 -5.889886e-08 6.630487e-08
-1.200378e-08 9.431140e-08 -5.442341e-08 -2.217892e-08 2.409855e-08 -1.055117e-08
-1.575981e-08 7.486826e-08 -4.119770e-08 -5.769930e-09 1.497415e-08 -8.110333e-09
6.565478e-07 -2.959028e-07 -1.376715e-07 2.945539e-08 2.155679e-09 -2.965537e-08
-1.515398e-08 7.631839e-08 -5.043596e-08 -1.029195e-08 2.606948e-08 -1.384487e-08
4.162934e-07 -2.633022e-07 7.747704e-07 -4.898476e-07 -1.098876e-07 1.507954e-07
2.924952e-07 -6.412533e-08 1.213440e-07 -3.090331e-07 4.504772e-08 -4.618670e-08
4.804080e-08 -8.278940e-09 -6.058785e-08 -1.132640e-08 9.081919e-08 -3.661674e-08
3.013940e-07 -5.460957e-08 -1.130086e-07 -1.955360e-07 3.136938e-08 -2.843350e-08
2.685929e-07 4.048434e-09 -5.524092e-08 -2.493137e-07 6.018353e-08 -2.849688e-08
-3.769419e-07 5.355218e-07 3.353875e-07 1.640739e-07 7.727581e-08 -3.294909e-08
-7.415058e-08 1.941981e-07 -1.126910e-07 2.163908e-08 7.349915e-08 5.005365e-09
4.027429e-07 -1.268709e-07 -1.323016e-07 -1.293537e-07 6.010655e-08 -9.868808e-08
3.939875e-07 -2.001199e-07 -9.440984e-08 -1.311223e-07 3.622077e-08 -2.988678e-08
-6.009681e-08 2.573992e-07 -1.295580e-07 -1.012746e-07 1.821281e-08 -1.168464e-08
-8.861090e-08 3.068689e-07 -1.068610e-07 -7.742920e-08 6.834632e-08 -1.376837e-08
2.746742e-07 -1.453469e-07 -2.367424e-09 -2.309097e-08 -2.165181e-08 -3.581085e-08
2.507993e-07 -1.397216e-07 -8.014712e-08 -1.038066e-08 2.254132e-08 -5.981575e-08
-2.525043e-08 1.094053e-07 -6.181203e-08 -3.474498e-09 -1.329505e-15 -3.974985e-10
4.904609e-07 -2.616236e-07 -4.474667e-08 -8.429365e-08 -2.442877e-08 -1.125071e-07
-1.155651e-07 3.863542e-07 -1.172494e-07 -2.112553e-08 6.678104e-08 -6.549812e-09
1.491061e-07 -8.992843e-07 1.652860e-06 3.538643e-07 1.866095e-08 6.090486e-08
3.965918e-07 -2.053675e-07 4.060322e-08 -1.299124e-07 -1.836994e-08 2.771829e-08
-4.040299e-08 2.145795e-07 -1.273041e-07 -8.831754e-08 2.250113e-08 -7.520133e-09
4.202556e-07 -1.901127e-07 -1.815293e-08 -4.154843e-08 2.605655e-08 -5.289526e-08
-9.491972e-08 3.937272e-07 -6.424466e-08 -1.984143e-07 4.758286e-08 -2.771100e-08
-1.470473e-07 3.975019e-07 -3.498964e-08 -2.053886e-07 -5.930182e-08 6.218594e-09
-3.799094e-09 2.492761e-07 -1.348536e-07 -2.204139e-07 -2.777873e-08 1.536690e-08
-4.377803e-08 2.939568e-07 1.287246e-07 -4.853209e-07 -5.157059e-08 8.497860e-08
4.702674e-07 -2.168899e-07 2.647751e-08 -3.356394e-07 -1.632074e-08 4.166886e-08
2.164956e-07 -3.481643e-08 -6.251413e-08 -2.946415e-07 -1.206931e-08 5.330601e-08
-6.964999e-08 3.669967e-07 -9.951273e-08 -3.320894e-07 2.801950e-09 2.800572e-08
1.161276e-07 1.165796e-08 -7.721425e-08 -7.179348e-08 -1.275733e-08 2.169961e-08
-6.139338e-09 8.314340e-08 -4.767048e-08 -1.440994e-08 2.121066e-08 -6.662413e-09
5.733345e-10 7.655278e-08 -4.924088e-08 -6.652653e-09 2.629865e-08 -4.563792e-09
-6.279670e-09 7.162440e-08 -4.173032e-08 -4.057084e-09 1.726910e-08 -3.936336e-09
-1.372119e-08 6.558079e-08 -2.218581e-08 6.998859e-10 1.142933e-08 -8.120728e-09
3.288037e-07 5.891192e-09 -7.611986e-08 -2.854176e-07 -3.808975e-08 3.452944e-08
1.518561e-07 4.355634e-08 -1.110384e-07 -1.508184e-07 -2.898069e-08 4.316521e-08
-1.263833e-08 6.273779e-08 -2.582455e-08 -2.804620e-09 2.482931e-08 -6.860533e-09
-1.016484e-08 6.589474e-08 -4.391408e-08 8.680549e-10 2.580608e-08 -4.101908e-09
4.808056e-07 -2.052527e-07 -9.096552e-09 -2.185101e-07 1.283510e-09 2.149793e-08
1.522558e-07 5.826385e-08 -1.026234e-07 -2.882243e-07 -5.617231e-08 6.581295e-08
-1.203984e-08 6.599421e-08 -3.791782e-08 -2.168625e-09 1.387124e-08 -3.703247e-09
-7.168004e-08 3.218305e-07 3.113844e-07 -5.015267e-07 3.855581e-08 -3.113211e-08
-7.282721e-08 3.417993e-07 -6.565100e-08 -2.661768e-07 -9.971097e-08 2.520344e-08
-1.426931e-08 5.950142e-08 -3.031403e-08 -1.474173e-09 1.970977e-08 -4.309536e-09
-1.413100e-08 5.603901e-08 -3.034781e-08 3.603290e-10 1.924594e-08 -4.241225e-09
1.568209e-07 1.192058e-08 1.016551e-07 -4.265553e-07 2.746427e-08 1.247189e-08
-2.972884e-07 5.217481e-07 1.635562e-07 -1.597856e-07 4.013312e-08 1.923857e-08
8.103268e-07 -6.171992e-07 6.242857e-07 -5.047759e-08 -1.728022e-08 1.106502e-07
-1.491489e-08 6.363518e-08 -3.646039e-08 -2.911366e-09 1.358742e-08 -5.312235e-09
4.813976e-07 -7.967958e-07 1.100600e-06 -2.859170e-07 -3.568352e-08 3.599378e-07
1.330846e-07 1.583618e-07 1.478177e-07 -4.065925e-07 -2.058673e-08 -4.555268e-09
-1.554895e-07 3.413621e-07 -1.766325e-08 -2.685379e-07 5.446034e-08 -3.586095e-08
-2.444295e-07 -1.337630e-07 1.208881e-06 -7.692693e-07 4.269795e-08 -3.446856e-08
4.202015e-08 4.677088e-08 -5.419336e-08 -3.903719e-08 -1.038445e-08 1.028189e-08
-1.352010e-08 6.581322e-08 -3.759878e-08 -1.384622e-09 1.384744e-08 -4.385801e-09
8.161076e-08 3.871513e-09 -4.546751e-08 -2.982146e-08 -4.016532e-09 3.462351e-09
-1.461866e-08 6.645331e-08 -3.451913e-08 -4.044855e-09 1.946368e-08 -7.128472e-09
1.051315e-07 4.923095e-08 -9.877579e-08 -1.117113e-07 -2.681417e-08 3.746323e-08
1.047347e-07 3.001664e-08 -8.700935e-08 -8.081307e-08 -1.676997e-08 2.352225e-08
-1.533941e-08 5.787070e-08 -2.979000e-08 -9.230845e-11 2.069410e-08 -5.479505e-09
7.295514e-08 9.327810e-09 -3.878328e-08 3.280233e-08 5.953103e-09 1.240163e-08
6.664488e-08 1.148518e-09 -2.424227e-08 -4.964642e-09 -7.213139e-10 2.747230e-09
1.348759e-07 -7.888529e-09 -7.759641e-08 7.233677e-08 3.939332e-09 4.606534e-09
6.261936e-08 4.267085e-09 -2.154719e-08 -2.524758e-09 -1.177847e-09 4.568041e-10
6.366013e-08 2.268488e-09 -2.155857e-08 -1.276001e-09 -1.148499e-09 9.603419e-10
8.621464e-08 1.376290e-08 -7.293622e-08 5.614508e-08 1.115028e-09 -1.957826e-09
6.649714e-08 1.915304e-09 -2.243508e-08 -5.330733e-09 -1.978016e-09 3.061884e-09
6.550900e-08 7.919671e-09 -2.970038e-08 1.880810e-08 1.155993e-09 3.432758e-09
7.177976e-08 1.782977e-07 -7.145368e-08 2.638251e-07 5.362973e-08 3.360356e-08
-2.469164e-08 7.559045e-08 -3.744934e-08 5.676054e-10 1.445980e-08 2.422516e-09
-9.865797e-09 2.866161e-07 4.474702e-08 4.152745e-07 7.511677e-08 8.671875e-08
6.835469e-08 -4.435349e-10 -2.573882e-08 -9.127773e-09 -1.671365e-09 5.082234e-09
1.565254e-08 1.668342e-07 -1.154646e-07 1.761725e-07 4.578751e-08 4.154484e-08
6.702944e-08 -1.298389e-09 -2.451495e-08 -6.600062e-09 -1.540441e-09 2.152243e-09
6.738308e-08 -3.647527e-10 -2.210175e-08 -2.720716e-09 -1.288984e-09 8.784081e-10
6.589601e-08 9.213350e-10 -2.169582e-08 -1.257143e-09 -4.700173e-10 1.206741e-09
7.070734e-08 -1.467113e-09 -2.654267e-08 -4.268953e-09 -7.906549e-10 4.636205e-10
7.350098e-08 -4.381604e-09 -2.641337e-08 -1.660585e-09 -1.115046e-09 4.789224e-10
-1.648005e-07 4.165495e-07 -9.882373e-08 -5.459640e-08 -7.820553e-08 9.281848e-09
-2.620749e-07 4.579641e-07 1.150869e-08 1.540707e-07 -6.980382e-08 -1.327478e-08
-4.682424e-08 1.853437e-07 -1.232949e-07 3.968455e-09 -1.626401e-09 -5.191412e-09
6.375227e-08 4.809134e-09 -2.356169e-08 8.378095e-09 2.332786e-09 2.796319e-09
7.976231e-08 -6.788117e-09 -3.185572e-08 -1.028704e-08 3.161483e-10 3.865115e-10
-2.028958e-07 5.138783e-07 -8.116333e-08 3.158762e-07 -1.249483e-08 6.189373e-08
8.102372e-08 -6.809323e-09 -2.935747e-08 -6.793415e-09 -1.574383e-09 1.306408e-09
-5.102220e-07 5.630216e-07 8.109247e-07 -3.771124e-07 -6.107795e-08 -2.182116e-08
7.377196e-08 -3.349487e-09 -2.873337e-08 -7.901368e-09 -1.753213e-10 1.792132e-09
-1.475188e-06 2.666049e-08 3.681780e-06 -2.418881e-07 1.241083e-07 -6.573785e-08
2.604384e-07 -5.742963e-07 2.042100e-06 6.628398e-07 2.540620e-07 1.962240e-07
7.641222e-08 -7.161775e-09 -2.725636e-08 -4.704723e-09 -1.967488e-10 9.345929e-10
-2.148930e-06 -1.502840e-06 6.039968e-06 -2.362458e-07 1.318367e-07 3.193185e-08
-1.340057e-06 2.469479e-07 2.780040e-06 2.542227e-07 8.075365e-07 2.824949e-07
-2.850059e-06 -2.784270e-06 8.620812e-06 2.558084e-08 -3.036850e-07 5.124544e-07
3.388278e-08 2.444237e-07 5.679674e-08 -4.538275e-07 4.834240e-08 -3.143731e-08
1.031953e-07 -1.026729e-07 8.936748e-07 7.040684e-07 -1.586647e-08 8.101133e-08
-6.559180e-07 5.773429e-07 1.515316e-06 4.243315e-07 6.310818e-07 2.484757e-07
7.491792e-08 -5.610527e-09 -2.780171e-08 -3.714983e-09 3.819946e-10 1.528308e-09
3.368934e-08 2.908278e-08 -2.058224e-08 1.439338e-09 6.940743e-10 1.144145e-09
-2.084287e-06 -7.557341e-07 5.005301e-06 -3.010736e-07 7.477281e-07 -1.689188e-07
-1.602581e-06 -6.030789e-07 4.507322e-06 -3.925908e-07 -6.084595e-08 9.146373e-08
-1.992776e-06 -1.499540e-06 5.508609e-06 -4.966650e-07 -4.717597e-07 5.412628e-07
-6.885701e-07 1.555920e-07 1.597449e-06 7.277683e-07 -6.397597e-09 -9.656028e-08
-8.831097e-07 -6.173351e-07 3.406973e-06 -6.658448e-07 -5.659298e-07 3.660366e-07
-9.923589e-07 -1.144918e-06 4.382615e-06 -6.412874e-07 1.661720e-07 1.823497e-07
-1.185798e-06 -2.105368e-06 5.814833e-06 1.798804e-07 -4.855971e-07 4.533154e-07
6.884059e-08 2.236968e-08 -7.698829e-08 6.500088e-08 1.895854e-08 2.036572e-08
-9.831508e-07 -1.163710e-06 3.827989e-06 -7.903250e-07 -7.506776e-07 1.256285e-06
-2.381692e-06 -1.949611e-06 7.104529e-06 -4.811942e-08 -1.346471e-06 9.868987e-07
1.158932e-07 1.239685e-07 -4.441780e-08 3.188646e-07 2.203711e-08 7.372857e-09
1.750208e-07 -1.469008e-09 -1.061208e-07 1.301401e-07 1.421749e-08 1.499598e-08
1.975661e-07 3.024965e-08 -9.625912e-08 3.194167e-07 -7.376367e-09 3.376713e-08
1.375396e-07 2.246475e-08 -1.078938e-07 1.563330e-07 2.688494e-08 4.066163e-08
1.438347e-07 2.634073e-08 -1.033319e-07 1.396156e-07 3.176907e-08 2.983359e-08
3.786035e-08 1.297273e-07 -1.402117e-07 7.410474e-08 -1.195100e-08 -3.049753e-09
7.834805e-08 9.810588e-08 -1.516303e-07 6.512946e-08 -2.547445e-08 1.620618e-09
9.110865e-08 1.352947e-07 -1.411697e-07 1.131510e-07 -4.145179e-08 -2.607249e-08
1.157158e-07 8.114997e-08 -1.199279e-07 1.784339e-07 2.839411e-08 2.105450e-08
8.636209e-08 8.586521e-08 3.457441e-08 4.301323e-07 -2.655020e-08 3.398580e-08
2.344756e-07 5.852377e-08 -3.806494e-09 4.029826e-07 4.754444e-08 9.418402e-08
8.245203e-08 2.339164e-07 4.437460e-08 3.909302e-07 5.394510e-08 1.429641e-08
3.901588e-08 1.362814e-07 -1.354025e-07 7.067719e-08 -1.801601e-08 -5.932735e-10
-3.564445e-07 4.676324e-07 7.442279e-07 -4.650550e-07 -4.267898e-08 -3.005371e-08
3.637242e-08 2.173780e-07 -9.805719e-08 2.780744e-07 4.092492e-08 3.669297e-08
2.032325e-08 1.344098e-07 -1.110780e-07 7.328887e-08 -3.968298e-08 -2.445789e-08
4.031614e-07 -2.538231e-07 2.873129e-07 4.614635e-07 3.146971e-08 4.004016e-08
7.016566e-07 -4.634028e-07 4.134919e-07 1.677059e-07 1.153672e-08 2.851594e-08
6.814813e-08 1.087397e-07 -1.286227e-07 6.521546e-08 -3.734477e-08 -1.297447e-08
7.793705e-08 2.750492e-08 -6.877637e-08 6.419731e-08 -1.388495e-09 1.161894e-08
7.836194e-08 3.438926e-08 -5.853048e-08 6.241775e-08 7.154786e-09 9.522377e-09
8.483701e-08 2.410160e-08 -5.699387e-08 5.966502e-08 1.376340e-08 1.961555e-08
8.518952e-08 2.195273e-08 -6.717299e-08 5.953925e-08 7.679466e-09 2.085181e-08
4.759000e-07 -2.140766e-07 -4.977594e-08 3.409220e-08 -3.978127e-09 5.532556e-08
2.306224e-07 -9.767846e-08 1.306047e-07 4.442321e-07 -3.290729e-08 6.214720e-09
3.412741e-07 -6.904703e-08 -1.049960e-07 1.812835e-07 1.790592e-08 5.181989e-08
2.676520e-07 6.272821e-08 -4.164983e-08 3.350097e-07 3.744527e-08 3.685150e-08
7.153648e-08 4.917491e-08 -9.665892e-08 1.027031e-07 1.315177e-08 2.433361e-08
9.267240e-08 3.909490e-08 -7.668983e-08 8.547614e-08 2.180629e-08 2.337231e-08
8.302362e-08 4.420960e-08 -8.524006e-08 8.646719e-08 5.839009e-09 1.826976e-08
9.875421e-08 2.777077e-08 -8.135631e-08 9.317898e-08 9.438912e-09 5.390034e-09
5.261802e-07 -8.477677e-07 1.146654e-06 1.681446e-07 2.554124e-08 3.628573e-07
3.313889e-07 -4.998069e-08 -2.411389e-09 3.749879e-07 4.357136e-08 7.270400e-08
1.410499e-07 2.983482e-08 -1.014899e-07 1.894469e-07 1.969258e-08 4.558819e-08
3.038933e-07 -4.859363e-08 1.242977e-07 4.368132e-07 1.758870e-08 7.974367e-08
-2.807868e-08 -1.420698e-06 3.795491e-06 4.881122e-07 8.779223e-07 1.191582e-06
-1.336557e-06 -2.490796e-06 6.534724e-06 -6.209739e-08 -6.410757e-08 6.809425e-07
-1.168602e-06 -1.784973e-06 5.420300e-06 3.284013e-07 6.878432e-07 5.083610e-07
-7.303762e-08 -1.199882e-06 2.306219e-06 -4.395328e-07 -2.117356e-07 1.342790e-06
-1.137334e-06 -1.489011e-06 6.044786e-06 -4.174865e-07 -8.013860e-07 7.485655e-07
-2.346524e-06 -2.488844e-06 6.603552e-06 -9.871091e-08 -4.763527e-08 7.170507e-07
-1.154649e-06 -2.034438e-06 6.839874e-06 -2.695434e-07 -1.503348e-07 5.398926e-08
-1.220960e-06 -2.132950e-06 6.556811e-06 -2.655934e-07 -1.140889e-06 1.451755e-06
-1.362725e-06 -2.302822e-06 6.655078e-06 -3.126863e-08 8.366197e-07 1.546987e-06
-3.531846e-07 5.500702e-07 2.303920e-07 -2.832982e-07 7.367793e-09 -1.033151e-08
-1.778279e-07 4.324043e-07 -1.423003e-07 -5.668452e-08 -4.776027e-08 4.851669e-09
2.469806e-08 6.060967e-08 -4.856316e-08 3.171900e-08 1.594154e-09 1.702885e-09
7.452293e-09 6.061428e-08 -5.166572e-08 2.563048e-08 2.106451e-08 1.736083e-08
2.373422e-08 4.432026e-08 -4.715674e-08 2.946124e-08 1.779460e-08 1.324875e-08
6.700636e-09 4.357210e-08 -2.330649e-08 9.370577e-09 1.173129e-08 9.001989e-09
-2.012040e-07 5.661353e-07 -1.291459e-07 -6.589300e-08 -1.489055e-08 3.876811e-09
6.619143e-08 4.236153e-08 -8.747008e-08 8.945758e-08 2.064877e-08 2.374812e-08
2.237847e-08 3.694897e-08 -2.213624e-08 2.005443e-09 1.519487e-09 3.394737e-09
4.953418e-08 3.084038e-08 -3.466424e-08 2.870582e-08 4.029336e-09 4.087958e-09
-3.412147e-09 1.096153e-07 -7.786896e-08 4.549401e-08 1.092822e-08 5.314678e-09
4.319685e-08 6.499508e-08 -7.638183e-08 6.808705e-08 2.359720e-08 2.089670e-08
-2.748961e-07 5.579413e-07 -6.289628e-08 -4.013999e-08 -2.880652e-08 2.209083e-08
-7.232664e-09 4.507743e-08 -3.431162e-08 1.234687e-08 4.126390e-08 2.273231e-08
-3.190164e-07 5.405644e-07 9.727362e-08 -1.198139e-08 -1.336503e-07 8.698973e-09
8.662343e-08 -2.159336e-08 -2.559710e-08 2.751444e-09 -9.422794e-10 1.259058e-08
1.032299e-09 8.002748e-08 -5.258442e-08 3.280652e-08 2.365824e-08 1.133872e-08
9.761829e-08 -2.203627e-08 -3.874399e-08 -4.174704e-09 -8.449542e-10 7.718088e-09
8.908000e-08 -1.936917e-08 -2.234551e-08 -2.264523e-09 -1.783303e-09 9.800364e-09
9.263104e-08 -1.904093e-08 -3.046561e-08 7.684722e-10 1.300071e-10 2.565044e-09
9.172565e-08 -2.520175e-08 -2.864515e-08 -3.106231e-10 4.663914e-10 1.729019e-08
1.070164e-07 -2.314396e-08 -3.959648e-08 -1.049506e-08 -2.002644e-09 9.910556e-09
1.300369e-08 4.647807e-08 -2.324642e-08 2.874848e-09 1.151887e-09 4.552630e-09
1.600832e-08 1.102909e-07 -8.662373e-08 7.935833e-08 7.157291e-09 3.267702e-09
1.050373e-07 -2.342532e-08 -4.552215e-08 -5.009174e-09 3.606367e-10 5.282915e-09
-7.709928e-09 6.377073e-08 -3.522945e-08 2.354638e-08 4.365247e-08 2.166191e-08
6.307563e-09 5.369488e-08 -3.585934e-08 1.794486e-08 2.964601e-08 2.059338e-08
1.552509e-08 7.170183e-08 -5.809666e-08 3.608000e-08 1.594281e-08 8.467325e-09
9.089405e-08 -1.573922e-08 -3.170046e-08 -3.514377e-09 -6.400631e-10 1.793241e-09
8.899652e-08 -1.586704e-08 -3.146475e-08 -5.716985e-09 8.364187e-11 4.988299e-09
9.309911e-08 -2.130438e-08 -3.279988e-08 -2.439762e-10 9.864864e-10 6.334492e-09
1.104369e-08 5.415542e-08 -3.156727e-08 2.415607e-09 2.156168e-09 5.811561e-09
4.582455e-09 5.724054e-08 -3.017796e-08 2.775125e-08 3.315568e-08 1.559118e-08
5.933033e-07 -2.831263e-07 4.080723e-08 -1.597960e-07 3.246864e-08 -8.608467e-08
3.015355e-08 3.191907e-08 -2.123496e-08 1.871811e-09 6.444290e-10 1.687566e-09
6.365502e-07 -3.234346e-07 -1.025906e-07 -2.158430e-07 5.733251e-09 1.118956e-07
6.275173e-07 -4.005006e-07 2.635899e-07 -2.455435e-07 -1.043334e-07 3.393708e-08
6.537812e-08 6.062214e-09 -2.777121e-08 -1.318159e-08 -2.849764e-09 3.806538e-09
7.297770e-07 -7.146942e-07 9.899084e-07 -1.408561e-07 1.726236e-07 2.379372e-07
5.539077e-08 1.145152e-08 -2.019447e-08 -1.429075e-09 -4.840116e-10 -1.206511e-11
7.238445e-08 1.129474e-08 -5.651549e-08 -4.496613e-08 -1.042515e-08 1.360861e-08
7.907788e-07 -5.145086e-07 9.801875e-08 -1.009397e-07 2.192344e-07 1.039665e-08
5.668378e-07 -2.276304e-07 -6.436993e-08 -2.230935e-07 4.254519e-08 -4.260810e-08
8.009791e-08 -8.901072e-09 -2.815322e-08 -1.429041e-09 -8.253715e-10 5.019578e-10
7.465442e-07 -2.962735e-07 -1.272795e-07 -6.520827e-08 1.154703e-09 -2.471072e-08
6.108055e-08 9.576965e-09 -2.732825e-08 -1.164174e-08 -4.112613e-09 4.131647e-09
6.179390e-07 -2.699698e-07 9.401125e-08 -2.626185e-07 1.809759e-08 -4.003915e-08
8.387169e-08 -1.314839e-08 -2.795655e-08 -5.511756e-09 -1.098968e-09 4.497491e-09
-7.707975e-09 7.541056e-08 -5.424659e-08 -5.270400e-09 1.235690e-08 -2.204624e-09
-6.207142e-07 6.056111e-07 1.023675e-06 -3.039891e-07 1.403913e-09 -3.971857e-08
4.515193e-08 1.838744e-08 -2.155706e-08 -9.201866e-10 -2.143650e-10 1.160421e-09
-1.174867e-08 7.893213e-08 -4.782114e-08 -1.972313e-09 1.185772e-09 -7.104175e-10
-8.422542e-09 7.709672e-08 -4.892830e-08 -2.488965e-09 2.567064e-09 -7.704050e-11
9.525014e-08 -1.800262e-08 -3.306871e-08 -2.675394e-09 2.071212e-10 1.068539e-09
9.112855e-08 -1.772347e-08 -3.223039e-08 -9.533799e-10 -8.089149e-10 1.045341e-09
9.461027e-08 -1.902752e-08 -3.322839e-08 6.436454e-10 -5.615494e-11 1.840938e-09
9.930730e-08 -2.514398e-08 -4.064041e-08 -8.843817e-10 -2.026430e-10 1.749310e-08
8.474710e-08 -2.295632e-08 -2.631352e-08 -1.482925e-09 -5.496560e-10 1.478011e-08
8.700124e-08 -1.819058e-08 -2.378071e-08 -2.462082e-10 -1.868506e-10 1.676332e-09
-4.218288e-07 6.909371e-07 3.412023e-07 -2.429758e-07 -6.129252e-08 4.286126e-09
1.085089e-07 -2.291465e-08 -3.805203e-08 1.552753e-09 1.638125e-10 6.977206e-09
-2.823832e-08 5.118770e-08 -3.087305e-08 2.229809e-09 4.501044e-08 -2.920920e-09
1.741533e-07 -3.013077e-08 -8.657369e-08 -7.512871e-08 -3.501965e-09 3.870991e-08
9.743230e-08 -1.902752e-08 -3.549331e-08 8.598600e-10 7.902284e-11 9.117570e-10
9.676490e-08 -1.934651e-08 -3.580394e-08 2.680358e-09 2.198437e-09 4.905446e-10
3.879267e-08 4.163014e-08 -5.294888e-08 -2.828790e-08 -1.549248e-09 2.068734e-09
3.859335e-08 6.983403e-08 -6.885855e-08 -4.780876e-08 -3.186563e-09 3.286029e-09
9.458216e-08 -1.900069e-08 -3.285897e-08 7.212910e-10 2.693545e-10 1.831641e-09
9.360091e-08 -1.971034e-08 -3.307684e-08 -4.927725e-10 -2.970213e-11 2.251802e-09
1.065864e-07 -2.232713e-08 -3.858043e-08 -3.644450e-09 5.586786e-11 4.473329e-09
5.057014e-08 1.260304e-08 -1.968815e-08 -3.042766e-10 -1.625602e-10 0.000000e+00
4.849575e-08 1.450400e-08 -2.038998e-08 -3.033511e-10 -1.877176e-10 6.884262e-11
6.069428e-08 5.469559e-09 -2.256671e-08 -2.253406e-09 -3.317955e-10 -5.289416e-10
4.835488e-08 1.525419e-08 -2.154246e-08 -1.113860e-09 8.886232e-16 -1.996616e-10
-1.192888e-08 7.049485e-08 -2.981274e-08 -1.119471e-09 6.919612e-09 -3.696068e-09
-1.411270e-08 6.910445e-08 -3.282467e-08 -2.962517e-09 4.391811e-09 -4.039330e-09
-1.288949e-08 6.830134e-08 -3.311010e-08 -2.700023e-09 9.611141e-09 -1.726048e-09
-1.560806e-08 6.288223e-08 -2.482843e-08 1.179556e-09 9.538532e-09 -2.342737e-09
-1.772264e-08 6.202236e-08 -2.729975e-08 -8.849384e-10 8.047285e-09 -2.035799e-09
1.030007e-07 4.455723e-08 -1.091916e-07 1.231598e-08 -7.481209e-08 -2.265082e-08
1.021121e-07 -1.507249e-08 -4.664284e-08 -1.839813e-08 -8.711077e-10 3.089023e-09
4.517707e-08 1.838744e-08 -2.404605e-08 -1.177304e-09 2.650502e-11 2.477080e-09
9.099409e-08 -1.115315e-08 -3.598769e-08 -1.296886e-08 -1.339242e-09 6.481119e-09
-4.135321e-08 1.417885e-07 -8.439958e-08 -5.970116e-09 2.173974e-08 -3.300369e-09
8.316027e-08 -1.214028e-08 -2.958080e-08 -3.550919e-09 -1.882664e-09 1.514664e-09
8.029674e-08 -9.088291e-09 -2.998907e-08 -3.285900e-09 5.492082e-10 1.818499e-10
3.451899e-08 5.072629e-08 -4.618366e-08 -1.306239e-08 -2.231134e-09 3.692266e-09
3.862580e-08 2.850182e-08 -4.313177e-08 -2.334941e-08 -6.668053e-09 7.446206e-09
7.717309e-08 -8.519877e-09 -2.790652e-08 -3.783064e-09 -1.137336e-09 1.531021e-09
-3.224539e-08 1.062650e-07 -5.593218e-08 4.158175e-09 4.523632e-08 -3.589552e-10
1.018579e-07 -1.532592e-08 -5.106524e-08 -2.494009e-08 -4.386116e-09 1.067854e-08
1.411384e-07 -3.151758e-08 -6.631525e-08 1.765584e-08 6.974060e-09 5.251632e-09
1.750618e-07 -5.399306e-08 -9.037204e-08 2.269012e-08 1.393750e-09 1.353472e-08
3.402467e-08 3.564669e-08 -3.456303e-08 -4.015861e-09 -4.048342e-10 2.749831e-09
1.703594e-07 -4.571272e-08 -7.978879e-08 2.079185e-08 1.194671e-08 2.922255e-08
6.608359e-08 3.033574e-08 -5.201446e-08 4.292652e-08 1.851200e-09 2.417827e-09
1.749424e-07 -3.598764e-08 -7.132306e-08 2.760338e-08 3.180611e-09 1.561443e-08
4.515398e-08 1.848860e-08 -2.333149e-08 1.018875e-08 2.200348e-09 3.656762e-11
4.644418e-08 1.723469e-08 -2.134470e-08 5.752357e-09 1.198291e-09 -2.398377e-10
4.453194e-08 2.391128e-08 -2.448569e-08 1.318173e-08 1.847988e-09 1.550691e-09
9.348671e-08 7.266931e-09 -6.803474e-08 5.106511e-08 1.098340e-08 1.232391e-08
5.389239e-08 1.030796e-08 -2.036383e-08 3.667041e-09 3.472230e-10 6.407430e-10
1.448446e-07 -3.747195e-08 -6.681712e-08 8.155085e-09 -5.403903e-09 2.168514e-08
4.133223e-08 1.994194e-08 -1.988784e-08 2.285483e-09 5.850254e-11 4.463274e-11
4.278343e-08 2.016482e-08 -2.050076e-08 5.756950e-09 1.401381e-09 8.370722e-10
1.431246e-07 -3.199044e-08 -5.728323e-08 8.167088e-09 2.153223e-09 2.293532e-08
5.240395e-08 1.439277e-08 -2.846476e-08 1.453169e-08 1.734050e-09 3.186996e-09
1.754452e-07 -5.305644e-08 -9.504960e-08 1.282076e-08 -2.441964e-10 2.971337e-09
8.897895e-08 -1.698879e-08 -2.918522e-08 1.815748e-09 2.207921e-10 2.286092e-09
1.836512e-07 -4.065640e-08 -7.388560e-08 1.138084e-08 1.355020e-09 1.616870e-08
2.541442e-07 -7.848492e-08 -1.070274e-07 -7.690438e-08 -6.308544e-09 4.778572e-08
2.555508e-07 -4.568876e-08 -1.215955e-07 -1.515247e-07 -1.061229e-09 1.075976e-08
1.361777e-09 9.796025e-08 -9.520970e-08 -4.112836e-08 3.571700e-08 -1.346291e-08
-7.780036e-09 7.834912e-08 -4.969459e-08 -1.442731e-09 2.100945e-09 5.490493e-16
1.139519e-07 4.146169e-08 -1.137873e-07 -1.491161e-07 -3.117693e-08 4.035861e-08
-1.055585e-08 7.632885e-08 -4.782114e-08 0.000000e+00 3.397847e-10 3.360956e-10
2.013342e-07 -3.474292e-08 -1.173697e-07 -1.352964e-07 -1.579346e-08 4.089882e-08
2.498016e-07 -2.077336e-08 -1.219235e-07 -1.563517e-07 -6.371195e-09 1.491201e-08
2.002678e-07 -2.368811e-08 -9.941218e-08 -9.643566e-08 -1.108467e-08 1.959151e-08
1.973573e-07 -2.851605e-08 -1.221868e-07 -1.517771e-07 -9.328773e-09 2.382673e-08
2.203817e-07 -5.414480e-09 -1.174891e-07 -1.461301e-07 -1.573629e-08 3.506358e-08
1.906585e-07 -1.954237e-08 -1.049599e-07 -9.988554e-08 -1.058212e-08 1.080692e-08
6.197368e-09 7.888008e-08 -4.915691e-08 2.058082e-08 5.363306e-09 6.741909e-09
-4.772329e-09 1.002765e-07 -6.933703e-08 2.777258e-08 5.426761e-09 -5.289321e-10
-3.506053e-08 7.086815e-08 -3.392662e-08 2.361614e-08 7.019646e-08 -9.466919e-09
7.515294e-07 -7.485033e-07 1.052934e-06 4.001242e-08 -1.906412e-07 2.785412e-07
6.403321e-07 -7.662689e-07 1.361257e-06 2.831958e-07 1.531728e-08 -4.834643e-08
6.479542e-07 -8.531722e-07 1.697812e-06 1.450357e-07 1.168359e-08 1.187568e-07
6.976144e-07 -4.634252e-07 6.101132e-07 -1.123926e-08 3.681766e-08 1.206077e-07
7.486123e-07 -4.634252e-07 4.090346e-07 -6.463277e-08 -4.005126e-08 8.748265e-08
7.369852e-07 -7.340317e-07 9.223523e-07 4.155904e-08 1.622077e-07 4.132778e-08
8.869845e-08 -1.583681e-08 -3.168515e-08 2.551779e-09 -6.378740e-10 1.339798e-09
1.190174e-07 -2.966507e-08 -5.944399e-08 9.920643e-09 4.807787e-10 1.209930e-08
8.499112e-08 7.597794e-09 -4.692933e-08 -4.114866e-08 -9.376923e-09 1.275709e-08
1.181442e-07 -2.701155e-08 -5.225715e-08 -7.313132e-09 5.130746e-09 6.284837e-09
8.888676e-08 -1.699333e-08 -3.235133e-08 2.321954e-09 2.423285e-10 1.544195e-09
8.495141e-08 -1.480210e-08 -2.589554e-08 -8.965937e-10 -1.004400e-09 2.355961e-09
1.004809e-07 -1.994639e-08 -3.997578e-08 1.166910e-08 2.296076e-09 1.370037e-08
8.438509e-08 -1.605589e-08 -2.456992e-08 -1.286791e-09 -8.550449e-11 2.305393e-09
8.969938e-08 -1.794381e-08 -3.285430e-08 -1.637244e-09 -3.925641e-10 3.375765e-09
9.116468e-08 -1.738890e-08 -3.159156e-08 1.127219e-09 4.801767e-10 -4.267989e-11
9.823477e-08 -1.989068e-08 -3.266963e-08 1.045677e-09 5.208965e-10 2.730945e-09
9.646765e-08 -2.045707e-08 -4.070303e-08 2.101239e-09 -5.523915e-10 -1.039193e-09
9.679907e-08 -2.155233e-08 -2.866007e-08 -2.488042e-09 -6.745006e-10 1.536100e-08
9.171900e-08 -1.894967e-08 -3.241248e-08 5.756759e-10 -2.217804e-11 6.641852e-10
8.784734e-08 -1.944492e-08 -2.214994e-08 -1.923985e-09 -7.666669e-10 4.218958e-09
1.719660e-08 4.201577e-08 -4.775581e-08 -1.981111e-08 -2.322083e-08 2.264285e-08
-1.436269e-08 1.262806e-07 -8.098597e-08 -7.530202e-09 -1.415139e-09 9.691129e-09
8.658158e-08 -1.712291e-08 -2.678871e-08 -1.026719e-09 -6.438194e-10 2.046826e-09
8.857500e-08 -1.722126e-08 -2.923202e-08 -5.307310e-10 -4.990047e-10 1.317054e-09
2.186057e-07 -2.963543e-09 -4.706050e-08 -3.835173e-07 1.885295e-08 1.581298e-08
1.446498e-07 1.007712e-07 2.453897e-07 -5.630173e-07 -5.516336e-08 9.054208e-08
-1.533552e-08 5.923461e-08 -4.272732e-08 -8.119179e-09 -3.198378e-08 2.342179e-08
1.270115e-07 2.026988e-07 9.147105e-08 -4.523197e-07 1.490272e-08 -1.062687e-08
-3.966687e-08 2.166832e-07 -1.238674e-07 -5.151149e-08 -8.010177e-09 4.813791e-10
1.275776e-07 4.701369e-08 1.195148e-07 -5.110713e-07 -6.715509e-08 5.628880e-08
-2.380101e-08 1.523073e-07 -1.060621e-07 -6.039961e-09 -8.037397e-11 9.049925e-09
2.334325e-07 4.745968e-08 1.183075e-07 -4.796061e-07 -6.739812e-08 9.236249e-08
1.822118e-07 -3.801291e-09 3.989240e-08 -4.199680e-07 2.676439e-10 2.771283e-08
1.002109e-07 -1.797913e-08 5.459323e-07 6.320238e-07 -2.833891e-08 2.476998e-08
-5.646760e-09 1.248252e-07 -8.642136e-08 -3.917395e-08 1.464626e-09 5.138272e-09
-2.599684e-08 2.252440e-07 -1.197541e-07 -1.572610e-07 -5.152703e-08 3.135459e-08
-4.470936e-08 1.389016e-07 -1.041393e-07 -1.840674e-08 -8.393066e-08 1.731694e-08
-2.793872e-08 1.590297e-07 -1.095376e-07 -1.164430e-08 -2.857467e-09 4.983440e-09
-2.380573e-08 1.404256e-07 -1.010094e-07 -5.775341e-09 -1.442546e-08 9.531236e-09
-1.032806e-08 1.415896e-07 -8.140585e-08 -4.162913e-08 -4.843431e-08 2.641466e-08
1.209028e-08 9.180410e-08 -7.484239e-08 -1.506486e-08 -1.035912e-09 9.283557e-09
-3.667043e-08 2.021068e-07 -1.286786e-07 -6.305259e-08 -1.835801e-08 -2.165675e-09
1.120034e-08 1.683649e-07 8.902218e-08 5.003961e-07 -5.187344e-08 1.569876e-08
9.336971e-08 1.578037e-07 1.763978e-07 4.832322e-07 -3.273574e-08 -6.910321e-08
6.796133e-08 -5.732084e-10 -2.462094e-08 1.319720e-09 -4.924501e-10 6.767493e-10
2.015679e-07 -2.389371e-07 9.033260e-07 6.469469e-07 4.435184e-08 -8.716782e-08
3.010693e-07 -1.852830e-08 4.627261e-07 5.193477e-07 5.059264e-08 2.737691e-08
5.816764e-08 1.046237e-08 -2.871998e-08 1.551886e-08 3.988615e-09 2.412038e-09
-2.132577e-07 3.023864e-07 3.185334e-07 5.460772e-07 -1.071701e-08 -5.101460e-09
5.264327e-08 1.245548e-08 -2.109062e-08 9.521002e-10 1.257356e-10 4.930483e-10
-7.039720e-08 2.706073e-07 3.741966e-07 5.365094e-07 -1.337899e-08 8.434629e-08
1.065998e-07 1.451788e-07 1.281327e-07 4.894566e-07 5.346242e-08 9.030434e-08
-3.770786e-08 1.690532e-07 -1.220996e-07 3.289494e-08 -1.211092e-08 -7.945414e-09
-2.829767e-08 1.699267e-07 -1.176859e-07 5.382452e-08 -3.574117e-08 -1.091737e-08
6.730978e-08 6.291421e-09 -3.815666e-08 1.859987e-08 9.821125e-10 -1.556973e-09
6.492882e-08 6.259837e-09 -2.905419e-08 1.511043e-08 1.150538e-10 3.569254e-10
5.057286e-08 1.335372e-08 -2.093175e-08 1.862652e-09 2.952700e-10 -3.790344e-10
5.819555e-08 8.971402e-09 -2.769850e-08 1.171350e-08 1.805754e-09 1.598431e-10
5.952175e-08 6.330371e-09 -2.324640e-08 1.697770e-09 -4.978769e-10 -1.690561e-18
-2.731329e-08 1.434222e-07 -9.449122e-08 2.586104e-08 -2.229788e-08 -1.001757e-08
4.464775e-08 1.846549e-08 -2.160049e-08 5.679504e-09 5.855700e-10 -5.765734e-10
5.123330e-08 1.245090e-08 -2.112165e-08 9.375304e-10 7.250880e-10 2.152989e-10
4.664889e-08 1.985603e-08 -2.224556e-08 7.812325e-09 2.457008e-10 -1.361695e-10
-3.826261e-08 1.913080e-07 -1.221500e-07 4.459961e-08 -1.239030e-08 -7.490441e-09
7.982465e-08 -9.427101e-09 -2.608422e-08 3.221903e-09 2.976103e-09 1.302034e-09
-2.451811e-08 1.417411e-07 -1.029387e-07 1.292392e-08 -4.518868e-09 -1.193258e-09
-3.139548e-08 1.415030e-07 -9.222038e-08 1.323360e-08 -1.255876e-08 -9.842919e-09
9.295196e-08 -1.629405e-08 -3.238487e-08 4.553481e-09 3.907257e-10 3.749632e-09
8.018401e-08 -1.075123e-08 -2.829378e-08 3.567638e-09 1.176298e-09 2.098266e-09
7.258788e-08 -1.230678e-09 -2.600398e-08 9.930895e-09 1.828336e-09 4.171295e-09
-3.346067e-08 1.666039e-07 -1.148443e-07 3.266909e-08 -1.093303e-08 -2.058970e-09
2.443537e-07 -8.812211e-08 -1.050589e-07 6.579616e-08 1.135848e-08 5.602969e-08
3.255836e-08 9.341012e-08 -1.142142e-07 -3.603136e-08 1.725104e-08 1.188891e-09
1.266209e-07 -1.930524e-08 -5.389437e-08 2.536633e-08 -7.951446e-10 2.846369e-09
1.352053e-07 -2.479983e-08 -5.500604e-08 2.236726e-08 2.771512e-09 1.008041e-08
4.046205e-08 1.178041e-07 -1.105899e-07 -6.523197e-08 3.055636e-08 -1.436769e-08
8.615901e-08 -1.443991e-08 -2.899869e-08 9.058301e-10 2.637038e-10 1.282509e-09
8.597889e-08 -1.723165e-08 -2.650041e-08 5.206301e-10 1.127480e-09 1.474937e-09
1.009450e-07 -1.750447e-08 -3.910314e-08 7.118023e-09 3.592150e-11 2.050873e-09
1.701400e-07 -5.587553e-08 -8.815331e-08 1.431572e-08 3.083088e-09 3.883954e-08
3.720295e-08 2.866975e-08 -2.615380e-08 7.930636e-09 4.532890e-10 -3.594192e-10
4.474664e-08 2.011954e-08 -2.075612e-08 6.226584e-09 1.138385e-09 1.033139e-09
3.721266e-08 2.679952e-08 -2.075311e-08 2.837356e-09 6.399224e-10 1.131268e-09
5.174521e-08 1.346310e-08 -2.038561e-08 1.852941e-09 1.001084e-09 9.683554e-10
2.971574e-08 8.258234e-08 -9.606900e-08 -7.659405e-09 1.576956e-08 -1.404552e-09
3.382300e-08 7.829476e-08 -1.143133e-07 -3.204221e-08 4.303667e-08 -1.694120e-08
3.949134e-08 2.286400e-08 -2.002731e-08 1.684719e-09 -2.064680e-10 -2.162428e-11
2.889839e-08 8.203289e-08 -9.124228e-08 -4.881789e-09 2.894213e-08 -2.879725e-09
4.182585e-08 2.125008e-08 -1.988784e-08 3.462902e-09 -6.038368e-10 -1.157865e-10
2.615420e-08 9.003682e-08 -8.947160e-08 -1.242589e-08 8.074225e-09 5.326718e-10
3.086879e-08 3.788363e-08 -3.885878e-08 -4.235117e-09 -1.572502e-09 7.090196e-09
4.524085e-08 3.865742e-08 -5.463480e-08 -3.223251e-08 -5.287875e-09 3.875983e-09
7.562178e-08 3.836299e-09 -4.018366e-08 -3.088933e-08 -2.174961e-09 7.008695e-09
7.792925e-08 4.998402e-08 -7.606848e-08 -7.254614e-08 -4.874840e-09 5.186026e-09
6.951061e-08 1.009674e-07 -1.340133e-07 -5.423170e-08 1.056448e-08 2.115548e-09
5.645787e-08 5.414570e-08 -7.123409e-08 -6.199058e-08 -1.929929e-08 1.761605e-08
4.418731e-08 1.944115e-08 -2.247356e-08 -1.383955e-09 -1.581046e-10 2.172321e-09
4.337498e-08 5.178563e-08 -5.294888e-08 -3.827765e-08 -1.452652e-10 1.696591e-09
4.929879e-08 1.662570e-08 -2.113821e-08 -2.385927e-09 -2.509142e-10 1.051144e-09
5.267113e-08 6.159211e-08 -6.457552e-08 -6.252199e-08 1.801301e-09 1.164558e-09
4.854185e-08 1.438714e-08 -2.043747e-08 -9.618841e-10 -1.098064e-10 6.373164e-10
4.631882e-08 1.825752e-08 -2.106743e-08 -1.612731e-09 -2.761999e-10 1.230557e-09
4.879658e-08 1.486187e-08 -2.194618e-08 -3.487357e-09 -1.479994e-09 3.784915e-10
4.828435e-08 1.629924e-08 -2.051748e-08 -1.094206e-09 -6.443226e-10 4.327957e-10
1.045983e-07 -1.830520e-08 -4.275750e-08 1.231494e-08 1.591245e-09 6.771012e-09
4.339348e-08 4.816415e-08 -6.457552e-08 -4.836740e-08 -3.900977e-09 3.478876e-09
5.943034e-08 2.015463e-08 -5.514312e-08 -4.162417e-08 -1.044988e-08 1.400827e-08
9.061259e-08 -2.017895e-08 -2.265929e-08 -1.704274e-10 -6.982589e-10 9.847732e-09
1.001906e-07 -2.090665e-08 -3.927670e-08 8.759014e-09 -3.072537e-09 3.864839e-09
9.619926e-08 -5.405118e-09 -5.115468e-08 -3.225416e-08 -5.816106e-09 3.487207e-09
9.533253e-08 -1.747798e-08 -3.658692e-08 -1.483818e-08 -1.515695e-09 8.965128e-09
1.137318e-07 -2.366955e-08 -5.124639e-08 1.687996e-08 -2.719677e-09 1.427400e-08
8.210691e-08 -5.242023e-09 -3.593167e-08 -1.853464e-08 -4.218130e-09 5.633902e-09
7.131072e-08 -2.644092e-09 -2.778650e-08 -1.301590e-08 -2.806068e-09 5.522606e-09
7.984426e-08 -5.242023e-09 -3.397397e-08 -1.646038e-08 -3.638679e-09 8.803978e-09
8.573026e-08 -6.042265e-09 -3.723919e-08 -1.594833e-08 -8.985687e-10 3.161163e-09
9.940532e-08 -9.666552e-09 -4.867704e-08 -2.377763e-08 -1.603481e-09 6.277121e-09
1.126058e-07 -2.329002e-08 -5.805429e-08 1.760743e-08 7.173211e-10 1.108414e-08
8.452303e-08 -5.242022e-09 -4.019540e-08 -2.034468e-08 -3.416928e-09 9.915371e-09
7.770935e-08 -6.983733e-09 -2.948953e-08 -5.946812e-09 -1.577844e-09 4.223455e-09
1.148264e-07 -2.597211e-08 -5.990811e-08 1.287541e-08 -1.038609e-09 4.403144e-11
1.358370e-07 -3.056626e-08 -6.546503e-08 2.129242e-08 -5.216058e-09 7.881890e-09
1.004269e-07 -1.994639e-08 -4.449126e-08 1.167109e-08 2.627035e-09 9.213563e-09
1.065028e-07 -2.055848e-08 -3.974416e-08 -8.667210e-09 -2.819987e-09 8.476376e-09
8.535801e-08 -5.943179e-10 -4.526247e-08 -3.017175e-08 -5.920511e-09 1.148529e-08
4.264983e-07 -1.268948e-07 -1.109964e-07 -1.222046e-07 -1.532033e-08 7.702842e-08
5.561696e-07 -2.973828e-07 4.243186e-08 -9.872305e-08 -2.603190e-08 2.746400e-08
1.242729e-07 -1.755562e-08 -7.294027e-08 -4.504331e-08 -1.241390e-08 2.192113e-08
5.365973e-07 -2.540749e-07 3.419717e-08 -1.567077e-07 -2.911554e-08 5.461798e-08
4.528886e-07 -2.340675e-07 -4.423137e-08 -9.844929e-08 -1.935113e-09 2.478301e-08
7.795851e-08 -3.395834e-09 -3.322637e-08 -1.499548e-08 -3.677827e-10 8.308000e-11
7.869225e-08 6.120093e-09 -4.785397e-08 -3.402199e-08 -7.495406e-09 1.010901e-08
4.250891e-07 -1.256984e-07 -3.693299e-08 -2.534613e-07 2.614236e-08 -1.093982e-08
3.661788e-08 2.575796e-08 -2.192706e-08 1.925419e-09 -2.072815e-10 3.481353e-10
2.109278e-07 -5.995395e-08 -1.060588e-07 4.786194e-08 2.635914e-09 3.655601e-08
3.598485e-08 3.060182e-08 -3.562680e-08 1.905087e-08 1.364399e-09 2.448188e-09
6.065493e-08 2.219448e-08 -4.437787e-08 3.352001e-08 8.362113e-10 6.680441e-09
5.426538e-07 -1.919870e-07 -7.522998e-08 -1.793041e-07 -1.835641e-08 3.517173e-08
4.034624e-08 3.259504e-08 -4.344651e-08 2.958807e-08 3.347508e-09 3.002099e-09
3.965157e-08 4.225775e-08 -4.109770e-08 3.490001e-08 1.024575e-08 8.823118e-09
4.761924e-08 3.630513e-08 -5.767157e-08 4.413052e-08 6.403799e-09 8.110535e-09
-6.701447e-07 5.659065e-07 6.923563e-07 1.406808e-07 -1.006865e-07 3.071650e-08
-5.563744e-07 6.592467e-07 3.148159e-07 2.492414e-08 5.736780e-08 4.004667e-08
3.507748e-08 3.560187e-08 -4.191327e-08 2.772646e-08 7.757828e-09 6.742694e-09
8.837507e-08 -2.083294e-08 -2.850895e-08 8.085181e-09 1.852806e-09 1.461878e-08
3.915405e-08 3.093920e-08 -3.190951e-08 1.799109e-08 2.336064e-09 -1.386830e-09
-4.177547e-07 6.813845e-07 5.464208e-07 -2.553348e-08 -1.147912e-07 -1.729082e-08
-4.119061e-07 5.648434e-07 2.836994e-07 -2.384169e-08 -2.451457e-08 -7.497685e-09
-2.776029e-07 5.887639e-07 2.364869e-07 3.293094e-08 -1.178126e-08 2.759810e-08
3.366549e-08 1.498693e-07 -1.169861e-07 1.462487e-07 1.566028e-08 1.260662e-08
-4.245823e-07 5.387923e-07 3.148159e-07 7.827779e-08 5.090639e-09 -5.955558e-10
-3.535327e-07 5.817811e-07 1.259286e-07 2.117753e-08 -8.128464e-09 4.737823e-08
-3.837210e-07 5.366452e-07 2.376812e-07 1.097773e-07 1.185040e-08 2.006630e-09
-3.059837e-08 2.440144e-07 -1.208343e-07 1.905622e-07 4.875627e-08 4.123086e-08
-1.144310e-07 3.179333e-07 -1.124482e-07 1.241779e-07 2.560994e-08 5.001969e-09
-2.576452e-07 2.846918e-07 3.324353e-07 -5.249340e-07 4.414721e-08 -2.676759e-08
-1.767838e-07 4.228850e-07 5.636517e-07 -4.817713e-07 5.759938e-08 -6.829725e-08
-6.136638e-07 3.903139e-07 1.380438e-06 -5.485207e-07 -4.904502e-07 2.314477e-07
-5.622599e-08 2.582502e-07 -1.179206e-07 7.117540e-08 2.452386e-08 7.695819e-09
-2.823655e-07 1.452172e-07 5.811030e-07 -6.161312e-07 -1.098721e-07 1.507358e-07
-9.129631e-09 4.721327e-08 -3.010554e-08 6.010950e-09 2.473928e-08 1.531886e-08
-5.102050e-07 4.445828e-07 6.392326e-07 -4.134187e-07 -1.949411e-07 7.991671e-08
2.033267e-08 8.550026e-08 -7.661657e-08 5.982502e-08 8.994237e-09 5.811163e-09
-1.131080e-07 -1.949357e-06 4.687275e-06 -1.931712e-07 -1.497467e-07 1.380483e-06
4.857243e-07 -2.148242e-07 -5.591387e-08 -2.930756e-07 1.005967e-08 6.635596e-08
-2.728571e-07 -1.617193e-06 4.165864e-06 -3.565896e-07 -1.983741e-07 5.194383e-07
3.795439e-08 -4.384866e-08 3.550355e-07 -5.960531e-07 -3.382215e-08 1.813886e-07
6.541080e-07 -6.039974e-07 8.088378e-07 3.425456e-07 1.798627e-07 8.736269e-08
-4.326547e-07 5.052100e-07 5.237320e-07 -3.256263e-07 -1.687303e-07 3.857326e-08
3.978847e-07 -1.142181e-06 2.774183e-06 -2.811657e-07 -4.141558e-08 -3.169764e-08
-3.986743e-07 5.769976e-07 4.998589e-07 -3.765068e-07 9.413458e-08 -1.434784e-08
-6.202669e-07 3.338177e-07 1.318936e-06 -5.279054e-07 9.051390e-08 4.739546e-08
-9.866215e-07 2.404100e-07 1.939365e-06 -4.118423e-07 -2.369857e-07 -6.599696e-08
3.442418e-07 -2.148242e-07 3.470247e-08 -2.258593e-07 2.909099e-08 -1.143772e-07
3.579463e-08 2.480111e-08 -2.202394e-08 4.775199e-09 8.873686e-10 1.420936e-09
-1.624129e-07 3.392352e-07 -8.425277e-08 5.232154e-08 8.862896e-08 1.673560e-09
-2.355580e-07 5.931768e-07 -6.185733e-08 -1.455427e-07 2.727588e-08 -1.781883e-08
7.228100e-07 -5.319431e-07 6.159092e-07 -1.639698e-07 7.043917e-09 -5.262528e-08
3.897979e-08 2.346560e-08 -2.079661e-08 2.009709e-09 1.447622e-10 -6.501102e-10
7.042232e-07 -7.461656e-07 9.377108e-07 2.228574e-07 -1.908294e-07 2.502945e-08
6.316818e-07 -2.464909e-07 -7.566174e-08 3.326226e-07 2.905388e-08 -2.630837e-08
4.975547e-07 -4.146184e-07 9.125638e-07 5.039031e-07 5.325025e-09 -5.888838e-08
4.143828e-08 2.109979e-08 -2.250708e-08 6.123453e-09 4.199192e-10 1.049143e-09
-1.029958e-07 3.946080e-07 -1.341761e-07 -5.208511e-08 3.299402e-08 -3.631252e-09
9.586709e-08 9.081665e-08 -1.519150e-07 -7.371257e-08 2.430593e-08 -1.285100e-08
-3.344463e-07 6.221047e-07 4.199265e-07 -3.104957e-07 1.018401e-07 -5.435868e-08
3.985732e-08 2.159585e-08 -2.142450e-08 5.759148e-09 3.989467e-10 3.440961e-10
-6.955370e-08 2.566379e-07 -1.142001e-07 -4.166440e-08 5.729430e-08 -9.306569e-09
4.066776e-08 2.031717e-08 -1.951380e-08 3.092235e-09 4.995682e-10 -4.500152e-10
2.167779e-08 2.171950e-07 -1.364484e-07 -1.468306e-07 2.639238e-08 -1.529934e-08
-1.752025e-08 5.795841e-08 -2.838925e-08 4.233044e-10 1.704674e-08 -8.641559e-09
-1.776549e-08 1.583677e-07 -1.302464e-07 -9.293796e-08 6.567272e-09 -7.406159e-10
-1.436623e-06 -2.452665e-06 8.216559e-06 -2.321599e-07 6.681720e-07 -1.744888e-06
-1.621178e-06 -1.953622e-06 7.173992e-06 -3.139218e-07 4.855236e-07 -5.943842e-07
-1.875038e-07 3.805808e-07 5.309022e-08 -3.350938e-07 -3.373091e-09 5.711444e-09
-5.041201e-08 1.817560e-07 -1.019642e-07 -3.995219e-08 4.113831e-08 -7.959133e-09
-7.961689e-07 -1.636163e-06 4.411288e-06 -2.609309e-07 -3.662547e-07 -3.044804e-07
-1.612459e-06 -1.976254e-06 7.281570e-06 -3.110514e-07 7.963721e-07 -8.332040e-07
-5.073733e-08 2.197629e-07 -1.137175e-07 -5.060160e-08 1.764128e-08 -1.080592e-09
-1.797965e-07 4.064997e-07 -5.175945e-08 -1.371275e-07 3.191704e-08 -7.409978e-09
1.797003e-08 2.514884e-07 -8.709503e-08 -2.158469e-07 5.209305e-08 -2.350835e-08
-9.453426e-07 -1.188641e-06 4.329823e-06 -7.610555e-07 5.587940e-07 -4.792282e-07
-9.238042e-08 3.206770e-07 -1.306988e-07 -1.086222e-07 5.023989e-08 -1.393882e-08
-7.552205e-07 -1.029271e-06 3.276267e-06 -7.711818e-07 1.086033e-07 -1.301246e-07
-6.972313e-08 2.941902e-07 -1.307297e-07 -1.310324e-07 3.550350e-08 -7.969793e-09
-1.555889e-06 -1.462587e-06 5.636531e-06 -4.972402e-07 -1.047540e-07 -2.898946e-07
6.498077e-08 1.292369e-07 -5.122331e-08 -3.383417e-07 6.207676e-08 -9.491684e-09
8.173932e-08 -1.536058e-08 -2.626963e-08 3.663935e-09 1.000937e-09 6.742895e-09
4.962506e-08 1.637302e-08 -2.292718e-08 -6.084578e-09 -1.152259e-09 1.610677e-09
-1.620549e-08 7.848611e-08 -4.975324e-08 -7.833897e-09 1.630940e-08 -1.371981e-08
-1.586840e-08 6.737114e-08 -2.508477e-08 -9.234623e-10 6.537961e-09 -4.371209e-09
-2.000573e-08 1.724563e-07 -1.165728e-07 -1.601874e-07 6.391788e-08 -3.567886e-08
9.680872e-09 2.258425e-07 -1.302464e-07 -1.359795e-07 2.514456e-08 -1.281027e-08
-7.325863e-07 4.294535e-07 1.314740e-06 -3.281101e-07 5.984317e-09 1.420348e-08
-1.524799e-08 5.632600e-08 -3.341844e-08 -3.204103e-09 2.485533e-08 -9.694570e-09
-2.003171e-08 1.599559e-07 -1.231033e-07 -1.037261e-07 4.862904e-08 -2.482833e-08
-1.964906e-08 6.786347e-08 -3.330116e-08 -4.464689e-09 2.051612e-08 -1.184246e-08
-1.734089e-08 5.889673e-08 -2.707215e-08 8.450760e-10 1.816344e-08 -8.128573e-09
-1.336788e-08 8.406006e-08 -5.195560e-08 -5.878258e-09 2.777692e-09 -4.045635e-11
-2.201383e-08 1.870462e-07 -1.174502e-07 -9.119380e-08 2.876015e-08 -3.756970e-09
8.744401e-08 1.472024e-08 -7.026978e-08 -5.870482e-08 -4.471451e-09 2.155530e-08
2.775841e-07 -8.980419e-08 -1.061150e-07 -4.177724e-08 -1.259464e-08 4.661264e-08
-1.476113e-08 7.515706e-08 -3.404820e-08 -5.219326e-09 1.704386e-08 -7.607382e-09
6.080595e-08 2.262309e-08 -6.058852e-08 -3.917640e-08 1.269476e-10 2.645466e-10
-1.841450e-08 6.927151e-08 -3.000919e-08 -1.395890e-09 8.443999e-09 -5.555147e-09
7.163181e-08 1.982878e-08 -4.514261e-08 -3.852973e-08 -9.266159e-09 1.289784e-08
5.672667e-08 2.410481e-08 -3.433524e-08 -2.422323e-08 -3.632603e-09 4.169340e-09
6.959757e-08 4.674201e-08 -8.966727e-08 -7.771677e-08 -1.286043e-08 1.023759e-08
-2.227984e-08 5.642930e-08 -3.181682e-08 2.122519e-09 1.301314e-08 5.607155e-09
5.833523e-08 4.009885e-08 -5.343508e-08 -4.839967e-08 -1.566619e-08 1.545114e-08
1.077140e-07 4.196633e-08 -1.013670e-07 -1.099633e-07 -1.535822e-08 4.342033e-09
1.870312e-07 -1.841632e-08 -1.079915e-07 -1.052983e-07 -9.096154e-09 4.767995e-08
-2.374979e-08 8.164595e-08 -3.441084e-08 5.701776e-09 2.148924e-08 1.117292e-08
8.900946e-08 5.261454e-09 -7.695089e-08 -5.507176e-08 -1.267357e-08 2.357562e-08
-6.505940e-08 2.090600e-07 -1.047926e-07 1.006514e-08 1.111207e-08 6.649544e-09
-2.677917e-08 8.201790e-08 -3.051393e-08 5.339440e-10 3.370560e-09 2.034376e-09
-7.024152e-08 3.538935e-07 -8.101908e-08 2.769011e-07 3.875040e-08 1.548245e-08
-3.408593e-07 5.659006e-07 1.211459e-07 1.259193e-07 -1.390633e-08 -3.495528e-08
-2.552413e-07 4.564683e-07 -1.876486e-08 6.175392e-08 2.327356e-08 -1.641652e-09
-5.288210e-08 1.873273e-07 -1.041418e-07 5.198489e-08 4.202606e-08 -1.653396e-09
-4.977009e-08 1.979227e-07 -1.104965e-07 4.343468e-08 1.854678e-08 1.275003e-08
-2.638696e-08 9.452551e-08 -5.395773e-08 1.552519e-08 2.395691e-08 7.154108e-09
-5.623090e-08 2.582447e-07 -1.160938e-07 7.116136e-08 5.417884e-08 1.306584e-08
-1.031397e-08 2.036935e-07 -1.199688e-07 1.320628e-07 1.782286e-08 7.705351e-09
-2.678189e-08 1.025623e-07 -4.822395e-08 2.240297e-09 1.256505e-08 3.895457e-09
-2.034121e-08 9.590261e-08 -5.210296e-08 2.612025e-09 1.128689e-08 6.549216e-09
-2.288502e-08 6.312459e-08 -3.131090e-08 -4.480863e-09 9.663301e-09 6.025071e-09
-6.506456e-08 2.981070e-07 -1.274856e-07 1.236552e-07 2.538121e-08 1.598452e-08
-8.245293e-08 2.695674e-07 -1.008600e-07 1.352941e-07 7.376969e-08 2.398827e-08
-1.155389e-07 4.034154e-07 -8.775563e-08 2.725084e-07 4.662636e-09 2.574912e-08
-9.425035e-08 2.629952e-07 -1.259653e-07 6.650709e-08 2.580294e-08 3.952628e-09
6.260956e-08 3.010725e-09 -2.386943e-08 1.132433e-08 1.485183e-09 3.603528e-09
5.501992e-08 8.866269e-09 -2.198888e-08 6.813209e-09 5.612694e-10 1.386287e-09
-8.164883e-08 2.630433e-07 -1.155335e-07 6.306066e-08 6.813793e-08 3.996969e-09
6.359644e-08 3.642707e-09 -2.254338e-08 7.436251e-09 9.681484e-10 3.931943e-09
2.621423e-08 6.467310e-08 -5.922132e-08 -2.716364e-08 -1.108996e-08 1.116677e-08
2.546682e-08 6.652104e-08 -6.569331e-08 -3.866973e-08 -4.414249e-09 3.792218e-09
1.922418e-08 6.906004e-08 -5.788433e-08 -8.182193e-09 -8.477215e-10 5.190488e-09
2.229624e-08 5.922163e-08 -5.494292e-08 -5.470709e-09 -8.868405e-10 5.299120e-09
8.943273e-08 -1.017894e-08 -3.788897e-08 -1.885747e-08 -2.439680e-09 5.662588e-09
8.843007e-08 -1.144824e-08 -3.287353e-08 -6.905020e-09 -1.072639e-09 4.567489e-09
3.568247e-07 -2.776491e-08 -2.050338e-07 -1.519399e-07 2.872730e-08 -2.670167e-08
1.079658e-07 -3.755102e-08 -8.072161e-08 -1.468699e-08 7.606217e-08 -6.390588e-08
8.943023e-08 -1.019475e-08 -3.684677e-08 -1.885115e-08 -5.286551e-10 4.980868e-09
6.994034e-08 1.768111e-07 -1.261115e-07 -2.330562e-07 1.275587e-08 -9.371540e-09
-1.971699e-08 3.248194e-07 -1.244455e-07 -1.934994e-07 5.025877e-08 -1.795422e-08
-7.473393e-08 3.413112e-07 -3.622678e-08 -2.703213e-07 5.546893e-08 -1.473951e-08
-4.785824e-08 2.496831e-07 -1.138407e-07 -1.098660e-07 5.617265e-08 -1.981876e-08
-4.281500e-08 1.956180e-07 -1.136204e-07 9.821773e-08 6.140260e-08 2.214126e-08
9.378871e-08 -1.077405e-08 -4.074006e-08 -1.480837e-08 -6.331907e-10 3.737071e-09
8.073263e-08 -3.006981e-09 -3.946561e-08 -2.212393e-08 -2.941636e-09 1.767444e-09
7.926229e-08 -3.039147e-09 -3.326901e-08 -2.005282e-08 -8.816932e-10 4.096537e-09
8.133742e-08 -7.449933e-10 -4.320275e-08 -2.675296e-08 -6.572604e-09 7.332107e-09
8.018838e-08 3.681364e-09 -3.892557e-08 -2.719900e-08 -2.149210e-09 7.110613e-09
9.622873e-08 -8.257999e-09 -4.875280e-08 -2.642884e-08 -6.868057e-09 1.055240e-08
5.439207e-07 -1.970003e-07 1.485220e-08 3.928808e-07 -3.615791e-08 -1.743004e-08
-1.502269e-07 4.244733e-07 7.339400e-08 3.800021e-07 5.497861e-08 1.999249e-08
-3.227042e-07 5.247550e-07 2.683758e-07 3.726713e-07 5.820344e-08 9.027791e-08
3.429655e-07 -1.844845e-07 4.629522e-07 5.599092e-07 -1.271249e-07 -4.799472e-08
-1.270387e-06 -3.880920e-07 4.051467e-06 4.916719e-07 -5.716444e-07 -3.642114e-07
-1.743185e-07 4.493307e-07 -5.352772e-10 -2.201821e-07 -1.824540e-08 2.297306e-08
-1.031364e-07 3.698685e-07 -1.282957e-07 5.960827e-08 2.718664e-08 -1.405547e-10
-1.351725e-07 4.387794e-07 -1.037457e-07 1.291211e-07 3.790632e-08 5.476334e-09
-1.641033e-07 4.840347e-07 -9.151194e-08 5.044808e-08 4.041127e-08 2.489459e-09
-1.153540e-07 3.809049e-07 -1.326374e-07 3.833449e-08 2.380904e-08 2.561954e-09
3.364055e-07 -1.509110e-07 -7.990386e-08 7.827942e-08 5.540989e-09 6.473365e-08
4.695016e-07 -2.549349e-07 -3.325078e-08 1.648221e-08 1.929031e-09 1.721993e-08
3.058462e-07 -1.260769e-07 2.070847e-07 5.341387e-07 -3.599816e-08 -4.167314e-08
1.597385e-07 -1.963041e-08 -8.645723e-08 6.880693e-08 9.993576e-09 6.569873e-09
3.801661e-07 -2.963683e-07 8.589981e-07 5.727475e-07 7.545771e-08 -4.040540e-10
2.214846e-07 -1.005081e-08 -1.194566e-07 1.609578e-07 8.450634e-09 1.832804e-08
4.720510e-07 -3.581571e-07 5.602669e-07 5.394352e-07 -9.116494e-08 3.837873e-08
-4.452478e-07 6.303198e-07 5.027741e-07 2.391996e-07 -1.688935e-07 -8.223148e-08
-2.594825e-07 4.592145e-07 -2.869398e-08 -4.120250e-08 2.164727e-08 1.615462e-09
-1.968189e-06 -1.045361e-06 5.667346e-06 -9.539926e-09 -6.358201e-07 -5.291166e-08
5.820385e-07 -6.251866e-07 1.319041e-06 4.115164e-07 8.652072e-08 5.530254e-08
1.573660e-07 1.291600e-07 -5.158420e-08 -2.827291e-07 4.306674e-08 -2.474412e-08
6.323520e-07 -2.809074e-07 7.676711e-09 2.662192e-07 -1.800767e-08 -8.598588e-08
5.620132e-07 -3.315146e-07 4.334885e-07 4.717702e-07 -3.149983e-08 3.287106e-08
-5.747893e-08 2.164675e-07 -1.106322e-07 -5.211238e-08 5.207723e-08 -3.304717e-09
-6.274076e-07 5.901066e-07 8.028624e-07 -2.097172e-07 -1.948356e-07 4.785304e-08
-7.982777e-08 2.354266e-07 1.836646e-08 -3.324688e-07 5.307910e-08 -2.030298e-08
-2.830340e-08 1.741783e-07 -1.103446e-07 5.067457e-08 -2.796619e-08 -1.266668e-08
-5.032535e-08 1.990926e-07 -1.252474e-07 4.678043e-08 -4.016756e-08 -9.992090e-09
-1.375388e-07 3.839509e-07 -6.008575e-08 -1.756456e-07 4.403762e-08 -4.024726e-09
-5.057585e-08 2.132238e-07 -1.237468e-07 3.321498e-08 -4.093020e-08 -1.300894e-08
-9.103768e-08 3.275946e-07 -1.244455e-07 -1.744971e-07 5.251568e-08 -2.172865e-08
-1.327235e-07 4.492467e-07 -1.306373e-07 -1.272810e-07 2.621090e-08 5.538689e-09
-9.689970e-08 3.013925e-07 -8.839450e-08 -1.981301e-07 5.239476e-08 -1.178090e-08
-1.616629e-07 3.526751e-07 -9.748842e-08 -6.619816e-08 4.608258e-08 -1.170605e-08
-1.714580e-07 4.397504e-07 -7.758888e-08 -1.079800e-07 2.678349e-08 9.496052e-09
-4.842716e-08 1.937991e-07 -1.221975e-07 5.301548e-08 -4.556775e-08 -1.252545e-08
-1.350854e-07 -4.728102e-07 2.483770e-06 -6.998735e-07 3.061347e-07 -3.678477e-07
-4.033629e-08 1.805468e-07 -1.186205e-07 2.411472e-08 -3.093445e-08 -1.053993e-08
-1.410544e-07 -1.275174e-06 3.672127e-06 -6.008549e-07 1.802506e-07 -4.511609e-07
-3.849358e-08 1.914916e-07 -1.102674e-07 4.429427e-08 -3.021431e-08 -1.347911e-08
-3.034498e-08 1.440983e-07 -1.003927e-07 2.301029e-08 -2.435494e-08 -1.487295e-08
-2.401280e-08 1.191734e-07 -9.197496e-08 2.128760e-08 -2.174752e-08 -1.358950e-08
4.627505e-07 -6.999145e-07 1.127887e-06 -3.734717e-07 1.110743e-08 -1.989407e-07
2.166870e-07 -1.652163e-07 2.896882e-07 -5.310032e-07 9.651000e-08 -3.516884e-08
4.366512e-07 -1.571311e-07 -7.818865e-08 -2.163377e-07 -1.433303e-08 1.232926e-08
4.182082e-08 1.514209e-07 -1.402227e-07 1.199538e-07 -5.449226e-08 -2.274678e-08
2.686718e-08 6.279044e-08 -9.100183e-08 1.657961e-08 -6.666571e-08 -2.362799e-08
2.590453e-07 -1.057961e-06 2.448522e-06 -3.066857e-07 8.253257e-08 -6.065401e-07
7.677118e-09 5.624093e-08 -4.456290e-08 2.953387e-08 -9.091464e-08 -4.488522e-08
6.298183e-07 -3.114096e-07 1.919548e-07 1.985597e-07 1.241669e-08 5.624906e-08
2.715091e-07 -4.720621e-08 -1.144475e-07 1.262788e-07 1.154893e-08 3.594872e-08
5.903720e-07 -4.451576e-07 2.675625e-07 3.398998e-07 4.359806e-08 -1.580754e-07
7.736892e-08 7.825501e-08 -1.004839e-07 6.199790e-08 -8.363249e-08 -4.308413e-08
3.430467e-07 -8.813893e-08 -1.181556e-07 8.198387e-08 4.693653e-09 2.827337e-08
2.306278e-07 -5.479046e-08 -9.187211e-08 -2.168660e-08 -2.861796e-09 2.064433e-08
5.829353e-07 -3.248946e-07 5.269986e-08 -2.480493e-08 2.155611e-08 8.289716e-09
5.528686e-08 7.749551e-08 -1.030448e-07 1.068458e-07 -1.181929e-07 -9.489088e-08
1.872489e-08 5.741248e-08 -8.009873e-08 3.658008e-08 -6.924436e-08 -3.147846e-08
5.767767e-07 -2.350213e-07 -6.151341e-08 9.178389e-08 2.200816e-08 -7.055060e-09
1.671587e-08 8.995173e-08 -9.884880e-08 4.834595e-08 -8.559158e-08 -4.116088e-08
5.221455e-08 1.242997e-08 -2.073505e-08 -2.996640e-09 -1.424145e-10 -2.142453e-10
5.202066e-08 1.217589e-08 -2.331947e-08 -8.066401e-09 -8.257293e-10 6.604872e-10
8.318171e-08 1.288477e-07 -1.143472e-07 2.092831e-07 4.225562e-08 3.994039e-08
1.642462e-07 1.191084e-07 -3.760235e-08 3.096408e-07 2.264155e-08 2.982265e-08
5.690225e-08 9.757410e-09 -2.200106e-08 -5.923127e-09 -1.260999e-09 1.621747e-09
1.157998e-07 1.387141e-07 -7.777946e-08 3.317846e-07 4.609816e-08 5.434092e-08
4.165424e-07 -1.294831e-07 -2.562906e-08 2.739063e-07 -1.287184e-08 5.363399e-09
5.026047e-07 -3.108049e-07 1.919548e-07 1.558179e-07 -1.687583e-08 1.310645e-08
5.319320e-08 1.109803e-08 -1.991575e-08 -8.255685e-10 -4.115069e-10 -1.237728e-10
5.650917e-08 9.413714e-09 -2.044592e-08 -2.401422e-09 -8.668075e-10 1.602484e-09
3.862364e-07 -1.001084e-07 -1.100771e-07 1.612752e-07 2.348755e-08 4.302530e-08
5.531687e-08 9.413712e-09 -2.182569e-08 -2.402286e-09 -8.673044e-10 2.541723e-10
4.627187e-07 -3.698389e-07 3.864918e-07 4.090137e-07 1.519250e-08 3.674015e-08
5.944557e-08 7.554478e-09 -2.317018e-08 -4.638427e-09 -3.763511e-10 1.572432e-09
6.441211e-07 -9.316145e-07 1.126701e-06 -4.284070e-09 7.260885e-09 -5.029258e-07
5.323458e-08 1.047859e-08 -2.060395e-08 -6.734004e-10 -2.714093e-10 -4.409882e-10
2.909228e-07 -4.925196e-08 2.365886e-07 4.905543e-07 -3.982994e-08 -8.331202e-08
4.929145e-08 1.553388e-08 -2.030126e-08 2.767083e-09 6.051575e-10 2.307920e-10
6.825966e-07 -5.942795e-07 8.401134e-07 3.274481e-07 -1.996136e-07 -3.294794e-07
4.979167e-08 1.391108e-08 -2.200956e-08 4.380390e-09 3.406132e-10 1.567235e-10
4.658411e-08 1.779360e-08 -1.940972e-08 2.665656e-09 7.259111e-10 7.638827e-10
4.417962e-07 -2.896188e-07 4.139853e-07 4.590900e-07 6.216341e-08 6.536925e-08
4.754498e-08 1.698081e-08 -1.970572e-08 1.799318e-09 1.792877e-10 -1.085143e-10
4.768636e-08 1.445973e-08 -1.972220e-08 1.453179e-09 3.837223e-10 -7.605218e-11
4.993219e-08 1.524471e-08 -1.992276e-08 1.316530e-09 3.091378e-10 -9.348881e-11
4.405612e-07 -1.767518e-07 4.627261e-07 4.521900e-07 -1.926069e-08 6.627667e-08
2.294662e-07 6.532067e-08 1.337627e-07 4.075926e-07 -1.014904e-08 1.527241e-09
4.773256e-08 1.686194e-08 -1.969915e-08 7.118089e-10 9.691311e-11 5.002774e-10
7.723572e-07 -5.917338e-07 3.356365e-07 2.204815e-07 6.278389e-08 -3.388066e-07
9.426968e-08 -2.199531e-08 -3.817618e-08 2.440517e-09 -7.832535e-11 7.962554e-09
-1.787103e-07 3.057876e-07 7.849108e-07 5.378651e-07 -1.808407e-07 -1.267394e-07
8.586480e-09 2.204110e-08 -4.451865e-08 -4.262563e-09 6.553142e-08 -1.970220e-08
-1.609350e-09 8.336703e-08 -6.009510e-08 -7.560977e-09 2.989659e-09 -2.250450e-09
6.167215e-09 5.410338e-08 -4.424567e-08 -4.849743e-09 5.280669e-08 -1.202973e-08
2.640731e-09 9.512908e-08 -7.668195e-08 -2.121059e-08 8.218383e-09 -4.006279e-09
-1.013643e-08 7.604238e-08 -4.377130e-08 -5.660715e-09 7.187320e-09 -2.925113e-09
3.529194e-09 8.526502e-08 -6.811417e-08 -1.476011e-08 7.595816e-09 9.433503e-10
8.011887e-08 6.864981e-08 -1.113259e-07 -2.843858e-08 6.874086e-08 -1.928101e-08
-9.546728e-10 4.458442e-08 -4.338651e-08 -1.314378e-08 5.580352e-08 -8.983766e-09
-7.364202e-09 8.439032e-08 -5.814142e-08 -9.170259e-09 5.426128e-09 -7.784863e-10
1.924474e-08 4.545434e-08 -4.982293e-08 -2.088667e-08 7.038326e-08 -2.583542e-08
2.155643e-07 -5.752013e-08 3.238654e-09 5.096700e-08 -7.720679e-08 -1.949076e-07
1.370665e-07 4.782671e-08 -1.207971e-07 -3.672717e-08 8.352426e-08 -2.551058e-08
1.121632e-08 5.427725e-08 -7.266983e-08 -1.273597e-08 5.346506e-08 -1.329902e-08
1.054175e-08 5.423397e-08 -4.177261e-08 -1.254331e-08 5.519769e-08 -1.672825e-08
3.466100e-09 1.054884e-07 -9.234886e-08 1.819939e-08 -6.145736e-09 -1.692591e-09
2.355599e-08 1.075509e-07 -1.049923e-07 3.978345e-08 -3.083450e-08 -1.151699e-08
1.934100e-08 4.878507e-08 -4.311899e-08 -9.130591e-10 5.731511e-08 -2.524977e-09
2.127413e-08 4.789046e-08 -4.534203e-08 4.301284e-09 -5.631359e-08 1.528200e-09
5.236324e-08 6.215183e-08 -8.812830e-08 -7.857961e-09 6.150597e-08 -1.347341e-08
2.144022e-07 6.313575e-08 -1.795750e-07 1.883846e-07 -7.762134e-09 -1.296172e-08
1.360282e-07 8.461904e-09 -1.341351e-07 1.383056e-07 -6.307992e-08 -7.083543e-08
6.297335e-07 -2.201096e-07 -1.787672e-07 -6.517296e-08 1.096091e-08 -2.430216e-08
3.865690e-08 -7.547251e-08 -3.094659e-08 1.297397e-08 1.268382e-08 -5.553350e-08
2.131892e-08 -8.854580e-08 -3.651592e-08 -4.207790e-09 2.124970e-08 -4.475164e-08
2.706406e-08 4.619777e-08 -6.008762e-08 7.500183e-08 -1.086694e-07 -7.386929e-08
3.182757e-07 -1.854080e-07 -1.251786e-07 2.222161e-08 -1.472770e-08 -2.901413e-08
3.299295e-07 -2.916398e-08 -2.052599e-07 -8.676925e-08 1.831682e-08 8.916583e-10
1.820794e-07 4.168329e-08 -1.809165e-07 -2.387772e-08 2.636739e-08 -5.679948e-10
3.475263e-07 -8.901617e-08 -1.855827e-07 -2.338451e-08 5.404109e-08 4.110937e-09
2.580057e-07 -7.481819e-08 -1.349789e-07 5.255281e-08 -7.658854e-08 -6.426350e-08
3.812308e-07 -1.110244e-07 7.258354e-10 2.045438e-07 -7.777424e-08 -9.567410e-08
2.351160e-07 -3.706231e-08 -6.944925e-08 1.175784e-07 -9.599617e-08 -1.011907e-07
8.268665e-08 -1.203538e-08 -2.636799e-08 8.015305e-09 3.733376e-09 1.003881e-08
3.706375e-08 -3.378110e-08 -7.768359e-08 -5.792406e-08 7.263232e-08 -3.140413e-08
2.901268e-07 1.404349e-09 -1.999770e-07 -1.036664e-07 2.340029e-08 -1.228424e-08
1.264117e-07 7.052094e-08 -1.641347e-07 -4.159636e-08 1.543940e-08 -1.386730e-08
2.578493e-07 -8.274895e-08 -6.579486e-08 4.787993e-08 -5.860639e-08 -8.178313e-08
-8.845125e-09 1.854473e-08 -4.775697e-08 4.309764e-10 7.024258e-08 -3.921070e-09
3.734161e-07 -1.567444e-07 -1.423992e-07 3.377541e-08 -6.177116e-08 -4.523387e-08
2.047470e-07 -2.531272e-08 -1.547328e-07 6.708026e-08 -7.594407e-08 -4.072760e-08
2.482591e-07 -4.343970e-09 -1.773454e-07 -2.200091e-08 5.291048e-08 4.212533e-09
4.835687e-08 4.582220e-08 -9.559605e-08 -7.524514e-09 6.905586e-08 -3.414570e-09
7.028624e-08 7.088795e-08 -1.070448e-07 -4.685687e-08 7.966344e-08 -2.685295e-08
-8.580807e-09 7.896472e-08 -4.782114e-08 -2.305453e-09 1.124842e-09 -2.521414e-10
-1.939745e-08 9.798626e-08 -5.636529e-08 -3.305205e-09 4.484280e-16 -6.563656e-10
-2.243858e-07 5.182145e-07 5.078093e-08 2.474588e-07 -1.065582e-07 -2.731326e-08
-2.468166e-08 1.141089e-07 -6.408334e-08 -1.816048e-08 -1.014157e-10 -2.901357e-09
-3.520119e-07 5.130953e-07 1.881856e-07 3.381740e-07 9.240982e-08 -5.798134e-08
-2.714658e-07 6.346059e-07 3.597249e-09 1.643623e-07 -6.466126e-08 -3.926012e-08
-1.472446e-07 4.019759e-07 -5.421878e-08 2.039630e-07 -2.637434e-08 -1.663847e-08
-1.856845e-07 5.429493e-07 -9.621113e-08 1.523544e-07 -7.734388e-08 -1.595483e-08
-1.457273e-07 4.080960e-07 -6.431868e-08 2.673564e-07 -1.301988e-08 -8.290959e-10
-1.055585e-08 7.562038e-08 -4.422137e-08 -3.503846e-10 1.876414e-09 0.000000e+00
-1.269411e-08 6.486806e-08 -3.545067e-08 -1.170916e-09 1.492546e-08 -3.746608e-09
-3.412959e-07 5.473865e-07 -1.307862e-08 3.735152e-07 -4.984604e-08 -8.956014e-08
2.794122e-07 4.585322e-08 -1.577468e-07 -2.263416e-07 2.459587e-08 -2.057001e-08
5.146061e-07 -1.466190e-07 -2.147166e-07 4.838592e-08 -5.372898e-09 1.824168e-08
5.218062e-07 -1.620799e-07 -1.308629e-07 1.713714e-07 5.087626e-09 6.357659e-09
-2.368966e-08 1.037523e-07 -6.264067e-08 -7.842910e-09 3.331741e-09 -1.899290e-10
-2.439520e-08 1.329516e-07 -8.522983e-08 -2.620684e-08 4.682319e-09 -4.082994e-09
-3.216791e-09 9.509906e-08 -7.483113e-08 -2.293103e-08 7.726868e-09 -1.876767e-09
-1.062941e-08 7.254339e-08 -3.927672e-08 -5.165617e-09 1.508222e-08 -4.062883e-09
4.936306e-07 -1.257607e-07 -2.040921e-07 1.395767e-07 -3.043394e-08 -8.411024e-09
6.467319e-07 -2.887932e-07 -5.772769e-08 3.434365e-08 -1.853261e-09 -2.961777e-08
5.402320e-07 -1.859536e-07 -1.996284e-07 2.280386e-08 -1.661923e-08 -3.499194e-08
1.057714e-08 6.798234e-08 -4.841812e-08 2.368296e-08 8.898886e-09 1.096495e-08
5.405258e-07 -1.817900e-07 -2.030262e-07 6.015225e-08 -2.308678e-09 -1.677878e-09
3.507749e-08 3.793669e-08 -3.847174e-08 2.507329e-08 3.466243e-09 7.957924e-09
2.977320e-08 2.055607e-07 -1.500335e-07 1.749334e-07 -1.492173e-08 -1.923688e-08
1.071182e-07 2.970961e-08 -1.127683e-07 -4.234694e-08 7.616767e-08 -1.625733e-08
1.921917e-08 5.209836e-08 -3.664861e-08 3.771698e-09 2.231142e-16 1.417879e-10
7.751824e-07 -5.896411e-07 7.035547e-07 1.164703e-07 -1.724791e-08 -6.894859e-08
-5.592235e-09 1.737723e-07 -1.488437e-07 1.161259e-07 -1.949227e-08 -8.851424e-09
-5.621289e-08 2.391920e-07 -1.374942e-07 1.588930e-07 -4.254137e-08 -2.047362e-08
-2.570158e-08 2.524287e-07 -1.295798e-07 1.459954e-07 -5.321884e-08 -2.213695e-08
1.308554e-08 5.848402e-08 -5.082174e-08 2.748309e-08 2.215265e-08 1.959897e-08
-4.754858e-10 5.019811e-08 -2.515638e-08 2.034520e-09 3.495739e-09 8.119791e-09
4.063542e-08 2.212673e-08 -2.013126e-08 2.076595e-09 2.792202e-10 2.607063e-10
-2.595270e-08 2.582897e-07 -1.528948e-07 1.470007e-07 -3.654051e-08 -2.763753e-08
-3.829476e-08 1.930129e-07 -1.336173e-07 8.632961e-08 -4.997980e-08 -2.803304e-08
1.153528e-08 4.482350e-08 -2.782433e-08 1.851521e-08 1.859981e-08 1.546260e-08
4.809653e-07 -7.968151e-07 1.500321e-06 -2.860088e-07 -4.457969e-08 3.128920e-07
4.242242e-09 6.216982e-08 -5.183948e-08 -5.225555e-10 3.781982e-08 -1.005697e-08
6.289536e-09 6.434700e-08 -5.667483e-08 7.152544e-10 3.773764e-08 -4.675594e-09
-1.322792e-09 6.177559e-08 -4.262129e-08 -1.191857e-08 3.012455e-08 -8.098587e-09
3.599406e-08 3.267758e-08 -3.234023e-08 1.758394e-08 4.021334e-09 9.131704e-10
3.338998e-08 2.887766e-08 -2.307833e-08 1.828591e-09 -1.268346e-18 -3.468097e-10
-1.290645e-08 5.907313e-08 -2.927456e-08 -3.484136e-09 2.644113e-08 -3.360142e-09
-1.388709e-08 4.815930e-08 -3.240993e-08 5.800506e-11 3.241784e-08 -5.452427e-09
-2.818454e-08 1.723916e-07 -1.184652e-07 -7.247855e-08 -1.590012e-08 6.651357e-10
-3.271291e-08 9.712396e-08 -8.920305e-08 -3.235360e-08 -6.524948e-08 3.852828e-08
-2.596794e-08 1.059895e-07 -8.432407e-08 -3.289313e-08 -6.348538e-08 3.274234e-08
-5.354334e-08 1.723038e-07 -9.936752e-08 -2.339754e-08 -8.345620e-08 3.030877e-08
-1.129803e-08 7.080218e-08 -4.831658e-08 -5.416716e-10 1.055369e-08 1.234982e-09
-1.677358e-08 8.122135e-08 -4.333331e-08 -1.277343e-08 -3.297618e-08 2.255431e-08
-1.261202e-08 4.492937e-08 -3.462677e-08 8.555056e-12 3.896879e-08 -2.115412e-09
-1.779940e-08 9.796853e-08 -7.711110e-08 -2.167884e-08 -3.058290e-08 2.320279e-08
-2.581044e-08 1.327027e-07 -8.230069e-08 -3.083323e-08 -5.609333e-08 3.330690e-08
-6.325200e-09 8.406693e-08 -5.861787e-08 8.234738e-09 3.148749e-09 3.882218e-09
5.922203e-07 -2.567756e-07 8.009581e-08 1.801046e-07 -8.388283e-09 -1.184230e-08
-9.098197e-09 1.038937e-07 -6.819130e-08 1.871387e-08 3.175030e-09 1.038852e-09
4.772999e-07 -1.385054e-07 -2.093882e-07 9.569164e-08 -1.379416e-08 1.829229e-09
-4.080208e-10 8.825205e-08 -5.528174e-08 1.857065e-08 1.671930e-09 9.750718e-10
-3.067003e-09 8.307393e-08 -5.592795e-08 8.492430e-09 2.412209e-09 7.930069e-10
-4.772329e-09 9.616353e-08 -6.819130e-08 2.403135e-08 5.914367e-09 1.938394e-09
4.418923e-07 -1.162112e-07 -2.183111e-07 7.135519e-08 -1.484801e-08 -2.060143e-08
3.867919e-07 -4.701252e-08 -1.670022e-07 2.221518e-07 -6.016757e-09 -2.645372e-08
2.769113e-08 3.772391e-08 -3.255437e-08 1.825855e-08 6.843870e-09 5.794554e-09
8.211572e-09 6.303966e-08 -4.055923e-08 3.660809e-09 1.670033e-09 2.885115e-09
1.765769e-08 4.884425e-08 -3.791015e-08 6.481876e-09 2.326062e-09 2.889957e-09
3.805153e-07 -3.745457e-08 -1.584711e-07 2.238362e-07 -5.889661e-08 -5.841252e-08
5.142585e-08 1.177310e-08 -1.986041e-08 -4.808940e-10 -8.447690e-12 1.840205e-10
3.145552e-07 -3.654068e-08 -9.053454e-08 2.892461e-07 -9.301122e-09 -1.023915e-08
2.982356e-07 1.078800e-08 -9.833615e-08 2.946627e-07 -5.533594e-08 -7.087701e-08
4.100111e-07 -4.152324e-08 -9.249170e-09 3.739045e-07 -2.698918e-08 -7.482066e-08
2.129334e-07 3.647478e-08 -1.903485e-07 2.644955e-08 -2.748761e-08 3.677733e-10
4.351872e-07 -9.194390e-08 -2.050172e-07 6.994835e-08 4.974004e-09 -1.731643e-08
6.384491e-08 4.164827e-09 -2.272691e-08 -9.068265e-10 -2.344590e-10 7.108611e-10
5.915421e-08 6.906475e-09 -2.130142e-08 -3.695536e-09 -7.114760e-10 1.116772e-09
5.425510e-08 9.847924e-09 -2.240911e-08 -6.981677e-09 -1.157171e-09 3.221976e-09
-3.684557e-08 1.481252e-07 -8.396775e-08 7.615187e-09 2.325313e-08 3.059282e-09
5.433808e-08 1.208009e-08 -2.003633e-08 -3.360672e-10 -3.818374e-10 3.106623e-10
-3.708081e-08 1.241176e-07 -6.993207e-08 -1.685642e-09 1.055839e-08 -2.082051e-09
4.642031e-08 1.878991e-08 -2.328278e-08 -3.057510e-09 -6.973959e-10 7.918385e-10
-3.675698e-08 1.315942e-07 -8.027270e-08 2.549755e-10 1.242240e-09 -1.530767e-10
-2.305853e-07 4.130371e-07 2.636913e-07 3.735156e-07 -1.073747e-07 6.835662e-08
2.451832e-08 2.111909e-07 -7.033481e-08 3.954455e-07 -4.411818e-08 -6.624245e-08
4.880593e-08 1.570305e-08 -2.136447e-08 -4.908579e-09 -4.058147e-10 2.210769e-09
5.198556e-08 1.256006e-08 -2.194689e-08 -4.123117e-09 -2.004254e-10 5.777547e-10
5.442703e-08 1.128231e-08 -2.139489e-08 -4.399203e-09 6.881363e-11 -9.768915e-10
5.094913e-08 1.347008e-08 -2.077180e-08 -1.343837e-09 -4.743982e-11 9.455900e-11
9.891951e-08 2.838565e-07 -1.173586e-08 4.762007e-07 7.617502e-09 -2.385566e-09
-1.370730e-07 3.760281e-07 2.007449e-07 4.504856e-07 -6.688457e-08 2.938434e-08
-9.099379e-08 2.572365e-07 5.929152e-08 3.835951e-07 -4.357166e-08 -2.148046e-08
-6.064542e-08 3.956117e-07 9.193242e-08 3.912534e-07 -4.550617e-08 -5.837447e-08
-8.578122e-08 2.859326e-07 3.137510e-07 5.166891e-07 1.647227e-08 6.647422e-08
4.440383e-08 1.920112e-08 -2.204555e-08 7.347970e-09 4.141465e-10 4.127698e-10
4.332616e-08 1.936618e-08 -1.916685e-08 9.588449e-10 -1.090667e-10 1.323586e-10
4.286156e-08 1.952502e-08 -2.120766e-08 4.986447e-09 5.510552e-10 3.574985e-10
4.354809e-08 2.073718e-08 -1.917902e-08 2.341422e-20 4.286116e-11 1.838817e-11
4.796243e-08 1.681420e-08 -1.995158e-08 5.036727e-09 9.696568e-10 1.082848e-09
4.592370e-08 1.737820e-08 -2.027970e-08 2.941862e-09 6.402208e-10 -1.521671e-11
2.370964e-07 -1.712731e-07 -4.047933e-08 -4.709156e-08 -1.839379e-09 -1.531246e-07
4.942754e-08 1.380739e-08 -1.979296e-08 8.934027e-10 -3.982906e-11 6.527223e-11
2.430497e-07 -1.261172e-07 -8.275469e-08 -1.623579e-08 1.840013e-08 -1.008335e-08
4.669541e-08 1.737893e-08 -1.957198e-08 1.116915e-09 -1.966565e-10 3.881316e-11
5.288156e-07 -2.888751e-07 -1.040666e-07 -1.363027e-08 -2.160528e-08 -9.319922e-08
3.472082e-07 -1.232156e-07 -9.658077e-08 -9.381706e-08 4.388217e-08 -1.237338e-08
1.650496e-07 6.934512e-08 -1.511064e-07 -1.244487e-07 5.518982e-08 -2.251980e-08
8.211161e-07 -6.123796e-07 4.069144e-07 4.212262e-09 -1.966661e-08 8.641821e-08
3.552693e-08 2.689695e-08 -2.895028e-08 1.343077e-08 2.413802e-09 2.902985e-09
2.623996e-07 -1.583788e-07 -4.106418e-08 1.023615e-09 -3.238720e-08 -1.072167e-07
4.216216e-08 1.977562e-08 -1.849295e-08 -1.332252e-15 7.193068e-11 1.076599e-10
1.198489e-07 -1.210969e-07 -5.542376e-08 2.920198e-08 -5.289877e-09 -1.203807e-08
-6.129410e-08 1.762792e-07 -1.179157e-07 3.953970e-10 -3.267498e-08 3.367001e-10
-7.504719e-08 2.228214e-07 -1.297536e-07 -3.923693e-09 -4.390025e-08 1.736031e-09
-5.425680e-08 1.815951e-07 -1.114564e-07 3.374759e-09 -1.801897e-08 -3.596834e-09
-4.977147e-08 1.730511e-07 -1.186808e-07 2.683169e-09 -3.068693e-08 1.384839e-09
-5.485399e-08 2.138986e-07 -1.319345e-07 7.246281e-09 -1.033223e-08 -3.281720e-09
-6.658737e-08 2.257516e-07 -1.372605e-07 4.369035e-09 -9.122709e-09 2.777755e-09
4.095618e-08 2.309766e-08 -1.951093e-08 8.815971e-10 3.132913e-10 2.440446e-10
-5.131488e-08 1.913633e-07 -1.256894e-07 7.161737e-10 -2.357438e-09 3.454914e-09
2.590440e-07 -1.953474e-09 3.755506e-08 4.327314e-07 -4.950683e-08 -5.101408e-08
2.222428e-07 -5.788490e-10 9.259225e-08 5.160145e-07 -3.199959e-08 -5.134664e-08
4.404060e-08 1.960481e-08 -1.928655e-08 4.883103e-10 -1.944403e-10 -2.076547e-10
1.239339e-07 1.299148e-07 2.841084e-08 3.854859e-07 -2.310989e-08 -1.031224e-08
2.862901e-08 3.449617e-08 -2.380973e-08 3.493182e-09 6.946649e-10 4.443778e-09
3.179076e-08 3.131733e-08 -2.473276e-08 2.357454e-09 4.375442e-10 1.480628e-09
3.770980e-08 2.581965e-08 -1.989563e-08 1.064453e-09 4.066768e-10 4.618337e-10
2.203997e-07 6.595934e-08 -7.498077e-08 3.270711e-07 -3.173167e-08 2.390159e-09
2.051634e-07 6.320855e-08 3.071789e-07 4.676192e-07 -4.143777e-09 3.668893e-08
6.458003e-08 1.561351e-07 -1.175332e-07 2.765507e-07 -2.429411e-08 -1.584324e-08
2.384713e-08 2.112494e-07 2.158235e-08 3.953996e-07 -2.321918e-08 -1.045077e-08
7.817256e-08 1.849936e-07 2.202897e-07 5.234927e-07 -2.928590e-09 -2.679160e-08
4.847878e-08 1.890589e-08 -2.621756e-08 -5.497617e-09 -1.214582e-09 1.719564e-09
4.304999e-08 2.090828e-08 -2.086709e-08 -1.539847e-09 -5.559552e-11 1.145012e-09
1.444185e-07 7.185353e-08 -1.696283e-07 -5.833039e-08 1.962080e-08 -6.572943e-09
2.430497e-07 -1.261272e-07 -1.207872e-07 -1.621895e-08 1.778228e-08 -9.098515e-09
3.796233e-07 -1.056131e-07 -9.894577e-08 8.355917e-09 -2.299535e-08 -1.212317e-07
6.066033e-07 -4.634252e-07 1.415370e-07 -3.334668e-08 -2.182844e-08 -1.005788e-07
1.263695e-07 1.078800e-08 -8.408029e-08 2.253121e-07 -9.742465e-08 -1.212279e-07
6.755312e-07 -3.234346e-07 4.744234e-08 -1.710008e-07 -2.312343e-08 -1.721975e-08
4.449182e-08 1.663928e-08 -2.116826e-08 -2.329053e-09 -2.247754e-10 1.797206e-09
4.011923e-08 2.248315e-08 -2.129234e-08 -5.952031e-09 -2.656235e-09 3.436236e-09
4.269013e-08 2.669850e-08 -2.636506e-08 -4.949279e-09 -1.875945e-09 5.688294e-09
4.709732e-07 -3.234346e-07 9.857954e-08 -1.552703e-07 2.714834e-08 -7.779248e-08
4.020812e-08 2.313216e-08 -2.470165e-08 -1.661806e-09 -3.688438e-10 4.056502e-09
3.882199e-08 2.721852e-08 -2.234689e-08 7.844378e-09 2.907920e-09 1.356319e-09
2.216895e-07 -7.510428e-08 -8.067981e-08 -7.401989e-09 2.244267e-08 -5.587262e-08
3.443627e-07 -1.129839e-07 -1.250681e-07 -1.047681e-07 5.949641e-08 -7.539835e-08
1.025217e-07 -6.858622e-08 -7.318384e-08 6.359630e-08 7.974505e-08 -2.996353e-08
2.773024e-07 -1.183308e-07 -1.098095e-07 -1.070128e-08 2.716404e-08 -8.345347e-09
2.553146e-07 -1.380120e-07 -1.295260e-07 -5.711437e-10 4.899967e-08 1.899691e-09
6.298123e-09 9.442345e-08 -7.621006e-08 2.789246e-09 -1.959149e-08 -3.741848e-09
3.978830e-08 2.236179e-08 -2.014506e-08 3.110542e-09 9.693238e-10 -1.519498e-10
3.820093e-08 2.698924e-08 -2.570228e-08 1.217713e-08 3.166123e-09 2.403904e-09
1.660593e-08 1.492676e-07 -1.109295e-07 6.678797e-08 -1.610988e-08 -1.124856e-08
-3.004917e-08 1.159157e-07 -6.302274e-08 3.456130e-09 -1.937330e-08 -2.204363e-08
-2.948565e-08 8.605372e-08 -5.881949e-08 1.768603e-09 -5.035209e-09 -1.792666e-08
3.682502e-08 2.363301e-08 -1.967183e-08 1.822497e-09 7.376290e-11 8.718348e-10
-2.569673e-08 5.905801e-08 -4.102379e-08 6.453893e-10 -1.566298e-08 -1.675738e-08
-9.436651e-09 9.444253e-08 -7.224439e-08 1.318864e-09 -2.299788e-09 -2.909362e-09
-2.220160e-08 5.810621e-08 -3.426728e-08 6.625985e-10 -6.702223e-09 -1.503086e-08
-2.185514e-08 9.075888e-08 -6.316627e-08 -1.251074e-09 -2.223162e-08 -2.625584e-08
-2.686765e-09 9.764999e-08 -7.586414e-08 5.327242e-09 -2.239562e-09 -3.265645e-10
4.084737e-08 2.296811e-08 -2.103497e-08 5.237005e-09 7.457692e-10 1.104601e-09
5.945316e-09 1.003967e-07 -8.209297e-08 2.393021e-08 -2.319596e-08 -9.908688e-09
-5.395206e-09 1.288622e-07 -8.900912e-08 4.721741e-08 -5.706304e-08 -3.101928e-08
3.611478e-08 2.722349e-08 -2.060968e-08 2.208807e-09 5.203592e-10 9.414655e-10
3.545664e-08 2.715914e-08 -1.971205e-08 1.470131e-09 1.784299e-10 -1.064432e-10
4.406335e-08 9.379835e-08 -6.400661e-08 8.420806e-08 -1.093536e-07 -7.438570e-08
-4.553187e-08 1.369188e-07 -1.024305e-07 1.922261e-08 -7.999982e-08 -2.263618e-08
1.538903e-07 1.591550e-09 -1.189683e-07 1.235087e-07 -8.402597e-08 -7.982482e-08
2.634356e-07 -2.131613e-09 -1.794862e-07 5.735646e-08 -6.427218e-08 -3.716525e-08
1.748752e-07 -3.603170e-08 -1.258286e-07 -3.007170e-08 7.446728e-08 1.672494e-08
-5.651576e-09 -4.252046e-08 -2.955688e-08 2.375159e-09 1.284089e-07 -1.539967e-07
4.827653e-08 -7.518406e-08 -6.893634e-08 1.888980e-10 4.734475e-08 2.145757e-08
4.915104e-08 -1.325725e-09 -6.378175e-08 5.358996e-08 -9.354821e-08 -2.989579e-08
-2.625514e-08 -8.387660e-09 -2.259537e-08 8.604683e-09 1.092346e-07 -5.082786e-08
4.835687e-08 3.373993e-08 -5.250138e-08 -5.433026e-09 7.083164e-08 -1.492753e-09
-1.400003e-08 -2.732064e-08 -5.504087e-09 1.601887e-08 1.277212e-07 -6.562933e-08
9.718414e-08 9.448116e-08 -1.504550e-07 4.793325e-08 -1.819075e-08 -3.671045e-09
3.470070e-07 -7.464517e-08 -2.032371e-07 -1.389922e-07 1.518659e-08 -2.244084e-08
4.521866e-07 -1.537780e-07 -1.341353e-07 2.104958e-07 -4.968378e-08 -7.529379e-08
-4.076597e-08 1.226554e-07 -7.711250e-08 1.838140e-08 -5.641600e-08 -1.297179e-08
-3.435888e-08 9.838324e-08 -6.619149e-08 7.287424e-11 -8.458124e-09 -1.325168e-08
5.240195e-07 -1.235322e-07 -1.356828e-07 1.499475e-07 -5.085272e-08 -8.182169e-08
-2.953584e-07 6.734359e-07 -8.412938e-08 6.479074e-08 3.171741e-08 -4.676614e-09
-2.825736e-08 8.605373e-08 -5.799997e-08 2.090509e-09 -5.357083e-09 -1.895054e-08
-4.948904e-08 1.687016e-07 -1.109182e-07 2.081998e-08 -2.554420e-08 -7.624878e-09
1.875362e-07 9.531874e-08 -1.382370e-07 2.435229e-07 -6.858254e-08 -6.270065e-08
-3.181674e-08 5.124567e-08 -4.040569e-08 -2.806237e-09 -1.949807e-08 -1.873129e-08
1.042345e-07 1.017013e-07 -1.580228e-07 8.146814e-08 -2.484761e-08 -1.326326e-08
9.813997e-08 1.387603e-07 -1.477538e-07 1.789562e-07 -6.647826e-08 -3.369327e-08
1.425651e-07 9.652855e-08 -1.703024e-07 1.506127e-07 -1.205896e-08 -1.373322e-08
3.178267e-07 -7.322877e-08 -1.585113e-07 3.666321e-08 -8.747625e-08 -6.182911e-08
-2.573395e-08 6.751671e-08 -3.771783e-08 9.359795e-09 -1.067713e-08 -1.539823e-08
-3.073789e-08 8.477737e-08 -3.706505e-08 4.957308e-09 -3.047049e-08 -2.166332e-08
4.772952e-07 -1.725814e-07 -1.450456e-07 1.136960e-07 -3.278889e-08 -8.481213e-08
-2.876429e-08 5.340944e-08 -3.719736e-08 3.351783e-10 -8.214890e-09 -1.767515e-08
3.360329e-07 -9.999796e-08 -1.638092e-07 1.951108e-08 -7.014242e-08 -3.756871e-08
3.698188e-07 -1.301503e-07 -1.484505e-07 5.015524e-08 -4.974913e-08 -2.717118e-08
-5.491753e-08 8.661994e-08 -4.589383e-08 -1.267400e-08 -1.343895e-07 2.926232e-08
2.684920e-07 -1.062570e-07 -8.018698e-08 1.588254e-08 -5.433303e-08 1.841692e-08
2.289383e-07 -6.773692e-08 -1.358975e-07 4.375426e-08 -7.598830e-08 -5.878209e-08
6.840565e-08 -3.124489e-08 -6.204587e-08 6.893916e-08 -8.048992e-08 -3.645308e-08
-4.018982e-08 1.673134e-07 -1.094429e-07 3.652173e-09 -1.518906e-08 -9.397725e-09
-4.778654e-08 1.554082e-07 -1.018869e-07 -1.290238e-09 -4.501688e-09 -6.978057e-10
-4.449188e-08 1.755760e-07 -1.097021e-07 4.924772e-09 -2.005987e-08 -7.121311e-09
-4.196135e-08 1.434013e-07 -9.495961e-08 1.723323e-08 -6.325587e-08 -2.826849e-08
-3.454759e-08 7.470939e-08 -4.248627e-08 -5.933695e-08 -1.224189e-07 -5.574252e-10
-2.984452e-08 1.401895e-07 -9.037661e-08 -5.319715e-09 -4.292087e-09 1.303642e-08
-3.194420e-08 2.439747e-08 -4.399386e-08 -9.591815e-09 -1.310509e-07 -2.996046e-08
-4.316494e-08 2.369259e-07 -1.456730e-07 9.434242e-08 -2.488197e-08 -1.641464e-08
-8.443191e-08 1.914494e-07 -1.069549e-07 -3.664838e-08 -1.174389e-07 1.743892e-08
-2.648936e-08 8.955102e-08 -4.222724e-08 -1.178567e-08 -3.714120e-08 1.742652e-08
-5.427671e-08 1.870779e-07 -1.287163e-07 3.885568e-09 -6.014052e-09 -7.639713e-10
1.337882e-08 1.158108e-07 -9.397551e-08 -4.640909e-08 -7.220376e-09 5.807022e-09
1.716144e-08 6.941907e-08 -6.309963e-08 -7.847268e-09 -3.095437e-09 9.862019e-09
-4.270897e-08 2.181504e-07 -1.322924e-07 7.973172e-08 -2.250099e-08 -1.841530e-09
2.729891e-08 4.541431e-08 -3.665108e-08 -1.597452e-08 -1.253938e-08 1.569527e-08
-8.230471e-08 2.505285e-07 -1.396696e-07 8.358132e-08 -6.520651e-08 -8.510521e-09
-2.856548e-08 4.271298e-08 -4.805495e-08 -1.329749e-09 -2.382853e-08 5.671303e-09
-2.856413e-08 1.916687e-08 -3.614743e-08 -1.596993e-09 -7.516707e-08 8.462703e-09
-1.387142e-08 1.483880e-07 -9.624914e-08 -6.885492e-08 -7.235303e-08 3.600962e-08
-7.666183e-08 2.575604e-07 -1.350065e-07 7.568575e-08 -5.800236e-08 -1.364026e-08
-7.170516e-08 3.343409e-07 -1.369038e-07 1.300950e-07 -2.954180e-08 -1.990445e-08
-4.278904e-08 2.579124e-07 -1.457334e-07 1.181624e-07 -7.554728e-08 -3.983439e-08
-4.331056e-09 -2.739199e-08 -6.301850e-08 6.241783e-09 8.960184e-08 -4.067555e-08
-6.745992e-08 3.133589e-07 -1.446781e-07 1.472325e-07 -4.557543e-08 -1.584681e-08
-2.240254e-08 -8.782119e-09 -3.290837e-08 1.125832e-08 9.668688e-08 -5.828137e-08
-4.372974e-08 2.616670e-07 -1.490293e-07 1.089117e-07 -2.245284e-08 -9.250819e-09
-1.853763e-06 -1.270657e-06 5.636072e-06 -3.090101e-07 -6.449587e-07 3.919522e-07
-2.083327e-06 -1.893781e-06 6.903125e-06 -2.992249e-07 -4.268632e-08 2.018589e-07
-2.219544e-06 -1.344220e-06 6.038406e-06 3.179143e-07 -8.724440e-07 -2.806167e-07
-3.003949e-08 1.654600e-07 -1.104960e-07 -2.375742e-08 -2.730052e-08 1.356959e-08
-2.743620e-08 1.471299e-07 -9.992832e-08 -4.785238e-08 -8.270443e-08 4.308531e-08
-2.149755e-08 8.323780e-08 -6.394123e-08 -2.243893e-09 -6.396167e-09 1.764473e-08
-1.967216e-06 -1.041601e-06 5.979663e-06 -7.429543e-09 -9.223366e-07 -1.461943e-07
-2.464801e-06 -1.878460e-06 8.031321e-06 1.002430e-07 -1.582248e-06 -5.725728e-07
-2.511292e-06 -2.291112e-06 7.855860e-06 -5.456204e-08 -4.428501e-07 -4.942238e-08
-2.248001e-09 4.266080e-08 -3.187449e-08 -2.355636e-09 -4.598893e-09 1.868073e-08
-2.186055e-08 1.178459e-07 -7.006517e-08 2.275178e-08 -3.786378e-08 -2.444272e-08
-2.767225e-08 8.227704e-08 -3.815769e-08 7.247295e-09 -3.218101e-08 -2.072948e-08
-2.659872e-08 8.698786e-08 -6.459650e-08 3.077156e-09 -2.869999e-08 -1.735965e-08
-1.785816e-08 8.323780e-08 -6.365046e-08 -1.206443e-09 -6.523567e-09 1.623736e-08
1.581497e-09 4.069621e-08 -3.054382e-08 -3.064712e-09 -1.029256e-08 1.884858e-08
-2.306492e-08 1.025711e-07 -7.493534e-08 1.219448e-08 -2.920774e-08 -1.799780e-08
-2.410821e-08 9.182094e-08 -4.684854e-08 -1.876645e-08 -6.027212e-08 2.153332e-08
-2.285108e-08 1.033610e-07 -5.831730e-08 3.520987e-09 -1.394907e-08 -2.182848e-08
4.439329e-09 5.299242e-08 -4.704337e-08 -1.935963e-08 -2.679034e-08 2.038567e-08
1.402932e-08 6.485557e-08 -4.369752e-08 -3.265126e-08 -3.309952e-08 2.767960e-08
-2.766295e-08 8.383992e-08 -6.907077e-08 7.512831e-09 -3.272272e-08 -2.187705e-08
8.490602e-08 -1.726798e-08 -2.477183e-08 -1.574316e-09 -6.003911e-10 2.282781e-09
1.043138e-07 -2.376046e-08 -4.131921e-08 -5.379947e-09 -2.387155e-09 1.630852e-08
-2.960466e-08 1.171240e-07 -6.160909e-08 4.365797e-09 -1.791438e-08 -2.065612e-08
8.530923e-08 -1.887359e-08 -2.717903e-08 -5.274702e-09 -4.537793e-09 1.239633e-08
8.256677e-08 -1.696771e-08 -2.554517e-08 -4.586676e-09 -1.800517e-09 7.552493e-09
7.970135e-08 -1.357347e-08 -2.103086e-08 -7.870579e-09 -3.555831e-09 1.013429e-08
-3.172822e-08 6.830212e-08 -4.073044e-08 -1.082640e-08 -1.418835e-08 -2.139403e-08
-2.825173e-08 8.605373e-08 -3.559495e-08 2.526695e-09 -3.537656e-09 -1.625312e-08
-1.579413e-09 5.675103e-08 -5.014137e-08 -5.764874e-09 -1.121487e-08 2.074423e-08
9.160513e-08 -1.664557e-08 -3.378358e-08 -5.896103e-09 -6.969949e-10 2.118583e-09
1.348936e-08 6.275425e-08 -5.536287e-08 -4.863377e-09 -6.498700e-09 1.316860e-08
1.739198e-08 5.462824e-08 -5.302571e-08 -7.317910e-09 -6.290013e-09 9.933339e-09
1.438881e-07 3.594298e-08 -8.250733e-08 -1.326956e-07 8.767147e-08 -7.589297e-08
1.208990e-08 7.221919e-08 -6.724073e-08 -5.589772e-09 -9.122720e-10 8.884757e-09
1.108945e-08 8.615692e-08 -6.998645e-08 -1.064869e-08 -1.784815e-09 6.383010e-09
6.988002e-08 -4.338844e-09 -2.414106e-08 7.680809e-09 2.670358e-09 4.913251e-09
1.999998e-08 1.232190e-07 -1.136450e-07 -6.406138e-08 5.659874e-09 -1.204840e-08
3.617290e-09 1.369193e-07 -1.080608e-07 -6.949966e-08 2.415872e-08 -3.666906e-09
1.931625e-08 1.587037e-07 -1.201054e-07 -1.016349e-07 4.158055e-08 -2.583707e-08
6.729862e-08 -1.603912e-09 -2.381523e-08 5.632762e-09 1.134350e-09 2.864333e-09
7.257489e-08 -6.541251e-09 -2.495625e-08 5.450443e-09 1.302732e-09 3.939013e-09
6.960694e-08 -3.901268e-09 -2.486255e-08 9.334143e-09 4.853821e-09 7.255820e-09
-2.861106e-08 2.220441e-07 -1.176137e-07 -1.597406e-07 7.004691e-08 -3.154862e-08
4.377017e-09 1.920015e-07 -1.190705e-07 -9.524837e-08 3.828927e-08 -1.873298e-08
5.734366e-08 8.346891e-08 -9.383218e-08 1.040428e-07 3.058532e-08 2.754631e-08
-7.356812e-09 1.425772e-07 -9.873261e-08 -7.129934e-08 3.560389e-08 -2.411266e-08
-1.442844e-06 -1.178684e-06 4.341590e-06 -6.965008e-07 5.745456e-07 -4.868669e-07
-1.781074e-06 -3.912983e-07 3.798027e-06 -2.580733e-07 1.640908e-06 -4.786446e-07
-1.226098e-06 5.021413e-07 1.780646e-06 7.226449e-08 9.972114e-07 1.310056e-08
2.684920e-07 -9.980898e-08 -1.328760e-07 1.050025e-08 -5.636750e-08 1.203978e-09
-1.634417e-06 -1.449497e-06 4.868625e-06 -5.545866e-07 1.846408e-07 -2.050520e-08
2.664255e-09 1.082553e-07 -1.109465e-07 5.049133e-08 -3.132272e-08 -1.467994e-08
-2.236097e-06 -1.360182e-06 6.877082e-06 2.318327e-08 1.090716e-06 -8.707887e-08
-2.269613e-06 -1.617948e-06 6.921764e-06 -9.893846e-08 5.319028e-07 -1.323270e-07
-1.733731e-08 1.995414e-08 -4.883235e-08 -8.392508e-10 -9.816044e-08 -5.828885e-08
-2.415612e-06 -1.953158e-06 7.029258e-06 -3.207961e-07 4.959655e-07 -1.657625e-07
6.243842e-08 6.023801e-08 -6.897427e-08 7.859747e-08 1.048532e-09 3.678563e-09
8.437116e-08 -1.303703e-08 -3.109419e-08 3.635631e-09 4.822098e-10 1.363165e-09
4.078588e-08 8.480026e-08 -8.393494e-08 7.948104e-08 9.097685e-09 9.087317e-09
8.068141e-08 -9.349993e-09 -2.952001e-08 1.859731e-09 7.369236e-10 2.795105e-11
9.194133e-08 -1.697114e-08 -3.719502e-08 7.050206e-09 6.952182e-10 2.648545e-09
2.177308e-08 -5.746355e-08 -2.584339e-08 5.164584e-09 1.164048e-07 -8.629169e-08
8.387517e-08 -9.907855e-09 -2.734005e-08 5.364470e-09 2.094351e-09 3.975134e-09
7.222364e-08 -1.042837e-09 -3.080624e-08 1.129282e-08 8.521288e-10 2.901855e-09
7.721416e-08 -3.135367e-09 -3.076855e-08 8.468245e-09 1.010317e-09 3.776491e-09
9.604975e-08 -1.236334e-08 -4.675639e-08 2.102952e-08 5.838787e-09 5.033682e-09
8.042068e-08 -8.206123e-09 -3.329702e-08 1.130080e-08 1.022570e-09 3.035825e-09
8.757722e-08 -8.881389e-09 -3.976197e-08 1.587693e-08 1.107177e-09 4.916663e-09
9.053120e-08 -5.652696e-09 -4.369770e-08 1.979844e-08 4.043357e-10 1.562026e-09
7.636384e-08 -1.719729e-09 -3.499167e-08 1.699554e-08 3.466960e-09 6.251057e-09
6.225862e-07 -2.667161e-07 -8.023670e-10 -2.690302e-07 -2.954773e-09 4.440451e-08
-6.362321e-10 -2.421972e-08 -5.300311e-08 -4.647391e-10 1.132494e-07 -6.042919e-08
7.948078e-08 -5.770226e-09 -3.196788e-08 1.077301e-08 2.821970e-09 2.637150e-09
1.369108e-07 -1.024138e-07 -6.412487e-08 5.637420e-08 5.175462e-08 -2.126248e-08
4.090908e-07 -1.191839e-07 -1.549781e-07 -2.637778e-08 6.028610e-08 -6.372423e-08
6.812056e-08 -5.700217e-08 -7.338143e-08 -7.072217e-08 6.174397e-08 -3.493028e-08
-2.210212e-07 5.212408e-07 9.111098e-08 -2.122945e-07 6.303040e-08 2.868995e-08
3.831565e-07 -1.093172e-07 -1.537814e-07 -6.111295e-08 5.860891e-08 -6.509115e-08
4.021388e-07 -1.388800e-07 -1.540710e-07 -1.330143e-08 6.523008e-08 -6.507912e-08
2.587899e-07 -1.114780e-07 -1.205168e-07 -8.031769e-08 5.420490e-08 -5.999773e-08
-4.872411e-09 9.240522e-08 -4.782616e-08 -3.700373e-08 -6.028020e-08 4.497552e-08
-4.220370e-08 1.396538e-07 -8.303417e-08 1.797901e-10 -2.100210e-08 -4.795346e-09
1.143308e-08 1.358881e-07 -1.023781e-07 -9.120361e-08 -1.976241e-08 1.279118e-08
-4.089260e-08 1.482718e-07 -8.310758e-08 -2.121221e-09 -2.873278e-08 1.006207e-09
1.143308e-08 1.323937e-07 -1.041952e-07 -7.181798e-08 -1.838390e-08 8.563207e-09
-2.848953e-08 8.126139e-08 -4.838429e-08 -3.240032e-09 1.954102e-08 -9.931604e-09
-3.092811e-08 9.138707e-08 -4.608128e-08 -2.747773e-09 3.267885e-08 -9.554635e-09
-2.963474e-08 9.678745e-08 -4.697400e-08 -1.177360e-08 2.863460e-08 -1.014946e-08
-2.806218e-08 8.061903e-08 -2.906022e-08 -2.986961e-09 2.150092e-08 -7.051816e-09
-2.859675e-08 8.499164e-08 -3.010014e-08 -6.883702e-10 2.534819e-09 -6.164217e-09
1.004646e-07 2.017868e-08 -8.901705e-08 3.540973e-08 -9.456344e-08 -4.953986e-08
1.814585e-07 3.651890e-08 -1.597591e-07 1.586825e-08 -5.197995e-08 -1.759139e-09
8.145190e-08 -1.389712e-08 -2.603387e-08 -3.766909e-09 -1.774885e-09 5.549512e-09
6.900084e-08 -8.027657e-08 -3.938755e-08 -2.124363e-08 -9.463441e-08 -6.321945e-08
7.258006e-08 -3.198018e-09 -2.343920e-08 -3.705445e-09 -1.977580e-09 1.344392e-09
3.775235e-09 -1.012471e-08 -6.638029e-08 5.528676e-10 -9.067060e-08 -2.761392e-08
8.303732e-08 -1.115662e-08 -2.877900e-08 -1.557558e-09 3.804139e-10 -4.452743e-16
3.483134e-08 8.956136e-08 -8.105468e-08 7.734325e-08 4.740251e-09 8.276302e-09
8.829278e-08 -1.435137e-08 -3.044900e-08 -1.226301e-09 9.594081e-11 -2.353048e-19
-4.043540e-08 3.526064e-07 -2.961517e-08 -2.638766e-07 2.180360e-08 5.288077e-09
5.320107e-08 2.272156e-08 -5.866871e-08 2.208912e-08 -8.370128e-08 -3.885407e-08
1.006788e-07 -5.440923e-09 -7.161707e-08 5.500390e-08 -9.209327e-08 -5.411226e-08
8.050934e-08 -1.238360e-08 -2.399282e-08 -1.453946e-09 -2.646863e-10 1.988176e-09
8.524423e-08 -1.319384e-08 -2.819057e-08 -8.381715e-10 -1.370337e-10 1.309029e-09
1.393373e-07 6.699558e-09 -1.056688e-07 2.845809e-08 -6.976128e-08 8.943063e-09
5.092929e-08 1.461161e-08 -1.995149e-08 7.059997e-10 5.324341e-10 4.034942e-10
4.845670e-08 1.587412e-08 -1.960491e-08 7.982175e-10 -1.410665e-10 1.880749e-10
6.406983e-08 2.908060e-09 -2.503555e-08 3.067755e-09 -1.227385e-10 1.122165e-09
4.408376e-08 1.838041e-08 -2.508831e-08 -4.990483e-09 -1.420805e-09 3.012396e-09
3.862532e-08 2.551359e-08 -2.224809e-08 -8.791767e-09 -4.562270e-09 6.416607e-09
4.478084e-08 1.734218e-08 -1.913221e-08 3.307221e-11 -2.624010e-10 -1.090372e-11
4.488396e-08 2.082488e-08 -2.118786e-08 -6.788488e-09 -3.198535e-09 4.371726e-09
4.521575e-08 1.964451e-08 -1.927444e-08 2.993037e-10 2.233575e-10 1.903406e-10
4.344525e-08 1.881214e-08 -1.875306e-08 4.366708e-10 -6.144132e-11 1.030331e-10
4.140239e-08 2.260116e-08 -2.392941e-08 -2.008289e-09 -5.982014e-10 3.587963e-09
4.398392e-08 2.119796e-08 -1.941265e-08 4.483072e-10 3.850697e-11 2.303746e-11
3.618388e-08 2.904010e-08 -2.639761e-08 -3.390734e-09 -2.168849e-09 6.215787e-09
3.753548e-08 2.422304e-08 -2.377430e-08 -2.942857e-09 -1.783373e-09 4.437383e-09
3.898509e-08 2.335931e-08 -2.245253e-08 -2.260153e-09 -1.588772e-09 2.635389e-09
4.254553e-08 2.238728e-08 -1.911886e-08 3.812324e-09 1.518595e-09 6.288716e-10
-2.606956e-10 7.917457e-08 -5.467432e-08 4.625969e-09 3.115065e-09 5.228746e-09
-1.403707e-09 6.869866e-08 -4.899952e-08 1.461234e-08 1.217497e-08 1.223826e-08
-5.888345e-11 5.412211e-08 -2.792845e-08 6.016898e-09 4.753462e-09 6.003563e-09
-6.720763e-09 6.244120e-08 -2.846000e-08 1.002104e-08 1.572929e-08 7.523645e-09
9.649900e-08 -1.016765e-08 -4.558357e-08 -1.861609e-08 -1.529820e-09 1.503000e-09
9.717250e-08 -1.971323e-08 -3.647912e-08 -1.741975e-09 -7.813399e-10 7.239719e-09
-4.521327e-09 6.930128e-08 -4.064576e-08 4.282476e-09 2.333496e-09 8.632612e-09
8.535910e-08 -1.322116e-08 -2.960471e-08 -1.454859e-09 -9.253020e-10 6.744340e-10
1.013213e-07 -1.244420e-08 -4.594382e-08 -2.439805e-08 -3.763631e-10 1.197352e-08
9.308069e-08 -2.011460e-08 -3.500516e-08 -5.665787e-09 5.518379e-10 8.911147e-09
-5.392376e-09 7.706234e-08 -4.205721e-08 5.209583e-09 7.741685e-09 1.153382e-08
9.252818e-08 -1.978155e-08 -3.222738e-08 -5.463161e-09 -3.209488e-09 1.268961e-08
-3.804527e-09 6.508261e-08 -3.851072e-08 1.389976e-08 1.952913e-08 1.382950e-08
8.885238e-08 -2.019958e-08 -2.234613e-08 -2.707611e-09 -1.385277e-09 1.005364e-08
8.405766e-08 -1.948801e-08 -2.506923e-08 -5.680029e-09 -5.242603e-10 1.255616e-08
5.616419e-09 5.983063e-08 -3.349585e-08 7.946389e-09 5.108426e-09 9.815446e-09
4.183514e-08 2.076201e-08 -2.632324e-08 9.960771e-09 -4.514771e-10 2.889606e-10
3.909729e-08 2.695009e-08 -2.744421e-08 1.298929e-08 2.706026e-09 3.753228e-10
4.153833e-08 2.632977e-08 -2.459260e-08 1.337527e-08 3.130153e-09 3.013710e-09
3.912762e-08 2.979627e-08 -3.233730e-08 1.932910e-08 1.463161e-09 5.684166e-09
8.493661e-08 -1.726986e-08 -2.457526e-08 -2.717042e-09 -9.275179e-10 7.082389e-09
3.907361e-08 2.819125e-08 -2.647400e-08 1.138780e-08 1.225954e-09 9.962309e-10
9.044118e-08 -1.843580e-08 -3.043289e-08 -1.875593e-09 -1.135641e-09 1.961088e-09
9.674175e-08 -1.878054e-08 -3.269898e-08 -1.632668e-09 1.508882e-10 1.046869e-10
1.056724e-07 -2.372816e-08 -4.216773e-08 -2.356388e-09 2.743047e-09 2.653456e-09
3.784336e-08 2.790070e-08 -2.838242e-08 1.217033e-08 -6.352743e-12 1.206011e-09
4.287739e-08 7.324878e-08 -8.638701e-08 -1.820882e-08 5.649529e-08 -1.195818e-08
4.523313e-10 7.200327e-08 -4.854143e-08 -4.492213e-09 3.101674e-08 -4.554683e-09
8.641181e-08 -1.939754e-08 -2.413108e-08 -1.004475e-09 -5.181668e-10 7.579376e-09
8.695455e-08 -1.674243e-08 -2.720342e-08 -1.406868e-09 -4.663978e-10 1.927891e-09
-5.279435e-09 7.228773e-08 -4.374377e-08 -2.130865e-09 2.048862e-08 -3.588570e-09
6.667120e-08 -8.098046e-10 -2.426133e-08 6.972619e-09 3.274321e-10 3.470921e-09
6.633833e-08 6.346976e-10 -2.322087e-08 1.975291e-09 1.478793e-09 4.107806e-10
6.818952e-08 -1.588538e-09 -2.259802e-08 3.078292e-09 1.478069e-09 1.028186e-09
1.850119e-08 -8.410232e-08 -2.136555e-09 1.148690e-08 1.115125e-07 -1.012214e-07
-9.324793e-08 3.691315e-07 -1.272695e-07 -1.342141e-07 8.824260e-08 -3.328174e-08
-3.343679e-09 3.944590e-08 -4.046759e-08 -2.016682e-09 4.934520e-08 -1.511692e-08
2.329787e-08 6.967721e-08 -6.833067e-08 -5.222760e-09 4.700478e-08 -1.023864e-08
-1.128248e-08 3.945284e-08 -4.360716e-08 -4.393274e-10 4.887799e-08 -8.716896e-09
-4.136548e-08 1.203508e-07 -5.333300e-08 8.501016e-10 -4.848643e-08 -6.354952e-09
-3.040978e-08 1.520147e-07 -1.120661e-07 3.741620e-08 -9.210463e-09 -5.173156e-09
-7.692315e-09 5.640161e-08 -3.901542e-08 -8.276655e-09 3.913452e-08 -4.396445e-09
5.184127e-08 1.277105e-08 -2.007252e-08 -1.741062e-09 -3.037292e-10 3.875335e-10
5.010048e-08 1.606771e-08 -2.273074e-08 -6.291234e-09 -1.748261e-09 2.687729e-09
-9.226069e-08 2.461840e-07 -1.302917e-07 -8.397753e-09 -4.916057e-08 6.778407e-09
-3.469554e-08 1.477304e-07 -8.221432e-08 3.163126e-10 -2.844099e-08 3.939722e-09
-2.275049e-08 1.002112e-07 -7.372470e-08 -2.288203e-08 -6.179506e-08 2.426224e-08
-3.491665e-08 6.712662e-08 -4.801749e-08 -1.971336e-08 -1.796751e-08 -1.705052e-09
5.203445e-08 1.274879e-08 -1.997630e-08 -1.680347e-09 -3.008242e-10 1.934483e-10
5.190171e-08 1.161126e-08 -2.044168e-08 -1.577346e-09 -2.614482e-10 2.476568e-10
-2.619050e-08 3.056969e-08 -4.175178e-08 -1.452379e-09 -1.185229e-08 -5.372078e-09
5.162039e-08 1.236747e-08 -1.994912e-08 -4.704248e-10 -2.941837e-10 1.038943e-10
5.023475e-08 1.302118e-08 -2.000406e-08 -7.511290e-10 -3.770539e-11 2.333362e-10
5.087880e-08 1.331652e-08 -1.971905e-08 -3.212639e-10 -3.254208e-10 -2.385463e-11
5.090724e-08 1.338418e-08 -2.142651e-08 -1.226544e-09 -3.545550e-10 7.429533e-10
5.977361e-07 -2.468561e-07 -6.273889e-08 -1.791350e-07 3.102472e-08 -6.063622e-08
4.740067e-07 -2.896439e-07 -1.321485e-07 2.630811e-08 5.971947e-08 -1.618853e-07
2.492716e-07 -1.233371e-07 -8.153211e-08 1.265092e-08 -4.087912e-08 -7.428807e-08
1.388957e-07 -2.086811e-07 8.983030e-08 -7.730433e-08 1.828458e-08 -8.429170e-08
-1.429176e-07 3.508941e-07 -1.324528e-07 3.636473e-08 -1.007738e-07 -1.440869e-08
-1.541879e-07 4.247834e-07 -1.076318e-07 2.057370e-08 -9.736267e-08 -7.565208e-09
-1.379319e-07 3.654097e-07 -1.295850e-07 -1.213664e-08 -1.021248e-07 1.160761e-08
-1.469358e-07 4.629946e-07 -1.306000e-07 -1.230173e-08 -8.482999e-08 5.517146e-09
-1.355313e-07 4.558789e-07 -1.388938e-07 6.568477e-08 -8.982832e-08 -1.381807e-08
-4.513011e-08 1.782316e-07 -1.181858e-07 -4.644567e-09 -3.074319e-08 3.905601e-09
-3.343822e-08 9.111566e-08 -4.358841e-08 -7.018066e-09 -4.114933e-08 1.051513e-08
-8.819738e-08 3.371953e-07 -1.481852e-07 -3.267716e-08 -5.917389e-09 -1.247969e-09
-4.483206e-08 1.444701e-07 -8.240081e-08 -5.581708e-09 -2.678951e-08 7.516115e-09
-5.108103e-08 1.908608e-07 -1.259046e-07 -1.127383e-09 -2.678511e-09 -4.516248e-09
5.475288e-07 -2.057477e-07 -2.058516e-07 3.887188e-08 -1.455669e-08 -1.164831e-08
-2.733427e-08 3.680875e-08 -5.130684e-08 4.753493e-09 -2.904959e-08 2.676592e-09
5.534851e-07 -2.231126e-07 -1.064276e-07 2.044956e-08 -1.212520e-08 -3.026613e-08
-5.847842e-08 1.836724e-07 -1.015743e-07 -5.914238e-08 -1.001725e-07 2.680833e-08
-1.523058e-08 1.368567e-07 -9.523228e-08 -6.080654e-08 -3.097079e-08 1.533498e-08
-2.660158e-08 4.105687e-08 -4.038573e-08 -3.860865e-10 -9.782157e-09 1.014479e-08
5.047965e-07 -2.123008e-07 -1.950212e-07 -6.660345e-09 6.192890e-09 2.131582e-08
-7.379047e-08 2.667459e-07 -1.452151e-07 -1.225003e-08 -2.550940e-08 4.005137e-09
-2.661209e-09 1.339264e-07 -9.680703e-08 -3.054307e-08 -3.569375e-09 8.639391e-09
-1.247521e-08 1.387809e-07 -1.012180e-07 -2.928608e-08 -4.716162e-09 1.452475e-09
4.855337e-07 -1.873066e-07 -1.869777e-07 3.160538e-08 -1.964180e-08 -8.283863e-09
-3.747667e-08 2.300675e-07 1.776370e-07 -4.454565e-07 -5.712358e-08 3.365000e-08
-2.137383e-08 1.394416e-07 -1.009922e-07 -1.246972e-08 -1.921211e-09 8.524269e-09
-2.745773e-08 1.693511e-07 -1.062626e-07 -2.963999e-08 1.215320e-09 -2.247702e-09
2.860127e-09 2.110622e-07 2.797873e-07 -5.186331e-07 9.635099e-08 -3.081054e-08
-2.111759e-08 1.269722e-07 -1.030667e-07 -2.166447e-08 -7.136679e-09 5.545607e-09
-4.256316e-08 4.014383e-08 -5.341630e-08 -6.505497e-10 -8.074571e-08 -1.237436e-08
-1.539099e-08 3.583010e-08 -3.470019e-08 -2.237601e-09 -4.030205e-08 2.946502e-08
-1.426785e-07 5.084526e-07 9.111099e-08 -3.336853e-07 7.494291e-08 -5.313666e-08
-3.009664e-09 1.008603e-07 -8.031805e-08 -3.441673e-08 -1.776902e-08 8.299702e-09
3.783329e-08 3.448023e-07 7.685192e-09 -4.212498e-07 3.538493e-08 -1.730363e-08
1.164860e-07 -1.877199e-07 4.905135e-07 -6.639616e-07 -2.531830e-09 1.617429e-07
3.201468e-07 -6.190853e-08 4.835619e-08 -4.136553e-07 7.612870e-10 3.045744e-08
1.258665e-07 1.599180e-07 -6.591426e-09 -3.934448e-07 -2.774322e-08 1.395148e-08
-1.868192e-08 1.036714e-07 -7.064689e-08 -1.087392e-08 -2.046167e-08 2.075823e-08
1.619762e-07 1.795442e-07 1.109908e-07 -4.299241e-07 3.426602e-08 -5.147720e-08
3.387879e-07 -2.148111e-09 -5.146399e-08 -2.967250e-07 6.128074e-08 -6.156666e-08
6.241429e-08 1.633618e-07 7.269224e-10 -3.311881e-07 1.831215e-08 -2.278727e-08
-3.548845e-08 1.120404e-07 -7.210386e-08 2.770894e-08 -5.384166e-08 -2.403664e-08
-3.993267e-08 1.707793e-07 -1.102393e-07 -1.153889e-08 -1.949356e-08 9.641384e-09
-3.433783e-08 1.325495e-07 -9.248984e-08 4.198515e-09 -4.442496e-09 -1.338997e-08
-2.823946e-08 4.568021e-08 -2.691516e-08 3.263709e-09 4.949859e-08 -2.551285e-09
-3.229068e-08 8.342728e-08 -3.036544e-08 2.727214e-09 2.456513e-08 1.365922e-09
3.153708e-08 3.122824e-08 -2.956338e-08 -1.595123e-09 -1.625906e-09 8.064426e-09
3.613757e-08 2.619645e-08 -2.367334e-08 -1.744099e-09 -1.304447e-09 4.548093e-09
7.002172e-08 2.198618e-08 -5.017923e-08 4.058239e-08 1.278096e-09 2.923649e-09
-3.068987e-08 1.051872e-07 -4.984779e-08 -5.195436e-10 1.613184e-08 -3.104923e-09
5.417853e-08 2.176815e-08 -3.716673e-08 2.253895e-08 3.258361e-09 5.290430e-09
-4.131051e-08 1.300185e-07 -7.016337e-08 -5.565469e-09 1.821285e-08 -2.248655e-09
-3.027114e-08 1.075058e-07 -4.933606e-08 -2.039520e-09 1.494208e-08 -2.086068e-09
6.461521e-08 1.835443e-09 -2.380335e-08 2.456013e-09 1.700028e-09 -3.954278e-10
8.307367e-08 2.982562e-08 -6.097282e-08 5.944825e-08 3.055699e-09 4.324448e-09
1.324148e-07 -3.327472e-09 -8.490481e-08 8.248894e-08 4.917368e-09 1.503435e-08
-1.060809e-08 7.290493e-08 -4.405995e-08 7.728049e-10 6.509507e-09 -1.974340e-09
-1.460151e-08 7.151413e-08 -3.745577e-08 -5.171277e-09 8.954105e-09 -4.853257e-09
1.164553e-07 -7.933638e-09 -6.458662e-08 4.259225e-08 3.132685e-09 6.040384e-09
7.013291e-08 1.117079e-09 -3.060711e-08 1.218108e-08 1.657084e-10 5.262577e-10
-1.918755e-08 6.201158e-08 -2.629485e-08 1.127072e-09 7.133914e-09 -7.399294e-09
5.602312e-08 1.348668e-08 -3.517066e-08 1.942533e-08 2.781446e-09 1.671781e-09
7.167661e-08 1.592609e-08 -5.642573e-08 4.438355e-08 3.882571e-09 6.932667e-09
2.535693e-07 5.019329e-08 -5.555123e-08 -2.393538e-07 1.136749e-07 -1.267414e-07
-2.903907e-09 -5.234866e-08 -2.843735e-09 -4.422124e-10 1.002029e-07 -1.425178e-07
1.813182e-07 -4.585158e-08 -7.544076e-08 -9.578422e-08 6.653030e-08 -2.600000e-08
-1.281756e-08 7.350188e-08 -4.127553e-08 5.872636e-10 3.772081e-09 -3.643666e-09
1.116065e-08 8.933266e-08 -8.536701e-08 -2.409991e-08 1.365316e-08 3.364056e-10
-1.338233e-08 7.087088e-08 -4.312403e-08 -1.526943e-09 6.250406e-09 -2.394586e-09
-6.268589e-09 -3.656892e-08 -4.366792e-08 9.134641e-09 9.474184e-08 -1.347543e-07
-5.259578e-09 -3.755592e-08 -9.713844e-09 4.399799e-09 1.134683e-07 -1.312612e-07
1.188222e-07 3.382148e-08 -6.527867e-08 -1.177340e-07 2.934992e-08 -2.565524e-08
5.530447e-07 -3.808777e-07 4.088668e-07 -3.062414e-07 -7.904037e-09 2.919707e-08
-1.568980e-08 -5.138978e-08 1.975259e-08 2.022643e-09 6.056876e-08 -1.728033e-07
3.890015e-07 -6.412533e-08 -1.318365e-07 -2.684216e-07 9.177863e-09 -5.258340e-08
-3.824539e-08 1.432378e-07 -9.418069e-08 3.693222e-08 3.302347e-08 9.334000e-09
-2.724040e-08 1.256621e-07 -8.192867e-08 2.069789e-08 5.277146e-09 7.272940e-10
-3.824539e-08 1.322404e-07 -7.831282e-08 3.566238e-08 6.121231e-08 1.618346e-08
-1.136409e-07 2.632287e-07 -1.138842e-07 -3.474437e-08 7.716465e-08 -7.084674e-09
-1.195487e-08 5.171637e-08 -3.946350e-08 -1.902781e-09 3.760405e-08 -1.164675e-08
-9.425269e-08 2.629992e-07 -1.138543e-07 6.649982e-08 6.848433e-08 1.051679e-08
-3.280034e-08 1.362544e-07 -7.510554e-08 -9.843264e-09 3.157345e-09 -1.143346e-09
-1.502782e-08 6.296545e-08 -2.013898e-08 -2.602761e-09 1.250775e-08 -4.087671e-09
1.004194e-07 4.771448e-08 -1.208340e-07 -5.297200e-08 8.017074e-08 -2.939676e-08
-3.660222e-08 1.445873e-07 -7.753041e-08 -4.671206e-09 2.570463e-09 -4.968106e-10
-2.930761e-08 1.182344e-07 -6.712438e-08 -3.075982e-09 3.352476e-18 -5.449441e-10
-8.588410e-08 2.795366e-07 -1.174724e-07 -5.691334e-08 6.991255e-08 -1.252712e-09
-7.415185e-08 2.697929e-07 -1.094669e-07 2.950540e-08 5.751730e-08 3.698404e-09
-8.081733e-08 3.193309e-07 -1.137502e-07 -1.717397e-07 6.767047e-08 -1.884565e-08
-1.203365e-08 7.141903e-08 -3.162722e-08 -2.519416e-09 7.889849e-09 -3.387344e-09
-6.301260e-08 1.782171e-07 -1.083822e-07 4.103632e-08 4.924127e-08 4.905363e-09
-1.103701e-07 3.796537e-07 -1.509319e-07 -5.142009e-08 -4.248520e-08 2.541584e-09
-1.239047e-08 7.182308e-08 -3.601389e-08 -8.164344e-09 1.616795e-08 -6.410856e-09
-1.340912e-08 7.082437e-08 -3.005853e-08 -1.562244e-09 6.584347e-09 -2.141969e-09
3.839298e-09 1.470638e-07 -1.135762e-07 -1.093271e-07 -4.206597e-08 2.858658e-08
7.670140e-08 -7.110862e-09 -2.405941e-08 -3.124521e-09 -2.626032e-09 9.522510e-10
-7.202871e-08 2.428718e-07 -1.314092e-07 -1.007588e-07 -7.652508e-08 3.021802e-08
-5.610657e-08 2.265661e-07 -1.263265e-07 -4.430225e-08 -4.050163e-08 1.810828e-08
-5.807530e-08 2.916623e-07 -1.460514e-07 -7.927730e-08 -2.369809e-08 2.154983e-09
5.617827e-08 2.834470e-08 -4.999280e-08 -3.665407e-08 -1.234006e-08 6.425053e-09
7.530996e-08 -7.433080e-09 -2.418114e-08 -1.706027e-09 -1.315586e-09 2.106501e-10
6.834411e-08 -1.980106e-09 -2.260713e-08 -1.395142e-09 -1.708829e-09 1.289748e-09
7.018725e-08 -2.581638e-09 -2.312248e-08 -1.805276e-09 -1.165551e-09 -9.539135e-11
8.635714e-08 4.797591e-08 -1.082966e-07 -1.082518e-07 -1.902210e-08 1.744661e-08
-1.600777e-07 3.981133e-07 7.383509e-08 -4.607019e-07 6.378455e-08 2.110943e-08
-2.053170e-07 4.368310e-07 -1.237380e-07 2.705652e-08 -2.656384e-08 -1.079459e-09
7.299954e-08 -6.051757e-09 -2.648807e-08 -6.826832e-09 -1.901752e-09 2.824664e-09
7.424359e-08 -6.149630e-09 -2.310783e-08 -1.724694e-09 -1.332220e-09 8.265111e-10
-1.214757e-07 3.242040e-07 -1.000935e-07 -1.424787e-07 -9.617618e-08 2.786205e-08
7.257410e-08 -4.676047e-09 -2.233177e-08 -1.382216e-09 -2.487763e-10 8.888050e-10
3.433254e-08 2.709382e-08 -2.074201e-08 1.157252e-08 4.551546e-09 3.687171e-09
-9.209847e-08 3.116703e-07 -1.506475e-07 -5.557108e-08 -4.174754e-08 -5.178194e-09
-5.885545e-08 2.155452e-07 -1.131033e-07 -1.320899e-07 7.630258e-08 -3.370090e-08
-1.103138e-07 3.195845e-07 -1.375646e-07 -6.368470e-08 -8.910889e-08 4.286445e-09
-4.576454e-08 1.777013e-07 -1.228491e-07 -1.238922e-08 -3.978767e-09 2.945776e-09
-1.806732e-07 4.258422e-07 -1.069388e-07 2.223402e-08 -9.880443e-08 -2.032897e-09
-1.055296e-07 4.070688e-07 -1.521305e-07 -1.018172e-07 -3.601304e-08 5.519693e-09
5.914706e-08 2.095318e-08 -4.363665e-08 -2.622454e-08 -6.369305e-09 6.210053e-09
4.755045e-08 2.264677e-08 -3.349993e-08 -1.658912e-08 -6.502955e-09 1.012225e-08
3.309651e-08 2.951888e-08 -2.361496e-08 6.656834e-09 2.788498e-09 6.698839e-10
6.842095e-08 2.075684e-08 -5.472656e-08 -3.841925e-08 5.665059e-10 6.960778e-09
2.271315e-07 -7.958164e-09 -3.580907e-08 -1.825001e-07 9.258748e-08 -9.194095e-08
5.993485e-08 1.578427e-08 -3.716113e-08 -2.360117e-08 -2.611766e-09 1.025574e-09
3.525762e-08 2.636717e-08 -2.493984e-08 1.297029e-08 3.997918e-09 3.209688e-09
8.890905e-08 8.997141e-09 -5.267495e-08 -4.340681e-08 -3.793394e-09 1.079951e-08
3.205624e-08 2.940157e-08 -2.699604e-08 1.407668e-08 5.899302e-09 6.053769e-09
6.392586e-08 8.026501e-09 -2.958841e-08 -1.386352e-08 7.756537e-10 1.569688e-09
1.055540e-07 4.749394e-09 -6.116096e-08 -5.697748e-08 -3.737461e-09 1.389213e-08
-3.389224e-08 1.050165e-07 -4.976834e-08 1.011339e-08 3.167680e-08 7.090546e-09
-9.731212e-08 2.999533e-07 -1.303377e-07 1.763245e-08 2.373706e-08 5.096080e-09
-2.814914e-08 1.196459e-07 -6.703897e-08 1.159970e-08 4.242046e-08 3.450346e-09
-1.136913e-07 3.836758e-07 -1.235829e-07 -4.828124e-08 6.502342e-08 -9.863575e-09
-3.605329e-08 1.270370e-07 -7.545308e-08 3.050974e-08 6.624701e-08 1.170666e-09
-3.166772e-08 1.392644e-07 -8.271364e-08 1.204194e-08 2.048435e-08 2.177826e-09
-4.069905e-08 1.632326e-07 -9.291816e-08 3.234748e-08 1.771858e-08 -2.876813e-09
-3.247737e-08 1.265059e-07 -7.142872e-08 3.975189e-09 4.835277e-08 5.634057e-10
5.829397e-08 3.288220e-08 -7.115897e-08 -5.797641e-08 -1.943903e-08 2.088683e-08
-2.573721e-08 1.002075e-07 -4.625931e-08 3.013517e-09 1.187865e-08 5.797460e-09
-2.812445e-08 1.255836e-07 -7.232229e-08 6.966941e-09 1.475050e-08 3.087837e-09
-1.090811e-07 3.395152e-07 -1.522479e-07 6.854588e-09 -3.534741e-08 2.605416e-10
-8.443191e-08 2.895909e-07 -1.339545e-07 -4.429138e-08 -6.376071e-08 1.890924e-08
-8.443191e-08 2.965719e-07 -1.466882e-07 -4.580030e-08 -6.626613e-08 1.734214e-08
8.511896e-08 3.681179e-08 -8.185625e-08 -8.095723e-08 -9.739506e-10 1.444380e-08
8.571262e-08 9.493082e-08 -1.220554e-07 -1.553870e-07 -2.223184e-08 1.825571e-08
9.568983e-08 3.522613e-08 -7.289593e-08 -7.920686e-08 -2.588596e-09 4.711461e-09
4.206055e-08 6.041449e-08 -8.213615e-08 -6.397027e-08 -1.887604e-08 1.661544e-08
-1.826748e-07 4.309152e-07 -1.005908e-07 -4.616211e-08 -8.692559e-08 3.112827e-09
-2.015845e-07 4.408194e-07 -6.647956e-08 -4.986338e-08 -1.062746e-07 1.691205e-09
3.838634e-07 -1.360846e-07 -7.513026e-08 -1.673980e-07 -6.165060e-09 2.701172e-08
-1.688438e-07 4.593763e-07 -1.340555e-07 -2.479887e-08 -3.901228e-08 -2.870995e-09
-1.384234e-07 4.329434e-07 -1.407436e-07 -7.576913e-08 -8.688466e-08 1.378260e-08
-6.278275e-08 3.021417e-07 3.594798e-07 6.012884e-07 -3.885488e-08 3.482862e-08
-2.578623e-07 6.107307e-07 2.984651e-07 4.552515e-07 -1.284129e-09 8.285716e-09
-1.394309e-06 -8.234016e-08 2.999258e-06 5.177625e-07 1.061261e-07 6.397363e-08
-1.842720e-07 4.079189e-07 -1.133609e-07 -7.943996e-08 -3.239188e-08 -4.684818e-09
-3.754402e-07 2.362526e-07 8.001521e-07 6.569594e-07 1.823601e-07 1.287414e-07
-7.148138e-07 6.999730e-07 1.012142e-06 1.938996e-07 -4.357299e-08 -1.398509e-08
-1.171149e-06 1.938836e-07 2.999258e-06 2.287779e-07 3.010771e-08 1.842028e-07
1.458441e-09 6.323221e-08 -7.362882e-08 1.512313e-08 -4.843449e-08 -1.681665e-08
-2.091620e-07 -7.715845e-07 2.578572e-06 7.687989e-07 -2.260023e-07 8.597499e-08
-2.132532e-09 6.513342e-08 -3.833814e-08 1.544217e-09 -4.392713e-08 -2.211568e-09
-8.650289e-07 -5.947062e-07 2.958678e-06 8.081785e-07 3.304854e-08 4.693908e-08
-1.954935e-07 -5.948819e-07 2.958678e-06 7.053039e-07 6.161135e-08 -4.575126e-08
-6.530669e-08 1.056070e-07 3.782908e-07 6.701882e-07 6.346777e-08 3.844380e-08
-1.700066e-07 -2.532666e-07 1.441873e-06 8.272397e-07 -1.198335e-08 -1.253663e-08
3.558964e-08 8.566097e-08 -1.263623e-07 3.464538e-08 -4.419068e-08 -1.620745e-08
1.663945e-08 6.815941e-08 -7.259533e-08 1.251416e-08 -5.095249e-08 -1.034211e-08
4.025442e-08 7.746290e-08 -9.702046e-08 6.548133e-09 -5.375873e-08 -9.033492e-09
-2.575538e-07 5.303323e-07 -2.049669e-08 -3.957539e-09 -9.354391e-08 2.893777e-08
-2.987719e-07 1.876388e-07 1.525984e-06 7.098399e-07 4.839565e-07 3.413157e-07
-2.691632e-07 3.626597e-07 8.093409e-07 6.065613e-07 -3.460189e-08 -7.088424e-08
-3.168056e-07 -7.049281e-08 1.631683e-06 7.961257e-07 4.966081e-07 3.709867e-07
-6.498526e-08 1.055762e-07 8.489080e-07 6.699910e-07 6.595507e-08 8.698969e-08
2.112376e-08 1.621803e-07 -1.141071e-07 1.382217e-07 6.408309e-09 1.012922e-08
-1.724207e-07 4.434769e-07 -1.473741e-07 1.146288e-08 -2.898020e-08 -4.923064e-09
-1.469081e-07 4.632619e-07 -1.732952e-07 -1.238803e-08 -3.192182e-08 -1.061794e-08
-3.023077e-07 5.409006e-07 4.043376e-08 -6.272319e-08 -3.835350e-08 -7.099348e-09
2.876264e-08 1.860508e-07 -1.127430e-07 2.500130e-07 6.643820e-08 5.260624e-08
1.369452e-08 1.918208e-07 -1.239523e-07 1.836173e-07 1.994664e-08 1.387795e-08
-4.932353e-07 6.329514e-07 3.424430e-07 -2.824062e-08 5.379839e-09 1.017712e-08
-3.708619e-07 6.229006e-07 2.386557e-07 -1.378845e-07 -8.524046e-09 -6.984517e-08
-2.714645e-08 1.437280e-08 -3.743298e-08 -3.267798e-10 -6.681845e-08 2.129831e-08
-1.266750e-07 4.136362e-07 -1.193552e-07 -4.645021e-08 -6.876843e-08 7.619620e-09
-1.089789e-07 2.880920e-07 -1.438005e-07 5.623538e-09 -7.137807e-08 -4.877470e-09
-6.518166e-07 6.230019e-07 9.110407e-07 -2.145741e-07 -4.036380e-08 7.035294e-09
-5.436096e-07 4.620706e-07 1.601801e-06 5.146945e-07 -7.586425e-09 -2.606101e-08
4.509503e-08 1.912692e-08 -1.935018e-08 4.552936e-11 -1.050695e-11 6.514188e-11
-1.084576e-06 -1.478724e-06 4.093557e-06 8.352271e-07 5.717166e-07 1.541941e-06
4.365330e-08 1.998506e-08 -1.925147e-08 1.771541e-09 1.389169e-10 4.920095e-10
-1.336421e-06 -2.490801e-06 8.809591e-06 -6.210867e-08 -1.330904e-07 9.141132e-07
-2.642781e-06 -2.529679e-06 7.983015e-06 -2.356153e-07 1.263019e-06 9.992424e-07
-2.830419e-06 -2.298018e-06 7.599289e-06 -1.317463e-07 1.433117e-06 7.303661e-07
6.099677e-07 -5.565226e-07 9.197634e-07 -2.648392e-07 1.826765e-08 -3.021960e-07
4.316072e-08 1.837236e-08 -1.905523e-08 1.433392e-09 -2.511082e-10 2.464484e-10
4.409346e-08 1.743721e-08 -1.949752e-08 1.579398e-09 6.336128e-14 -3.230358e-10
4.506080e-08 1.738025e-08 -1.911131e-08 5.315401e-10 2.083097e-10 1.335630e-10
4.682262e-08 1.742470e-08 -1.955716e-08 1.040595e-09 2.225794e-11 -3.346080e-10
1.561705e-07 -3.334041e-08 -7.575294e-08 3.801377e-08 1.283637e-08 2.350417e-08
-2.301683e-06 -2.573819e-06 7.644346e-06 -1.155098e-07 4.445531e-07 3.814218e-07
-9.031083e-07 6.127053e-07 1.493427e-06 3.726181e-07 6.655156e-07 3.318741e-07
-1.623590e-06 -2.262034e-07 3.998884e-06 3.549835e-07 8.811361e-07 1.275822e-07
-2.480760e-06 -2.354691e-06 7.871410e-06 -1.256019e-07 1.165651e-07 -2.581006e-08
1.666029e-07 -3.845486e-08 -7.969460e-08 3.581996e-08 -1.617273e-09 3.177849e-08
-1.747150e-06 1.089798e-07 3.942970e-06 -3.886499e-07 8.546667e-07 -2.865309e-07
1.736859e-07 -4.465106e-08 -8.335151e-08 2.406303e-08 -7.092139e-09 1.124602e-08
1.662903e-07 -4.540607e-08 -9.312928e-08 3.058631e-08 -2.012607e-09 1.921414e-09
-1.334674e-06 -1.246139e-06 5.875267e-06 -8.034665e-07 1.742603e-06 -1.093226e-06
-1.449744e-06 -8.303238e-07 5.016918e-06 -6.209568e-07 8.482600e-07 -2.230061e-07
-1.398710e-06 4.156629e-08 4.009614e-06 -5.104030e-07 2.998491e-07 -2.530613e-07
2.287641e-07 -5.338712e-08 -9.007765e-08 3.056959e-08 4.293584e-09 3.663570e-08
-1.026100e-06 -5.746552e-07 3.923696e-06 5.424894e-07 4.909823e-07 4.092534e-07
2.161351e-07 -6.842143e-08 -1.108744e-07 3.268622e-08 -2.228785e-09 4.740785e-09
-2.108895e-07 -1.690292e-06 4.897841e-06 -6.436466e-08 -1.842228e-08 6.668144e-08
2.192173e-07 -5.824198e-08 -9.775370e-08 4.021328e-08 -2.599784e-09 4.582392e-08
2.122607e-07 -4.811743e-08 -8.624673e-08 3.687978e-08 8.225395e-09 4.299611e-08
1.984132e-07 -5.363709e-08 -1.063414e-07 5.522659e-08 8.236652e-10 1.127964e-08
-1.200596e-06 -2.131249e-06 7.038460e-06 2.000722e-07 1.231131e-07 1.002715e-07
-1.581481e-06 6.444112e-08 3.340261e-06 4.675005e-07 9.519699e-07 1.863041e-07
1.393714e-07 -2.351531e-08 -8.022308e-08 4.967583e-08 5.300838e-09 1.145512e-08
4.123233e-07 -1.490642e-07 -1.918765e-08 1.300088e-07 -3.374873e-08 4.241153e-08
3.642969e-07 -1.551036e-07 -1.050816e-07 4.440121e-08 2.278210e-09 3.081792e-08
5.790012e-07 -2.446035e-07 -1.662235e-08 7.162309e-08 7.662790e-09 4.581204e-08
5.880422e-07 -2.373127e-07 -1.605723e-08 -5.459056e-08 -4.937147e-09 3.693692e-08
-3.382936e-08 8.892899e-08 -4.228736e-08 -9.402987e-09 -3.740993e-08 1.877212e-08
-2.997524e-08 1.126718e-07 -7.881878e-08 -2.128550e-08 -3.010829e-08 1.419821e-08
1.778208e-07 -5.474589e-08 -9.153397e-08 -1.632345e-08 -1.358909e-09 1.401948e-08
2.618295e-07 -8.245248e-08 -9.756182e-08 -1.556804e-07 -1.542817e-08 5.684223e-08
-3.291343e-08 8.058147e-08 -5.263286e-08 -3.635150e-10 -2.666059e-08 8.536185e-09
5.699964e-07 -2.377937e-07 -5.957438e-09 -1.275283e-07 -9.583234e-09 5.496021e-08
-2.844463e-08 8.832141e-08 -4.129021e-08 -1.334289e-09 -4.597986e-09 1.145135e-08
-3.004586e-08 1.313556e-07 -7.547129e-08 -3.969448e-09 -2.138702e-08 1.614168e-08
4.274068e-07 -6.142205e-07 9.512611e-07 5.211948e-07 -2.218743e-08 4.436903e-08
-3.969545e-08 1.328603e-07 -7.572329e-08 -1.019851e-08 -2.166403e-08 1.401167e-08
-7.953444e-07 -2.109166e-06 5.886036e-06 3.232191e-09 6.238209e-09 -1.758547e-07
-4.402265e-08 1.516785e-07 -1.013132e-07 -3.087209e-09 -4.964936e-09 4.024219e-09
-2.402253e-06 -2.560770e-06 7.834543e-06 -2.863775e-08 3.044618e-07 3.932115e-07
-4.772628e-08 1.479906e-07 -7.750365e-08 1.057327e-08 -6.350514e-08 -1.550333e-08
-3.502795e-08 8.451827e-08 -4.399527e-08 -5.140242e-09 -4.085148e-08 2.461890e-09
-3.472513e-08 1.011350e-07 -7.354767e-08 -1.895145e-09 -9.626303e-09 3.725512e-09
-4.134733e-08 1.067335e-07 -7.356315e-08 6.699836e-10 -7.731710e-09 -5.519873e-09
-5.989838e-07 -1.426571e-06 3.419102e-06 2.065104e-08 -1.593791e-09 -7.554267e-07
-9.552815e-07 1.836258e-07 2.819953e-06 4.311453e-07 -9.577463e-07 -5.994388e-07
2.281019e-07 1.952060e-08 -1.153149e-07 2.639989e-07 3.278184e-08 4.007138e-08
-1.588559e-06 -1.622018e-06 6.576668e-06 3.465584e-07 -5.253056e-07 -5.474501e-07
1.902904e-07 -1.371085e-08 -8.921363e-08 2.385272e-07 2.745015e-08 3.999405e-08
3.497561e-07 -4.652550e-08 -5.492821e-08 3.087283e-07 1.016061e-08 5.509140e-08
-1.569253e-06 -1.369969e-06 4.574394e-06 6.404948e-07 -2.121286e-07 -3.288853e-08
1.964557e-07 2.492336e-08 -8.475251e-08 3.169339e-07 4.281896e-08 6.193187e-08
-2.526933e-06 -2.436452e-06 8.157649e-06 2.053534e-09 -3.732533e-07 -1.228888e-07
-2.204463e-06 -1.684231e-06 6.986015e-06 -1.138550e-07 -1.836154e-07 8.200266e-08
6.779299e-07 -3.719955e-07 1.555481e-07 3.901434e-08 -4.282570e-09 3.107991e-08
2.268594e-07 2.624643e-09 -1.176955e-07 1.978755e-07 7.087095e-09 3.958602e-09
2.615161e-07 -4.443502e-08 -1.112764e-07 1.835587e-07 2.867165e-08 4.173271e-08
5.308548e-07 -2.743863e-07 1.497424e-07 3.198270e-07 1.266294e-09 4.546887e-08
5.676990e-07 -5.715562e-07 6.297202e-07 1.473431e-07 -1.444376e-08 -8.539817e-08
5.442016e-07 -2.937359e-07 1.151630e-07 -8.914886e-08 5.892687e-08 1.843696e-08
5.727914e-07 -3.089561e-07 7.644523e-08 6.902331e-08 5.604123e-08 2.496654e-08
5.786355e-07 -3.076113e-07 1.956423e-07 2.392212e-07 1.082145e-08 -1.033596e-07
4.952084e-07 -3.338751e-07 3.461042e-07 3.193162e-07 -5.486416e-08 -4.773862e-08
4.788725e-07 -3.052078e-07 1.745553e-07 1.939176e-07 9.798203e-09 5.919959e-08
2.872230e-07 -3.723171e-08 -1.022142e-07 2.211816e-07 8.344010e-09 8.978037e-09
2.400119e-07 -1.784234e-08 -1.245465e-07 1.918942e-07 2.151810e-08 1.521380e-08
1.535911e-07 -1.661313e-08 -8.540810e-08 -6.368690e-08 -7.062847e-09 1.040035e-08
-2.124461e-08 1.291054e-07 -7.541601e-08 4.266250e-08 1.759036e-08 7.725005e-09
-9.721807e-09 1.318625e-07 -9.263418e-08 6.314712e-08 1.509479e-08 -3.622431e-10
-2.019830e-08 1.348767e-07 -1.006050e-07 6.358141e-08 4.516734e-08 1.888674e-08
-1.556632e-08 1.232584e-07 -8.262988e-08 3.915034e-08 1.086506e-08 -2.184891e-09
1.491927e-07 -1.724871e-08 -7.781504e-08 -6.933421e-08 -6.890157e-09 2.347837e-08
-1.115522e-08 1.398004e-07 -1.005187e-07 6.992509e-08 3.833314e-08 1.446813e-08
1.460536e-07 -2.289045e-08 -7.152050e-08 -3.729309e-08 -2.568275e-09 6.720520e-09
-3.276851e-08 1.224957e-07 -6.983303e-08 -8.878933e-10 1.019731e-08 -2.823216e-09
-3.515801e-09 6.152918e-08 -3.152752e-08 2.791222e-08 4.226508e-08 1.675435e-08
-8.770478e-09 7.136099e-08 -4.106662e-08 2.612761e-09 3.795940e-09 1.030638e-08
2.706939e-09 5.859222e-08 -3.481734e-08 2.492951e-08 3.353352e-08 2.087283e-08
1.338686e-07 -2.109435e-08 -6.614463e-08 -4.370491e-08 -4.795051e-09 1.252581e-08
1.336778e-07 -2.079123e-08 -8.123149e-08 -5.175380e-08 -1.197399e-08 3.179211e-08
-7.418946e-08 2.517970e-07 -1.149962e-07 6.021052e-08 5.834897e-08 1.858947e-08
1.200520e-07 -1.188076e-08 -5.952830e-08 -4.166067e-08 1.294805e-09 4.885227e-09
1.155670e-07 -6.994474e-09 -5.856120e-08 -4.674612e-08 -1.471740e-09 1.018519e-08
1.284152e-07 -7.729979e-09 -6.551062e-08 -5.284830e-08 -3.788218e-09 1.561105e-08
7.501662e-09 3.705294e-08 -2.811607e-08 -6.483165e-09 -1.746416e-08 1.589965e-08
5.215199e-09 7.290946e-08 -5.865966e-08 -3.822773e-08 -3.408059e-08 2.386089e-08
3.788653e-10 6.759358e-08 -5.546484e-08 -3.292031e-08 -3.475744e-08 2.330464e-08
8.356668e-08 -2.169774e-08 -2.716701e-08 -4.635731e-09 -2.679107e-09 1.357752e-08
8.522556e-09 6.778201e-08 -6.804025e-08 -3.380336e-08 -3.079994e-08 3.314728e-08
4.885759e-08 1.442086e-08 -2.323600e-08 -3.991090e-09 -7.160985e-10 1.105312e-09
6.936727e-09 3.057880e-08 -3.152082e-08 -1.446462e-08 -3.372268e-08 2.661479e-08
8.510952e-08 -2.019626e-08 -2.456379e-08 -2.335971e-09 -1.085181e-09 7.169566e-09
-1.361659e-08 8.145959e-08 -4.841327e-08 -2.165535e-09 1.537109e-09 -2.839352e-09
-1.290234e-08 8.069941e-08 -4.555854e-08 -1.325272e-09 -6.645839e-16 -5.847758e-10
-1.216958e-08 7.562038e-08 -4.509862e-08 -8.447043e-10 1.593910e-09 -1.228617e-09
1.720111e-08 4.201342e-08 -2.673359e-08 -1.982275e-08 -2.197029e-08 2.230428e-08
2.005082e-08 1.731233e-07 -1.445095e-07 1.094015e-07 -2.240086e-08 1.701085e-09
6.865970e-08 1.503054e-07 -1.550874e-07 1.767094e-07 -1.460589e-08 -1.223677e-09
6.461113e-08 1.554535e-07 -5.584786e-08 2.764635e-07 -6.903458e-08 -3.282722e-08
-2.678030e-08 2.291910e-07 -1.379675e-07 1.519501e-07 -3.522406e-08 -2.832315e-08
-2.524390e-08 1.033378e-07 -6.004939e-08 2.337134e-09 2.730989e-09 2.732794e-09
5.380225e-10 2.054062e-07 -1.393450e-07 1.794115e-07 -1.949498e-08 -7.875949e-09
2.352822e-08 1.813476e-07 -1.501248e-07 1.873971e-07 -2.438676e-08 -1.357993e-08
4.134442e-08 1.812911e-07 -1.354682e-07 1.711343e-07 -5.065291e-08 -3.325757e-08
8.193350e-09 1.746955e-07 -1.389255e-07 1.053031e-07 -4.699898e-08 -3.653757e-08
3.144445e-07 -1.072181e-07 1.525895e-08 3.363520e-07 2.137031e-08 4.426737e-08
-2.929056e-08 1.210528e-07 -7.403688e-08 6.607377e-09 2.461083e-09 -1.631613e-09
4.169012e-07 -3.416607e-07 7.249296e-07 4.198434e-07 -9.011566e-08 -1.091132e-07
-2.281853e-08 1.148596e-07 -7.954801e-08 2.082199e-08 9.328194e-09 4.161895e-09
-2.984088e-08 7.860048e-08 -3.630380e-08 -1.856287e-09 1.370812e-08 -6.415436e-09
5.235192e-07 -3.464750e-07 3.864918e-07 3.014251e-07 -2.288287e-08 4.785077e-08
-3.119285e-08 1.129475e-07 -6.074261e-08 1.224027e-09 4.222126e-09 1.645398e-09
-2.677775e-08 8.201789e-08 -4.452259e-08 4.681118e-10 5.117946e-09 2.279353e-09
4.443318e-07 -2.077410e-07 2.689133e-07 3.696579e-07 -1.931174e-08 3.854964e-08
-7.621600e-08 3.042205e-07 -1.233356e-07 -6.708429e-08 8.204563e-08 -2.536489e-08
4.170131e-07 -1.732318e-07 8.963917e-08 3.774085e-07 3.708512e-08 5.529673e-08
-3.087713e-08 1.075375e-07 -5.950116e-08 -1.674755e-09 3.886770e-09 -4.224100e-09
-2.288612e-08 7.164534e-08 -2.853482e-08 -2.899337e-09 1.852939e-08 -1.056831e-08
-3.456722e-08 1.505075e-07 -8.148329e-08 -2.327472e-08 4.518033e-09 -1.188610e-09
-1.801568e-08 5.937849e-08 -3.647078e-08 -2.785273e-12 -2.255606e-08 -1.976609e-09
4.371227e-09 1.004362e-07 -8.485905e-08 5.427293e-09 -7.111750e-09 -4.144274e-10
-8.443191e-08 2.428340e-07 -1.264513e-07 -3.918993e-08 -4.549513e-08 9.992901e-09
5.936829e-07 -2.518859e-07 4.099686e-08 2.296397e-07 -3.851980e-09 1.560043e-08
4.448890e-07 -1.939257e-07 4.112468e-08 2.179860e-07 -9.591848e-09 2.491490e-08
3.845675e-07 -1.660779e-07 1.226829e-07 3.680610e-07 -3.340209e-08 -5.595438e-08
5.704854e-08 9.176461e-09 -2.167550e-08 -8.301425e-09 -2.597333e-09 1.781530e-09
6.241250e-08 3.887886e-09 -2.380691e-08 -8.205895e-09 -1.534405e-09 3.711050e-09
5.592646e-08 6.625718e-09 -2.269440e-08 -7.432945e-09 -2.138354e-09 3.629158e-09
6.356403e-08 4.018630e-09 -2.214515e-08 -6.295013e-09 -9.675517e-10 2.942943e-09
5.619227e-08 8.462347e-09 -2.115721e-08 -5.365439e-09 -1.191245e-09 1.498535e-09
5.424536e-08 9.583006e-09 -2.272630e-08 -7.072136e-09 -1.465944e-09 3.146589e-09
-6.840819e-09 7.271390e-08 -3.767981e-08 4.641419e-09 -3.961901e-08 -9.126333e-09
2.280794e-10 1.308961e-07 -9.047271e-08 3.544287e-08 -1.973134e-08 -1.141071e-08
5.661079e-08 7.905931e-09 -2.105236e-08 -5.135413e-09 -6.332090e-10 6.836317e-10
-5.477566e-08 1.805299e-07 -1.141583e-07 -4.148188e-09 -2.169610e-08 -5.242167e-11
2.228022e-09 9.029514e-08 -7.311333e-08 8.492648e-09 -1.999465e-08 -6.641240e-09
1.083633e-08 1.059277e-07 -9.234886e-08 1.367640e-08 -4.194116e-09 -3.351120e-09
2.130850e-08 1.000057e-07 -9.747248e-08 5.656485e-09 -5.605224e-09 -6.341172e-17
-4.600343e-08 1.792159e-07 -1.111358e-07 2.301933e-09 -1.839481e-08 -5.588433e-09
-4.652028e-08 1.939574e-07 -1.162098e-07 -2.023039e-08 -2.132294e-08 2.337663e-09
-3.124441e-08 6.014663e-08 -4.645076e-08 -1.626535e-08 -1.728045e-08 3.699459e-09
5.516151e-08 1.041412e-08 -2.224368e-08 4.474883e-09 4.802290e-11 1.123120e-09
-3.258812e-08 9.771905e-08 -4.331711e-08 1.693072e-10 -4.117892e-09 5.906312e-09
-3.657877e-08 1.431725e-07 -8.168445e-08 -2.883774e-09 -2.634022e-08 1.005864e-08
-3.320439e-08 9.214865e-08 -6.843313e-08 -1.652115e-09 -8.156968e-09 1.091637e-08
-5.026317e-08 1.643064e-07 -1.004816e-07 -3.009848e-08 -6.686220e-08 1.898613e-08
-3.852957e-08 8.934338e-08 -4.306077e-08 -3.816773e-09 -4.168496e-08 1.079228e-08
2.573212e-07 1.967093e-08 -1.997899e-07 8.788969e-08 -2.128657e-08 -5.650305e-09
7.027556e-08 -1.043167e-09 -2.731512e-08 6.282262e-09 1.330536e-10 4.821071e-10
6.165187e-08 6.545707e-09 -2.389309e-08 4.747728e-09 8.330794e-10 9.932628e-10
-6.124895e-08 2.531789e-07 -1.328835e-07 6.929673e-09 -5.270903e-08 -4.359423e-09
5.590947e-08 9.663660e-09 -2.572931e-08 1.035892e-08 1.443954e-09 2.328939e-09
3.768277e-08 2.449971e-08 -2.248326e-08 8.926206e-09 9.704229e-10 1.024096e-09
1.318404e-08 9.144793e-08 -7.900091e-08 6.146372e-08 2.761942e-08 1.725887e-08
2.827558e-08 1.079366e-07 -1.191234e-07 4.434446e-08 -3.620853e-08 -8.880220e-09
3.317162e-08 3.027680e-08 -2.328469e-08 1.492515e-08 6.634330e-09 6.537049e-09
2.513929e-08 4.204982e-08 -3.079472e-08 3.133019e-09 -2.116915e-18 -3.378395e-10
-3.655650e-10 8.571768e-08 -9.640806e-08 3.433078e-08 -6.499351e-08 -3.299310e-08
3.655158e-08 2.618602e-08 -1.993277e-08 1.191115e-09 6.432438e-10 6.585856e-11
2.897139e-08 4.994744e-08 -3.999682e-08 2.882711e-08 1.019944e-08 1.009577e-08
2.903007e-08 2.902957e-08 -2.152313e-08 1.161415e-08 5.740740e-09 5.894170e-09
2.989179e-08 3.426461e-08 -2.643855e-08 2.582622e-09 -2.367468e-18 -4.583458e-10
1.142191e-08 4.985012e-08 -3.355201e-08 8.926227e-09 5.828458e-09 7.705085e-09
2.370747e-08 8.569144e-08 -9.595754e-08 3.796148e-08 -6.480754e-08 -2.821206e-08
-6.081151e-09 9.772762e-08 -7.737543e-08 1.060176e-08 -1.359382e-08 -7.534934e-09
1.794969e-08 1.047448e-07 -1.001563e-07 2.910837e-08 -2.644697e-08 -1.357355e-08
-6.129719e-09 8.646378e-08 -6.713090e-08 6.443052e-09 -1.392813e-08 -2.803596e-09
3.785556e-08 3.724898e-08 -3.908847e-08 -7.538538e-09 -1.022696e-09 5.657430e-10
-5.370701e-09 9.361645e-08 -6.976172e-08 9.575759e-09 -1.192455e-08 -3.324939e-09
9.267464e-09 1.152631e-07 -1.046804e-07 3.195391e-08 -1.940337e-09 -5.534463e-09
1.332102e-09 9.858216e-08 -8.442041e-08 7.444181e-09 -5.021714e-09 -2.998312e-09
4.699177e-08 1.575217e-08 -1.993849e-08 8.409691e-10 4.506513e-10 1.525455e-10
3.732816e-08 3.430103e-08 -3.637359e-08 -4.872459e-09 6.670982e-11 2.003838e-09
2.877385e-08 3.329479e-08 -2.333580e-08 1.843219e-09 2.895421e-10 2.674148e-09
2.232950e-08 3.801582e-08 -2.549442e-08 2.140246e-09 6.086979e-10 4.398124e-09
3.660626e-08 2.529681e-08 -2.075796e-08 1.084941e-09 2.469314e-10 1.078074e-09
4.429516e-08 1.838935e-08 -1.982015e-08 1.446421e-09 -3.567289e-10 2.427840e-10
2.296136e-08 3.732396e-08 -2.103195e-08 6.896596e-09 3.987799e-09 3.701811e-09
7.642822e-08 1.900175e-08 -7.863285e-08 -4.440137e-08 8.941899e-08 -4.948600e-08
2.317320e-08 4.285042e-08 -2.676001e-08 5.816060e-09 2.021777e-09 5.487634e-09
3.006274e-08 3.437203e-08 -2.346904e-08 8.697349e-09 4.069742e-09 4.634824e-09
-4.190733e-08 3.613428e-07 2.352593e-07 4.553301e-07 5.718940e-08 5.800332e-08
9.888640e-08 2.822230e-07 8.611740e-08 4.759292e-07 -6.006782e-08 -1.953678e-08
-2.800708e-08 2.351963e-07 8.138314e-07 6.116422e-07 1.772413e-07 2.061082e-07
5.414388e-07 -2.263201e-07 -4.855046e-08 -6.747674e-08 6.011505e-09 -1.090373e-07
6.325081e-08 7.936118e-08 -1.197465e-07 -7.331664e-09 3.772142e-08 -3.343402e-09
8.987803e-08 1.083039e-07 -1.408049e-07 -7.369416e-08 9.807384e-09 -1.053101e-08
7.130470e-08 1.472461e-07 -5.849130e-08 -2.393931e-07 7.745799e-08 -3.599221e-08
3.617195e-08 -4.338761e-08 8.826657e-07 7.267137e-07 1.187440e-07 1.471405e-07
2.248379e-07 -5.298928e-08 -1.335980e-07 -8.797218e-08 9.039016e-08 -8.565182e-08
1.947265e-07 1.850812e-07 2.812326e-10 4.934627e-07 2.962322e-08 1.030769e-08
5.604961e-07 -2.246439e-07 9.415868e-09 -3.176916e-07 1.676080e-08 -5.275279e-08
2.513644e-08 2.791044e-07 2.051363e-07 5.025701e-07 -4.289238e-11 -8.882686e-08
2.149467e-07 6.166729e-08 3.221090e-07 6.277676e-07 1.350915e-08 -2.390238e-08
1.933202e-07 -2.183504e-07 5.394677e-07 6.878167e-07 2.969778e-08 1.968303e-07
1.130381e-07 -1.192323e-08 -5.511843e-08 -3.113324e-08 -1.502356e-09 8.057930e-09
5.903826e-07 -3.927924e-07 4.571353e-07 -4.061754e-07 2.487644e-08 -6.348972e-08
1.147682e-07 -1.005810e-08 -6.052744e-08 -4.488654e-08 -6.850060e-09 1.502026e-08
1.159830e-07 -1.344752e-08 -6.358210e-08 -4.110002e-08 -1.061619e-08 1.674709e-08
1.144758e-07 -1.211420e-08 -6.469558e-08 -3.141275e-08 -4.206302e-09 1.138181e-08
1.062280e-07 4.563841e-08 -1.481801e-07 -1.463421e-08 6.150956e-08 -2.070067e-10
1.062280e-07 6.977175e-08 -1.361935e-07 -1.139256e-08 4.446809e-08 -2.639268e-09
1.025449e-07 -5.903454e-09 -5.756996e-08 -3.621721e-08 -3.002709e-09 6.927450e-09
-1.507707e-08 1.297311e-07 -9.394554e-08 2.263237e-08 -5.174882e-09 -4.827543e-09
5.055653e-08 1.249825e-08 -2.051518e-08 5.263260e-09 1.611845e-09 1.064672e-09
-2.437838e-09 1.218079e-07 -9.833256e-08 2.585459e-08 -6.151443e-09 -1.841881e-09
-2.517665e-08 1.335817e-07 -9.053639e-08 6.110387e-09 -1.150610e-08 -1.369479e-08
-8.493547e-09 1.097027e-07 -8.314601e-08 1.437302e-08 -2.399176e-09 -2.053710e-09
5.570072e-08 1.001909e-08 -2.077123e-08 2.302606e-09 1.055842e-09 9.317052e-12
5.066974e-08 1.266514e-08 -2.026570e-08 7.450437e-09 9.811693e-10 1.831026e-09
4.665444e-08 1.608331e-08 -1.999048e-08 4.868203e-09 2.259092e-10 3.326081e-10
3.072833e-08 4.407365e-08 -4.502284e-08 -6.281691e-09 -8.039104e-10 4.377176e-09
-1.051278e-08 1.021345e-07 -7.331783e-08 2.960838e-09 -9.214178e-18 -1.556009e-09
5.352956e-08 1.306751e-08 -2.061585e-08 5.926862e-09 6.091864e-10 1.818605e-09
-7.296176e-09 9.948630e-08 -7.434904e-08 5.177392e-09 -1.921385e-09 -1.304358e-09
4.692542e-08 1.815291e-08 -1.943733e-08 3.031348e-09 3.160802e-10 2.231092e-10
4.935030e-08 1.622970e-08 -1.942929e-08 2.758309e-09 8.871448e-10 9.383770e-10
-2.333022e-08 9.457465e-08 -5.643011e-08 -1.090919e-08 2.338031e-08 -1.258007e-08
-4.439112e-08 1.453514e-07 -8.947929e-08 -3.036990e-09 3.750000e-09 5.477519e-10
-2.086624e-08 7.265719e-08 -3.162262e-08 -1.058673e-09 7.503407e-09 -8.511279e-09
1.599071e-08 3.088293e-08 -2.606228e-08 -8.213443e-09 -1.389027e-08 1.581054e-08
-4.023288e-08 1.473012e-07 -8.941479e-08 9.706391e-09 7.217329e-09 -6.673459e-10
-2.097070e-08 7.370649e-08 -2.943420e-08 -3.879039e-09 1.513852e-08 -1.189019e-08
-1.929853e-08 9.265252e-08 -5.503003e-08 -1.251274e-08 2.466791e-08 -1.493906e-08
-3.431092e-08 1.033021e-07 -5.262772e-08 -1.768224e-09 2.400141e-08 -4.326101e-09
-5.532105e-08 2.055963e-07 -1.068323e-07 -1.641138e-08 4.471010e-08 -3.183875e-09
-1.033997e-07 2.777239e-07 -1.283782e-07 -3.955013e-08 2.481419e-08 -9.461536e-09
-4.585893e-08 1.842179e-07 -1.031952e-07 -2.255753e-08 3.714639e-08 -1.140570e-08
-5.499204e-08 2.191531e-07 -1.102544e-07 -1.739677e-08 1.576671e-08 -6.003643e-09
-3.460269e-08 1.289067e-07 -8.148329e-08 -1.663407e-08 3.514159e-09 -5.740680e-10
-3.750541e-08 1.087167e-07 -7.083511e-08 -9.731907e-09 4.860213e-08 -2.249455e-08
2.701745e-09 8.168081e-08 -6.427792e-08 -3.649775e-09 3.187942e-09 -1.799627e-15
-2.264641e-08 5.807158e-08 -3.024931e-08 -3.007717e-09 3.095281e-08 -1.459491e-08
-4.559013e-08 1.562882e-07 -9.102794e-08 -2.500247e-08 7.761053e-09 -2.080254e-09
-4.076090e-08 1.662561e-07 -8.677060e-08 -1.509443e-08 5.782902e-09 -1.394207e-09
2.254965e-07 -7.979456e-08 -1.077177e-07 2.029598e-08 1.261818e-09 1.818416e-08
9.652931e-08 -2.153202e-08 -3.549331e-08 -6.443710e-10 6.732675e-10 1.276873e-09
-1.771420e-08 7.746821e-08 -4.646214e-08 -1.286321e-08 2.852711e-08 -9.180269e-09
-2.029214e-08 5.984089e-08 -3.203146e-08 -2.117092e-09 2.172083e-08 -1.341659e-08
1.202004e-07 -3.078045e-08 -6.071639e-08 -7.783118e-09 -7.196748e-10 1.295698e-08
1.045425e-07 -2.184860e-08 -5.192898e-08 1.989392e-08 3.373368e-09 1.379905e-08
1.385767e-07 4.921900e-09 -8.220812e-08 -8.107432e-08 -2.081123e-08 2.338367e-08
1.678201e-07 -3.699888e-08 -8.046562e-08 3.435744e-08 8.358863e-09 6.719226e-09
1.037077e-07 2.034439e-08 -8.755360e-08 -9.421529e-08 -1.446948e-08 2.648424e-08
1.629756e-07 -1.682512e-09 -1.037634e-07 -1.015235e-07 -7.067566e-09 2.568131e-08
-4.399195e-08 2.388708e-07 -1.102527e-07 1.359959e-07 5.147970e-08 2.583697e-08
1.288935e-07 8.083891e-09 -9.075154e-08 -8.986972e-08 -3.107583e-09 6.564224e-09
-4.409665e-08 1.656364e-07 -1.069625e-07 5.664830e-08 5.441252e-08 1.689089e-08
-2.862846e-08 1.530426e-07 -8.463856e-08 4.980007e-08 3.610619e-08 1.333554e-08
-6.109507e-08 1.962802e-07 -1.164194e-07 4.862605e-08 2.220574e-08 4.550694e-09
1.773816e-07 4.730209e-09 -1.157995e-07 -1.334977e-07 -2.773296e-08 4.952609e-08
1.547279e-07 -4.700840e-09 -9.452521e-08 -9.717505e-08 -2.003492e-08 2.982142e-08
1.971477e-07 2.128342e-08 -1.221868e-07 -1.520071e-07 -1.976811e-08 2.319597e-08
1.238181e-07 1.919422e-08 -9.564366e-08 -1.108311e-07 -2.240681e-08 2.766375e-08
-7.050476e-07 1.781714e-07 1.322464e-06 -6.462669e-07 2.863118e-08 -1.179000e-08
2.408895e-07 -3.429955e-07 8.495287e-07 -6.467384e-07 4.468116e-08 -4.647499e-08
1.807360e-07 2.098422e-08 -1.383309e-07 -1.781330e-07 4.810986e-08 -3.118107e-08
4.366700e-07 -1.113961e-07 -1.945761e-07 -6.475279e-08 4.503710e-08 -4.815742e-08
-4.080208e-10 8.094998e-08 -5.528174e-08 9.522061e-09 9.655264e-10 -7.756524e-10
3.759826e-07 -1.442121e-07 1.568600e-07 -4.877249e-07 2.195473e-08 -6.794779e-08
3.295461e-07 -2.776491e-08 -1.403655e-07 -2.052222e-07 3.168386e-08 -1.855321e-08
1.764476e-08 5.773227e-08 -4.604915e-08 2.479249e-08 2.866983e-09 3.405064e-09
3.381587e-08 2.715914e-08 -2.073974e-08 8.153255e-10 3.756451e-10 6.311041e-10
1.993441e-08 4.718216e-08 -3.474204e-08 1.447626e-08 6.022802e-09 1.379445e-09
2.673635e-08 4.978269e-08 -4.380238e-08 2.569659e-08 -4.455698e-10 5.526818e-09
2.212827e-08 6.806103e-08 -5.802649e-08 3.535714e-08 6.054075e-09 2.976111e-09
2.373422e-08 6.411636e-08 -5.566496e-08 3.780401e-08 1.050438e-08 1.386918e-08
4.416970e-08 3.228897e-08 -3.940331e-08 2.882563e-08 4.325254e-09 -9.663977e-10
2.705713e-08 6.449258e-08 -6.563426e-08 -2.735283e-08 -5.083421e-09 3.269799e-09
9.875372e-09 9.127919e-08 -7.766763e-08 4.194793e-08 -5.994668e-08 -3.109021e-08
6.223751e-08 8.144313e-08 -1.028004e-07 1.225201e-07 1.025203e-08 7.941022e-09
4.931651e-08 4.240452e-08 -6.187919e-08 6.327313e-08 1.516940e-08 1.724969e-08
4.380849e-08 4.945352e-08 -6.175181e-08 5.403579e-08 1.391911e-08 1.377073e-08
4.573041e-08 8.227135e-08 -9.395294e-08 -8.048867e-08 -2.812502e-08 2.870370e-08
-1.951512e-08 2.776513e-08 -3.831480e-08 -1.851488e-09 -7.200051e-08 -3.459847e-08
7.639703e-08 1.405751e-07 -1.291871e-07 -2.620610e-07 -4.853816e-09 2.617414e-08
2.697526e-08 6.488235e-08 -5.734666e-08 1.743891e-08 -7.584503e-08 -2.612500e-08
1.893435e-08 5.621788e-08 -6.058857e-08 2.611401e-08 -7.054237e-08 -3.138788e-08
2.133133e-08 8.004136e-08 -7.533332e-08 -4.417610e-08 -2.434527e-09 3.359222e-09
4.290796e-08 4.405476e-08 -5.966463e-08 -4.921039e-08 -1.222862e-08 1.526105e-08
-1.358305e-08 5.448061e-08 -4.514158e-08 1.177903e-08 -8.300080e-08 -3.938554e-08
4.513035e-08 1.182827e-07 -1.188332e-07 -1.311942e-07 -1.852330e-08 1.444883e-08
5.480162e-08 8.618969e-08 -8.737636e-08 -8.211514e-08 -2.558193e-08 2.086109e-08
-6.923150e-09 7.063747e-08 -4.707622e-08 1.932616e-08 -6.254518e-08 -2.292554e-08
-1.577587e-08 8.745283e-08 -5.412091e-08 1.161628e-08 -2.313884e-08 -1.888122e-08
-2.738194e-08 6.890691e-08 -4.124170e-08 -8.290551e-09 -1.238724e-08 -8.449841e-09
-9.932531e-09 1.239615e-07 -8.200379e-08 3.695651e-08 -3.939627e-08 -2.233562e-08
2.519449e-08 1.001509e-07 -9.461860e-08 -6.244446e-08 -9.405432e-09 -3.575219e-10
1.018354e-07 -1.533184e-08 -4.817621e-08 -2.492701e-08 -1.609445e-09 7.430840e-09
1.295318e-07 -2.578363e-08 -6.594987e-08 -2.646275e-08 2.903632e-09 6.598146e-09
1.625300e-07 -3.720237e-08 -7.878466e-08 -3.337799e-08 -1.314811e-08 2.355422e-08
-2.701604e-08 9.599620e-08 -8.900912e-08 1.329197e-08 -5.916907e-08 -3.453788e-08
2.619568e-08 5.342845e-08 -5.163515e-08 -1.033803e-08 -2.525375e-09 1.468279e-09
-2.683214e-08 8.669330e-08 -7.594176e-08 1.640428e-08 -5.483800e-08 -3.014431e-08
2.276789e-08 8.344618e-08 -7.284079e-08 -5.722576e-08 -3.917716e-08 3.178721e-08
1.202696e-07 -3.020303e-08 -6.282783e-08 -2.868819e-09 7.791401e-11 -3.340475e-10
7.787973e-08 -6.690880e-09 -2.777892e-08 -7.080154e-09 -2.142439e-10 3.368424e-09
6.900348e-08 -1.440330e-09 -2.343018e-08 -8.227255e-09 -2.164438e-09 3.884949e-09
1.226012e-07 -2.464143e-08 -4.799049e-08 7.496277e-10 -2.344247e-11 1.866751e-09
7.502591e-08 -8.546297e-09 -2.349480e-08 -9.035348e-09 -3.733986e-09 8.738596e-09
7.476968e-08 -7.484763e-09 -2.383010e-08 -2.064993e-09 -3.287310e-10 9.423433e-10
7.845691e-08 -7.564629e-09 -2.692437e-08 -5.609716e-09 -1.654213e-09 3.977949e-09
8.089983e-08 -1.135959e-08 -2.663155e-08 -3.709233e-09 -1.658590e-09 3.665372e-09
-7.339490e-08 3.407816e-07 -1.458319e-07 -1.385743e-07 -3.127754e-08 8.799438e-09
-5.847842e-08 2.667793e-07 -1.435655e-07 -7.569203e-08 -5.274009e-08 2.260903e-08
7.484926e-08 -6.101719e-09 -2.735044e-08 -9.816363e-09 -1.615205e-09 6.765785e-09
7.608334e-08 -9.977579e-09 -2.208060e-08 -4.578830e-09 -1.906734e-09 3.641967e-09
3.016863e-08 3.979207e-08 -2.895945e-08 1.341418e-08 4.560859e-09 3.339192e-09
-1.274823e-07 3.361039e-07 -1.537032e-07 -2.022103e-08 -3.332581e-08 -4.142615e-09
-7.077987e-08 3.227056e-07 -1.451498e-07 -3.962987e-08 -5.340773e-08 7.517240e-09
5.176690e-08 1.242269e-08 -2.041932e-08 -9.538815e-10 -9.057021e-11 2.875149e-10
2.295528e-08 4.070386e-08 -3.346020e-08 1.042221e-08 3.683095e-09 5.050369e-09
1.775594e-08 4.610314e-08 -3.177834e-08 1.470725e-08 8.373036e-09 7.200609e-09
-5.133442e-08 2.134351e-07 -1.129571e-07 -8.835563e-08 5.176075e-08 -1.448121e-08
-2.922929e-08 2.192847e-07 -1.286944e-07 -1.584323e-07 2.394978e-08 -8.452538e-09
3.065393e-08 3.818824e-08 -3.320502e-08 1.688379e-08 1.619806e-09 8.630709e-10
2.287936e-08 4.100618e-08 -2.603191e-08 4.285495e-09 1.600049e-09 6.034892e-09
-2.759607e-08 1.104113e-07 -6.223206e-08 -2.710638e-09 6.668085e-09 -5.892025e-09
-2.438639e-08 1.125878e-07 -6.903630e-08 -2.476535e-08 1.922711e-08 -7.207199e-09
6.168155e-08 2.451667e-08 -9.929544e-08 -8.423821e-09 7.877138e-08 1.208662e-10
1.543185e-07 7.185561e-08 -1.524982e-07 -9.800084e-08 5.582014e-08 -3.705796e-08
8.484596e-08 4.996044e-10 -4.730064e-08 -2.792664e-08 -1.529063e-09 1.974547e-09
1.147014e-07 4.700142e-08 -1.608116e-07 -6.466090e-08 5.322196e-08 -2.857104e-08
5.878328e-08 1.316852e-08 -4.575274e-08 -2.918219e-08 -7.249739e-09 1.007747e-08
6.073969e-08 1.008895e-08 -3.267386e-08 -1.632205e-08 -1.561475e-09 6.370885e-10
8.316071e-08 -2.981544e-09 -4.636279e-08 -2.421924e-08 -3.865360e-09 5.006082e-09
6.732252e-08 1.383211e-08 -3.705119e-08 -2.680151e-08 -5.042088e-09 7.989191e-09
9.892773e-08 -3.144341e-09 -5.677813e-08 -3.960820e-08 -1.158569e-08 1.640955e-08
8.180715e-08 6.421262e-09 -5.994172e-08 -4.476776e-08 -5.709339e-09 9.143833e-09
7.842942e-08 8.395996e-09 -4.368639e-08 -3.134187e-08 -1.139184e-09 2.071262e-09
5.658465e-08 1.855141e-08 -4.439536e-08 -2.849677e-08 -2.981610e-09 3.328827e-09
6.691081e-08 6.981833e-08 -1.119063e-07 -4.011512e-08 6.734265e-08 -2.241751e-08
5.803631e-08 9.121193e-09 -2.785217e-08 -1.175921e-08 -3.463441e-10 1.107343e-09
1.099199e-07 6.978040e-08 -1.431570e-07 -1.309141e-08 4.678645e-08 -2.635279e-09
1.942772e-07 -6.019621e-08 -1.012433e-07 -4.733654e-08 -9.022020e-09 4.691422e-08
9.159530e-08 -1.154924e-08 -3.992474e-08 -1.715456e-08 -4.189848e-09 6.913493e-09
1.500097e-07 -3.159862e-08 -5.899239e-08 1.869198e-09 4.189562e-10 1.201791e-08
8.699283e-08 6.869930e-08 -1.344915e-07 -3.395269e-08 5.312243e-08 -1.223017e-08
-1.040913e-08 7.946592e-08 -4.628363e-08 1.255274e-08 -4.045354e-08 -1.401319e-08
1.412783e-07 -3.654309e-08 -7.308545e-08 -1.683521e-08 -1.292133e-09 9.312886e-09
2.265463e-07 -8.065129e-08 -1.080385e-07 -1.070089e-08 -7.775271e-10 1.932109e-08
3.535429e-07 -1.458688e-07 -1.140934e-07 7.390546e-08 2.631431e-09 2.436474e-08
1.193496e-07 -1.640105e-08 -5.430911e-08 -2.704102e-08 2.064137e-10 2.663694e-09
3.686350e-07 -1.122860e-07 -1.112046e-07 3.877256e-08 7.002065e-09 6.077511e-08
5.009401e-07 -1.677871e-07 -1.142851e-07 -3.585267e-08 -4.343733e-09 2.609480e-08
3.633212e-07 -1.136516e-07 -1.145705e-07 -1.780110e-08 -4.265886e-09 6.144485e-08
1.808239e-07 -4.807366e-08 -8.478915e-08 6.775800e-09 -7.827124e-09 1.058918e-08
-8.279361e-09 7.994409e-08 -4.594810e-08 1.738270e-08 -4.094702e-08 -2.184515e-08
1.398056e-07 -3.687025e-08 -7.644677e-08 1.494973e-08 -6.394390e-10 1.245510e-09
1.828567e-07 -4.001724e-08 -7.801818e-08 2.679902e-09 -7.481138e-11 6.463217e-09
1.000192e-08 6.817891e-08 -6.737576e-08 1.069256e-08 -4.888458e-08 -8.968080e-09
2.151226e-07 -4.540357e-08 -9.312928e-08 3.858028e-08 8.225970e-10 1.058520e-08
1.235237e-07 -2.518033e-08 -4.466027e-08 4.938240e-09 6.673261e-10 8.850377e-09
2.321146e-07 -7.239804e-08 -1.120197e-07 9.357806e-08 1.113145e-08 3.734041e-08
-1.319237e-07 3.573773e-07 -1.133157e-07 1.282668e-07 -1.179063e-07 -3.544247e-08
-1.140752e-07 3.976512e-07 -1.413510e-07 8.618855e-08 -7.516316e-08 -2.087566e-08
4.796263e-08 1.583524e-08 -2.312629e-08 -4.679450e-09 -1.828298e-10 -4.669971e-10
2.860062e-08 9.389656e-08 -1.052115e-07 7.894268e-08 -9.740406e-08 -4.781530e-08
-1.022317e-09 5.542882e-08 -5.089342e-08 1.829515e-08 -5.415599e-08 -1.172338e-08
-4.722172e-07 6.506486e-07 3.405421e-07 1.141832e-09 -4.691318e-08 -1.872753e-09
9.822572e-08 1.047284e-07 -1.617412e-07 1.202479e-07 -2.244430e-08 -7.244847e-09
-2.307979e-07 5.420933e-07 1.855786e-07 2.694635e-07 7.705489e-08 -4.273165e-08
-4.503358e-09 8.967447e-08 -5.227120e-08 3.223303e-08 -9.028077e-08 -5.161266e-08
-1.400689e-08 8.389328e-08 -5.460904e-08 -9.527629e-09 1.204747e-08 -5.789890e-09
-1.616253e-07 3.896295e-07 -1.307863e-08 3.010600e-07 -4.309136e-08 -1.355466e-08
-5.961082e-09 8.207843e-08 -6.480225e-08 -2.142290e-08 3.610301e-08 -1.342951e-08
-1.505980e-08 7.630437e-08 -3.287877e-08 -1.021397e-08 2.784621e-08 -1.240749e-08
-2.437115e-08 7.822645e-08 -4.719338e-08 -5.332193e-09 1.961926e-08 -1.056520e-08
-1.899273e-08 8.023002e-08 -5.857805e-08 -1.325702e-08 3.396563e-08 -1.547524e-08
6.206121e-08 1.545593e-07 -1.479800e-07 1.009319e-07 -1.203043e-08 -9.230486e-09
2.833692e-08 3.228982e-08 -2.035885e-08 6.265414e-09 2.823201e-09 2.161050e-09
-1.506389e-07 2.818591e-07 3.025369e-07 4.949744e-07 -1.655991e-08 -2.535862e-08
-1.208258e-07 3.013748e-07 -1.226941e-07 -5.579858e-08 8.051533e-08 -1.976195e-08
3.724779e-08 2.488545e-08 -1.930387e-08 3.617799e-09 9.488753e-10 4.202455e-10
-9.424732e-08 3.821538e-07 -1.226767e-07 -1.237796e-07 7.910506e-08 -3.647730e-08
-1.944512e-07 3.935793e-07 -6.424466e-08 -1.862616e-07 4.520100e-08 -1.770116e-08
-1.432845e-07 3.885300e-07 -1.177880e-07 -1.222783e-07 7.271033e-08 -2.930514e-08
1.058641e-07 1.331220e-08 -7.293622e-08 6.994385e-08 1.048156e-09 2.184024e-09
1.152850e-07 1.528096e-08 -8.841659e-08 8.695794e-08 1.852379e-08 3.072039e-08
1.732887e-07 -7.623853e-09 -1.010465e-07 9.951691e-08 9.039400e-09 5.219434e-09
1.061444e-07 1.189089e-08 -8.920166e-08 7.183456e-08 2.359071e-08 3.342648e-08
1.377749e-07 1.004454e-08 -1.028035e-07 1.097423e-07 2.615015e-09 1.206530e-08
2.805738e-07 -7.433806e-08 -1.123073e-07 1.483229e-07 1.052494e-08 2.821892e-08
3.372200e-08 2.766539e-08 -2.078444e-08 1.695284e-09 6.172177e-10 1.560615e-09
4.208521e-08 2.251506e-08 -1.937515e-08 3.234986e-09 4.963163e-10 1.984049e-11
1.051352e-07 1.434756e-09 -6.682762e-08 5.876915e-08 1.069264e-08 1.787152e-08
5.900392e-08 1.794782e-08 -3.717472e-08 2.976373e-08 -6.469925e-10 1.778252e-09
2.928744e-08 3.254383e-08 -2.231435e-08 2.267648e-09 1.288964e-09 3.269805e-09
3.116804e-08 3.063124e-08 -2.130397e-08 2.628371e-09 1.031301e-09 1.722709e-09
3.197168e-08 2.954865e-08 -2.062030e-08 1.584609e-09 1.004464e-09 5.839015e-10
-2.649989e-07 5.920771e-07 -1.265741e-08 -1.401080e-08 3.717833e-08 -3.914650e-09
-6.602897e-07 -3.179455e-07 2.602953e-06 6.977421e-07 -4.595529e-07 -2.626880e-07
-2.098773e-07 4.769244e-07 -5.444701e-08 3.098830e-08 3.008846e-08 -6.024560e-09
-8.816989e-07 -5.179552e-07 3.365146e-06 5.202156e-07 -1.052482e-07 -4.625308e-08
-2.869764e-07 6.507596e-07 1.281036e-07 2.615646e-07 5.461868e-08 -3.423775e-11
-8.034503e-07 2.519549e-07 2.144766e-06 5.192148e-07 -3.922688e-07 -1.641773e-07
-3.433121e-07 5.554278e-07 9.307519e-08 1.377239e-07 3.259615e-08 4.689132e-08
-2.867797e-07 4.981992e-07 1.281036e-07 2.010353e-07 4.849636e-08 -4.902298e-09
-4.163283e-07 -2.510705e-07 1.465008e-06 9.072145e-07 -8.351601e-07 -3.819078e-07
-3.449551e-07 5.608145e-07 1.335543e-07 -6.434654e-08 3.638746e-08 -8.851648e-09
-1.851043e-07 2.508158e-08 7.610157e-07 6.788951e-07 -2.699816e-07 -9.881902e-08
-2.518092e-07 3.358956e-07 8.420622e-07 5.333440e-07 8.024029e-08 -2.350400e-08
-2.782551e-07 5.154135e-07 1.492645e-07 1.882157e-07 3.102517e-09 -4.957945e-08
-3.760791e-07 5.335633e-07 1.820369e-07 1.632721e-07 -2.859893e-08 5.158539e-09
2.160071e-07 -2.632966e-07 6.841601e-07 -6.353906e-07 -8.105174e-08 3.992756e-07
4.329290e-08 1.954472e-08 -1.883427e-08 9.682477e-10 1.509399e-10 1.066147e-10
-1.343936e-07 -1.467686e-06 3.645093e-06 -1.948578e-07 -5.360231e-07 3.705870e-07
4.223928e-08 2.019688e-08 -1.897292e-08 2.492799e-10 8.239431e-11 2.468207e-10
4.255579e-08 1.963128e-08 -1.897438e-08 7.826144e-10 1.113723e-10 2.152973e-10
9.132787e-08 1.685139e-07 -1.460161e-07 -2.107244e-07 4.409559e-08 -2.971687e-08
4.134134e-08 2.139789e-08 -1.905574e-08 9.967344e-10 8.041750e-11 -2.264914e-10
5.159484e-08 2.039703e-07 -7.072663e-08 -3.203886e-07 6.166885e-08 -5.140783e-08
4.141337e-08 2.120492e-08 -1.917111e-08 9.058976e-10 4.974208e-10 2.701390e-10
4.317357e-08 2.073867e-08 -1.894142e-08 7.608581e-10 -1.049477e-10 -8.557633e-12
-4.245490e-07 6.872389e-07 3.148159e-07 8.573163e-08 4.101603e-08 2.930339e-09
4.165956e-08 2.105836e-08 -1.893214e-08 8.646080e-10 -5.980017e-11 -2.204374e-11
4.263729e-08 1.961381e-08 -1.870490e-08 7.577011e-10 2.738565e-11 -1.851154e-10
4.517885e-08 1.772980e-08 -2.059160e-08 3.799134e-09 7.867970e-11 6.178220e-11
9.224397e-09 6.606920e-08 -4.692830e-08 1.233981e-08 -5.649287e-08 -2.173639e-08
5.324917e-08 7.280278e-09 -5.002950e-08 1.775781e-08 -8.677672e-08 -3.629836e-08
-3.066804e-07 5.722518e-07 3.147130e-08 -8.553211e-08 2.141940e-08 8.022740e-09
-6.368419e-07 5.928972e-07 6.373365e-07 -2.047649e-07 -6.510646e-08 -5.795342e-08
-8.504473e-07 4.124727e-07 1.314740e-06 -2.352173e-07 9.605564e-09 -2.296784e-08
-1.483813e-06 -3.989664e-07 3.854717e-06 -5.681429e-07 -5.794941e-07 2.912521e-07
-2.756034e-07 -3.646602e-09 1.352255e-06 -6.939370e-07 -3.940072e-07 2.947500e-07
8.336144e-08 5.833853e-08 -1.108513e-07 5.849559e-08 -8.275038e-08 -3.375286e-08
4.384196e-07 -1.874742e-07 -7.672736e-08 -1.045823e-07 -6.197639e-09 4.775782e-08
3.688052e-07 -5.505622e-08 -1.815107e-07 5.308659e-08 -5.167126e-08 -4.123521e-08
4.711175e-08 4.543257e-08 -1.090553e-07 3.669262e-08 -7.957391e-08 -2.961322e-08
7.748236e-08 5.091015e-08 -9.789201e-08 6.956452e-08 -8.809971e-08 -3.914029e-08
4.595258e-07 -2.446109e-07 -1.662235e-08 5.557576e-08 3.146674e-09 2.898590e-08
6.598110e-08 8.954333e-08 -1.428601e-07 1.128821e-07 -5.568863e-08 -3.460159e-08
1.247984e-07 1.046845e-07 -1.440978e-07 9.448133e-08 -3.585083e-08 -2.653150e-08
4.910657e-08 1.391908e-08 -2.091538e-08 -9.811619e-10 -1.646607e-10 5.504603e-10
1.480118e-07 2.242524e-08 -1.150126e-07 7.927638e-08 -9.410811e-08 -6.801866e-08
4.739494e-07 -2.029943e-07 -5.338231e-08 -7.062529e-08 -1.960521e-08 7.060311e-08
9.642504e-08 8.954035e-08 -1.477656e-07 1.133607e-07 -5.540085e-08 -3.126315e-08
5.769398e-09 4.495505e-08 -6.440269e-08 3.570185e-08 -1.091628e-07 -6.845491e-08
-8.237360e-09 -9.725831e-11 -4.120794e-08 -7.897550e-10 -9.790402e-08 -4.995807e-08
1.282851e-07 1.390423e-07 -1.028407e-07 3.355579e-07 3.976766e-08 4.899001e-08
1.697688e-07 5.070179e-08 -1.192088e-07 2.188892e-07 4.366636e-08 5.532291e-08
-1.590326e-06 -1.614553e-06 6.457161e-06 3.473985e-07 -8.370087e-07 -7.389131e-07
-1.529440e-06 -2.231738e-07 4.314048e-06 -9.872352e-09 -1.390662e-06 -3.133037e-07
5.088358e-07 -1.558130e-07 -4.745199e-08 2.065140e-07 1.913280e-08 8.259424e-08
1.792805e-07 -3.341983e-08 -8.139376e-08 5.729574e-08 1.189582e-08 3.534267e-08
3.603068e-07 -1.940216e-07 1.391261e-07 4.143151e-07 2.829059e-08 4.925645e-08
4.577325e-07 -1.061136e-07 5.702586e-08 -3.019199e-07 1.194681e-08 1.830951e-08
5.498777e-08 9.176477e-09 -2.228705e-08 -3.421699e-09 -5.263046e-10 1.377930e-09
5.371908e-07 -3.254956e-07 1.175215e-07 -1.225563e-07 3.409756e-09 4.102699e-08
-1.748746e-06 -6.189039e-07 4.908437e-06 2.974991e-07 -1.230591e-06 -3.244495e-07
4.927649e-07 -2.458245e-07 1.309106e-07 -3.200146e-07 7.217867e-09 -3.287268e-08
5.572098e-07 -1.890723e-07 -4.428602e-08 -1.802800e-07 -2.875775e-09 4.501558e-08
-2.051880e-06 -1.284929e-06 6.162206e-06 1.331607e-07 -5.070601e-07 -1.024335e-07
-3.267746e-07 -5.188424e-07 2.516526e-06 -7.939370e-07 2.842243e-07 -4.078686e-07
5.327549e-07 -6.595745e-07 7.752379e-07 -4.070392e-07 -3.627839e-08 9.306657e-09
-1.794151e-06 -8.133660e-07 4.477943e-06 1.985509e-07 -2.975202e-07 1.048526e-07
-1.304199e-06 -8.720770e-07 5.147825e-06 6.255551e-07 -1.229831e-06 -9.523571e-07
-1.410267e-06 -8.237379e-07 4.156747e-06 7.344221e-07 -4.742785e-07 -5.116983e-07
4.679840e-07 -1.823226e-07 2.647751e-08 -2.646094e-07 1.093101e-08 4.123253e-08
3.692275e-07 -7.051415e-08 -1.228771e-07 -1.723854e-07 -1.572049e-08 2.629301e-08
-2.225325e-06 -1.622656e-06 6.367669e-06 3.897010e-07 -5.666528e-07 -1.251914e-07
-5.883218e-08 -1.444446e-08 5.721141e-07 6.583650e-07 -3.891603e-08 -9.969028e-09
-1.499976e-06 -1.225903e-06 4.906038e-06 5.383554e-07 1.422485e-08 -1.846908e-07
5.085829e-07 -9.454944e-07 1.741274e-06 6.076306e-08 -2.139462e-08 -3.090156e-08
3.797484e-08 2.029079e-07 -4.665536e-08 3.638373e-07 7.184381e-08 5.845239e-08
-3.453817e-08 1.697174e-07 -1.150766e-07 -8.658378e-09 2.730866e-10 3.608394e-09
9.236567e-08 1.917967e-07 -3.383939e-08 3.576103e-07 -5.457558e-09 -1.849024e-08
-9.016708e-09 -2.927231e-07 1.129446e-06 7.544711e-07 -7.819649e-09 5.189711e-08
3.010087e-07 -2.118221e-07 4.627261e-07 5.227718e-07 2.546012e-09 2.821005e-08
-5.092339e-08 3.167706e-07 -5.946620e-08 3.027734e-07 5.035592e-08 3.806170e-08
-6.289096e-09 2.330641e-07 -3.712351e-08 3.685601e-07 4.261146e-09 4.785767e-08
6.493586e-07 -5.964129e-07 8.320755e-07 3.673084e-07 -2.075051e-07 -3.047154e-07
2.143219e-07 1.135013e-07 1.138655e-07 4.280668e-07 6.352321e-08 2.748971e-08
-6.045608e-07 -1.426609e-06 3.945197e-06 2.756278e-08 -1.364684e-08 -8.962676e-07
5.697969e-07 -3.973669e-07 2.742317e-07 -1.563853e-07 -1.953153e-08 7.631218e-08
6.508345e-07 -7.727244e-07 1.100355e-06 7.142201e-08 -1.496627e-08 -4.841096e-07
1.936375e-07 -6.106660e-08 1.907249e-07 5.269799e-07 -6.319002e-08 -9.084412e-09
4.126650e-07 -6.361595e-07 1.157481e-06 4.662541e-07 -2.429676e-07 -1.578197e-07
1.773242e-07 -9.910715e-08 -7.798685e-08 -9.044166e-08 -5.032804e-08 -4.252559e-08
5.547903e-07 -1.897837e-07 -2.214685e-07 5.034310e-08 -1.446552e-08 -1.549773e-08
1.044555e-07 1.874904e-07 -4.327674e-08 3.577868e-07 7.951195e-08 8.371567e-08
1.105554e-08 7.583884e-08 -4.883231e-08 -5.586558e-08 1.118534e-07 -7.564965e-08
4.571149e-07 -1.415235e-07 -1.791702e-07 8.625423e-08 -4.208166e-08 -3.414327e-08
3.583181e-07 -1.373069e-07 -1.101672e-07 1.946328e-07 -6.759287e-08 -7.702479e-08
1.265223e-07 -5.981443e-08 -7.609605e-08 1.021114e-07 -7.239328e-08 -4.487633e-08
5.113303e-08 1.052611e-07 -1.075527e-07 -9.008412e-08 9.280310e-08 -5.077367e-08
5.110436e-08 9.347289e-08 -1.168791e-07 -9.214211e-08 8.223830e-08 -5.240148e-08
1.208015e-07 8.963979e-08 -1.528435e-07 9.626244e-08 -4.977026e-08 -2.763756e-08
3.034054e-08 4.794076e-08 -9.466541e-08 -2.250805e-08 6.856317e-08 -1.911621e-08
3.607621e-08 7.485881e-08 -7.529528e-08 -6.754385e-08 6.673790e-08 -3.304841e-08
-3.913771e-09 -4.212876e-09 -3.898104e-08 2.123891e-09 9.738210e-08 -4.680646e-08
-1.333187e-08 8.491075e-08 -4.792972e-08 -6.893776e-09 4.414080e-09 -3.744775e-09
4.526191e-08 -6.326400e-08 -7.137008e-08 -9.095487e-10 -7.498052e-08 1.916776e-08
-2.107665e-08 2.291052e-08 -4.099860e-08 9.264847e-10 -8.685615e-08 -4.100522e-08
4.649320e-08 4.693591e-08 -9.675505e-08 6.723839e-09 -7.496169e-08 -6.443599e-09
1.601665e-07 -4.484317e-08 -1.243825e-07 1.133693e-08 -6.844123e-08 -3.817750e-09
-1.160683e-08 8.986454e-08 -5.372063e-08 -1.651044e-08 2.146075e-08 -1.134616e-08
-1.796847e-08 1.111974e-07 -6.374965e-08 -1.697030e-08 1.697746e-08 -7.055820e-09
-1.347992e-08 9.820988e-08 -6.578232e-08 -2.231303e-08 5.822154e-09 -2.842529e-09
2.620482e-08 7.007480e-08 -9.591160e-08 -6.298770e-09 4.376995e-08 -2.008982e-09
4.718581e-08 8.713713e-08 -1.092155e-07 -8.856638e-09 6.610732e-09 1.659259e-15
5.685393e-09 7.084185e-08 -7.433721e-08 -2.989087e-09 3.198401e-08 -2.676775e-09
-1.967939e-08 9.417766e-08 -5.228566e-08 -7.700700e-09 3.543003e-09 -5.108444e-09
2.455537e-07 -4.266237e-08 -1.006848e-07 -3.938791e-08 8.368841e-08 -5.377213e-08
-2.462634e-09 -4.254825e-08 -7.633056e-08 -5.840989e-09 7.242244e-08 -4.930191e-08
-2.418808e-08 9.678158e-08 -6.023518e-08 -1.076659e-08 1.078815e-08 -5.294582e-09
2.773024e-07 -1.182342e-07 -8.415697e-08 -1.321487e-08 2.173571e-08 -2.275833e-09
6.295272e-07 -2.400712e-07 -1.673982e-07 -4.707372e-08 -2.046241e-09 -1.413787e-08
2.432610e-07 1.947394e-08 -1.253417e-07 -1.363886e-07 9.420046e-08 -8.027600e-08
-1.793110e-08 9.059362e-08 -5.370068e-08 -3.180838e-09 1.097153e-09 -3.265637e-09
-1.860699e-08 9.318462e-08 -5.693870e-08 -7.183635e-09 2.810160e-09 -4.365582e-10
-4.214634e-08 1.028265e-07 -5.434462e-08 9.804610e-09 4.491733e-08 1.709399e-09
-3.059312e-08 8.543787e-08 -5.243041e-08 7.032251e-10 2.552476e-08 -3.594829e-09
-2.918435e-08 4.883340e-08 -3.268559e-08 5.569246e-09 4.272589e-08 5.857900e-09
-2.991989e-08 9.178746e-08 -3.138456e-08 6.665903e-09 5.359803e-08 7.187975e-09
-4.384229e-08 1.064859e-07 -5.600067e-08 2.499725e-09 4.525684e-08 -1.814070e-09
-2.196214e-08 8.838346e-08 -3.834100e-08 -1.796945e-09 1.456843e-09 -7.932756e-09
8.770791e-08 -1.942354e-08 -2.777122e-08 -1.901012e-09 -6.516302e-10 5.354546e-09
8.785474e-08 -1.849661e-08 -2.383826e-08 -3.671559e-09 -2.093296e-09 8.793975e-09
-2.992249e-08 1.170628e-07 -6.786698e-08 -1.070665e-08 1.400000e-08 -3.909644e-09
9.037083e-08 -2.042209e-08 -3.232629e-08 9.129453e-10 1.355462e-09 9.584648e-09
9.959896e-08 -2.070416e-08 -3.165056e-08 -3.458917e-09 -1.481786e-09 1.089007e-08
-4.508486e-08 1.275142e-07 -5.692251e-08 4.567528e-09 -7.380280e-08 -1.579858e-08
-4.883556e-08 6.846682e-08 -4.150165e-08 -2.110146e-08 -7.733649e-08 -4.182823e-08
-2.795858e-08 1.015172e-07 -5.760133e-08 -2.246316e-09 3.167019e-09 -6.633793e-09
-2.723127e-08 6.252564e-08 -3.450564e-08 5.599025e-10 1.277383e-08 -6.974648e-09
-3.953817e-08 1.441696e-07 -8.305766e-08 -3.453927e-09 4.943233e-09 -5.206428e-09
-6.221546e-09 9.198109e-08 -7.485335e-08 -7.265688e-09 -3.325301e-09 1.705891e-08
-3.281687e-08 7.690868e-08 -5.602847e-08 5.009832e-09 -5.246456e-08 -2.700265e-08
-2.877578e-08 1.059955e-07 -7.011865e-08 1.752702e-08 -5.072410e-08 -2.480547e-08
-2.824977e-08 9.866833e-08 -3.846259e-08 1.575303e-08 -6.055260e-08 -3.373066e-08
-5.695082e-08 -1.057280e-07 7.391437e-09 -5.755691e-08 9.085546e-08 -1.616775e-07
2.845352e-08 3.815726e-08 -3.065173e-08 5.477411e-09 8.676475e-10 -1.058841e-09
4.162841e-07 -1.217109e-07 -1.079957e-07 -7.660478e-08 3.867214e-08 -1.333353e-07
4.331907e-08 2.169565e-08 -2.198584e-08 6.919278e-09 6.339107e-11 3.090861e-12
2.732694e-08 3.849116e-08 -2.717230e-08 2.189129e-09 1.372039e-09 1.191965e-09
1.875039e-08 5.010770e-08 -3.366149e-08 1.032368e-08 5.259875e-09 5.208055e-09
2.145423e-08 4.646229e-08 -3.375454e-08 3.400795e-09 4.639318e-10 3.154353e-09
4.026346e-07 -1.355611e-07 -1.304303e-07 -1.923012e-07 5.989732e-08 -7.095744e-08
2.963074e-08 3.620877e-08 -2.793641e-08 4.162574e-09 -3.767973e-10 7.933422e-10
4.153833e-08 2.644953e-08 -2.466843e-08 1.340937e-08 2.797322e-09 2.820322e-09
-6.383471e-09 3.493818e-08 -3.253494e-08 -5.578720e-09 -3.578938e-08 2.900170e-08
-2.352070e-09 7.674699e-08 -5.205550e-08 -1.132016e-08 2.882940e-08 -1.132117e-08
-1.498861e-08 2.457172e-08 -3.635475e-08 -1.722332e-09 7.170077e-08 -3.116776e-08
4.686032e-09 3.229847e-08 -4.657059e-08 1.526191e-08 6.513361e-08 -1.075344e-08
6.200497e-08 1.806091e-08 -5.384137e-08 -5.428824e-08 1.302543e-07 -8.303026e-08
4.519300e-08 5.770395e-08 -1.136460e-07 -7.427552e-08 8.526872e-08 -5.067250e-08
-1.655267e-08 9.547082e-08 -5.801740e-08 -1.131899e-08 3.090144e-09 -2.083406e-09
-7.859720e-09 6.310623e-08 -4.950988e-08 -4.812535e-09 3.584453e-08 -8.645566e-09
2.422918e-08 4.954204e-08 -5.260343e-08 -7.824024e-09 6.741240e-08 -2.228861e-08
1.262465e-07 -1.453745e-08 -6.303257e-08 -8.804892e-09 8.480953e-08 -3.617816e-12
-1.355735e-08 4.307375e-08 -3.865281e-08 -7.993969e-09 8.099435e-08 -3.677772e-08
-1.498925e-07 4.268669e-07 -9.025078e-08 -2.274116e-07 -5.549953e-08 2.323273e-08
4.024081e-08 2.360772e-08 -1.961492e-08 1.904921e-09 5.143812e-11 4.132710e-10
4.259813e-08 2.077280e-08 -2.070499e-08 6.164738e-09 1.301947e-09 1.157282e-09
-1.030205e-07 4.001822e-07 -1.359407e-07 -2.217158e-07 -1.952087e-08 2.719749e-08
-6.313445e-08 3.198021e-07 -1.295640e-07 -2.240769e-07 -6.217337e-08 5.022588e-08
-2.749229e-08 2.951173e-07 -1.403817e-07 -2.322604e-07 -1.833810e-08 2.609338e-08
4.736743e-08 1.775062e-08 -1.964548e-08 5.423457e-10 4.204233e-10 2.789682e-10
3.945870e-08 2.436223e-08 -2.247756e-08 5.611996e-09 6.477996e-11 -4.421979e-10
4.404587e-08 1.991403e-08 -1.929463e-08 9.251613e-10 3.120091e-11 1.937451e-10
-2.515756e-07 5.266719e-07 -3.678857e-08 -1.141950e-07 -9.944002e-08 3.599572e-08
-2.561444e-07 4.183148e-07 4.289447e-07 -4.507966e-07 9.186814e-08 -1.424887e-07
4.508489e-08 1.874309e-08 -2.007399e-08 3.853977e-09 8.329519e-10 1.678033e-10
-1.354439e-07 3.997362e-07 -6.702630e-08 -3.054520e-07 -1.607208e-08 3.406741e-08
3.456215e-09 7.445828e-08 -4.916894e-08 -4.823819e-09 -2.465948e-09 1.418379e-08
3.091122e-07 -1.222391e-07 -4.303331e-08 -2.427102e-07 -1.094959e-08 4.330062e-08
-2.129518e-08 8.257234e-08 -6.100644e-08 -3.128271e-09 -4.866375e-09 1.724070e-08
-1.817293e-07 4.567149e-07 4.823572e-08 -3.430674e-07 -9.865439e-08 7.083742e-08
-8.414088e-08 3.809000e-07 6.806092e-08 -3.637113e-07 -5.559322e-08 7.496142e-10
-6.964106e-08 3.670647e-07 -8.051632e-08 -3.321210e-07 -7.408703e-08 4.139789e-08
5.930139e-09 6.165294e-08 -3.911579e-08 1.124881e-08 5.877866e-09 9.840632e-09
-4.299843e-08 1.653479e-07 -1.135921e-07 -2.225549e-08 -2.658105e-08 7.231688e-09
-2.987952e-08 8.832141e-08 -6.611324e-08 -1.396834e-09 -7.888348e-09 1.324875e-08
-3.800775e-08 1.182656e-07 -7.131684e-08 -3.857358e-09 5.677509e-08 -5.775515e-09
-1.076369e-08 6.869322e-08 -3.057351e-08 1.220145e-08 2.017786e-08 1.137653e-08
-1.070426e-08 5.338663e-08 -3.111829e-08 1.002676e-08 2.903210e-08 1.393302e-08
-3.768899e-08 1.438981e-07 -8.645292e-08 -1.738854e-08 2.959698e-08 -6.573796e-09
-7.441223e-09 7.345500e-08 -4.873140e-08 2.624017e-08 2.947210e-08 1.365936e-08
-1.344203e-08 5.421719e-08 -3.241800e-08 5.253390e-09 3.604357e-08 2.321367e-08
-2.541683e-08 5.487830e-08 -2.977825e-08 1.781972e-09 3.340080e-08 -1.504767e-08
4.706546e-09 8.871127e-08 -5.404244e-08 2.789265e-08 1.179903e-08 7.255566e-09
-3.792411e-08 1.680227e-07 -9.959390e-08 -4.182392e-08 4.309555e-08 -1.175840e-08
4.687038e-08 1.716091e-08 -2.011453e-08 -1.195977e-09 -5.329736e-11 3.040189e-10
-3.004214e-08 8.197390e-08 -3.077180e-08 -2.308150e-09 2.389193e-08 -5.210503e-09
-2.895506e-08 4.705261e-08 -2.744243e-08 2.723964e-09 4.736478e-08 -9.264279e-09
-4.082959e-09 6.030993e-08 -2.640548e-08 1.247214e-08 1.552914e-08 1.111739e-08
-3.024212e-08 5.528697e-08 -3.081888e-08 -1.015514e-09 4.051199e-08 -1.021080e-08
-3.672073e-08 7.082033e-08 -3.139406e-08 1.420563e-08 5.762392e-08 -1.875209e-08
-3.039431e-08 9.665147e-08 -5.386378e-08 -5.845102e-09 2.194930e-08 -6.654297e-09
-2.776035e-08 7.653101e-08 -3.559837e-08 -7.548394e-10 1.192829e-08 -6.738576e-09
-2.487611e-08 8.769339e-08 -4.577042e-08 -1.439400e-08 2.458791e-08 -1.202345e-08
-1.434077e-07 3.839473e-07 -1.241759e-07 -3.123493e-08 3.110756e-08 -1.888640e-09
1.111595e-07 -9.998794e-10 -8.565555e-08 4.728118e-08 -9.389846e-08 -5.757304e-08
-2.660366e-08 7.525739e-08 -2.623796e-08 -2.696162e-09 1.981966e-08 -1.042776e-08
1.950042e-08 6.819563e-08 -1.022724e-07 -5.552208e-08 8.143488e-08 -4.245730e-08
1.730094e-08 8.465909e-08 -9.688534e-08 -5.772050e-08 7.191769e-08 -4.172092e-08
6.306494e-08 9.856397e-08 -1.212133e-07 -5.999327e-08 3.647442e-08 -1.705431e-08
6.803537e-09 4.842925e-08 -5.541818e-08 2.385418e-08 -7.302978e-08 -1.610722e-08
4.153043e-08 1.374835e-07 -1.352189e-07 -1.024594e-07 6.872969e-09 -1.328236e-08
-1.950318e-09 7.949129e-08 -5.176876e-08 3.006665e-08 -9.143143e-08 -5.323809e-08
4.899357e-08 9.976192e-08 -1.217596e-07 -4.807899e-08 1.743772e-08 -6.125461e-09
2.157743e-08 1.198103e-07 -1.000455e-07 -6.287756e-08 3.747759e-08 -1.788632e-08
1.585286e-08 1.181856e-07 -1.224765e-07 -6.921294e-08 1.454370e-08 -5.732137e-09
1.843669e-08 8.935725e-08 -1.028532e-07 5.183105e-08 -7.926746e-08 -5.026506e-08
4.264255e-07 -8.413301e-08 -1.767449e-07 -1.372198e-07 8.584330e-09 1.392466e-08
4.359300e-07 -1.000868e-07 -2.082764e-07 -7.689407e-08 1.663088e-08 -6.153948e-09
5.039136e-07 -1.397618e-07 -2.255576e-07 -3.095682e-08 1.734762e-08 7.502501e-09
5.926135e-07 -2.024653e-07 -1.503718e-07 -9.886962e-08 1.258801e-08 -5.537183e-08
1.900685e-08 9.640202e-09 -5.347883e-08 -6.154726e-09 8.050558e-08 -2.881953e-08
4.143216e-07 -7.652865e-08 -9.852071e-08 -2.404585e-07 2.051047e-08 -1.601332e-08
-5.326344e-09 -2.867944e-08 -1.163835e-09 1.487079e-08 -8.630214e-08 -1.312279e-07
1.229148e-07 -8.195814e-08 -5.320491e-08 -4.942976e-08 -6.677554e-08 -2.610467e-08
5.108622e-07 -1.477134e-07 -2.000787e-07 -6.051941e-08 -5.729220e-09 -1.408500e-08
1.663723e-07 3.082433e-08 -7.592844e-08 1.624479e-07 -1.102217e-07 -8.291853e-08
5.088602e-07 -1.607505e-07 -1.935627e-07 -5.036805e-08 4.378244e-08 -3.699331e-08
-4.204168e-09 7.152229e-09 -5.186089e-08 1.628200e-09 -8.000118e-08 -2.199308e-08
6.883409e-07 -4.634252e-07 2.520882e-07 -9.485177e-09 -1.447656e-08 -9.570726e-08
5.577893e-08 1.609230e-08 -3.121404e-08 1.931360e-08 -8.600560e-10 2.443762e-09
4.476102e-08 2.157465e-08 -2.802341e-08 1.449021e-08 3.167230e-09 4.898932e-10
4.305998e-08 2.501567e-08 -3.839140e-08 2.190446e-08 1.340133e-09 2.830797e-09
4.189514e-08 2.267601e-08 -3.019417e-08 1.355526e-08 -1.260455e-09 -4.844522e-10
4.678534e-08 1.782912e-08 -2.549811e-08 1.440160e-08 1.111887e-09 -6.932630e-10
4.382860e-08 2.024263e-08 -2.377898e-08 1.026985e-08 -1.850529e-12 2.548711e-09
4.576608e-08 1.926093e-08 -2.339417e-08 9.193210e-09 -6.911961e-10 1.167369e-09
4.312783e-08 2.094366e-08 -2.280880e-08 9.305336e-09 1.237324e-09 -9.921303e-10
-2.574708e-06 -2.535802e-06 8.605908e-06 7.246962e-08 -9.167058e-08 -5.562276e-07
-2.728579e-06 -2.708480e-06 8.665950e-06 2.525503e-07 -1.535468e-07 -4.388829e-07
-2.618214e-06 -2.229076e-06 6.858367e-06 -3.367769e-07 -1.083944e-06 1.263344e-06
7.594068e-08 -7.001437e-09 -2.646981e-08 -4.495847e-09 -1.821696e-09 3.093614e-09
-8.169857e-07 -1.731914e-07 2.717713e-06 -7.114097e-07 -7.990619e-07 5.742568e-07
-2.617774e-06 -2.558621e-06 8.121701e-06 3.133005e-08 2.761382e-07 6.202867e-09
-2.511305e-06 -2.288830e-06 9.260556e-06 -5.472597e-08 -7.247392e-07 -5.821559e-08
7.149998e-08 -6.686989e-09 -2.539835e-08 -1.136114e-08 -5.098026e-09 9.147497e-09
2.009362e-07 -5.526783e-08 -1.111726e-07 -5.125726e-08 1.212979e-09 4.931011e-09
8.287272e-08 -8.710071e-09 -3.495238e-08 -1.437733e-08 -5.512596e-09 1.171642e-08
1.769300e-07 -4.490929e-08 -8.490307e-08 -1.843289e-08 7.027961e-09 1.138526e-08
2.068606e-07 -5.842359e-08 -9.328946e-08 -3.562174e-08 -1.492293e-08 3.544711e-08
2.385160e-07 -4.952789e-08 -1.073231e-07 -7.399798e-08 -1.205988e-08 4.117556e-08
3.130226e-08 -8.219029e-08 -3.656636e-08 -1.839754e-08 2.179873e-08 -4.452021e-08
2.583892e-07 2.013725e-08 -4.172826e-08 3.222287e-07 -2.950715e-08 -1.563845e-08
2.685310e-07 -9.469943e-08 -1.172751e-07 -5.987693e-08 1.128610e-09 1.220285e-08
2.813389e-07 -6.838664e-08 -1.075807e-07 -5.120480e-08 -6.928747e-09 4.520074e-08
2.543848e-07 -5.963449e-08 -1.066195e-07 -6.169818e-08 -1.284323e-08 4.646256e-08
2.644815e-07 -7.402267e-08 -1.079409e-07 -6.699925e-08 -4.572680e-09 5.594109e-08
4.382860e-08 2.248382e-08 -2.176353e-08 9.676386e-09 2.125582e-09 1.960306e-09
4.179293e-08 2.312588e-08 -2.392502e-08 9.562887e-09 1.933349e-09 -1.415393e-10
4.576043e-08 2.091787e-08 -2.263983e-08 8.888035e-09 8.766048e-10 6.936753e-10
2.606601e-08 -1.399993e-07 -5.305329e-09 5.040309e-10 2.774456e-08 -7.722352e-08
4.575414e-08 2.090812e-08 -2.167080e-08 8.879861e-09 1.023688e-09 7.745502e-10
5.797620e-07 -1.817900e-07 -2.030262e-07 1.067149e-07 -1.580659e-08 -7.364923e-09
2.610873e-08 -1.003763e-07 -2.189599e-08 4.045227e-09 -2.566863e-09 -1.073380e-07
4.504273e-08 2.022216e-08 -2.240985e-08 6.424565e-09 7.602875e-10 -2.076828e-10
5.976640e-07 -1.910437e-07 -1.993834e-07 6.177732e-08 -1.698633e-08 -2.235264e-08
4.403315e-08 1.805382e-08 -1.919450e-08 5.748291e-10 2.956255e-10 1.752074e-10
5.944530e-09 8.595971e-08 -5.885123e-08 -1.390982e-08 -1.281217e-08 2.016339e-08
4.270645e-08 2.027484e-08 -2.146554e-08 5.456678e-09 -2.408466e-10 4.129545e-10
1.149295e-08 3.251259e-08 -2.665928e-08 -8.029757e-09 -1.667227e-08 1.622032e-08
4.154345e-08 2.021867e-08 -2.253923e-08 6.899342e-09 7.070128e-10 5.763346e-10
-2.975975e-08 8.352579e-08 -3.154104e-08 -4.350143e-10 4.825737e-09 -3.716794e-09
3.098083e-08 3.593876e-08 -3.285233e-08 -1.624196e-08 -8.688030e-09 1.104228e-08
-2.986078e-08 8.426573e-08 -4.423689e-08 1.451706e-10 5.310491e-09 -5.532977e-09
-3.115909e-08 1.043027e-07 -4.725731e-08 -1.750766e-09 1.387029e-08 -7.158427e-09
-2.760642e-08 6.215420e-08 -2.990625e-08 1.358095e-10 6.517199e-09 -5.700287e-09
-2.724335e-08 8.001566e-08 -3.008673e-08 -2.098501e-09 2.231620e-08 -7.852653e-09
-4.394752e-08 1.270697e-07 -7.154301e-08 2.723844e-09 4.521325e-08 -3.048742e-09
-2.883556e-08 8.204916e-08 -4.354570e-08 5.342113e-10 5.236020e-09 -1.414414e-09
-4.303141e-08 1.265031e-07 -8.284224e-08 -1.231310e-08 7.218810e-08 -1.162794e-08
-2.722855e-08 5.302337e-08 -3.096326e-08 1.152487e-09 3.788167e-08 -1.154156e-08
-7.966346e-09 6.869175e-08 -4.093986e-08 2.104988e-08 -6.145334e-08 -2.569989e-08
-3.284663e-08 1.000647e-07 -5.106861e-08 -1.317606e-08 3.493434e-08 -5.841028e-09
-3.769351e-08 1.458018e-07 -7.631622e-08 -1.390131e-09 8.270016e-09 -8.263765e-10
-4.063537e-08 1.200655e-07 -7.024407e-08 -6.021842e-09 4.340837e-08 -7.752217e-09
1.107949e-07 4.981806e-08 -1.101316e-07 5.332819e-08 -8.380582e-08 -3.949151e-08
1.330441e-07 1.253095e-07 -1.681239e-07 1.504794e-07 -2.559378e-08 -1.998418e-08
9.050009e-08 6.839697e-08 -1.093250e-07 3.292805e-08 -7.031659e-08 -2.421810e-08
4.464798e-08 1.387603e-07 -1.361737e-07 1.792405e-07 -6.633757e-08 -3.523051e-08
-1.840537e-07 4.054082e-07 6.838692e-07 5.205791e-07 -6.544578e-08 -1.227538e-07
1.703980e-07 6.677023e-08 -1.771382e-07 6.165644e-08 -2.121710e-08 -1.966941e-09
-4.828269e-08 3.617445e-07 -1.192248e-07 2.426733e-07 -4.136645e-08 -1.912163e-08
-5.929821e-08 3.971424e-07 1.573921e-08 3.929507e-07 1.496888e-09 2.224915e-08
-1.612564e-08 1.075465e-07 -8.753228e-08 1.518595e-08 -1.795626e-08 -1.180789e-08
2.860045e-08 6.470626e-08 -5.886851e-08 -7.300434e-08 1.369053e-07 -1.013348e-07
7.457523e-08 5.303361e-08 -6.793229e-08 -8.691024e-08 5.600669e-08 -3.400650e-08
-3.392086e-08 1.160848e-07 -7.003538e-08 -4.330823e-09 4.125891e-08 -1.002945e-08
-4.189002e-08 1.473027e-07 -8.348226e-08 -6.404778e-10 7.176771e-09 4.660443e-09
-5.069768e-08 2.134082e-07 -1.136284e-07 -5.725776e-08 1.244206e-08 -1.008262e-09
8.328846e-08 1.621132e-07 -1.388588e-07 -1.537748e-07 4.875954e-08 -2.643380e-08
6.803043e-08 2.203348e-07 -1.158092e-07 -2.251998e-07 6.468587e-08 -3.561615e-08
4.519353e-08 7.552446e-08 -1.059331e-07 -7.439425e-08 9.711633e-08 -5.075790e-08
-8.832228e-08 2.443357e-07 -1.167367e-07 -5.800513e-08 5.353894e-08 -5.134214e-09
-7.773827e-08 2.460442e-07 -1.139130e-07 -5.354027e-08 5.123431e-08 -1.171241e-08
-8.291025e-08 3.336675e-07 -1.306373e-07 -9.272958e-08 3.587422e-08 -1.895114e-08
-4.800431e-08 1.217525e-07 -9.073373e-08 8.334140e-09 -3.971032e-08 -3.599405e-10
-1.375516e-07 4.090364e-07 -9.124000e-08 -1.487899e-07 3.662957e-08 -5.654108e-09
-5.351803e-08 2.178404e-07 -1.320336e-07 -1.619375e-09 -1.031648e-08 5.878022e-10
-1.264003e-07 4.570178e-07 -1.620075e-07 3.649734e-08 -3.141227e-08 -7.426532e-09
-3.406753e-08 1.260384e-07 -6.770183e-08 5.505637e-09 -2.037043e-08 -2.104322e-08
-2.869534e-08 7.738021e-08 -3.796646e-08 3.411255e-10 -6.993458e-09 -1.709303e-08
-1.824033e-08 8.101756e-08 -4.817498e-08 2.249041e-08 -7.703423e-08 -4.067746e-08
-7.183411e-08 2.219464e-07 -1.370435e-07 1.294867e-08 -8.818331e-09 1.798492e-10
-5.446179e-08 2.043479e-07 -1.139977e-07 -6.870451e-08 4.800642e-08 -1.799534e-08
-2.613343e-08 1.153422e-07 -8.191689e-08 -3.298551e-08 -3.746159e-08 2.179194e-08
-1.353935e-07 4.578877e-07 -1.254714e-07 6.622038e-08 -1.961040e-08 8.424239e-09
-5.173752e-08 2.248306e-07 -1.145408e-07 -7.873305e-08 4.285124e-08 -1.346551e-08
-2.402875e-08 1.379687e-07 -8.839644e-08 -3.496987e-08 2.598717e-08 -1.414422e-08
-1.266629e-07 2.871888e-07 -1.343813e-07 -3.028207e-08 -1.175610e-07 1.104681e-08
-4.455275e-08 1.389464e-07 -8.304576e-08 1.577164e-09 -2.087736e-08 -5.107196e-09
-5.039561e-08 1.964062e-07 -1.010461e-07 3.334021e-08 -7.307704e-08 -2.329317e-08
-2.963370e-08 1.446237e-07 -1.062883e-07 1.570034e-08 -4.875727e-09 -6.260356e-09
-3.951512e-08 1.704740e-07 -1.180657e-07 -1.718036e-08 -3.590836e-08 8.766176e-09
-1.035576e-08 5.463612e-08 -3.836808e-08 7.681044e-09 -1.038091e-08 2.169498e-08
3.240817e-08 6.058348e-08 -5.986441e-08 -4.493036e-08 -3.063901e-08 2.418144e-08
-1.342175e-08 8.229386e-08 -5.854161e-08 -4.249804e-09 -5.370909e-09 2.167913e-08
1.982759e-07 6.222935e-08 -1.059718e-07 -2.719156e-07 -4.990699e-09 -2.054174e-10
-1.076042e-08 1.245497e-07 -8.497144e-08 -4.453977e-08 2.153539e-08 -8.036738e-09
-1.258530e-08 1.387545e-07 -1.014023e-07 -5.220265e-08 1.724631e-08 -1.010389e-08
5.516694e-08 2.214369e-07 -1.720604e-08 -3.304855e-07 -4.937039e-08 3.552319e-08
-5.646760e-09 1.513029e-07 -1.041952e-07 -6.071712e-08 -1.019681e-08 4.223787e-09
-1.676530e-08 1.037578e-07 -6.937285e-08 -1.984739e-08 4.683839e-09 7.447364e-10
-1.051479e-08 1.038754e-07 -6.770645e-08 -3.037244e-08 2.231322e-08 -7.691366e-09
-6.593254e-09 7.251596e-08 -5.310500e-08 -1.798396e-08 -3.256778e-08 2.717285e-08
7.299705e-09 1.299612e-07 -1.010482e-07 -9.746650e-08 -2.363324e-08 5.604874e-09
-2.126674e-08 7.233632e-08 -4.729111e-08 -3.708518e-09 -2.059320e-08 1.787338e-08
5.084925e-09 1.613567e-07 -1.313424e-07 -1.110423e-07 -1.861247e-08 5.226338e-09
-2.705643e-08 1.234001e-07 -7.431752e-08 -6.023282e-09 -2.230703e-08 1.801018e-08
5.215052e-08 1.263117e-08 -2.002343e-08 1.082780e-09 -1.561049e-10 4.118272e-10
4.845671e-08 1.591349e-08 -1.975719e-08 7.173138e-10 6.828788e-10 1.955354e-10
2.590704e-08 4.989970e-08 -4.843163e-08 3.040674e-08 3.822050e-09 2.610067e-09
2.687501e-08 5.793264e-08 -6.002005e-08 4.465912e-08 1.372274e-08 1.053306e-08
5.750726e-08 8.365386e-09 -2.058678e-08 1.543969e-09 -4.996408e-11 3.509513e-10
2.741388e-08 4.835480e-08 -4.077168e-08 2.190796e-08 6.671623e-09 5.858211e-09
2.542616e-08 4.243438e-08 -3.806521e-08 2.074372e-08 5.914045e-09 5.918498e-09
5.620142e-08 1.046237e-08 -2.576444e-08 1.373571e-08 2.151156e-09 2.833080e-09
5.669845e-08 8.440043e-09 -2.238765e-08 1.457871e-09 4.461341e-10 -5.947794e-10
4.745199e-08 1.594853e-08 -2.053576e-08 2.115364e-09 -5.715668e-10 4.436236e-10
2.733025e-08 3.751248e-08 -2.924945e-08 2.874158e-09 -6.353499e-11 2.079228e-09
9.943806e-08 -9.642594e-09 -5.156754e-08 -2.380564e-08 -4.375945e-09 9.527624e-09
1.883196e-08 3.752372e-08 -2.201832e-08 6.651026e-09 4.240698e-09 5.797093e-09
1.508727e-07 -2.224684e-07 1.131299e-06 -6.818447e-07 -3.523805e-07 3.079982e-07
3.055277e-07 -4.756677e-07 9.997039e-07 -6.002579e-07 -5.360901e-08 1.836489e-07
2.576846e-07 -4.485343e-07 1.290709e-06 -6.300833e-07 -2.820852e-07 1.730816e-07
5.130569e-08 1.289011e-08 -1.942812e-08 -2.242873e-10 -5.576872e-11 -2.288410e-10
5.334643e-08 1.234030e-08 -2.000745e-08 -9.174191e-10 -2.892648e-10 7.435250e-12
5.311699e-08 1.372644e-08 -2.028975e-08 -4.441629e-10 -7.711697e-11 1.877347e-10
-2.065234e-07 -1.284474e-06 3.313516e-06 -5.090372e-07 3.343883e-07 1.978980e-07
-2.208538e-07 -1.247053e-06 4.139447e-06 -5.102704e-07 -8.715106e-08 -2.563707e-08
-2.857159e-07 -8.333822e-07 3.060231e-06 -6.434222e-07 -3.312240e-07 3.552490e-07
-2.870995e-08 6.179971e-08 -3.894201e-08 9.940277e-09 -1.372277e-08 -1.632217e-08
-2.472744e-07 -5.137799e-07 2.522415e-06 -7.669014e-07 -7.520043e-07 6.166035e-07
-2.796803e-07 -3.729393e-07 1.659194e-06 -7.769491e-07 -1.435630e-07 2.331149e-07
-3.312665e-08 1.241300e-07 -6.647661e-08 8.073280e-09 -2.069908e-08 -1.822740e-08
-2.149712e-08 8.323780e-08 -3.877158e-08 -3.253262e-09 -3.120211e-09 1.376647e-08
-3.145254e-08 4.418872e-08 -4.193341e-08 -5.552876e-10 -8.793323e-09 4.411187e-09
-2.562786e-06 -2.291653e-06 8.208439e-06 -2.097884e-08 1.369819e-06 -5.551246e-07
-2.431577e-06 -1.808086e-06 6.760100e-06 -2.736282e-07 8.548793e-07 -2.463064e-07
-1.344446e-08 7.235200e-08 -4.183680e-08 -4.751846e-09 -1.910313e-08 2.067865e-08
9.088172e-08 -1.228507e-08 -3.708347e-08 -1.095877e-08 -5.759180e-10 1.119987e-09
-1.154269e-06 -1.755706e-06 4.226531e-06 3.075099e-07 7.892577e-08 8.533757e-07
-2.214443e-06 -2.525891e-06 8.633675e-06 -2.638020e-08 -4.368565e-08 3.276138e-08
-1.479275e-06 -4.404967e-07 3.189340e-06 -6.090381e-07 2.053691e-07 5.116014e-08
-2.120561e-06 -1.210069e-06 5.546617e-06 -1.408504e-07 3.037460e-07 1.281093e-07
-2.636108e-08 4.151065e-08 -4.637683e-08 1.229885e-10 -2.309004e-08 1.328017e-08
-2.052186e-06 -1.976488e-06 7.531300e-06 1.010618e-07 1.907808e-07 2.419265e-08
-2.048650e-06 -1.636215e-06 6.193398e-06 1.977935e-07 6.395401e-07 3.668013e-07
-1.933888e-06 -8.589728e-07 5.394148e-06 2.522719e-07 1.412165e-06 5.486675e-07
-3.871743e-09 3.881046e-07 -9.300916e-08 3.147670e-07 -5.005923e-08 -2.302349e-08
-2.322416e-06 -1.054337e-06 5.405042e-06 6.688963e-07 1.328490e-06 8.799610e-07
3.624959e-07 -1.731405e-07 5.303616e-07 -5.313831e-07 -4.434243e-08 5.870297e-08
3.642324e-08 4.067191e-08 5.517711e-07 -5.737140e-07 -1.838195e-07 1.190174e-07
-2.377830e-07 2.133227e-07 8.281265e-07 -6.229310e-07 -1.838530e-07 1.017873e-07
-2.026736e-07 1.781485e-07 1.322464e-06 -6.422481e-07 2.762624e-08 -6.620161e-08
1.832193e-07 -3.689003e-07 1.456150e-06 -6.649065e-07 -1.414174e-07 1.978708e-07
-5.815999e-07 4.773887e-07 7.555239e-07 4.586991e-07 2.117062e-07 6.617627e-08
4.459583e-07 -2.927707e-07 3.491370e-07 -4.822011e-07 2.186473e-08 -1.589167e-09
-7.662735e-08 3.358224e-07 -1.768203e-08 3.493435e-07 -4.847181e-08 -1.275414e-08
-3.114949e-07 -6.276960e-08 1.139422e-06 -7.425369e-07 -2.550645e-07 3.874831e-07
-2.919543e-07 -1.503558e-07 1.671767e-06 -7.350010e-07 -5.271820e-08 2.279983e-07
-2.096657e-07 5.993949e-07 -2.129327e-08 2.821566e-07 -7.871185e-08 -1.241085e-08
-8.667065e-08 2.700824e-07 -5.935811e-08 2.308009e-07 -7.753713e-08 -4.366014e-08
-2.578715e-07 -8.369966e-08 1.785732e-06 -6.841650e-07 -2.319290e-07 2.206832e-07
-2.211320e-07 -4.399092e-07 2.652602e-06 -6.991006e-07 -3.102000e-08 -7.750442e-08
-4.482597e-08 1.318263e-07 -8.039394e-08 3.499289e-09 6.393422e-08 -1.368024e-08
-3.305133e-08 1.503404e-07 -9.075024e-08 -4.320338e-08 1.509176e-08 -1.679839e-09
-5.836440e-08 2.519645e-07 -1.291024e-07 -2.373750e-08 -4.713022e-08 6.727740e-09
-3.783283e-08 1.333649e-07 -8.340828e-08 -1.417552e-08 8.352909e-09 -3.356378e-09
-1.157106e-07 2.691317e-07 -1.126886e-07 1.724542e-08 7.156985e-08 -2.430852e-09
-6.497610e-08 1.938596e-07 -1.050732e-07 -1.438059e-10 3.852414e-08 -2.654625e-09
-1.007730e-07 2.905658e-07 -1.270373e-07 -1.009320e-09 1.896364e-08 -8.524493e-09
-3.441376e-08 1.477723e-07 -1.020544e-07 -7.062423e-08 -8.957506e-08 2.162729e-08
-3.355922e-08 2.209733e-08 -3.721289e-08 -4.082801e-09 -6.773436e-08 2.480058e-08
-4.922174e-08 5.771288e-08 -4.204752e-08 3.898695e-08 -1.103395e-07 3.463788e-08
1.551064e-07 -3.150595e-08 -7.695445e-08 -4.372407e-08 -9.089552e-10 2.713977e-08
1.726701e-07 -5.592825e-08 -8.879081e-08 -6.036598e-09 -1.886633e-09 3.822447e-08
-2.283325e-08 6.850139e-08 -4.425140e-08 -5.186502e-08 -1.147547e-07 1.998001e-08
1.219530e-07 -2.483986e-08 -6.920533e-08 -3.105982e-08 -8.224490e-09 2.317234e-08
8.856576e-09 6.444160e-08 -4.336212e-08 2.806132e-08 1.537022e-08 1.359089e-08
8.851013e-08 -1.954454e-08 -2.348097e-08 -8.041860e-10 5.865152e-10 4.975769e-09
7.074233e-08 -3.250880e-09 -2.653565e-08 -4.192416e-09 -1.814175e-09 9.155845e-10
-2.951175e-09 4.335213e-08 -2.416163e-08 1.160649e-08 2.444225e-08 1.682000e-08
1.633154e-08 4.750426e-08 -2.261029e-08 1.352137e-08 1.382644e-08 1.087207e-08
8.271256e-08 -9.088232e-09 -2.998907e-08 -6.023036e-09 -3.268841e-10 5.684751e-10
1.168612e-07 -2.750363e-08 -5.030656e-08 -6.135992e-09 -7.017821e-09 1.244911e-08
1.300064e-07 -2.293245e-08 -5.699858e-08 -2.336158e-08 -4.493644e-09 1.880317e-08
1.069433e-08 4.938252e-08 -3.196730e-08 3.408819e-09 4.956656e-09 9.280961e-09
1.049858e-07 -1.826200e-08 -4.962178e-08 -1.896693e-08 -5.115431e-09 1.141982e-08
1.306482e-08 5.038672e-08 -3.387065e-08 4.902271e-09 2.235004e-09 8.276011e-09
-2.942183e-08 1.278941e-07 -7.669873e-08 -1.379738e-08 1.665185e-08 -6.567647e-09
-3.124389e-08 1.252044e-07 -7.500419e-08 -2.067355e-08 1.985600e-08 -8.720021e-09
-2.753400e-08 1.127549e-07 -6.444960e-08 -3.338707e-09 1.405578e-09 -3.260562e-09
-3.081709e-08 1.136829e-07 -6.268233e-08 -6.559876e-09 7.957532e-09 -4.683671e-09
-2.927725e-08 1.146559e-07 -6.812629e-08 -6.117168e-09 2.357415e-09 2.580686e-10
2.777451e-08 3.533824e-08 -2.527099e-08 1.733432e-08 1.008322e-08 9.320370e-09
8.581928e-08 3.783257e-08 -9.500341e-08 8.844963e-08 1.480587e-08 1.859788e-08
-2.721362e-08 1.063799e-07 -6.116185e-08 -5.900811e-09 8.825887e-09 -6.727801e-09
-2.186961e-08 1.005820e-07 -5.911953e-08 -3.316327e-09 1.351059e-09 -3.640121e-09
7.273053e-08 2.779811e-08 -8.135631e-08 6.444558e-08 -3.899674e-10 3.160534e-09
8.941096e-08 -1.885134e-08 -2.663365e-08 -9.286534e-10 -5.988369e-10 1.737474e-09
-2.878958e-08 3.853609e-08 -3.835535e-08 -2.858094e-09 -5.630923e-08 -3.101332e-08
-4.363982e-08 2.662913e-07 -1.496048e-07 1.103648e-07 -6.950000e-08 -3.729073e-08
-6.892295e-10 1.307433e-07 -1.028395e-07 3.473549e-08 -9.282010e-09 -3.723689e-09
8.294067e-08 -1.800638e-08 -2.258579e-08 5.985583e-09 2.142675e-09 1.206105e-08
8.200186e-08 -1.535983e-08 -2.258486e-08 3.310103e-09 1.325459e-09 4.601834e-09
-6.689670e-08 3.340008e-07 -8.998604e-08 1.888967e-07 -6.921801e-08 -2.999576e-08
2.834605e-08 2.445792e-07 3.176189e-09 3.977777e-07 5.049861e-08 6.183670e-08
1.685043e-07 1.324731e-07 2.131394e-07 4.803276e-07 6.547818e-08 1.771052e-08
9.554411e-08 1.815208e-07 -1.624734e-07 1.729612e-07 -2.514014e-08 -2.414764e-08
7.239019e-08 1.457374e-07 -8.251127e-08 3.116520e-07 3.057993e-08 4.815510e-08
1.473232e-07 1.651519e-07 -4.656578e-09 3.645584e-07 7.059537e-08 4.289033e-08
5.744287e-08 1.790329e-07 -1.079476e-07 2.510233e-07 4.490360e-09 3.691215e-09
-5.236034e-08 3.496443e-07 -1.524482e-07 1.955167e-07 -2.393588e-08 9.647711e-10
6.222919e-08 2.087099e-07 -8.464399e-08 2.778465e-07 3.782705e-08 1.723279e-08
6.987208e-08 1.705690e-07 -1.118300e-07 2.564149e-07 7.567236e-08 6.554948e-08
-1.325348e-07 4.276228e-07 -6.871741e-08 1.725256e-07 -4.779298e-08 -1.816191e-08
-8.132499e-08 3.276374e-07 -1.401810e-07 1.171424e-07 -6.202289e-08 -2.636650e-08
-7.340435e-08 2.916107e-07 -1.458236e-07 1.467226e-07 -6.114028e-08 -1.072960e-08
8.562669e-08 1.309564e-07 -1.025956e-07 2.122209e-07 3.635396e-08 2.891572e-08
-2.879694e-07 6.815986e-07 4.844663e-09 8.131469e-08 -6.062301e-08 -7.451333e-09
1.300804e-08 2.025583e-07 -1.036250e-07 2.587033e-07 3.871873e-08 4.809812e-08
1.987110e-08 2.482657e-07 -7.300326e-08 3.012757e-07 8.676448e-08 6.731577e-08
-2.677434e-07 5.651807e-07 2.438953e-07 2.334639e-07 -2.442013e-08 1.549376e-08
-4.130075e-08 8.028230e-08 -5.894102e-08 1.088181e-09 -3.323086e-08 -6.560712e-09
-4.115352e-08 1.158753e-07 -5.481678e-08 -1.788400e-08 -5.643704e-08 -8.109049e-09
-2.662885e-07 5.210791e-07 -2.907056e-08 1.046399e-07 -3.733847e-08 -8.732496e-09
-1.133990e-07 3.810189e-07 -9.914797e-08 2.191783e-07 -5.706315e-08 6.330399e-09
-6.270171e-08 9.179280e-08 -4.977914e-08 -9.271335e-09 -1.462037e-07 1.379993e-08
-2.887738e-07 5.445115e-07 4.844660e-09 5.269182e-08 -4.702936e-08 -1.972734e-09
-2.098808e-07 6.502206e-07 -3.015040e-08 2.565502e-07 -4.811793e-08 -8.911215e-09
-4.664376e-08 1.932545e-07 -1.184444e-07 -2.053652e-08 -1.225651e-08 7.350317e-09
-2.209930e-07 4.986406e-07 -3.177678e-08 2.059114e-07 -1.131547e-08 -3.130160e-09
-6.176462e-08 1.335069e-07 -9.610806e-08 -7.426594e-09 -7.762369e-08 -1.593082e-09
-1.190363e-08 1.586278e-07 -1.092006e-07 1.023581e-07 5.179152e-08 2.685262e-08
-2.752630e-08 1.961155e-07 -1.120514e-07 1.029589e-07 6.045414e-08 1.577616e-08
-5.774433e-08 2.619068e-07 -1.059388e-07 1.529605e-07 7.298777e-08 2.133353e-08
-1.243417e-08 1.706558e-07 -1.021059e-07 9.246248e-08 1.772479e-08 1.373443e-08
-5.001275e-09 1.380360e-07 -9.174495e-08 8.599031e-08 3.784744e-08 2.675492e-08
-2.681287e-08 2.343112e-07 -1.221871e-07 1.366450e-07 2.151000e-08 1.698757e-08
2.287511e-07 -4.758841e-08 -1.111259e-07 -8.681238e-08 -1.064012e-08 6.242782e-09
3.931609e-07 -1.175142e-07 -1.086666e-07 8.619828e-09 6.431369e-10 6.177487e-08
3.359542e-07 -1.529611e-07 -8.882674e-08 -5.316480e-08 -1.049422e-08 7.155910e-08
-2.738820e-08 7.462054e-09 -3.464112e-08 -3.382612e-10 -7.426691e-08 7.134784e-09
2.124630e-07 -7.605072e-08 -1.022356e-07 -2.380787e-08 -4.374758e-09 5.096649e-08
3.203244e-07 -8.032291e-08 -1.205111e-07 -9.882647e-08 -1.261048e-08 2.357643e-08
3.753827e-07 -1.276059e-07 -4.783347e-08 -1.359291e-07 -1.295612e-09 7.820611e-08
3.527091e-07 -9.415337e-08 -9.394418e-08 -1.936516e-07 -3.363701e-09 2.828285e-08
2.504769e-07 -5.938900e-08 -1.156325e-07 -7.905350e-08 1.341889e-09 2.403147e-08
7.461228e-08 -6.961643e-09 -2.244088e-08 6.900924e-09 1.904346e-09 4.897096e-09
7.528218e-08 -8.566678e-09 -2.668660e-08 5.977770e-09 5.712830e-10 3.790554e-09
7.495387e-08 -6.857310e-09 -2.489404e-08 7.704993e-09 1.202642e-09 5.969713e-09
1.697718e-07 -4.032076e-08 -8.097756e-08 -2.802663e-08 -8.751122e-09 6.317150e-09
2.612763e-07 -9.616976e-08 -1.065100e-07 -5.801393e-08 -1.005002e-08 5.705588e-08
7.015840e-08 -6.137446e-10 -2.714103e-08 1.148423e-08 2.088327e-09 7.637345e-09
6.579710e-08 1.254482e-09 -2.428223e-08 1.408761e-08 3.435737e-09 6.816281e-09
1.805656e-07 -4.763163e-08 -8.455535e-08 -1.190444e-08 -8.686117e-09 9.475726e-09
-6.316027e-07 -2.367603e-08 2.046790e-06 -7.036779e-07 2.705376e-07 -3.984271e-07
1.521044e-07 5.837320e-08 -1.132090e-07 -2.881575e-07 4.147184e-10 2.531137e-08
-3.798326e-08 1.916066e-08 -3.789394e-08 -3.776968e-09 -7.477061e-08 1.417917e-08
-2.825834e-08 1.386042e-07 -6.166263e-08 -2.400573e-08 -9.071814e-08 2.861870e-08
-4.311090e-08 5.512199e-08 -3.754000e-08 2.477953e-08 -8.926706e-08 4.074997e-08
3.808415e-08 1.459030e-07 -1.190032e-07 -1.527192e-07 -5.161458e-08 4.210803e-08
-1.603123e-08 8.350239e-08 -7.385804e-08 -1.407663e-08 -2.908864e-08 2.061836e-08
1.537975e-08 2.373599e-07 -1.197578e-07 -3.138955e-07 -2.239623e-09 3.065985e-08
8.182260e-08 2.411286e-07 2.163586e-07 -4.869036e-07 2.609065e-08 -3.147430e-08
-1.423704e-08 7.627536e-08 -4.369016e-08 -1.775460e-08 -3.567952e-08 2.274120e-08
4.961590e-08 1.553575e-07 -1.135310e-07 -2.702040e-07 -3.388985e-08 5.623636e-08
-2.412999e-08 2.806267e-08 -3.627043e-08 -6.307848e-09 -5.767292e-08 2.977784e-08
-4.223197e-08 1.099857e-07 -8.003158e-08 9.769485e-10 -5.193368e-08 1.157234e-08
-2.690921e-08 2.494882e-08 -3.381960e-08 -1.700133e-09 -6.340385e-08 3.149303e-08
3.955346e-08 2.429460e-07 -3.780818e-08 2.998920e-07 9.290786e-08 3.980044e-08
-6.616138e-08 3.215180e-07 -1.455292e-07 -7.155464e-08 -5.088124e-08 9.782538e-09
-5.128146e-08 2.226399e-07 -1.305571e-07 -4.187858e-08 -2.028963e-08 9.433478e-09
-2.069821e-09 2.275088e-07 -1.271692e-07 1.978478e-07 1.679886e-08 2.341997e-08
1.291895e-07 8.049751e-08 -1.166844e-07 2.561877e-07 3.401735e-08 4.377168e-08
-8.332748e-08 2.809850e-07 -1.387698e-07 -8.133583e-08 -6.765580e-08 1.137794e-08
-1.681079e-06 -9.306815e-07 4.685654e-06 -5.549823e-07 -9.589732e-08 9.316608e-08
-7.524334e-08 2.705742e-07 -1.326880e-07 -7.703177e-08 -5.934172e-08 2.817345e-08
-2.195168e-06 -1.776757e-06 7.045483e-06 3.736053e-07 8.036555e-07 8.625087e-07
-5.175796e-08 2.562071e-07 -1.398509e-07 -9.652993e-08 -5.248555e-09 7.997805e-09
-7.339490e-08 2.701736e-07 -1.458319e-07 -1.020822e-07 -1.650345e-08 -6.471878e-09
-1.026361e-06 -5.682702e-07 4.412206e-06 5.402391e-07 8.150441e-07 4.247816e-07
-1.318645e-07 -8.705851e-07 1.972972e-06 7.084911e-07 3.255747e-07 1.027275e-06
-5.847842e-08 1.979628e-07 -1.280925e-07 -6.078259e-08 -4.764486e-08 1.434975e-08
-1.403802e-06 1.451283e-07 2.735595e-06 -1.386188e-07 2.686140e-07 2.048527e-07
-2.228226e-06 -1.369218e-06 6.294046e-06 6.896506e-09 6.955543e-07 -1.091020e-08
-1.857223e-06 -4.039499e-07 4.945443e-06 5.910402e-08 1.684170e-06 3.760617e-07
-1.084899e-08 7.881155e-08 -5.061087e-08 5.494620e-09 -1.626878e-08 -3.442374e-09
-1.649841e-06 -2.200196e-07 4.468259e-06 -1.879285e-07 -1.415681e-06 4.282244e-07
-1.233081e-08 9.762585e-08 -6.464813e-08 6.655992e-09 -7.983975e-09 -1.001860e-08
-1.088744e-06 2.863838e-08 2.577348e-06 -5.655775e-07 -1.142923e-08 6.492910e-09
-4.419147e-07 6.136422e-07 6.263614e-07 -3.437454e-07 -6.285687e-08 1.785492e-08
-9.759433e-07 -8.616214e-07 3.834117e-06 7.011380e-07 -3.133310e-07 3.887679e-08
-9.674399e-07 -6.592671e-07 4.419131e-06 -6.345500e-07 -1.178194e-06 9.945098e-07
-7.181294e-07 2.857325e-08 2.577348e-06 -5.903866e-07 -1.019561e-08 -2.632768e-09
-5.623386e-09 9.066207e-08 -6.259375e-08 -2.655170e-10 -7.418946e-09 -3.472067e-11
-7.233596e-07 -3.073675e-08 2.582606e-06 -5.882266e-07 -8.731270e-07 5.575222e-07
-1.171353e-06 3.198883e-07 2.752962e-06 -2.006015e-07 -8.192445e-07 2.021994e-07
-1.119704e-08 8.566205e-08 -4.721967e-08 1.329564e-09 -9.021903e-09 -4.717386e-09
9.393604e-08 6.589145e-09 -7.591539e-08 -5.466956e-08 -6.972183e-10 7.634887e-10
-4.932042e-07 1.959425e-07 1.049561e-06 6.829983e-07 -1.217051e-07 -8.893105e-08
9.881210e-08 1.436521e-08 -6.128062e-08 -5.672296e-08 -7.494273e-09 1.051963e-08
3.495739e-07 -3.739928e-08 -7.864573e-08 2.899248e-07 2.938453e-08 6.547697e-08
2.474557e-07 -2.848985e-08 -9.148867e-08 1.953995e-07 9.959243e-09 3.488257e-08
3.600083e-07 -1.018533e-07 -8.015806e-08 1.846459e-07 8.796269e-09 2.990323e-08
7.713491e-08 -1.097543e-08 -2.401737e-08 3.233400e-09 1.402994e-09 1.757409e-09
8.317588e-08 1.875019e-08 -6.067322e-08 -5.774710e-08 -1.588133e-08 1.270584e-08
8.151049e-08 1.444650e-08 -7.513884e-08 -6.040638e-08 -6.392045e-09 1.593839e-08
7.298493e-08 1.273142e-08 -4.962322e-08 -4.168816e-08 -3.373257e-09 7.840672e-10
7.420806e-08 1.006014e-08 -4.563247e-08 -3.274403e-08 -2.393370e-09 6.559291e-09
-1.523231e-06 -2.114378e-06 6.224504e-06 -2.478956e-07 -6.325671e-08 -1.152197e-06
8.022630e-08 1.302652e-08 -5.080874e-08 -3.755891e-08 -3.656277e-09 5.404768e-09
6.973658e-08 1.758624e-08 -5.863024e-08 -4.216020e-08 -6.913434e-09 1.048774e-08
3.852993e-07 -8.457653e-07 2.174346e-06 -4.746422e-07 8.080356e-08 -6.479903e-07
2.974042e-07 -1.164089e-06 2.159919e-06 -1.338138e-07 1.132849e-07 -5.837384e-07
-1.080176e-07 -1.481858e-06 3.609328e-06 -2.294201e-07 7.814119e-09 -1.830117e-07
8.734271e-08 -1.905978e-08 -2.364607e-08 -4.843601e-11 -3.429875e-10 2.083987e-09
-4.578612e-07 -6.472543e-07 3.138219e-06 -7.399595e-07 6.575033e-07 -1.045989e-06
-7.631697e-07 -1.483047e-06 3.609327e-06 -1.885943e-07 6.144078e-09 -8.376104e-08
7.574318e-08 2.743143e-08 -5.738674e-08 -5.267051e-08 -1.152701e-08 1.459688e-08
7.551464e-08 2.116127e-08 -7.289593e-08 -6.170575e-08 -4.013242e-09 6.003405e-09
6.383901e-07 -5.454756e-07 4.316252e-07 -2.407982e-07 6.486453e-08 -7.287605e-08
6.119157e-07 -2.555680e-07 -1.232246e-08 2.142106e-08 6.169933e-09 4.823761e-08
5.271720e-07 -3.975088e-07 1.698663e-07 1.717561e-09 8.491483e-09 1.449049e-08
6.076092e-07 -5.775554e-07 6.152843e-07 6.174895e-08 -9.664663e-08 -3.571599e-08
4.998805e-08 2.856928e-08 -4.136654e-08 3.192123e-08 8.388496e-09 3.771325e-09
5.822394e-08 1.838042e-08 -4.858753e-08 3.562575e-08 7.044101e-09 7.959464e-09
5.860038e-07 -3.309722e-07 2.928920e-07 -1.815067e-07 5.103881e-09 -1.080440e-07
6.543611e-08 2.101845e-08 -6.097282e-08 4.621057e-08 9.132650e-10 1.909099e-11
6.680777e-07 -4.932388e-07 3.710430e-07 -1.414733e-07 8.057855e-08 -1.449548e-07
6.625304e-07 -5.165372e-07 4.074490e-07 5.967498e-08 -1.136352e-07 -6.148465e-08
3.822175e-07 -1.357708e-07 -1.096499e-07 -1.673293e-07 -1.702716e-08 5.074355e-08
7.873739e-09 7.029015e-08 -4.672426e-08 6.959133e-09 1.053583e-09 2.442319e-09
7.131997e-08 2.123003e-08 -5.311847e-08 4.476228e-08 -5.523658e-10 7.008254e-09
7.627812e-09 1.113574e-07 -9.004615e-08 6.646446e-08 1.133537e-08 7.204176e-09
-1.161936e-08 1.404056e-07 -8.775192e-08 5.642453e-08 8.119581e-09 2.709479e-09
-1.400909e-08 6.893202e-08 -3.521589e-08 3.688520e-09 9.879002e-09 7.782786e-09
-6.813467e-09 8.707831e-08 -5.643394e-08 2.191995e-08 2.718639e-08 1.806259e-08
6.693900e-08 2.460894e-08 -5.436947e-08 4.745098e-08 4.941825e-09 1.424168e-08
1.778152e-08 4.053750e-08 -2.702818e-08 7.894814e-10 7.994285e-10 3.969976e-09
6.737574e-08 2.828262e-08 -4.764101e-08 4.578463e-08 1.068159e-08 1.248350e-08
3.916415e-08 2.309965e-08 -1.984827e-08 8.128684e-09 1.999079e-09 2.542150e-09
3.541932e-08 2.953778e-08 -2.411483e-08 3.602648e-09 1.419828e-10 1.025953e-09
5.315345e-08 3.039780e-08 -6.078373e-08 4.593079e-08 -3.824085e-10 1.160625e-09
3.213093e-08 3.320879e-08 -2.721618e-08 1.089167e-08 4.483060e-09 5.847696e-09
6.023608e-08 2.427904e-08 -5.903825e-08 4.887986e-08 4.689506e-09 6.208408e-09
-3.065317e-08 8.214019e-08 -6.068130e-08 -1.317390e-09 -7.813781e-09 -1.974292e-08
-3.215842e-08 1.097107e-07 -8.737718e-08 2.699750e-08 -6.145806e-08 -3.100631e-08
2.845369e-08 3.745529e-08 -3.065173e-08 9.966475e-09 6.938857e-10 1.163561e-09
-2.692773e-08 1.416851e-07 -1.025877e-07 1.367645e-08 -4.582084e-09 -2.147541e-09
-2.767368e-08 1.109446e-07 -7.072293e-08 1.619357e-08 -4.324153e-08 -3.076971e-08
2.929912e-08 3.277923e-08 -2.591196e-08 2.342414e-09 6.149312e-10 2.797430e-09
5.875154e-08 9.534558e-09 -2.268132e-08 -1.055891e-08 -2.255229e-09 3.710932e-09
5.033937e-08 2.047924e-08 -3.040269e-08 -1.322273e-08 -9.064789e-10 1.217389e-09
5.617385e-08 9.682032e-09 -2.193438e-08 -8.734144e-09 -2.710559e-09 2.473331e-09
-1.917581e-08 1.170149e-07 -8.729769e-08 2.400942e-08 -1.793538e-08 -8.683116e-09
8.056105e-08 -1.118311e-08 -2.949418e-08 1.271204e-08 2.799442e-09 6.185904e-09
4.747173e-08 1.984068e-08 -2.444375e-08 -1.453426e-08 -6.439061e-09 8.207792e-09
7.562359e-08 -8.808241e-09 -2.553973e-08 8.342237e-09 4.813403e-09 9.356628e-09
5.412137e-08 1.336727e-08 -2.100156e-08 -2.038737e-09 -1.925513e-10 4.943208e-10
8.210319e-08 -1.200220e-08 -2.503155e-08 6.366598e-09 2.646225e-09 6.093170e-09
4.695078e-08 1.769005e-08 -2.382546e-08 -2.226468e-09 -3.721139e-10 4.994631e-10
7.651895e-08 -9.969834e-09 -2.718275e-08 5.437201e-09 1.896958e-09 3.255852e-09
3.415251e-08 3.574790e-08 -4.313721e-08 -1.846465e-08 -2.399486e-09 3.309406e-09
7.962736e-08 -1.204452e-08 -2.568826e-08 5.884827e-09 8.258550e-10 7.016247e-09
4.699439e-08 1.740520e-08 -2.199890e-08 -6.004504e-09 -2.470358e-09 3.468203e-09
7.103493e-08 -6.545325e-09 -2.239185e-08 4.734983e-09 2.067503e-09 3.577724e-09
8.264371e-08 -1.309219e-08 -2.699043e-08 9.649620e-10 1.234920e-09 4.986711e-10
8.536175e-08 -1.320681e-08 -2.819728e-08 2.257931e-09 1.275938e-09 2.133023e-09
7.636606e-08 -9.251123e-09 -2.328742e-08 4.827227e-09 2.196474e-10 4.566107e-09
8.053535e-08 -1.384151e-08 -2.584348e-08 2.465783e-09 4.495834e-10 2.642369e-09
4.008343e-08 2.509203e-08 -2.530783e-08 -2.783332e-09 -1.020125e-09 5.223242e-09
4.718782e-08 1.682134e-08 -2.296249e-08 -1.275033e-09 -8.202949e-11 1.289772e-09
7.812019e-08 -9.523998e-09 -2.535662e-08 8.003254e-09 1.926998e-09 5.733653e-09
4.896682e-08 1.453098e-08 -2.145282e-08 -1.622062e-09 -3.604370e-10 5.789191e-11
8.281430e-08 -1.275366e-08 -2.779534e-08 -4.369039e-09 -3.835279e-10 4.342201e-09
8.015644e-08 -1.128141e-08 -2.524291e-08 -1.227897e-09 -1.145143e-09 5.104010e-10
5.227581e-08 1.111447e-08 -2.139489e-08 -2.654425e-09 1.085709e-11 1.912479e-10
8.362324e-08 -1.452596e-08 -2.891820e-08 -5.286920e-09 -2.513204e-09 4.597397e-09
8.696695e-08 -1.625339e-08 -3.204194e-08 -7.275666e-09 -1.142295e-09 1.118523e-08
5.017756e-08 1.375849e-08 -2.075852e-08 -1.160423e-09 3.084600e-11 6.023090e-11
7.914361e-08 -1.098135e-08 -2.537997e-08 -1.036563e-09 -1.584366e-09 1.440925e-09
7.536078e-08 -6.570138e-09 -2.541553e-08 -8.172633e-09 -2.131757e-09 4.850010e-09
7.896482e-08 -1.034069e-08 -2.362308e-08 -1.248547e-09 -1.180510e-09 1.166160e-09
7.747559e-08 -9.117311e-09 -2.304724e-08 -1.170501e-09 -3.360636e-10 1.117474e-09
-6.788056e-09 7.853265e-08 -7.868717e-08 1.801700e-08 -4.847678e-08 -2.209440e-08
-1.514449e-08 8.816518e-08 -7.052106e-08 1.740523e-08 -3.940260e-08 -2.446170e-08
-2.333787e-08 7.488647e-08 -4.443124e-08 4.512299e-09 -3.665006e-08 -2.314260e-08
-1.920780e-08 6.825111e-08 -2.902831e-08 6.500806e-09 -2.132767e-08 -9.149017e-09
-1.108886e-08 8.088126e-08 -5.034515e-08 7.499929e-10 -1.605790e-08 -8.835510e-09
-4.928430e-08 1.931947e-07 -1.084992e-07 4.999286e-08 2.032247e-08 -5.226943e-09
-1.225817e-08 1.096853e-07 -8.197169e-08 9.338246e-09 -3.055207e-09 -1.492488e-09
-5.606820e-09 9.551357e-08 -7.586414e-08 0.000000e+00 -4.988179e-10 -8.085088e-12
-1.491366e-08 1.101062e-07 -6.267476e-08 2.170383e-08 1.192146e-08 4.210918e-09
-2.245054e-08 1.397924e-07 -7.390224e-08 3.166711e-08 2.799269e-08 1.057782e-08
-1.305180e-08 1.490553e-07 -9.649156e-08 6.337451e-08 7.261632e-09 9.889065e-09
-2.205343e-08 1.544545e-07 -1.106970e-07 6.533396e-08 8.189535e-09 -1.586149e-09
-2.982386e-08 1.521103e-07 -9.554252e-08 5.096505e-08 3.234728e-08 1.908540e-08
9.048601e-08 8.081990e-08 -1.400444e-07 -1.333794e-08 8.978657e-09 -1.571781e-15
7.445319e-08 8.478399e-08 -1.355177e-07 -2.583933e-08 1.377938e-08 -6.690488e-09
-3.177546e-08 1.694252e-07 -9.722370e-08 6.348144e-08 4.820684e-08 5.730967e-09
-2.862846e-08 1.239598e-07 -8.568074e-08 4.160914e-08 2.881823e-08 9.937984e-09
1.105649e-07 8.277720e-08 -1.580233e-07 -6.353430e-08 1.671520e-08 -8.644804e-09
4.547991e-08 1.712333e-08 -2.225264e-08 6.995142e-09 1.484095e-09 1.149332e-09
4.401433e-08 1.916482e-08 -1.926256e-08 2.141281e-09 3.242411e-10 1.548224e-10
4.393121e-08 2.081953e-08 -1.990380e-08 2.419304e-09 2.353607e-10 -6.156736e-10
4.660228e-08 1.676555e-08 -2.013019e-08 2.582304e-09 -1.464189e-10 7.153328e-10
7.081822e-08 1.687804e-07 -9.256479e-08 -2.347956e-07 6.902380e-08 -4.520035e-08
3.724650e-08 2.486918e-08 -2.089372e-08 3.752097e-09 7.123516e-10 9.419217e-10
7.114282e-08 1.467983e-07 -1.118211e-07 -2.390865e-07 1.735059e-08 -1.446473e-08
6.587202e-08 4.888832e-08 -9.434694e-08 -1.018434e-08 7.100468e-08 -1.465800e-08
2.880643e-08 1.582980e-07 -1.234493e-07 -9.470832e-08 1.964334e-08 -1.012556e-08
-2.633873e-08 1.116045e-07 -6.463150e-08 -5.030190e-09 2.196410e-10 -3.046719e-09
4.468628e-08 1.855090e-08 -2.002272e-08 3.599237e-09 5.218777e-10 -1.678917e-10
4.048109e-08 2.059723e-08 -1.972735e-08 6.024406e-09 9.600616e-10 8.008893e-10
-1.445844e-08 7.162989e-08 -3.342798e-08 -8.539647e-09 2.643105e-08 -7.609264e-09
-9.558894e-09 8.144833e-08 -5.003465e-08 -6.626210e-09 6.851651e-09 -2.225966e-09
-1.234059e-08 9.585981e-08 -7.048815e-08 -2.327427e-08 1.767809e-08 -8.570033e-09
3.297603e-08 2.883281e-08 -2.543365e-08 7.161967e-09 1.558051e-09 1.888198e-09
-9.732032e-09 8.971930e-08 -5.868380e-08 -2.089832e-08 3.051880e-08 -1.612861e-08
-1.631763e-08 7.462805e-08 -2.627578e-08 -6.861109e-09 1.338897e-08 -7.131424e-09
-1.077405e-08 9.126363e-08 -5.699462e-08 -1.764562e-08 1.018917e-08 -5.082485e-09
-1.552319e-08 6.380169e-08 -2.270637e-08 -3.060877e-09 1.128254e-08 -5.220876e-09
1.881172e-08 1.077215e-07 -8.534607e-08 3.727333e-08 -4.887871e-08 -2.659907e-08
-1.582441e-08 7.053362e-08 -3.406742e-08 6.070291e-10 4.487061e-09 -6.000745e-09
6.224284e-08 8.828820e-08 -1.340506e-07 4.279795e-09 -2.250602e-08 2.175881e-09
3.567493e-09 1.387603e-07 -1.063813e-07 1.237028e-07 -1.087070e-07 -7.582451e-08
-1.059091e-08 7.610873e-08 -4.981075e-08 -3.734021e-09 2.929622e-09 -1.389850e-09
-8.789360e-09 7.455723e-08 -6.742017e-08 -1.780275e-08 4.206083e-08 -1.876551e-08
1.098536e-07 6.754348e-08 -1.330432e-07 1.232384e-08 -4.965640e-08 -4.256265e-09
-7.944255e-09 6.094057e-08 -3.540347e-08 -5.438853e-09 3.672445e-08 -9.573126e-09
2.103152e-07 4.756901e-08 -1.914635e-07 9.937491e-08 -2.522328e-08 -1.201900e-08
4.512659e-07 -5.844281e-08 -1.524741e-07 1.953713e-07 -7.866044e-10 -3.368508e-09
1.283728e-07 2.887034e-08 -1.115285e-07 2.050014e-08 -8.086796e-08 -1.931988e-08
-2.543157e-09 6.000698e-08 -3.552892e-08 -6.657423e-09 3.915355e-08 -1.298372e-08
-1.413664e-08 -1.012771e-08 -4.536141e-08 8.850547e-11 -1.086465e-07 -4.450416e-08
1.134548e-07 -2.726677e-09 -1.346218e-07 4.683012e-08 -7.768193e-08 -3.754682e-08
5.577727e-08 8.502266e-08 -1.280055e-07 8.926011e-09 -1.865852e-08 -2.059579e-09
2.757510e-09 7.225611e-08 -4.131130e-08 -2.422986e-08 4.072948e-08 -5.520994e-09
-9.542919e-09 7.521292e-08 -4.063256e-08 -1.772044e-08 3.786982e-08 -1.927160e-08
1.171680e-08 4.335912e-08 -4.761839e-08 -2.287826e-08 5.193781e-08 -2.430437e-08
-1.707606e-08 4.306960e-08 -3.814116e-08 -2.226852e-09 7.153416e-08 -3.309682e-08
6.770532e-08 1.898250e-10 -2.534106e-08 -1.510390e-09 -7.044028e-10 -1.278735e-10
6.540475e-08 2.219942e-09 -2.135839e-08 -9.604797e-10 -1.148396e-09 9.544496e-10
6.512615e-08 1.415780e-09 -2.074611e-08 -3.837327e-09 -8.613203e-10 2.210071e-09
6.611082e-08 1.536740e-09 -2.222271e-08 -2.540783e-09 -1.888753e-09 3.076158e-10
6.071385e-08 5.353741e-09 -2.421309e-08 -9.800652e-09 -1.327171e-09 2.250615e-09
6.856124e-08 1.432877e-09 -2.829066e-08 -8.588334e-09 -1.388473e-09 9.979708e-10
6.168586e-08 4.623093e-09 -2.711029e-08 -1.004011e-08 -3.348233e-09 3.270295e-09
6.242998e-08 2.860200e-09 -2.495182e-08 -9.919351e-09 -3.078437e-09 4.538309e-09
5.090853e-08 1.274367e-08 -2.066156e-08 -1.561908e-09 -1.226785e-10 1.780152e-11
6.249029e-08 4.294541e-09 -2.087424e-08 -1.205625e-09 -1.078710e-10 4.276455e-10
6.394615e-08 2.954763e-09 -2.241425e-08 -7.177278e-09 -1.823571e-09 2.898787e-09
5.905805e-08 6.250304e-09 -2.193066e-08 -1.094552e-09 4.304583e-10 -4.450315e-16
5.427837e-08 9.562108e-09 -2.075889e-08 -6.894219e-10 -6.683647e-10 3.263836e-10
5.830377e-08 7.593520e-09 -2.451835e-08 -8.375736e-09 2.913163e-10 3.993428e-11
5.969406e-08 6.683780e-09 -2.181316e-08 -5.858054e-09 -2.205800e-09 1.841229e-09
-5.079703e-08 1.853277e-07 -1.078332e-07 -4.875686e-08 1.311904e-08 -5.005139e-09
5.677199e-08 9.387192e-09 -2.218550e-08 -6.152533e-09 -1.522365e-09 1.458810e-09
-1.925296e-08 5.819356e-08 -2.817446e-08 5.469453e-10 1.727217e-08 -8.474381e-09
3.578062e-07 -1.306907e-06 2.679507e-06 -1.467325e-07 4.244410e-07 -8.271268e-07
9.539185e-08 -1.154924e-08 -4.375389e-08 -1.938289e-08 -3.386231e-09 1.153778e-08
-4.416072e-07 -1.489901e-06 4.544976e-06 -6.703536e-07 6.992856e-07 -1.121204e-06
1.504895e-07 -1.848798e-08 -6.810983e-08 -5.050871e-08 -5.060534e-09 1.472591e-08
9.034770e-08 -1.603010e-08 -3.547482e-08 -1.001566e-08 -7.994973e-10 1.878865e-09
1.007342e-07 -1.735821e-08 -4.987020e-08 -2.249349e-08 -5.270083e-09 1.424841e-08
1.203019e-07 -2.421353e-08 -4.602153e-08 -4.653662e-09 1.250628e-10 2.530252e-09
-4.583912e-07 -1.238996e-06 3.101642e-06 -6.291438e-07 3.596054e-07 -6.901620e-07
-3.659440e-08 -1.426970e-06 3.572552e-06 3.613696e-08 -2.844413e-08 -1.205170e-07
-3.877502e-07 -2.046923e-06 5.531983e-06 4.694052e-08 1.685380e-08 -1.538424e-06
-5.311983e-07 -1.735281e-06 4.391824e-06 1.859574e-08 4.301615e-07 -1.079493e-06
1.171466e-07 -1.734999e-08 -4.957573e-08 -2.891072e-08 -7.555325e-09 1.758595e-08
-7.195995e-07 -1.742152e-06 4.943455e-06 -1.647116e-07 5.662834e-07 -4.766987e-07
-7.491392e-07 -1.865285e-06 5.911063e-06 -2.263887e-07 1.372341e-07 -7.493569e-07
1.322596e-07 -2.218121e-08 -6.257140e-08 -2.308077e-08 -9.566915e-10 3.556336e-09
1.093377e-07 -2.293275e-08 -5.701855e-08 -1.809744e-08 -4.747854e-09 1.950902e-08
1.087813e-07 -2.285372e-08 -3.780061e-08 1.189034e-09 3.246829e-10 5.443329e-09
-2.066298e-08 7.443511e-08 -4.130980e-08 -3.037844e-09 1.526145e-08 -8.938876e-09
-2.864156e-08 9.174735e-08 -3.034761e-08 -8.020593e-09 4.602082e-08 -1.557427e-08
8.798935e-08 -1.428721e-08 -3.012992e-08 -7.342141e-09 -1.937928e-09 5.236472e-09
8.269496e-08 -1.408983e-08 -2.516816e-08 -1.119281e-08 -1.140581e-09 1.246488e-08
-1.778963e-08 5.123500e-08 -3.056190e-08 2.028309e-09 3.392468e-08 -1.278562e-08
6.527121e-09 8.171768e-08 -6.957741e-08 -3.288242e-09 1.955606e-08 -3.137793e-09
-1.864918e-08 9.424917e-08 -5.484459e-08 -1.038924e-08 2.300076e-08 -1.531714e-08
-2.106004e-08 7.201511e-08 -2.504670e-08 -4.966781e-09 1.628419e-08 -9.378366e-09
-1.899178e-08 7.462503e-08 -3.814204e-08 -1.407391e-08 4.617421e-08 -1.960644e-08
-1.412237e-08 7.724013e-08 -2.929447e-08 -1.315877e-08 3.009713e-08 -1.769072e-08
-1.904962e-08 9.471382e-08 -6.750683e-08 -1.898450e-08 4.491175e-08 -2.157468e-08
-1.472966e-08 7.019282e-08 -3.481677e-08 -1.995359e-08 4.493695e-08 -1.459379e-08
2.459262e-07 1.116403e-07 -3.793498e-08 -3.510607e-07 -1.890588e-09 1.542559e-08
5.960419e-08 1.825410e-07 -1.383190e-07 -1.487313e-07 1.695393e-08 -1.089887e-08
9.007566e-08 1.235487e-07 -1.383468e-07 -1.560870e-07 6.509836e-08 -3.262981e-08
3.644899e-07 3.992313e-08 -1.179591e-07 -3.298621e-07 3.876265e-08 -3.823772e-08
1.607128e-07 -1.338457e-07 1.208881e-06 -6.536951e-07 1.454125e-08 -8.378894e-08
-2.563789e-08 7.156488e-08 -3.100622e-08 5.779960e-09 8.174970e-09 -1.118083e-08
-4.702632e-08 1.297202e-07 -8.009928e-08 1.554371e-08 -7.069840e-08 -1.424299e-08
-2.189521e-08 1.150859e-07 -6.849925e-08 4.709869e-09 -8.904484e-16 -2.409726e-10
-4.659328e-08 1.585746e-07 -8.281723e-08 2.013371e-08 2.837206e-08 -4.324538e-10
-1.982811e-08 1.192171e-07 -6.492421e-08 1.703224e-08 1.270668e-08 5.978990e-09
-2.760757e-08 1.718017e-07 -9.355171e-08 5.218242e-08 7.832168e-09 1.300545e-09
-3.736300e-08 1.109923e-07 -7.223966e-08 4.485336e-09 -6.070903e-08 -2.216807e-08
-2.501111e-08 5.034587e-08 -3.233867e-08 5.484877e-09 4.016982e-08 9.559861e-09
-3.024141e-08 8.573391e-08 -4.238038e-08 2.871793e-09 -3.815347e-08 -1.807514e-08
-4.859451e-08 6.367155e-08 -4.127904e-08 -3.876660e-08 -1.131404e-07 -2.880928e-08
-6.323259e-08 2.704228e-07 -1.200049e-07 5.654376e-08 1.896615e-08 2.905773e-09
-4.811763e-08 1.982156e-07 -1.033517e-07 1.092930e-08 3.825843e-08 -5.942250e-09
-3.768686e-08 1.454891e-07 -8.400402e-08 -1.457725e-09 2.301478e-08 -1.462180e-09
-4.631550e-08 1.630508e-07 -1.034441e-07 1.559337e-08 -7.332874e-08 -2.169235e-08
-4.412636e-08 1.192326e-07 -8.219694e-08 -1.263368e-08 -4.284181e-08 -1.388538e-08
-3.069416e-08 8.949020e-08 -4.913693e-08 -2.437792e-09 -4.550475e-08 -1.154838e-08
-3.017078e-08 1.870724e-07 -1.273041e-07 -7.010404e-08 1.008924e-08 -1.047528e-08
-1.051479e-08 1.137724e-07 -7.751871e-08 -3.768513e-08 2.229352e-08 -1.495812e-08
-2.897165e-08 7.514061e-08 -3.555695e-08 1.063869e-09 -2.877584e-08 -2.192010e-08
-3.373230e-09 1.081095e-07 -9.625871e-08 -4.204710e-08 1.203544e-08 -4.107008e-09
-3.307460e-08 1.746179e-07 -1.078332e-07 -4.460350e-08 8.964385e-09 -8.975991e-09
-3.340337e-08 8.293995e-08 -3.064587e-08 -7.932744e-10 2.583011e-08 -2.901658e-09
-3.950124e-08 1.641186e-07 -1.167578e-07 1.296952e-08 -4.980122e-09 -5.324866e-09
-3.200174e-08 1.269620e-07 -8.791450e-08 2.293924e-08 -5.371950e-08 -3.103821e-08
-7.244660e-08 2.043418e-07 -1.148206e-07 3.686476e-08 -1.071280e-07 -2.513972e-08
-1.187479e-08 1.151239e-07 -7.355533e-08 2.544118e-08 -4.097218e-08 -2.050500e-08
-6.740233e-09 8.336938e-08 -6.009510e-08 -8.685275e-09 3.519383e-09 -1.044597e-09
-1.462029e-08 8.987196e-08 -3.992296e-08 2.055348e-08 -4.645227e-08 -3.261728e-08
-3.650548e-08 9.771905e-08 -7.119671e-08 -9.668147e-10 -8.945695e-09 7.699414e-09
-1.001288e-08 7.377181e-08 -4.386500e-08 3.092390e-08 -7.482087e-08 -3.376860e-08
5.668683e-07 -7.504006e-07 1.077723e-06 3.909766e-07 9.183975e-08 6.636695e-07
-9.735113e-07 -1.247015e-06 4.139447e-06 -6.550783e-07 -4.126952e-08 9.355945e-08
-1.154660e-08 9.278485e-08 -7.629028e-08 2.605749e-08 -4.888294e-08 -2.043819e-08
1.118326e-07 1.765884e-07 -1.425096e-07 -2.124253e-07 2.262753e-08 -1.689066e-08
-3.284847e-08 1.277931e-07 -8.681744e-08 9.097543e-09 -7.045700e-09 -1.364419e-08
3.455080e-08 1.769159e-07 -9.244529e-08 -2.427238e-07 2.229750e-08 -9.639508e-09
3.822146e-08 2.520957e-07 -1.299583e-07 -2.173793e-07 2.393839e-08 -1.530284e-08
-1.025439e-08 2.779824e-07 -1.221035e-07 -2.050975e-07 5.970110e-08 -3.402040e-08
4.601286e-08 2.857214e-07 -7.495102e-08 -2.963365e-07 7.495280e-08 -5.256432e-08
-1.613188e-07 4.254924e-07 1.981612e-08 -2.920983e-07 -2.632611e-09 -1.590677e-08
-2.567029e-07 2.838692e-07 2.992892e-07 -5.248003e-07 -3.023093e-08 6.563347e-08
4.551471e-08 1.443205e-07 5.711811e-07 -5.365412e-07 -1.292308e-07 1.323019e-07
-5.258488e-07 4.292607e-07 1.314740e-06 -4.185696e-07 4.595380e-08 -3.141446e-08
-8.840890e-09 1.302463e-07 -8.747578e-08 4.458461e-08 -6.011211e-08 -3.183909e-08
-2.812719e-08 1.663444e-07 -1.169256e-07 5.802094e-08 -4.013254e-08 -1.136315e-08
7.165898e-08 2.173087e-08 -4.962322e-08 -3.663495e-08 -1.979763e-09 2.514321e-09
5.999998e-08 4.289322e-08 -5.814270e-08 -4.798310e-08 -2.438474e-09 2.616211e-09
5.026539e-08 1.669897e-08 -2.362868e-08 9.071052e-09 2.881753e-09 2.494716e-09
4.560142e-08 1.623135e-08 -2.135047e-08 6.754605e-09 1.493861e-09 1.562038e-09
7.509644e-08 3.396009e-08 -6.058852e-08 -5.293009e-08 -3.186600e-09 2.761437e-09
1.244708e-07 -7.306135e-09 -7.419983e-08 -6.323521e-08 -1.360415e-08 2.757945e-08
8.196257e-08 9.179272e-09 -5.145175e-08 -3.834405e-08 -1.869261e-09 5.173871e-09
8.813391e-08 1.901436e-08 -5.524542e-08 -5.636155e-08 -1.401913e-08 1.825650e-08
5.644632e-08 1.858256e-08 -3.842905e-08 -2.854075e-08 -4.165525e-09 7.797370e-09
6.056326e-08 2.913677e-08 -4.515627e-08 -3.418196e-08 -7.986474e-10 1.305553e-09
5.901789e-08 9.289330e-09 -3.109969e-08 -1.755353e-08 -1.512471e-09 1.875231e-10
4.961492e-08 1.419696e-08 -2.057488e-08 7.851940e-09 1.094476e-09 2.467664e-09
4.740657e-08 1.648146e-08 -1.963795e-08 3.898305e-09 9.097912e-10 -1.826400e-10
-1.597288e-07 4.296506e-07 -1.184928e-07 1.007905e-07 -1.045070e-07 -1.970869e-08
-4.123788e-08 2.497858e-07 -1.501096e-07 8.294292e-08 -1.640845e-08 -1.487371e-08
5.025761e-08 1.439454e-08 -1.997418e-08 1.232162e-09 -1.294612e-10 1.045652e-10
4.912137e-08 1.368809e-08 -2.170148e-08 8.222342e-09 6.443525e-10 2.063240e-09
4.877824e-08 1.688819e-08 -2.154612e-08 8.295432e-09 1.683319e-09 2.337447e-09
5.048696e-08 1.388327e-08 -1.992657e-08 4.505725e-09 6.644958e-10 1.413323e-09
2.922309e-07 -7.279810e-08 -1.105955e-07 -3.324346e-08 -1.122201e-09 1.586711e-08
1.077180e-07 5.619741e-08 -9.188524e-08 -1.085869e-07 -3.701613e-09 5.561846e-09
9.842025e-08 -1.747798e-08 -4.295952e-08 -1.624775e-08 -3.300510e-09 8.403568e-09
1.420148e-07 -2.689581e-08 -5.967648e-08 -1.407153e-08 6.273428e-10 3.562681e-09
1.583019e-07 -1.885925e-08 -8.888026e-08 -6.023318e-08 -4.127611e-09 7.795907e-09
1.239578e-07 -1.182815e-08 -6.987104e-08 -4.358646e-08 -1.481929e-09 4.314797e-09
5.240836e-08 1.371348e-08 -2.157265e-08 6.526806e-09 8.449414e-10 1.710229e-09
5.385719e-08 1.026354e-08 -2.112177e-08 3.627386e-09 5.403399e-10 8.172658e-10
1.168120e-07 -2.171662e-09 -6.522857e-08 -5.500289e-08 -7.891296e-09 2.304667e-08
1.243168e-07 -1.964186e-08 -5.919716e-08 -3.034502e-08 -5.188787e-09 3.004855e-09
1.942812e-07 -4.643089e-08 -1.046892e-07 -5.936958e-08 -5.420516e-09 3.627866e-08
1.285547e-07 -2.273190e-08 -5.540691e-08 -2.640971e-08 -3.557136e-09 1.304250e-08
-5.597839e-08 8.533176e-08 -4.507369e-08 8.163722e-09 -1.351134e-07 -2.307895e-08
2.106453e-07 -4.461337e-08 -8.640233e-08 -4.280530e-08 -5.714843e-09 1.933292e-08
1.617725e-07 -3.594836e-08 -8.074460e-08 -3.298045e-08 4.794395e-09 1.060299e-08
-3.544796e-08 1.065948e-07 -4.196463e-08 1.025381e-09 -6.552283e-10 -8.389199e-09
-4.480061e-08 1.144913e-07 -8.831365e-08 -2.025119e-08 -4.962759e-08 3.583714e-09
2.049003e-08 1.335746e-07 2.233859e-07 -5.715478e-07 -4.529667e-08 3.179925e-08
-3.778520e-08 1.231830e-07 -5.808929e-08 2.038181e-08 -5.324627e-08 -1.236922e-09
3.286288e-07 -1.343243e-07 3.900547e-07 -5.901408e-07 4.080424e-08 7.114320e-08
3.194728e-07 -1.115888e-07 4.484210e-08 -4.275623e-07 -2.925577e-08 4.636289e-08
-3.135691e-08 5.353492e-08 -5.051352e-08 2.116053e-08 -2.307848e-08 3.345087e-09
-3.608322e-08 1.068335e-07 -7.107365e-08 -9.359010e-10 -8.931415e-09 -1.884489e-09
1.637923e-07 7.146034e-08 -6.200190e-08 -3.030447e-07 -3.060101e-08 3.034154e-08
-3.513956e-08 1.029176e-07 -6.890072e-08 2.840146e-09 -5.050618e-09 -9.120062e-09
-3.513845e-08 6.270796e-08 -5.188094e-08 -2.649655e-08 -2.404582e-08 -1.636399e-08
-6.279773e-09 2.435199e-07 1.534085e-08 -4.522085e-07 -5.637352e-08 6.161988e-08
-2.451379e-08 1.007465e-07 -6.787681e-08 2.448408e-08 -4.569118e-08 -2.390815e-08
-4.269513e-09 2.517039e-07 -2.310476e-08 -3.202830e-07 -3.342214e-08 1.091148e-08
-1.598946e-07 4.295842e-07 1.061491e-07 -3.605358e-07 1.176028e-09 -6.726326e-09
-3.727179e-08 1.615884e-07 -1.122191e-07 1.196547e-08 -4.146693e-09 -1.437626e-09
-2.345098e-08 1.576849e-07 -9.887627e-08 5.243989e-08 -7.506211e-08 -2.964835e-08
-5.096730e-08 2.171106e-07 -1.300861e-07 3.612893e-08 -1.345718e-08 -6.740419e-09
-1.958025e-08 1.759250e-07 -1.196669e-07 5.550051e-08 -1.486510e-08 -4.404273e-09
-1.410567e-07 3.474171e-07 -1.071221e-07 -9.159609e-08 6.154160e-08 -2.416836e-09
4.888934e-08 1.699948e-08 -2.501703e-08 9.437726e-09 5.758032e-10 5.608369e-10
-1.271467e-07 3.615290e-07 -1.090720e-07 -7.392900e-08 5.058387e-08 -6.870036e-09
-1.623825e-07 4.731454e-07 -9.910602e-08 -3.309978e-08 4.405812e-08 -7.160076e-09
1.637615e-07 -2.839964e-08 -6.819655e-08 -3.685616e-08 -5.071589e-09 1.568559e-08
1.932862e-07 -3.651547e-08 -8.698880e-08 -5.022333e-08 -1.729907e-09 7.468733e-09
1.946529e-07 -4.643960e-08 -1.053166e-07 -5.923955e-08 -4.784157e-09 1.648309e-08
5.012712e-08 1.281364e-08 -2.381184e-08 9.807398e-09 1.887247e-09 2.692725e-09
5.198005e-08 1.365549e-08 -2.043439e-08 2.071796e-09 5.905314e-10 3.870280e-10
4.958807e-08 1.389417e-08 -2.162799e-08 4.308679e-09 7.853112e-10 9.408170e-10
1.374278e-07 -1.319025e-08 -7.484188e-08 -5.719245e-08 -4.868511e-09 2.651895e-08
2.003058e-07 -4.578818e-08 -9.464317e-08 -5.349663e-08 -1.144843e-08 8.587176e-09
1.171772e-07 -8.024211e-09 -6.757583e-08 -4.818612e-08 -4.540914e-09 6.587883e-09
2.235667e-07 -3.455062e-08 -1.059551e-07 -8.630559e-08 -2.411907e-09 6.223735e-09
1.609366e-07 -6.436876e-09 -9.627255e-08 8.969942e-08 3.327307e-09 6.366615e-09
1.371076e-07 7.805937e-09 -9.331369e-08 1.025960e-07 6.711298e-09 5.747174e-09
1.378399e-07 5.859268e-08 -1.142862e-07 1.464759e-07 1.013750e-08 1.300020e-08
2.646893e-07 -8.813760e-08 -1.181556e-07 6.485717e-08 -5.118446e-11 1.742013e-08
5.039018e-08 1.291545e-08 -2.303541e-08 7.439306e-09 4.762944e-10 4.348179e-10
4.857346e-08 1.890877e-08 -2.273538e-08 -5.758199e-09 -1.848528e-09 2.553608e-09
1.421265e-07 6.475272e-09 -1.123916e-07 1.214737e-07 3.147488e-08 6.222491e-08
2.273522e-07 -4.727119e-08 -1.033148e-07 9.789432e-08 9.361951e-09 1.258831e-08
4.959579e-08 1.301097e-08 -2.428670e-08 -8.038581e-09 -2.691240e-09 4.096677e-09
2.232685e-07 9.624932e-09 -1.178624e-07 2.015445e-07 3.925048e-08 6.498977e-08
2.673372e-07 -7.033968e-08 -1.068220e-07 4.034695e-08 6.949695e-09 4.663532e-08
5.320270e-08 1.680457e-08 -2.856024e-08 -1.195780e-08 -3.353160e-09 6.172618e-09
1.870302e-07 -2.038517e-08 -1.128684e-07 1.069673e-07 -3.330307e-09 1.418575e-08
3.643433e-07 -1.550852e-07 -7.084508e-08 4.436252e-08 -8.718512e-09 6.927796e-08
4.986151e-08 1.440783e-08 -2.515553e-08 -8.903123e-09 -2.242503e-09 3.296587e-09
5.160571e-08 1.546490e-08 -2.575616e-08 -9.171985e-09 -3.149006e-10 1.080955e-09
3.932164e-07 -1.175194e-07 -1.207275e-07 8.566543e-09 -9.276804e-10 2.902782e-08
4.852611e-08 1.846668e-08 -2.446685e-08 -5.620732e-09 -1.187072e-09 1.348568e-09
2.595654e-07 -7.261074e-08 -1.111754e-07 6.508504e-08 1.158375e-08 1.460535e-08
2.485813e-07 -6.835083e-08 -1.082149e-07 7.512692e-08 7.206519e-09 5.491185e-08
2.724183e-07 -8.149636e-08 -1.138584e-07 5.632470e-08 -5.498527e-09 2.516217e-08
2.132728e-07 -1.968649e-08 -1.128684e-07 1.339545e-07 3.590301e-09 1.757203e-08
3.907097e-07 -1.513114e-07 -7.390761e-08 1.504106e-07 1.401359e-08 5.704812e-08
1.747783e-07 -4.700968e-08 -8.061608e-08 2.093262e-08 -5.422706e-09 3.292379e-08
4.890315e-08 1.443810e-08 -2.303947e-08 -3.962237e-09 -6.483315e-10 1.232388e-09
2.036905e-07 -4.015685e-08 -8.618216e-08 4.987714e-08 6.073148e-09 2.119104e-08
1.368743e-07 -2.764657e-08 -5.561058e-08 1.832513e-08 3.498553e-09 2.189862e-08
1.181827e-07 -2.599664e-08 -5.184676e-08 1.002277e-08 -4.930259e-09 5.287477e-09
1.116976e-07 -2.764657e-08 -5.619646e-08 1.395305e-08 2.420370e-09 1.760636e-08
5.596645e-08 8.287856e-09 -2.353881e-08 -6.996897e-09 -4.424061e-10 6.851175e-10
-4.842716e-08 2.355153e-07 -1.348873e-07 7.986346e-08 -6.359981e-08 -2.124275e-08
3.270925e-07 -1.122058e-07 -1.018265e-07 -9.055540e-08 -1.514608e-08 4.672639e-08
4.552923e-08 1.750811e-08 -1.934432e-08 2.165011e-09 6.290168e-11 1.015059e-10
4.405137e-08 1.936405e-08 -1.894802e-08 4.519540e-10 2.723759e-10 5.009201e-12
4.341258e-08 1.967201e-08 -1.886729e-08 1.507141e-10 1.141306e-10 1.831232e-10
4.513055e-08 1.806922e-08 -1.933718e-08 3.587164e-10 -1.393389e-10 1.818363e-10
-3.437931e-08 1.083728e-07 -6.038085e-08 -1.639711e-09 4.013517e-09 -3.166707e-09
-3.282310e-08 1.274350e-07 -7.323081e-08 -1.040779e-09 1.288555e-09 -1.472905e-09
6.997206e-07 -3.645339e-07 2.198068e-07 1.377249e-07 8.504013e-09 2.995209e-08
-3.897391e-10 2.232123e-07 2.782090e-07 5.405731e-07 5.094248e-08 1.030811e-07
-3.451406e-08 1.271058e-07 -7.426861e-08 -1.798682e-09 7.029654e-10 -2.836090e-09
-3.541055e-08 1.201283e-07 -6.811070e-08 -4.283837e-09 9.042040e-09 -2.837932e-09
8.398677e-08 2.111909e-07 3.569319e-07 5.260715e-07 6.621823e-08 2.152391e-08
3.024320e-07 -8.309158e-08 1.519294e-07 4.116333e-07 -1.412672e-08 -3.748134e-08
-1.554854e-07 -2.869722e-07 2.388094e-06 7.216216e-07 2.135799e-08 -4.956501e-08
1.096256e-07 -6.066086e-08 3.486311e-07 5.935867e-07 -1.201972e-07 -6.211556e-08
-1.226882e-06 -5.584697e-07 3.365146e-06 6.915619e-07 -1.036930e-07 -4.807076e-08
4.676816e-07 -3.137884e-07 4.669205e-07 4.576753e-07 -1.154748e-07 -1.561927e-07
-4.778567e-08 1.545342e-07 -8.836617e-08 8.090047e-09 6.032667e-09 -3.483122e-10
4.161997e-07 -9.586857e-07 1.834360e-06 -2.492671e-07 -6.029290e-08 5.759900e-08
-1.624102e-07 -9.922645e-07 2.781860e-06 -5.766718e-07 -7.218042e-08 -3.110958e-07
-4.810111e-07 -1.217226e-06 3.717139e-06 -6.229668e-07 1.625155e-07 -9.148621e-07
3.763207e-07 -1.170977e-06 1.810842e-06 -1.170951e-07 1.340891e-08 2.108220e-08
4.158413e-07 -5.110817e-07 9.854450e-07 -5.740190e-07 1.277556e-07 -3.225976e-07
1.075938e-07 6.220349e-08 -1.414934e-07 9.190476e-08 -9.164841e-08 -7.125362e-08
-3.719120e-08 1.282802e-07 -7.775531e-08 -1.568299e-09 3.191914e-09 -7.497287e-10
-3.436681e-08 1.263734e-07 -7.008412e-08 -5.027129e-09 1.763685e-08 -3.257131e-09
-4.960145e-08 1.945412e-07 -1.009694e-07 -6.920033e-09 1.247596e-08 -1.591254e-10
4.393911e-08 2.966711e-08 -4.579437e-08 -2.020800e-08 2.395778e-09 3.332046e-10
4.474413e-08 2.237124e-08 -3.346172e-08 -1.754865e-08 -6.809000e-09 9.506332e-09
5.263473e-08 9.713670e-08 -1.201599e-07 9.826949e-09 -8.582773e-09 5.335967e-17
4.066416e-08 2.358945e-08 -3.250443e-08 -1.776638e-08 -8.143222e-09 1.118556e-08
3.443970e-08 2.833602e-08 -2.885584e-08 -2.234419e-09 -9.577613e-10 6.592377e-09
6.224284e-08 7.642015e-08 -1.049681e-07 1.728426e-08 -4.192921e-08 -1.477909e-09
4.067044e-08 3.554519e-08 -4.283104e-08 -1.606456e-08 -2.509561e-09 1.037188e-09
-1.176804e-08 1.032629e-07 -6.050185e-08 -2.830583e-08 3.593842e-08 -1.442813e-08
-9.569224e-09 6.237932e-08 -2.817834e-08 -7.714812e-11 2.835474e-08 -1.343766e-09
2.903633e-07 -1.175173e-07 -1.038658e-07 5.099047e-09 1.275094e-09 5.798323e-08
3.008897e-07 -8.049670e-08 -1.048159e-07 -1.468200e-08 -2.756332e-09 4.940469e-08
-1.355431e-08 6.607817e-08 -2.427275e-08 -1.392404e-09 1.139946e-08 -3.748295e-09
-7.864637e-09 7.425528e-08 -4.405756e-08 -4.819758e-09 1.331325e-08 -3.035894e-09
2.248956e-07 -5.587558e-08 -8.935953e-08 1.939887e-08 4.493495e-09 4.426196e-08
1.784105e-07 -4.589424e-08 -8.373436e-08 1.744881e-08 8.915287e-09 8.789698e-09
2.833191e-07 -1.091972e-07 -1.167659e-07 2.922386e-08 -7.435204e-10 6.408300e-09
3.732883e-07 -1.449785e-07 -9.591893e-08 3.372000e-08 -6.513602e-10 6.922558e-08
8.976903e-08 -1.506984e-08 -3.337563e-08 -2.834994e-09 -1.492245e-09 3.197936e-09
-1.540761e-08 6.577092e-08 -2.213928e-08 -3.500924e-10 3.563878e-09 -2.654945e-09
9.612356e-08 -2.047246e-08 -3.751222e-08 -6.144435e-09 -2.025171e-10 1.737688e-09
8.631949e-08 -1.770571e-08 -2.380781e-08 -4.280768e-10 -7.105045e-10 1.088472e-09
-1.129803e-08 7.080299e-08 -3.257870e-08 -6.008492e-10 1.081700e-08 -6.221321e-10
8.735089e-08 -1.556729e-08 -2.919527e-08 -2.181955e-09 8.697420e-11 1.857257e-09
-1.499096e-08 1.423393e-07 -1.077085e-07 3.653532e-08 -5.975163e-09 9.496133e-10
2.184617e-08 -8.834639e-08 -3.103867e-08 7.702022e-09 -3.546067e-08 -1.404127e-07
4.073569e-08 -7.864134e-08 -6.857533e-08 4.239739e-09 -3.642356e-08 1.730403e-08
8.890074e-08 -1.647610e-08 -2.966974e-08 -4.633627e-09 -1.080932e-09 6.468644e-09
4.208109e-07 -1.190268e-07 -1.737754e-07 9.129649e-08 -3.149232e-08 -2.591123e-08
-1.518513e-08 6.315097e-08 -2.517819e-08 -1.258783e-09 3.641333e-09 -1.408991e-09
-1.105441e-08 6.732327e-08 -3.721713e-08 5.986971e-10 1.522314e-08 -2.927299e-09
1.257299e-07 2.638465e-08 -5.422845e-09 -2.009072e-07 1.464224e-07 -1.724175e-07
2.894430e-07 -1.853518e-07 -1.293569e-07 -9.460400e-10 -7.656756e-09 1.444608e-08
1.368028e-07 -1.027934e-08 -1.034361e-07 -1.389036e-07 1.087545e-07 -5.441173e-08
7.012844e-08 -9.964041e-09 -1.481828e-08 -1.228576e-07 1.256586e-07 -1.811718e-07
4.628120e-07 -9.194390e-08 -2.050172e-07 1.232387e-07 -2.139487e-08 -2.415101e-08
3.391459e-07 -6.370960e-08 -1.336788e-07 -1.400308e-07 7.176289e-08 -1.143276e-07
1.471447e-07 -3.350673e-09 -1.071088e-07 -1.304335e-07 9.588248e-08 -7.073372e-08
6.228016e-08 3.609009e-08 -3.498119e-08 -1.252337e-07 1.534857e-07 -1.654395e-07
4.197420e-07 -8.158740e-07 1.879840e-06 5.401998e-07 4.914327e-07 5.437686e-07
3.998440e-07 -1.429444e-07 -1.727975e-07 3.993894e-08 -3.686223e-08 -1.361647e-08
4.805357e-07 -1.920798e-07 -7.659539e-08 5.061434e-08 -1.990413e-08 -7.405949e-08
3.718399e-07 -1.623647e-07 1.895373e-08 9.722384e-08 -1.328627e-08 -5.107416e-08
4.084531e-07 -1.253916e-07 -1.185783e-07 8.208921e-08 -6.815439e-08 -6.294316e-08
3.461850e-08 2.821950e-08 -2.056705e-08 1.857084e-09 2.684400e-10 8.455460e-10
2.317095e-08 4.147406e-08 -2.951807e-08 9.750631e-09 5.467498e-09 3.760944e-09
3.183137e-08 3.277924e-08 -2.417877e-08 1.904611e-09 1.075742e-09 6.414351e-10
3.630437e-08 2.582731e-08 -2.253468e-08 5.280579e-09 1.028093e-10 -6.039720e-10
3.802001e-07 -1.491027e-07 -1.604139e-07 2.850572e-08 -6.553517e-08 -5.165484e-08
2.968497e-07 -1.436805e-07 -8.165657e-08 -2.518900e-08 -9.610393e-09 -6.905676e-08
7.250569e-08 -5.386180e-09 -2.832756e-08 6.336586e-09 1.368501e-09 3.370916e-09
7.319774e-08 -5.641277e-09 -2.418253e-08 1.973361e-09 1.525596e-09 3.886075e-10
2.839620e-08 3.274714e-08 -2.116973e-08 1.719842e-09 1.086984e-09 2.159339e-09
1.973738e-08 4.053750e-08 -2.586054e-08 1.473837e-09 1.451879e-09 5.514681e-09
1.021288e-08 6.073682e-08 -4.285844e-08 2.413357e-08 2.385109e-08 1.242505e-08
4.361297e-09 7.389974e-08 -4.855982e-08 4.914028e-09 -2.232702e-16 -1.247091e-10
6.951679e-08 -1.043193e-09 -2.731513e-08 3.958448e-09 -1.118419e-09 2.777960e-10
8.869454e-08 -9.984478e-08 6.399141e-07 6.684660e-07 -6.100215e-08 -4.920713e-09
6.796133e-08 -5.662661e-10 -2.574376e-08 1.943538e-09 9.023992e-10 4.259206e-10
6.063214e-08 4.267330e-09 -2.072962e-08 -3.887252e-09 -1.680365e-09 1.199087e-09
8.789973e-08 -8.791634e-09 -3.749768e-08 1.239844e-08 1.661021e-09 1.136254e-09
8.044287e-08 -5.736726e-09 -2.922682e-08 9.983614e-09 1.856472e-09 6.106016e-09
3.179382e-09 6.526243e-08 -3.800249e-08 1.675429e-08 1.732703e-08 1.071861e-08
6.818974e-08 -2.515039e-09 -2.500688e-08 7.528462e-09 1.455922e-09 3.149517e-09
7.804915e-08 -9.416587e-09 -3.091053e-08 1.085397e-08 3.348856e-09 1.042309e-08
3.960773e-09 8.674797e-08 -6.413118e-08 2.646887e-08 6.617517e-09 4.512020e-09
8.592686e-08 -1.129047e-08 -3.645941e-08 1.334949e-08 5.151837e-09 1.241575e-08
2.335353e-08 5.129422e-08 -3.623929e-08 1.797464e-08 -2.095331e-09 1.170867e-09
8.446969e-08 -8.809673e-09 -3.429770e-08 1.341535e-08 2.526590e-09 1.139776e-08
7.792249e-08 -5.278098e-09 -3.294846e-08 1.474056e-08 5.635000e-09 1.075116e-08
4.225515e-08 1.901608e-08 -1.875226e-08 8.585118e-10 1.018705e-10 -1.582244e-10
9.178324e-08 -1.431273e-08 -3.528226e-08 1.547383e-08 1.938150e-09 7.939741e-09
4.133020e-08 2.127346e-08 -1.988784e-08 1.301079e-09 3.712837e-10 -4.181735e-10
8.024502e-08 -1.096377e-08 -3.201381e-08 7.504824e-09 1.806059e-09 5.066043e-09
6.717215e-08 -6.307310e-11 -2.157744e-08 -1.229603e-09 -2.496554e-10 7.378118e-10
-3.242626e-08 1.134017e-07 -7.339431e-08 2.530358e-08 -4.985101e-08 -2.195696e-08
4.213040e-08 2.389609e-08 -2.476177e-08 -7.965723e-09 -3.439448e-09 6.041529e-09
3.908582e-08 2.208414e-08 -2.079661e-08 3.620293e-09 -1.852101e-10 1.299966e-10
4.454471e-08 2.095240e-08 -3.561957e-08 -1.659985e-08 -3.537606e-09 4.967274e-09
4.001259e-08 2.185175e-08 -2.002290e-08 7.042608e-10 8.763190e-11 3.961564e-10
4.503227e-08 1.835211e-08 -1.982015e-08 3.496831e-09 -8.197363e-11 -7.296866e-10
4.283780e-08 2.154351e-08 -2.117472e-08 5.059800e-09 -5.182897e-12 2.808971e-10
4.188381e-08 1.979510e-08 -1.864280e-08 1.466951e-10 4.764722e-11 4.440892e-16
4.017803e-08 2.735826e-08 -2.770461e-08 -1.318948e-08 -6.186802e-09 8.623263e-09
4.726256e-08 2.123364e-08 -2.959292e-08 -1.552401e-08 -4.445662e-09 6.686494e-09
3.960203e-08 2.338573e-08 -1.930730e-08 4.078757e-09 1.646186e-09 4.456215e-11
3.532384e-08 2.674665e-08 -2.144240e-08 1.558844e-09 1.407252e-10 1.340920e-10
4.353224e-08 2.006404e-08 -1.907151e-08 1.784297e-09 2.589004e-10 4.945025e-10
4.249696e-08 2.138810e-08 -1.920043e-08 5.247034e-10 1.310838e-10 -2.564042e-11
3.958510e-08 2.445940e-08 -1.939403e-08 3.242996e-09 1.168748e-09 8.629738e-10
3.996546e-08 2.138092e-08 -1.913377e-08 2.477370e-10 5.339506e-11 -2.711989e-10
4.007616e-08 2.843928e-08 -3.320847e-08 -1.384175e-08 -6.339952e-09 1.037025e-08
4.474089e-08 2.078062e-08 -2.905397e-08 -1.664422e-08 -4.726513e-09 6.412844e-09
4.258456e-08 2.671948e-08 -3.510694e-08 -1.951177e-08 -7.699206e-09 8.572654e-09
1.004945e-08 5.467546e-08 -2.981567e-08 1.301292e-08 1.036486e-08 1.050973e-08
5.102550e-07 -2.016425e-07 -1.828771e-07 -4.523303e-08 3.825383e-08 -3.754582e-08
6.404036e-08 5.504258e-09 -2.421209e-08 -7.627034e-09 -1.086921e-09 2.443855e-09
6.551433e-08 1.045938e-09 -2.634183e-08 -5.356191e-09 -1.527449e-09 9.118695e-10
5.871813e-08 6.685770e-09 -2.010965e-08 -8.019673e-09 -3.165886e-09 3.544391e-09
5.932285e-08 9.273782e-09 -2.437185e-08 -1.057795e-08 -2.702557e-09 3.518804e-09
4.353333e-08 2.051837e-08 -2.253881e-08 -2.399169e-09 -1.054532e-09 2.591180e-09
5.159273e-08 1.400303e-08 -2.004908e-08 -4.961871e-10 -1.267272e-10 3.470322e-10
4.430708e-08 2.504341e-08 -2.979151e-08 -4.717876e-09 -5.059579e-10 1.645322e-09
5.282802e-08 1.289011e-08 -1.990022e-08 1.564979e-10 -1.809290e-10 2.391325e-10
4.909683e-08 1.547000e-08 -2.590606e-08 -9.879349e-09 -3.549232e-10 -2.005683e-10
4.736325e-08 2.144425e-08 -2.979602e-08 -1.532444e-08 -4.625790e-09 5.394542e-09
3.969975e-08 2.367961e-08 -2.949957e-08 -1.403989e-08 -5.597158e-09 5.863829e-09
5.328546e-08 1.637130e-08 -2.506581e-08 -1.117750e-08 -2.951284e-09 3.050013e-09
4.445165e-08 1.787536e-08 -2.808529e-08 -1.245142e-08 -3.981380e-09 6.283638e-09
9.186178e-08 -1.849413e-08 -3.194403e-08 8.443105e-10 -4.940723e-10 3.680536e-10
1.055002e-07 -2.226887e-08 -3.985107e-08 2.939696e-09 1.292709e-09 1.503001e-08
2.726943e-07 2.568711e-08 -1.765221e-07 -1.527135e-07 4.303153e-08 -2.558686e-08
1.757383e-07 -4.522882e-09 -6.511391e-08 -1.576040e-07 3.584987e-08 -2.981208e-08
3.686012e-09 8.602417e-08 -7.207742e-08 -1.439983e-08 4.516681e-09 -1.000839e-09
-1.851879e-08 5.160428e-08 -3.133042e-08 -8.200484e-10 4.292871e-08 -1.598177e-08
-1.671590e-08 6.315097e-08 -2.307041e-08 -3.111978e-18 4.992707e-09 -1.249001e-09
9.253049e-08 -1.750447e-08 -3.760773e-08 5.518842e-09 -5.424374e-10 2.596715e-09
-1.477632e-08 5.500195e-08 -3.044961e-08 -4.878556e-10 2.422187e-08 -1.618960e-09
-4.046314e-08 1.278035e-07 -7.330620e-08 1.404478e-08 1.735070e-08 2.971634e-09
-1.403652e-08 7.188127e-08 -3.253589e-08 -9.463115e-10 2.991532e-09 -4.295013e-09
3.062165e-09 7.633890e-08 -6.894343e-08 -8.483839e-09 2.282763e-08 -1.996720e-09
-1.992197e-08 5.100825e-08 -3.133042e-08 -1.841239e-09 4.000953e-08 -1.875765e-08
-2.544886e-08 1.342755e-07 -8.649381e-08 -3.824895e-08 2.816188e-08 -1.439215e-08
-2.089212e-08 1.399478e-07 -1.005498e-07 -5.603796e-08 1.849477e-08 -1.717620e-08
-2.087009e-08 1.245160e-07 -7.951256e-08 -3.207900e-08 7.489876e-09 -3.582463e-09
-4.836731e-08 1.541518e-07 -7.679418e-08 -1.089140e-08 6.309329e-08 8.370534e-09
-3.277411e-08 6.643249e-08 -3.501774e-08 -1.571137e-08 6.693356e-08 1.139980e-08
-3.020615e-08 9.961840e-08 -5.436000e-08 7.027405e-09 4.351589e-08 3.422131e-09
5.709363e-08 8.213997e-09 -2.157693e-08 5.211304e-09 6.357772e-10 3.158633e-09
-4.156720e-08 1.648052e-07 -7.136230e-08 1.207397e-08 4.825851e-08 1.890792e-09
5.178825e-07 -1.752053e-07 -2.266164e-07 -1.339445e-08 1.123061e-08 1.916576e-08
-1.981349e-08 7.771423e-08 -3.429753e-08 1.061850e-08 2.163557e-08 5.986305e-09
-2.063517e-08 1.152902e-07 -5.585707e-08 1.481650e-08 2.671444e-08 9.036919e-09
-2.462043e-08 7.390348e-08 -3.768481e-08 8.524565e-09 2.849414e-08 7.922190e-09
6.128292e-08 6.065326e-09 -2.224174e-08 2.471320e-09 7.355780e-10 -3.836366e-10
5.347582e-08 1.078495e-08 -2.219429e-08 6.033361e-09 1.534435e-09 4.027809e-10
-3.380899e-08 1.065764e-07 -6.617897e-08 1.131434e-08 5.067364e-08 7.245846e-09
-2.008778e-08 5.629877e-08 -3.190383e-08 7.161836e-09 3.663656e-08 1.293106e-08
-3.579004e-08 9.487670e-08 -5.520340e-08 1.507112e-08 4.157651e-08 6.639872e-09
5.024626e-08 1.424807e-08 -2.027160e-08 1.058937e-09 8.081845e-10 1.627709e-10
5.516518e-08 1.072097e-08 -2.046299e-08 1.008637e-09 7.968072e-10 6.405479e-10
-8.796627e-08 1.849294e-07 3.422820e-07 5.455339e-07 7.718031e-09 5.565976e-08
-5.519915e-08 3.623896e-07 -1.092000e-07 2.710595e-07 -3.129489e-08 -5.947382e-09
-1.375903e-07 4.119032e-07 5.160992e-08 2.402510e-07 -7.658031e-08 -6.520539e-08
7.309251e-08 -3.534985e-09 -2.727035e-08 3.563923e-09 1.341897e-09 2.773062e-10
-1.433974e-07 4.120899e-07 -3.648914e-08 2.389824e-07 -3.540014e-08 1.873030e-08
-7.988240e-08 4.063454e-07 -1.194212e-07 2.775019e-07 -2.486918e-08 1.190649e-08
-9.223088e-08 3.885813e-07 -6.618044e-08 3.113469e-07 -5.367625e-08 -5.397170e-09
2.490039e-08 -5.752013e-08 -5.558516e-08 1.116483e-08 -3.725352e-08 -6.991299e-08
6.061596e-07 -2.733596e-07 -1.975025e-07 5.887322e-08 -6.093515e-09 -2.731307e-08
-1.201920e-09 2.920317e-07 -1.331130e-07 2.037042e-07 -5.767393e-08 -3.946655e-08
-5.126878e-08 2.930883e-07 -1.162476e-07 2.084435e-07 -5.339515e-08 -2.601417e-08
2.407046e-07 -2.599675e-07 1.024706e-07 1.544818e-07 -5.535760e-08 -1.646289e-07
4.679392e-07 -2.595490e-07 7.683902e-08 1.051023e-07 -4.041241e-08 -7.564417e-08
4.929432e-07 -2.133228e-07 -1.465479e-07 5.105775e-08 -3.112127e-08 -6.909332e-08
-1.340658e-07 3.966823e-07 -1.155357e-07 1.521443e-07 -2.934902e-09 -8.701647e-09
3.115411e-08 -6.525598e-08 -2.822788e-09 -1.921469e-08 -1.442804e-08 -6.765683e-08
7.232383e-07 -4.082237e-07 1.832444e-07 5.734150e-08 -6.381204e-08 -8.335353e-08
3.862646e-08 -8.205540e-08 -4.021809e-09 -2.055455e-08 -9.487466e-09 -6.865017e-08
-1.340603e-07 4.477780e-07 -8.056069e-08 1.739195e-07 -4.521213e-08 -2.694750e-08
5.991438e-09 -5.128470e-08 -1.405606e-08 1.307537e-08 -8.083747e-08 -2.830611e-08
6.569349e-08 8.151687e-08 -5.230201e-08 1.289023e-07 -1.519330e-07 -1.340363e-07
-6.508755e-08 3.597747e-07 -1.279087e-07 1.656177e-07 -1.700705e-08 -6.530257e-09
3.917130e-07 -1.245133e-07 3.257367e-08 2.055960e-07 -3.580212e-08 -5.752185e-08
1.533913e-07 4.456779e-08 -1.518073e-07 4.460099e-08 -6.071092e-08 -1.883959e-08
-6.872232e-08 3.013587e-07 -1.353661e-07 1.367872e-07 -5.001445e-08 -1.857644e-08
5.969309e-08 4.868508e-09 -2.229063e-08 -4.637628e-09 -9.115119e-10 9.962121e-10
5.030316e-07 -1.585786e-07 -1.950792e-07 2.208553e-08 -3.726202e-08 -2.082785e-08
5.595490e-08 9.462939e-09 -2.055115e-08 -1.275462e-09 -3.472995e-10 -2.649607e-10
-2.402173e-08 6.418518e-08 -3.313396e-08 4.149446e-10 -5.174754e-09 -9.483295e-09
9.865438e-08 1.875607e-07 3.204526e-07 5.756475e-07 -6.077103e-08 -3.891828e-08
-3.105091e-08 8.025945e-08 -4.347728e-08 9.768364e-10 -2.170235e-08 -1.975804e-08
6.008208e-08 6.081712e-09 -2.154567e-08 -3.366937e-09 -1.162699e-09 1.349168e-09
5.855583e-08 6.741585e-09 -2.089054e-08 -7.842953e-10 -6.031120e-10 5.642764e-10
-6.614526e-07 4.358021e-07 1.444888e-06 4.187511e-07 3.980896e-08 -5.328939e-08
-2.281420e-08 6.076032e-08 -2.845678e-08 -1.710460e-09 -2.029026e-08 -1.628319e-08
-5.902354e-07 2.130079e-07 1.167881e-06 6.312366e-07 -5.765216e-07 -1.070283e-07
-5.650170e-07 1.967530e-07 1.888163e-06 6.399217e-07 -4.888688e-07 -3.425949e-07
-3.431297e-07 1.588729e-07 1.215025e-06 6.614565e-07 -1.628483e-07 -2.114741e-07
-6.213520e-07 1.971418e-07 1.585316e-06 6.062557e-07 2.237447e-08 8.596525e-08
-4.854484e-07 3.867205e-07 9.534493e-07 5.115215e-07 -1.433326e-07 -5.763513e-08
-7.060426e-07 2.209023e-07 1.444888e-06 5.982970e-07 2.096983e-08 -2.435483e-08
1.999112e-08 4.016391e-08 -2.594782e-08 1.402514e-08 6.596444e-09 7.600191e-09
2.086030e-08 3.979199e-08 -2.560300e-08 1.455880e-08 1.094248e-08 1.050709e-08
3.092319e-08 3.322472e-08 -2.807487e-08 1.729382e-08 5.958366e-09 5.081119e-09
1.738093e-07 -3.233170e-08 -9.765049e-08 -7.652304e-08 -5.510298e-09 1.694762e-08
3.175978e-08 2.886225e-08 -2.435288e-08 1.284001e-08 5.669717e-09 2.889158e-09
2.950623e-07 -4.910423e-08 -1.236975e-07 -1.751023e-07 -1.538904e-08 2.016826e-08
3.425540e-08 3.316660e-08 -2.832290e-08 1.701394e-08 6.080039e-09 5.843649e-09
-1.696777e-09 1.105696e-07 -8.587919e-08 -3.992379e-08 3.063297e-09 -9.982750e-09
-5.888169e-09 1.132538e-07 -8.079447e-08 -3.828751e-08 1.144513e-08 1.557614e-09
3.110477e-07 -9.992946e-08 6.399141e-07 5.622924e-07 3.408186e-09 -7.233796e-08
-2.746575e-08 6.983863e-08 -4.212367e-08 -3.067128e-08 -9.277256e-08 4.199154e-08
-5.302270e-10 2.009023e-07 -1.199717e-07 -1.717432e-07 -6.701067e-08 4.026074e-08
4.679740e-09 7.293708e-08 -5.748025e-08 -2.074866e-08 4.212269e-08 -1.577442e-08
-2.921329e-09 7.994848e-08 -4.581403e-08 -3.346472e-08 8.127136e-08 -4.490592e-08
6.906546e-09 3.435815e-08 -2.395676e-08 -9.113549e-09 -1.890606e-08 1.761080e-08
3.862464e-09 1.389685e-07 -1.345510e-07 6.854399e-08 -5.144085e-09 -3.985509e-10
6.777529e-09 1.009753e-07 -8.920175e-08 -3.626207e-08 6.273844e-09 -2.237673e-09
-8.148063e-09 9.983267e-08 -8.465298e-08 2.535241e-08 -4.000733e-08 -2.126868e-08
-1.479765e-08 1.003414e-07 -6.422557e-08 1.948842e-08 -3.062721e-08 -2.297698e-08
-4.343517e-09 1.027936e-07 -7.453983e-08 1.423305e-08 -9.152383e-09 -5.308243e-09
-3.884668e-09 7.515021e-08 -4.458632e-08 2.675806e-08 -6.631606e-08 -3.160197e-08
-2.167918e-08 1.467922e-07 -1.037540e-07 3.770183e-08 -2.735240e-08 -2.111353e-08
4.480708e-08 1.732594e-08 -2.059896e-08 6.689881e-09 6.190582e-10 9.326495e-10
-1.094165e-07 4.206580e-07 -1.140032e-07 1.267667e-07 -1.867011e-08 3.542836e-09
-1.210702e-08 9.907397e-08 -6.825166e-08 2.515198e-09 -4.441953e-09 -7.122998e-09
4.459919e-08 1.774550e-08 -1.959381e-08 1.379530e-09 -1.312721e-10 5.743251e-10
-1.665748e-08 2.088310e-07 -1.421004e-07 8.485078e-08 -1.431436e-08 -1.347311e-08
-1.491094e-09 1.085338e-07 -8.900912e-08 4.670621e-08 -5.951537e-08 -2.832073e-08
-6.596549e-09 5.287393e-08 -4.981504e-08 1.177377e-08 -5.363023e-08 -2.690310e-08
4.222259e-08 2.143441e-08 -1.940225e-08 1.563689e-09 2.177647e-10 -4.482117e-10
4.907179e-08 1.545803e-07 -1.501596e-07 1.115291e-07 -6.920823e-09 -1.462210e-08
4.649320e-08 4.477661e-08 -1.030889e-07 6.143785e-09 -6.943682e-08 -3.856829e-09
4.649320e-08 4.699333e-08 -5.714013e-08 6.742034e-09 -7.121060e-08 -6.343285e-09
4.457400e-08 1.850139e-08 -1.900041e-08 8.684958e-10 -1.562851e-10 -4.316725e-11
1.742938e-08 4.881468e-08 -4.468658e-08 -2.910491e-08 -2.812904e-08 2.692068e-08
1.960030e-08 3.393429e-08 -2.729187e-08 -3.646595e-09 -3.707827e-09 9.565774e-09
4.419628e-08 1.869569e-08 -1.882394e-08 7.541150e-10 2.950349e-11 -1.296849e-10
4.820749e-08 1.813699e-08 -2.009917e-08 2.985270e-09 2.086657e-10 2.110672e-10
4.509155e-08 1.868884e-08 -2.107738e-08 5.536697e-09 2.321831e-10 1.462866e-10
4.382893e-08 2.019580e-08 -1.905284e-08 1.037477e-09 3.265704e-10 1.782390e-10
-1.021581e-08 8.587405e-08 -6.125102e-08 -1.301773e-08 6.272725e-09 -1.057256e-09
-1.520749e-08 6.577092e-08 -3.431699e-08 -5.143219e-10 2.149150e-09 -2.499824e-09
-1.203592e-08 7.485472e-08 -3.825605e-08 -6.560548e-09 1.729145e-08 -6.962374e-09
-1.379252e-07 3.655288e-07 -1.566938e-07 -1.216947e-08 -2.867370e-08 1.626575e-09
-3.367321e-08 1.107553e-07 -4.131119e-08 -1.435380e-08 -8.568440e-08 3.005535e-08
1.576496e-09 8.487974e-08 -5.658603e-08 -1.011106e-08 1.153926e-08 -1.991072e-09
6.267621e-08 1.931183e-09 -2.393456e-08 5.890328e-10 8.569312e-10 5.045146e-10
6.519467e-08 5.828813e-10 -2.405104e-08 4.237505e-09 1.638420e-09 2.374182e-09
5.215052e-08 1.263107e-08 -2.011830e-08 8.852297e-10 5.951137e-10 4.243032e-10
6.686131e-08 2.330125e-09 -2.532231e-08 2.173601e-09 9.540643e-10 1.603777e-09
6.666816e-08 3.553282e-10 -2.578031e-08 1.941512e-09 6.352967e-10 4.262654e-11
6.990575e-09 7.330200e-08 -6.701497e-08 -1.983029e-08 4.239952e-08 -1.514232e-08
-1.588863e-08 8.130656e-08 -5.107754e-08 -6.836357e-09 1.773709e-08 -1.294359e-08
6.017533e-08 6.139956e-09 -2.091648e-08 1.041833e-09 9.050790e-10 8.212593e-10
6.268799e-08 3.739566e-09 -2.153823e-08 3.083360e-09 1.493946e-09 6.909859e-10
2.497080e-08 9.917992e-08 -1.026080e-07 -3.688234e-08 1.386408e-08 -2.428168e-09
-1.548513e-08 7.324806e-08 -3.324340e-08 -6.458413e-09 1.418093e-08 -8.825940e-09
6.192643e-08 3.747052e-09 -2.284684e-08 5.593774e-09 8.784497e-10 1.907916e-09
6.253812e-08 1.939642e-09 -2.269858e-08 7.274634e-10 6.531881e-10 7.930034e-10
5.443509e-09 7.811839e-08 -5.938088e-08 -1.856848e-08 4.143382e-08 -1.661747e-08
-9.954730e-09 6.442008e-08 -4.380363e-08 -5.178273e-09 2.398552e-08 -2.170305e-09
7.506821e-07 -3.202535e-07 1.175216e-07 -1.623367e-07 -8.366462e-10 5.581470e-08
5.750726e-08 8.312804e-09 -2.110677e-08 8.649584e-10 1.166779e-09 4.967195e-10
6.120501e-07 -3.969618e-07 3.554193e-07 -1.615588e-07 6.981071e-09 -6.380783e-08
5.739630e-08 8.243743e-09 -2.111040e-08 2.840557e-09 8.954600e-10 4.740789e-10
5.599516e-07 -2.413459e-07 2.769326e-07 -3.448820e-07 -3.837409e-08 7.010967e-08
5.395157e-07 -2.843166e-07 3.003759e-07 -3.896731e-07 -8.196123e-09 6.733392e-08
4.498068e-07 -2.593907e-07 8.610956e-08 -2.604193e-07 2.738449e-09 1.089709e-08
8.837784e-08 -1.527298e-08 -2.883710e-08 -5.551584e-09 -3.195609e-09 6.203740e-09
5.449696e-07 -2.384191e-07 8.841095e-08 -3.057473e-07 -1.731466e-08 6.112477e-08
6.249030e-08 4.292268e-09 -2.114236e-08 -8.264456e-10 -1.191307e-09 4.745702e-10
7.964345e-08 -1.127118e-08 -2.463935e-08 -1.531043e-09 -1.708797e-10 1.226580e-09
7.598392e-08 -7.098157e-09 -2.204290e-08 -4.305007e-09 -1.298334e-09 3.806582e-09
6.746335e-08 5.022667e-10 -2.564517e-08 -3.406936e-09 7.987393e-10 5.462342e-11
7.603128e-08 -8.390719e-09 -2.336768e-08 -1.437519e-09 -3.006948e-10 1.809399e-09
2.983348e-07 -1.491705e-07 1.305558e-07 -4.873453e-07 4.552451e-08 -2.966041e-09
8.108434e-08 -1.389802e-08 -2.306880e-08 -3.639926e-09 -1.882525e-09 4.065343e-09
5.930002e-08 5.895434e-09 -2.079515e-08 -6.979519e-10 -3.966662e-10 2.119140e-10
7.784892e-08 -9.075890e-09 -2.533359e-08 -1.222393e-08 -2.333739e-09 1.076335e-08
9.954108e-08 -1.664556e-08 -4.187834e-08 -8.819899e-09 -1.267041e-09 1.612769e-09
8.631258e-08 -1.239034e-08 -3.712373e-08 -1.055228e-08 -5.143896e-09 1.371089e-08
6.002294e-08 5.899942e-09 -2.180663e-08 -9.464938e-09 -1.926984e-09 4.815269e-09
6.630511e-08 1.636773e-09 -2.427348e-08 -2.752622e-09 -4.524749e-10 -5.545121e-10
7.865560e-08 -1.356869e-08 -2.564644e-08 -5.946830e-09 -2.416954e-09 5.940449e-09
8.381130e-08 -1.532652e-08 -2.537885e-08 -1.537710e-09 -5.366560e-10 1.613135e-09
5.394388e-07 -3.503566e-07 4.645308e-07 -4.422059e-07 2.111205e-08 3.747019e-08
-1.406894e-08 1.147150e-07 -8.133286e-08 5.190543e-09 8.727233e-16 -1.488787e-09
-1.469355e-08 1.269372e-07 -8.085362e-08 -5.573558e-08 -4.814249e-08 2.442790e-08
-1.863376e-08 1.380225e-07 -9.342584e-08 -4.673493e-08 -2.359022e-08 1.620330e-08
6.907641e-09 1.191927e-07 -8.580134e-08 -6.139844e-08 -6.042730e-08 3.479110e-08
6.480845e-08 2.531900e-09 -2.402576e-08 -1.152901e-08 -3.158766e-09 5.683641e-09
-1.627621e-08 1.072077e-07 -8.628773e-08 1.642427e-08 -1.716865e-08 -1.101824e-08
-3.244191e-09 7.794176e-08 -6.195493e-08 -3.719152e-08 -4.729426e-08 2.308108e-08
-6.302814e-08 3.545661e-07 -1.318001e-07 -2.248376e-07 -3.543951e-08 1.229729e-08
-4.073286e-09 7.857205e-08 -7.556343e-08 -3.879228e-08 -4.775129e-08 3.250189e-08
-1.297431e-08 7.487364e-08 -5.516761e-08 2.601638e-09 -2.205337e-08 -7.687427e-09
2.205932e-09 9.960708e-08 -6.859545e-08 -3.658434e-08 -3.747516e-08 2.704473e-08
2.954507e-08 1.589197e-07 -1.151413e-07 -1.413245e-07 -4.061228e-08 3.154382e-08
7.108945e-09 1.262194e-07 -1.154572e-07 -9.171334e-08 -5.320449e-08 2.940207e-08
-3.508007e-08 1.598234e-07 -1.125970e-07 1.282673e-08 -2.546930e-09 -5.448398e-10
-1.274825e-07 3.739910e-07 -1.518121e-07 -2.292045e-08 -2.164340e-08 -5.549035e-09
4.319863e-08 1.051488e-07 -1.040503e-07 -1.210109e-07 -1.067995e-08 1.914239e-08
-4.782507e-08 1.927469e-07 -1.223362e-07 1.434984e-09 4.422327e-16 -6.469129e-10
1.980609e-08 1.292388e-07 -9.906545e-08 -8.506480e-08 -2.297534e-08 1.843500e-08
4.016353e-08 1.125281e-07 -1.025337e-07 -9.347928e-08 -5.686193e-09 8.309010e-09
4.407443e-08 1.046047e-07 -1.029334e-07 -9.921712e-08 -3.393753e-08 2.369456e-08
1.039310e-07 1.297529e-08 -6.645084e-08 -5.926433e-08 -5.814912e-09 1.084560e-08
9.116226e-08 1.807839e-09 -6.823517e-08 -4.527178e-08 -1.030102e-08 1.617536e-08
-3.075059e-08 3.266050e-08 -3.714576e-08 -7.099976e-09 -7.561903e-08 -1.703761e-08
-4.897579e-08 1.811715e-07 -9.232497e-08 7.040087e-09 -6.945321e-08 -3.770970e-09
-4.598134e-08 1.858984e-07 -1.205031e-07 2.956422e-09 -2.881052e-09 -2.688230e-09
1.010373e-07 5.278400e-09 -7.087632e-08 -5.446538e-08 -1.305775e-08 1.487649e-08
-4.449441e-08 1.523666e-07 -1.002040e-07 4.241311e-09 -6.550093e-09 -6.170749e-09
-8.578825e-08 1.996348e-07 -1.181594e-07 1.709163e-08 -1.176387e-07 -9.093529e-09
-9.910735e-09 8.806537e-08 -6.338455e-08 3.161338e-09 -4.776505e-09 -2.853972e-09
-1.980260e-11 1.088439e-07 -9.545249e-08 1.953994e-08 -8.804286e-09 -5.612312e-09
-1.507557e-08 8.753722e-08 -4.602660e-08 1.749040e-08 -4.005268e-08 -2.295036e-08
-2.374943e-08 5.792479e-08 -3.372708e-08 -2.220007e-09 -3.090990e-08 -1.380079e-08
-2.281119e-08 5.720367e-08 -3.742078e-08 -1.707969e-09 -2.825573e-08 -1.611408e-08
1.280186e-07 -6.690814e-09 -7.578250e-08 -5.353233e-08 -3.609246e-09 1.253941e-08
2.698635e-08 5.935055e-08 -4.864910e-08 -1.711545e-08 -3.856664e-09 7.347526e-09
1.000409e-07 -6.542541e-10 -6.461460e-08 -4.194407e-08 -2.720861e-09 9.507277e-10
9.807012e-08 5.876985e-09 -5.551471e-08 -4.252283e-08 -5.745447e-09 5.405614e-09
-1.945659e-07 3.760540e-07 2.220868e-07 5.029435e-07 -7.189973e-08 -8.013428e-08
9.569133e-08 -5.179847e-09 -4.902345e-08 -3.177005e-08 -2.207838e-09 1.330348e-08
9.806437e-08 -6.558728e-10 -5.445860e-08 -3.801349e-08 1.045335e-09 5.301316e-09
1.121315e-07 -6.115071e-09 -6.461460e-08 -5.188170e-08 -1.881544e-09 4.451102e-09
7.460383e-08 -9.464731e-09 -2.226264e-08 9.561761e-09 3.585152e-09 9.002994e-09
5.750726e-08 6.417415e-09 -2.163509e-08 6.387122e-10 1.390596e-10 4.019962e-10
8.571211e-08 -9.756730e-09 -3.511137e-08 7.445700e-09 3.257507e-10 2.213979e-09
9.773105e-08 -1.864264e-08 -4.618552e-08 1.019051e-08 -1.290136e-09 -2.966061e-10
9.072670e-08 -8.178975e-09 -4.180855e-08 2.099202e-08 3.482459e-09 1.077195e-08
8.647035e-08 -1.431273e-08 -3.752515e-08 1.464593e-08 3.246283e-09 1.284683e-08
8.269085e-08 -1.165417e-08 -2.573219e-08 7.738807e-09 8.844643e-11 1.009064e-08
9.023776e-08 -1.457351e-10 -4.687692e-08 3.270526e-08 5.444380e-09 1.031528e-08
1.026964e-07 -4.086563e-09 -5.262155e-08 3.570571e-08 5.311571e-09 3.649936e-09
8.526957e-08 -5.345518e-09 -4.616187e-08 2.504802e-08 6.749245e-09 1.091194e-08
-1.332998e-07 4.413681e-07 -6.519858e-08 -2.511426e-07 2.558515e-08 -2.398095e-08
1.055464e-07 -1.622725e-09 -7.184840e-08 5.226013e-08 1.470274e-08 2.452422e-08
1.016703e-07 -1.431273e-08 -5.171339e-08 1.945914e-08 1.838856e-09 1.441738e-08
-3.221890e-07 5.694914e-07 1.183161e-07 -9.987955e-08 5.707761e-08 -5.779827e-08
1.152053e-07 -1.595045e-08 -5.829118e-08 3.427836e-08 5.387880e-10 1.873076e-08
7.642512e-08 3.026125e-08 -8.152461e-08 -8.725353e-08 -1.895650e-08 2.627889e-08
5.468068e-08 5.668354e-08 -7.916952e-08 -6.374636e-08 -2.122920e-08 2.425530e-08
5.269155e-08 5.555082e-08 -8.154548e-08 -7.520913e-08 -3.448051e-09 4.690915e-09
5.708985e-08 4.649430e-08 -7.043097e-08 -5.284660e-08 -8.164554e-09 5.684001e-09
-1.032543e-06 4.160930e-07 1.854033e-06 -1.848770e-07 7.348721e-08 1.451717e-07
-1.440270e-07 4.100895e-07 -4.538319e-08 -1.323645e-07 2.132570e-08 -2.180093e-08
-2.980945e-07 5.774437e-07 6.277675e-08 -3.636689e-08 2.600333e-08 -3.041606e-08
1.303244e-08 1.129216e-07 -1.113758e-07 -1.018717e-07 -4.164510e-08 2.432760e-08
5.084925e-09 1.897048e-07 -1.313424e-07 -1.449820e-07 -1.995385e-08 8.438277e-09
-2.356866e-07 3.270375e-07 1.978659e-07 -4.066968e-07 -2.271973e-08 3.205503e-08
-1.387142e-08 1.769087e-07 -1.182887e-07 -8.169743e-08 -3.907700e-08 2.873112e-08
-1.904691e-08 1.386362e-07 -1.076764e-07 -4.664921e-08 -6.615778e-09 4.233708e-09
-1.763712e-07 4.896202e-07 -1.209587e-07 9.904455e-09 1.934839e-08 1.135033e-09
4.131418e-08 1.092650e-07 -1.067327e-07 -1.231794e-07 -3.373958e-08 2.808351e-08
5.185214e-08 1.266011e-07 -1.239865e-07 -1.763116e-07 -1.069716e-08 1.974815e-08
3.353016e-08 1.299942e-07 -1.180402e-07 -1.246187e-07 -1.228923e-08 1.173459e-08
2.165653e-08 1.934180e-07 -1.240306e-07 -1.737099e-07 -6.653591e-08 3.414757e-08
-1.741735e-07 4.735925e-07 -1.092159e-07 -1.944047e-08 3.146713e-08 -3.201112e-09
-2.112871e-07 4.598218e-07 -6.977853e-08 -5.885529e-08 4.100432e-08 -7.915303e-09
-1.508922e-08 1.345326e-07 -1.064036e-07 -5.608852e-08 -3.779521e-08 1.990518e-08
9.297055e-08 -9.946963e-09 -4.224523e-08 -2.109160e-08 -1.824440e-09 1.011307e-08
7.245002e-08 -2.772011e-09 -2.634875e-08 -3.096175e-09 -5.668017e-10 -5.436288e-10
7.287292e-08 -5.354882e-09 -2.393578e-08 -7.332918e-09 -3.336636e-09 3.420907e-09
1.080403e-07 -2.220799e-08 -3.673988e-08 6.296689e-10 -8.457598e-10 1.006805e-08
8.681541e-08 -1.624415e-08 -2.446978e-08 -7.280613e-09 -1.529997e-09 1.023445e-08
8.092473e-08 -1.350338e-08 -2.630705e-08 -6.837282e-09 -5.790126e-09 9.933094e-09
8.973473e-08 -6.473876e-09 -4.255565e-08 -2.330288e-08 -5.197621e-10 1.990073e-09
4.746039e-08 8.649020e-08 -1.013258e-07 -9.946377e-08 -8.856608e-09 7.193860e-09
2.938166e-08 8.924222e-08 -9.031702e-08 -7.888491e-08 -2.171815e-08 2.404110e-08
4.745949e-08 8.915772e-08 -8.839771e-08 -7.894930e-08 -6.933977e-09 4.389896e-09
-1.698935e-07 4.861497e-07 -1.027789e-07 -6.063842e-08 5.759466e-08 -5.258143e-09
7.797533e-08 4.402241e-08 -8.317979e-08 -7.777881e-08 -1.370598e-08 2.697491e-09
-1.179285e-08 7.587613e-08 -6.452604e-08 -1.649311e-08 -2.196481e-08 2.045364e-08
4.438413e-08 6.676429e-08 -7.666765e-08 -6.054652e-08 1.019868e-10 1.121033e-08
1.294473e-09 7.687487e-08 -7.162484e-08 -2.278174e-08 -1.925788e-08 1.913416e-08
-6.162122e-09 8.852240e-08 -5.878699e-08 -6.730764e-09 -1.237870e-08 2.083666e-08
-6.519411e-09 6.790142e-08 -4.183411e-08 -8.841164e-09 -1.665204e-08 1.912961e-08
6.244946e-08 7.674002e-09 -2.810126e-08 1.405856e-08 4.528915e-09 4.690848e-09
-1.768523e-09 5.093032e-08 -3.554980e-08 -1.073553e-08 -8.137041e-09 1.581811e-08
6.021072e-08 2.709474e-08 -5.260223e-08 4.873137e-08 1.334221e-08 6.263581e-09
-2.807282e-07 5.349977e-08 7.591782e-07 -7.071609e-07 -7.049243e-08 1.574608e-07
-6.268820e-08 1.663083e-07 -1.083323e-07 -1.523667e-08 -1.227143e-07 1.361437e-08
-1.438656e-08 9.110527e-08 -4.749333e-08 4.397182e-09 1.050682e-08 9.310823e-09
-2.097565e-08 7.458451e-08 -4.299410e-08 -3.710637e-10 5.352087e-09 5.857924e-09
-3.319569e-09 5.165312e-08 -2.973665e-08 2.752445e-09 7.039770e-09 9.597526e-09
-1.222876e-07 3.322576e-07 -1.426169e-07 9.033455e-08 -2.868370e-08 8.228070e-10
-4.778111e-07 6.315092e-07 4.695067e-07 -1.128499e-07 -8.816166e-08 1.095711e-10
-4.910679e-07 6.287504e-07 2.920848e-07 9.964667e-08 6.413858e-09 4.518935e-09
-7.792292e-09 9.874846e-08 -5.978191e-08 2.961186e-08 2.905400e-08 1.459690e-08
-4.742258e-08 1.463501e-07 -8.448408e-08 3.192710e-09 -2.710400e-08 -3.317535e-09
-1.555568e-08 7.647774e-08 -5.281119e-08 1.188294e-08 2.245352e-08 1.070869e-08
-4.908278e-09 7.685077e-08 -4.855897e-08 4.480838e-09 3.082811e-09 7.457794e-09
-1.144966e-08 7.807310e-08 -4.797988e-08 1.935496e-08 3.165436e-08 1.240387e-08
-1.975105e-07 3.922125e-07 -7.930243e-08 5.742531e-08 -1.166438e-07 -1.059663e-08
2.239973e-07 -6.551300e-08 -9.542956e-08 2.290719e-08 1.235860e-08 4.176228e-08
1.217203e-07 -2.803936e-08 -5.343746e-08 2.497117e-09 -5.267010e-09 4.780813e-09
6.251048e-08 4.067710e-09 -2.210240e-08 -6.525962e-09 -2.503929e-09 2.065829e-09
-1.005323e-08 1.017987e-07 -5.794338e-08 2.405251e-08 3.481953e-08 1.468476e-08
1.117892e-07 -1.864264e-08 -4.618552e-08 1.243792e-08 -2.268525e-10 3.028935e-09
5.475327e-08 9.475213e-08 -1.053159e-07 1.412729e-07 3.800546e-08 3.164569e-08
6.618261e-08 1.137284e-07 -1.198392e-07 1.620546e-07 2.797718e-08 1.623878e-08
5.338200e-08 1.471247e-07 -1.057391e-07 1.831071e-07 4.945329e-08 3.315841e-08
6.236366e-08 4.118011e-09 -2.335607e-08 -5.500061e-09 -1.716259e-09 1.210108e-09
1.787986e-07 1.070862e-07 -9.864237e-08 2.940017e-07 1.104332e-08 1.384453e-08
-1.001672e-08 1.201089e-07 -6.843283e-08 4.627723e-08 4.483779e-08 2.037215e-08
-1.679231e-08 8.738817e-08 -6.688169e-08 2.901448e-08 4.063499e-08 2.036298e-08
-2.236954e-08 8.431952e-08 -5.520819e-08 7.480017e-09 1.846732e-08 6.982973e-09
-2.007499e-08 8.482237e-08 -5.349504e-08 2.516617e-08 3.423969e-08 1.488606e-08
2.707566e-09 1.019886e-07 -6.055156e-08 4.441015e-08 3.302950e-08 1.669830e-08
3.758062e-07 -1.180987e-07 1.512637e-07 -4.377163e-07 1.160037e-08 -5.173244e-08
-8.414680e-08 3.427637e-07 6.806092e-08 -4.555909e-07 -5.031877e-08 2.616437e-08
-6.030509e-08 3.281246e-07 7.136351e-08 -3.479784e-07 -3.493601e-08 1.096646e-08
-3.377603e-08 2.605148e-07 -1.178859e-07 -1.831039e-07 -8.021794e-08 2.842724e-08
1.465455e-07 -3.528768e-08 -6.841150e-08 6.018960e-09 6.961379e-09 6.279758e-09
-3.898837e-08 7.867948e-08 -3.251469e-08 -5.114147e-09 6.683935e-08 -1.704482e-08
1.768115e-07 -3.761405e-08 -7.267627e-08 -2.046624e-08 -2.533887e-09 1.450820e-08
-3.360550e-08 1.366576e-07 -7.207269e-08 -3.031739e-08 5.077619e-08 -7.904472e-09
-1.614973e-07 3.916837e-07 -4.263726e-08 1.769306e-07 3.162664e-08 -6.872307e-09
-9.931787e-08 3.358439e-07 -1.163742e-07 1.045056e-07 1.809637e-08 6.474832e-09
-1.615240e-07 4.929790e-07 -4.263726e-08 2.327186e-07 4.776333e-08 1.090598e-08
-4.301213e-08 1.041039e-07 -5.561173e-08 -1.070563e-08 4.446791e-08 -6.760188e-09
5.851464e-08 8.118821e-09 -2.081296e-08 -1.987543e-09 -8.443716e-10 3.630813e-10
-3.501450e-08 1.146888e-07 -6.825596e-08 -7.079492e-09 4.234857e-08 -1.125396e-08
-3.751421e-08 1.412607e-07 -6.682947e-08 -1.704468e-08 4.379322e-08 -1.301729e-08
-2.575437e-07 6.071902e-07 -4.995497e-09 6.902954e-08 5.700927e-08 -9.825748e-09
-2.437489e-07 4.094300e-07 -1.937045e-09 -9.790424e-08 4.455905e-08 -6.298901e-09
-2.779920e-07 5.915643e-07 -2.462801e-08 4.361310e-08 7.842480e-08 1.075887e-08
6.339478e-07 -3.456571e-07 7.364582e-08 4.972566e-08 3.030307e-08 5.702508e-08
-2.978357e-07 5.046065e-07 3.718660e-08 3.063148e-08 -8.733996e-08 1.404424e-09
-2.174660e-08 3.178981e-08 -3.437286e-08 -1.940458e-09 -6.153591e-08 2.765104e-08
1.372793e-07 -5.271458e-08 5.085254e-08 -1.781582e-07 9.199302e-08 -1.710123e-07
-5.971605e-08 -1.024631e-07 7.994860e-07 -6.973884e-07 -1.698843e-08 1.874063e-08
-2.092641e-07 4.173236e-07 4.990850e-07 -4.824147e-07 -7.209074e-08 -1.118319e-08
2.695615e-07 -9.831837e-08 -3.021769e-08 -1.634536e-07 1.778594e-08 -3.428754e-08
2.438341e-07 -1.252040e-07 -1.043436e-07 -5.008455e-08 2.248175e-08 -5.810152e-08
2.682941e-07 -1.192456e-07 -9.598202e-08 -2.297101e-08 5.851622e-08 -3.810635e-08
-2.193497e-07 4.481137e-07 1.442288e-08 -1.884652e-07 -8.135155e-08 1.620649e-08
-3.361630e-07 -5.210753e-08 1.601879e-06 -7.796013e-07 4.953674e-07 -4.562479e-07
-1.732518e-07 4.804047e-07 6.219086e-08 -3.201524e-07 9.643591e-09 -4.540570e-08
-5.092558e-07 6.084192e-07 5.073664e-07 -3.385139e-07 -2.298571e-08 1.139434e-07
2.360354e-07 -5.641428e-08 -9.390186e-08 4.440005e-09 6.639738e-10 3.601433e-08
5.901016e-07 -2.029319e-07 -1.750345e-07 9.235508e-09 -1.329813e-08 -5.457191e-08
3.501986e-07 -1.227688e-07 -9.865814e-08 -7.437391e-08 -8.696572e-09 6.774636e-08
2.056022e-07 -2.073967e-07 8.039516e-08 -1.065718e-07 2.854284e-08 -2.167324e-07
6.326934e-07 -2.841509e-07 -6.500120e-08 -1.411388e-07 -3.152435e-08 8.612491e-09
-6.320467e-08 -1.319624e-06 2.360685e-06 -9.076519e-08 -1.115638e-08 6.604395e-07
3.398297e-07 -7.034703e-07 1.556797e-06 -5.706037e-07 2.388299e-07 4.332374e-08
4.161127e-07 -1.207659e-06 2.858995e-06 1.816440e-07 2.087857e-08 -1.569717e-08
4.557448e-07 -1.005073e-06 1.912310e-06 2.748526e-07 3.416671e-07 2.006809e-07
2.748960e-07 -7.018039e-09 -1.095682e-07 2.465409e-07 2.011987e-08 2.865430e-08
2.640147e-07 1.304580e-08 -8.493270e-08 2.830432e-07 4.868257e-08 7.738212e-08
1.992937e-07 2.249793e-08 -9.937981e-08 2.729056e-07 2.606425e-08 3.562198e-08
2.690559e-07 -3.749064e-08 -7.258650e-08 2.727244e-07 3.472664e-08 6.377137e-08
6.635454e-07 -6.537669e-07 1.023369e-06 -3.029821e-07 -2.603742e-07 2.787880e-07
-4.606579e-07 -1.757396e-06 4.487514e-06 3.519768e-08 -3.566193e-07 -1.188612e-06
7.393634e-07 -5.309617e-07 5.213381e-07 -2.010406e-07 -2.213266e-08 3.844161e-07
-7.139124e-08 -1.303059e-06 3.547882e-06 5.465253e-08 -4.850496e-08 -1.558982e-07
-4.161714e-07 -2.920097e-07 2.066825e-06 7.918642e-07 -1.107365e-07 2.894312e-07
-4.236810e-08 8.005735e-08 -3.903895e-08 7.557500e-09 7.758508e-08 4.909186e-09
6.837205e-07 -7.379089e-07 1.093913e-06 2.109730e-07 2.304095e-07 2.884997e-07
-3.560047e-08 7.692601e-08 -3.970996e-08 1.402761e-08 7.128337e-08 1.238914e-08
8.223710e-07 -3.788539e-07 1.242138e-07 4.020146e-09 4.634119e-08 -3.147389e-09
6.772752e-07 -8.417633e-07 1.342500e-06 -4.092706e-08 -1.426557e-09 -3.595392e-08
8.090702e-07 -6.171817e-07 3.040148e-07 -5.073598e-08 1.439629e-08 1.836971e-07
-1.597326e-07 3.553324e-07 -7.866470e-08 7.427948e-08 9.414364e-08 2.657266e-09
-4.246074e-08 1.224342e-07 -7.953026e-08 1.005754e-08 7.622713e-08 7.000289e-09
-2.112298e-08 7.076853e-08 -4.286601e-08 1.713598e-09 4.095914e-09 5.811363e-09
1.550285e-08 4.202638e-08 -4.016976e-08 -4.406829e-09 -4.173235e-10 1.510642e-08
-2.601775e-07 -3.043179e-07 2.545300e-06 -7.194823e-07 -6.506496e-07 6.146824e-07
1.656347e-08 1.307974e-07 -1.084639e-07 9.698524e-08 1.116292e-08 1.531320e-10
3.418173e-09 1.320803e-07 -9.671049e-08 8.891847e-08 3.127113e-08 2.523039e-08
3.642881e-09 1.143312e-07 -8.196847e-08 6.554793e-08 3.268782e-08 1.092233e-08
-1.117203e-08 1.404361e-07 -1.014416e-07 6.999929e-08 1.430944e-08 6.852559e-09
-1.292065e-09 1.485468e-07 -9.987381e-08 8.709991e-08 1.105490e-08 5.110192e-09
2.050773e-09 5.621334e-08 -2.969734e-08 3.647756e-09 5.122800e-09 6.611493e-09
1.847540e-08 8.486370e-08 -7.102614e-08 -2.532952e-08 -2.067053e-09 8.462584e-09
7.467298e-09 8.721341e-08 -6.571893e-08 -1.533779e-08 -8.664143e-09 1.690010e-08
8.674670e-08 -2.036280e-08 -2.378909e-08 3.213336e-09 6.291803e-10 1.328024e-08
2.615455e-08 5.929696e-08 -5.365240e-08 -1.689850e-08 -5.750528e-09 1.671291e-08
2.127263e-08 4.737436e-08 -4.797192e-08 -1.312992e-08 -5.049877e-09 7.597125e-09
1.020023e-08 5.156149e-08 -5.695024e-08 -1.818103e-08 -3.060261e-08 2.482235e-08
-2.519899e-08 5.070996e-08 -3.177920e-08 2.610594e-09 4.479521e-08 3.562011e-09
5.376429e-08 9.845102e-09 -2.244603e-08 -3.846510e-09 -9.179777e-10 1.343375e-09
5.688622e-08 1.020211e-08 -2.666535e-08 -1.264492e-08 -2.200290e-09 1.040898e-09
6.323680e-08 6.062215e-09 -2.904204e-08 -1.442185e-08 -3.998928e-09 1.938909e-09
7.173419e-08 -7.508133e-09 -2.579188e-08 1.208029e-08 4.689079e-09 1.096504e-08
8.998580e-08 -2.081894e-08 -3.611354e-08 9.319920e-09 2.551046e-09 1.289371e-08
6.495148e-08 3.770911e-09 -2.723321e-08 -1.013921e-08 1.121264e-10 8.649970e-11
6.384363e-08 5.434394e-09 -2.730012e-08 -1.055549e-08 -4.592704e-10 7.942714e-10
8.208024e-08 -3.017099e-09 -3.866280e-08 -2.196345e-08 -1.540294e-09 8.123413e-09
8.276272e-08 -1.154924e-08 -3.602722e-08 -1.500716e-08 -3.744734e-09 1.208083e-08
7.901717e-08 4.257905e-10 -3.759031e-08 -2.257225e-08 -3.884422e-10 1.638976e-09
7.894043e-08 -8.562195e-10 -3.621116e-08 -2.423563e-08 -3.994831e-09 9.340452e-09
5.785717e-08 1.313128e-08 -3.068190e-08 -2.054925e-08 -3.393687e-09 2.666121e-10
7.271438e-08 1.340486e-09 -3.677853e-08 -1.960301e-08 -3.020156e-09 7.396813e-09
8.278298e-08 -6.787077e-09 -3.515384e-08 -1.188286e-08 -1.156692e-09 -4.066067e-12
5.305087e-08 9.996093e-09 -2.095236e-08 -3.431844e-09 2.967621e-10 7.634662e-10
5.924428e-08 7.113925e-09 -2.247247e-08 -5.004615e-09 -3.403493e-10 1.333598e-09
5.949411e-08 4.850901e-09 -2.328341e-08 -4.564975e-09 -1.159811e-09 1.517877e-09
-5.743555e-08 2.467849e-07 -1.208807e-07 8.157500e-08 1.278594e-08 9.712591e-09
8.524423e-08 -1.479231e-08 -2.836757e-08 -9.502579e-10 -7.920757e-10 1.289903e-09
9.230906e-08 -1.861385e-08 -3.104820e-08 -5.005952e-10 -6.512913e-10 1.181859e-09
9.409480e-08 -1.707201e-08 -3.378358e-08 -3.899827e-09 -5.403331e-10 5.599148e-10
7.747559e-08 -1.092847e-08 -2.478631e-08 -1.301408e-10 -6.705039e-10 9.342873e-10
-1.194776e-08 7.831094e-08 -4.625178e-08 -2.440974e-09 1.300969e-09 -1.277647e-10
-4.794861e-08 2.146247e-07 -1.098551e-07 8.276200e-08 4.837960e-08 2.317601e-08
-4.409665e-08 2.196215e-07 -1.108813e-07 7.723615e-08 5.252880e-08 2.176573e-08
-1.369450e-08 7.684139e-08 -4.309534e-08 -1.263163e-09 3.186497e-09 -3.851089e-09
-1.719485e-08 6.782749e-08 -3.434925e-08 -2.257373e-08 5.834474e-08 -1.498014e-08
-6.691747e-09 8.608381e-08 -5.409438e-08 -8.033310e-09 2.757245e-09 -2.450079e-09
-9.080686e-08 3.502368e-07 -1.192018e-07 8.986534e-08 7.015158e-08 1.485288e-08
-1.126673e-07 3.491490e-07 -3.968719e-08 2.126343e-07 9.417068e-08 1.773090e-08
1.356916e-10 8.987224e-08 -6.009510e-08 -1.612811e-08 1.495892e-09 2.288419e-09
-5.747625e-08 2.817976e-07 -1.209075e-07 1.356300e-07 1.215640e-08 8.859760e-09
-7.587210e-08 3.031809e-07 -1.223917e-07 1.035611e-07 6.052570e-08 2.254871e-08
-8.982916e-08 2.958072e-07 -1.029396e-07 1.140413e-07 5.931084e-08 1.998134e-08
3.849791e-08 3.233614e-08 -3.432211e-08 -3.541882e-09 4.441830e-16 -1.323208e-11
2.915089e-07 -9.376482e-08 -1.125177e-07 -2.646559e-08 -9.279817e-09 1.714817e-08
3.638374e-07 -1.273642e-07 -1.115172e-07 -6.336826e-08 -8.600362e-09 2.461888e-08
8.871736e-08 -1.560014e-08 -3.106377e-08 -1.221694e-09 -7.839441e-10 5.023512e-11
3.599065e-07 -1.504646e-07 -1.009537e-07 -5.316528e-08 -3.043438e-10 2.374657e-08
9.196917e-08 -1.831547e-08 -3.152473e-08 6.265510e-11 8.338276e-12 7.505383e-10
2.867082e-07 -8.235686e-08 -1.051976e-07 3.873542e-09 -5.821833e-10 5.431002e-08
9.867794e-08 -1.967747e-08 -3.707140e-08 -2.911490e-09 -8.486371e-10 4.301162e-09
9.255374e-08 -1.917788e-08 -3.328976e-08 -2.012090e-10 8.261262e-10 1.335861e-09
9.641606e-08 -2.314396e-08 -4.106295e-08 -1.054104e-08 -1.961224e-09 1.549930e-08
2.305986e-07 -6.812085e-08 -1.015783e-07 -3.570690e-09 -9.788390e-09 1.420356e-08
3.720022e-07 -1.412967e-07 -1.015241e-07 -1.776654e-08 3.688633e-09 7.297294e-08
3.669809e-07 -1.670080e-07 -8.650459e-08 -2.928877e-08 -8.727462e-11 7.276899e-08
3.789834e-07 -1.418968e-07 -1.071227e-07 -1.142223e-08 -5.060647e-09 2.008361e-08
-3.120997e-08 8.204916e-08 -4.499118e-08 1.003861e-09 4.806934e-09 4.613147e-10
2.460807e-07 -9.917993e-08 5.958384e-09 2.596304e-07 -6.835639e-08 -8.158549e-08
5.494066e-07 -2.172766e-07 -1.091610e-07 2.906260e-08 -3.660875e-08 -1.084770e-07
4.880578e-07 -2.024432e-07 -1.417909e-07 -4.478482e-08 4.687797e-08 -7.151430e-08
2.725393e-07 -7.545880e-08 -1.155301e-07 1.848843e-07 -4.714782e-08 -6.473607e-08
4.897385e-07 -1.378732e-07 -1.542205e-07 -3.232584e-08 -8.183956e-09 -5.000478e-08
7.217238e-08 -6.518185e-08 4.211618e-08 -2.132878e-08 -3.127784e-09 -2.549939e-08
4.061698e-07 -1.628151e-07 -1.793874e-07 -8.113222e-09 2.547777e-08 -5.247888e-08
5.992372e-07 -2.307985e-07 -2.042621e-07 8.305330e-09 -8.078206e-09 -2.854661e-09
2.683005e-07 -1.168315e-07 -1.298257e-07 -1.734835e-08 4.255689e-08 6.174939e-09
2.588139e-07 -1.192727e-07 -9.492234e-08 -2.410834e-08 5.867113e-08 -2.301330e-08
4.339092e-07 -2.034890e-07 -1.447927e-07 3.759850e-08 5.134933e-08 -1.016998e-07
1.169374e-08 -3.168527e-08 -6.250040e-08 1.773651e-09 -9.116999e-08 -2.166122e-08
1.942367e-07 -1.184455e-07 -5.750209e-08 -6.277907e-09 5.121909e-08 -6.815066e-08
3.771394e-07 -1.435210e-07 -1.591322e-07 -8.935419e-08 2.391124e-08 -1.371798e-07
3.854009e-07 -9.606688e-08 -1.444261e-07 1.019235e-07 -7.758896e-08 -1.017789e-07
6.570855e-07 -2.304109e-07 -2.087522e-07 4.912887e-08 5.346516e-10 9.881385e-10
-3.989041e-07 6.735520e-07 2.154569e-07 -2.905316e-07 1.691558e-07 1.742668e-08
-5.982267e-07 6.773102e-07 6.124103e-07 -2.375805e-07 4.720463e-08 1.338115e-07
-3.567029e-07 5.407704e-07 4.753217e-07 -4.032054e-07 5.913194e-08 -1.212300e-07
-6.172115e-07 5.279860e-07 9.215574e-07 -4.224467e-07 1.866967e-07 -7.328501e-09
-4.153491e-07 6.577081e-07 1.945658e-07 -7.215402e-08 -3.984691e-08 9.171382e-08
-3.041453e-07 6.493563e-07 -2.564724e-08 -9.571609e-08 3.668872e-08 1.524824e-08
-4.214981e-07 6.063761e-07 3.412023e-07 -1.907012e-07 -4.917320e-08 -1.073615e-08
-3.149678e-07 6.074839e-07 1.623506e-07 -2.229064e-07 5.147081e-09 -5.419024e-08
-2.195642e-07 5.505286e-07 -4.842385e-08 -2.441867e-07 1.712896e-08 3.197983e-08
-2.640884e-07 5.206288e-07 1.733691e-07 -2.832335e-07 -1.470683e-08 -5.026211e-08
2.126325e-08 7.708463e-08 -8.345941e-08 -1.345416e-08 3.708020e-08 -1.139869e-09
8.239980e-09 7.814353e-08 -8.918567e-08 -1.912456e-08 3.236361e-08 -1.042480e-08
2.843617e-08 6.066578e-08 -4.788369e-08 3.879023e-08 6.956920e-09 3.843222e-09
-1.411188e-09 8.256620e-08 -6.285044e-08 -7.561203e-09 4.642331e-09 -1.889635e-09
4.022405e-08 3.688386e-08 -3.368057e-08 2.491901e-08 3.874946e-09 3.024573e-09
-9.834405e-09 7.345230e-08 -4.185294e-08 1.100753e-10 4.583439e-09 -4.589661e-12
-2.593583e-10 8.007585e-08 -5.246243e-08 4.796187e-09 7.840941e-10 4.445591e-09
2.469806e-08 6.443909e-08 -5.367992e-08 3.720342e-08 6.031093e-09 -9.187033e-10
-2.582132e-07 -2.465980e-07 1.725507e-06 -7.243803e-07 -3.318533e-07 1.992183e-07
2.326766e-08 4.502381e-08 -3.623929e-08 1.260662e-08 9.653952e-10 1.195462e-09
-1.025416e-08 9.649132e-08 -6.954611e-08 -2.068839e-08 3.509148e-09 -5.628626e-09
3.507748e-08 3.987551e-08 -3.295938e-08 2.311391e-08 7.118147e-09 5.912098e-09
3.137524e-08 3.984271e-08 -3.716153e-08 1.986934e-08 4.333086e-10 3.458273e-09
3.652785e-08 3.789282e-08 -3.565271e-08 2.001906e-08 1.189184e-10 6.445476e-10
-9.708001e-09 8.366206e-08 -4.791253e-08 -1.604837e-08 2.177150e-08 -1.115797e-08
2.932673e-08 3.073492e-08 -2.220814e-08 6.223298e-10 4.345193e-10 1.607774e-09
2.977711e-08 3.383066e-08 -3.205346e-08 1.704963e-08 8.063466e-09 7.981458e-09
-1.125432e-08 7.174556e-08 -4.250632e-08 -4.459394e-09 1.714803e-08 -5.913471e-09
6.882972e-08 7.714288e-09 -3.375635e-08 -1.991130e-08 -1.598076e-10 3.810201e-10
7.043877e-08 3.836431e-09 -3.268679e-08 -2.142758e-08 -2.152465e-10 4.740899e-09
4.065619e-08 2.311902e-08 -3.147674e-08 -8.621518e-09 -2.678124e-09 3.603340e-09
1.128352e-08 8.584958e-08 -7.207742e-08 -1.184880e-08 3.239047e-09 -2.815204e-09
5.895851e-08 1.354464e-07 -1.185485e-07 -1.482524e-07 -5.239222e-08 3.330347e-08
2.717490e-08 8.378671e-08 -7.956934e-08 -5.558184e-08 -2.522590e-08 1.466295e-08
4.819904e-08 1.618027e-08 -2.222717e-08 -1.849390e-09 1.761780e-10 3.894600e-10
4.480954e-08 2.086517e-08 -2.365625e-08 -2.370319e-09 -1.116090e-09 2.667858e-09
4.985566e-08 1.618569e-08 -2.333793e-08 -6.048823e-09 -4.900598e-10 4.752358e-10
4.529165e-08 2.031839e-08 -2.691135e-08 -6.799923e-09 -1.375984e-10 -5.857719e-10
2.412459e-08 7.710277e-08 -8.188687e-08 -6.252623e-08 -2.005526e-08 1.738804e-08
4.146596e-08 3.511812e-08 -3.762033e-08 -1.604717e-08 -4.990377e-09 5.090816e-09
3.750529e-08 8.875685e-08 -8.188549e-08 -8.011797e-08 -1.895827e-08 1.457365e-08
6.986640e-08 9.677617e-08 -1.082566e-07 -1.164435e-07 -3.853661e-08 2.692466e-08
4.955037e-08 1.645373e-08 -2.161191e-08 -2.544536e-09 -1.335942e-09 1.642645e-09
5.593392e-08 9.306936e-09 -2.025884e-08 -1.344491e-09 1.005067e-10 5.603681e-11
5.610188e-08 8.024973e-09 -2.207147e-08 -3.858783e-09 -2.064910e-10 -1.014051e-10
5.427837e-08 1.048345e-08 -2.046083e-08 -5.683321e-10 -1.345675e-10 3.831837e-10
2.276789e-08 9.065061e-08 -8.731708e-08 -5.949656e-08 -2.644166e-08 2.262769e-08
1.671073e-08 1.049470e-07 -9.086319e-08 -6.084694e-08 -1.504931e-08 2.863627e-09
-1.944536e-08 1.515115e-07 -1.118263e-07 3.259975e-08 -9.594202e-09 -3.334299e-09
-2.037905e-08 7.547582e-08 -4.080605e-08 2.847006e-09 -1.422434e-08 -1.376913e-08
5.096764e-08 1.474278e-08 -2.347365e-08 -4.734229e-09 -3.966392e-10 -5.666525e-10
5.439903e-08 9.506918e-09 -2.006958e-08 -1.866152e-10 2.215829e-11 2.353273e-10
4.667986e-08 2.028552e-08 -2.579155e-08 -7.767329e-09 -7.189069e-10 9.691395e-10
5.159218e-08 1.228222e-08 -1.940729e-08 -4.135764e-10 1.451463e-10 -2.416717e-11
6.320817e-08 1.353143e-07 -1.391114e-07 1.156318e-07 -4.010081e-08 -3.152431e-08
-1.374721e-08 1.059735e-07 -7.090727e-08 1.011778e-08 -7.581992e-09 -1.357085e-08
-1.796275e-09 1.056994e-07 -8.643152e-08 1.698131e-08 -6.369089e-09 -1.805652e-09
-2.894467e-08 4.484393e-08 -3.517524e-08 -5.077950e-09 -4.359327e-08 -2.803906e-08
-3.218259e-08 8.243657e-08 -4.917075e-08 -1.988372e-10 -2.445238e-08 -1.461147e-08
6.944473e-08 1.136299e-07 -1.395843e-07 6.332269e-08 -1.913318e-08 -2.268778e-09
-1.370056e-08 1.126729e-07 -8.214067e-08 9.251873e-09 -8.643091e-09 -1.429634e-08
-1.770078e-08 1.171039e-07 -8.392877e-08 5.589004e-09 -9.060741e-09 -1.036730e-08
-2.932065e-08 8.310480e-08 -3.075091e-08 3.999213e-09 2.449567e-08 5.421705e-09
4.031247e-08 1.005328e-07 -1.152046e-07 1.957467e-08 -1.364190e-08 -4.321774e-09
1.534458e-08 1.148194e-07 -9.234886e-08 3.029729e-08 -3.504914e-09 3.418048e-09
-1.353345e-08 1.023468e-07 -5.742742e-08 9.418013e-09 -1.349883e-08 -1.755296e-08
-1.799471e-09 1.077289e-07 -8.571969e-08 3.707743e-08 -4.893386e-08 -2.963706e-08
5.716996e-08 2.276179e-08 -3.714968e-08 2.829761e-08 1.979626e-09 2.770270e-09
-6.954614e-08 1.950930e-07 -1.179381e-07 -2.975632e-08 7.282088e-08 -1.295409e-08
5.159306e-08 1.439277e-08 -2.624131e-08 1.289844e-08 2.514927e-09 1.055617e-09
6.680788e-08 7.829862e-09 -3.481210e-08 2.129256e-08 7.882013e-10 6.812611e-09
3.955325e-08 2.231086e-08 -2.247755e-08 7.491853e-09 1.764828e-10 -6.496955e-10
-7.275857e-08 2.161394e-07 -1.121337e-07 -1.192320e-08 5.163585e-08 -1.404130e-08
5.865095e-08 6.386771e-09 -2.387843e-08 3.725741e-09 6.744572e-10 7.591750e-10
4.858363e-08 1.587086e-08 -2.053576e-08 5.459400e-09 3.505995e-11 -1.182068e-09
-1.197418e-07 3.000761e-07 -1.283610e-07 -5.712427e-08 1.912631e-08 1.588968e-09
-7.737612e-08 2.646919e-07 -1.268582e-07 -5.704062e-08 2.987647e-08 -6.304042e-09
-4.866810e-08 1.544868e-07 -8.603684e-08 -1.997850e-08 3.306086e-08 -4.535411e-09
4.931155e-08 1.677089e-08 -2.248790e-08 8.549150e-09 1.209843e-09 1.253296e-09
3.612229e-07 -8.205715e-10 -4.172826e-08 4.035530e-07 -2.805474e-08 -2.776389e-08
4.170595e-07 -8.455774e-08 1.367494e-07 4.135509e-07 1.716666e-08 2.529478e-08
5.876837e-07 -1.511585e-07 -3.608625e-08 3.421415e-07 -3.464273e-08 -4.424890e-08
5.726844e-07 -4.493217e-07 7.680383e-07 4.504646e-07 2.419559e-07 2.009784e-07
-4.592391e-08 1.569189e-07 -9.047859e-08 -1.516582e-08 2.906111e-08 -3.807011e-09
-4.557420e-08 1.788508e-07 -9.661313e-08 -2.844009e-08 8.043430e-09 -4.386155e-10
-5.050982e-08 1.928087e-07 -1.080888e-07 -4.227032e-08 1.771159e-08 -5.074171e-09
2.195515e-07 6.269225e-08 -1.615273e-07 2.103276e-07 -2.943808e-08 -2.462000e-08
2.356153e-07 6.600346e-08 -8.148313e-08 3.282318e-07 -2.642092e-08 -4.591840e-08
4.904036e-07 -1.519840e-07 -8.998722e-08 2.331356e-07 -2.438308e-08 -5.346438e-08
2.681396e-07 4.302605e-08 -1.914635e-07 1.472985e-07 -2.620824e-08 9.339711e-09
-5.335936e-08 1.769346e-07 -1.007877e-07 -4.507493e-08 4.429566e-08 -7.449780e-09
4.616472e-07 -1.071832e-07 1.485220e-08 3.491484e-07 -2.457571e-08 -3.550668e-08
-7.842832e-08 2.266204e-07 -1.153748e-07 -4.749484e-08 5.675294e-08 -1.378563e-08
-2.571421e-08 7.038604e-08 -3.480536e-08 2.646429e-08 6.596763e-08 4.908513e-09
-1.311388e-08 8.485846e-08 -4.513908e-08 7.436544e-09 1.256375e-08 1.119815e-08
1.853108e-07 -7.216401e-08 -1.185392e-07 3.051307e-08 -7.316456e-08 1.553167e-08
1.874690e-08 -8.308904e-08 -2.499073e-08 3.138849e-08 -6.198837e-08 -4.150648e-08
3.390227e-07 -3.710450e-08 -4.984524e-08 3.911411e-07 -3.763888e-08 -4.552176e-08
5.841029e-07 -2.147303e-07 -1.779065e-07 -3.852824e-10 1.093151e-09 -4.804344e-08
1.942244e-07 -1.003469e-07 2.905714e-08 -1.464686e-07 9.093684e-08 -2.220678e-07
1.773616e-07 7.185618e-08 -1.747840e-07 -8.490150e-08 3.277449e-08 -9.520244e-09
2.505825e-07 3.195170e-08 -1.796491e-07 -1.270783e-07 1.877232e-08 -2.160269e-08
2.752118e-07 -1.910612e-08 -5.480232e-09 -3.609767e-07 4.415781e-08 -1.976313e-08
4.054708e-07 -7.107344e-08 -2.050338e-07 -1.231964e-07 2.044379e-08 -1.084551e-08
1.058141e-07 1.062210e-07 -1.513226e-07 -1.183512e-07 4.909054e-08 -3.600749e-08
1.045591e-07 1.091524e-07 -1.436088e-07 -1.344589e-07 4.072994e-08 -2.811989e-08
4.908913e-07 -1.398083e-07 -1.935575e-07 -2.713917e-08 4.451721e-08 -3.712789e-08
-8.725232e-09 -6.067962e-08 -1.201734e-08 -7.505485e-09 8.994969e-08 -1.746613e-07
5.704066e-08 9.689186e-09 -2.116267e-08 8.732553e-09 1.524167e-09 2.773088e-09
-4.942186e-08 2.380752e-07 -1.330793e-07 -1.180567e-07 -6.892394e-08 2.245220e-08
1.057095e-07 1.064276e-07 -1.567890e-07 -1.183421e-07 1.089799e-08 -1.044825e-08
-5.116684e-08 2.691519e-07 -1.406794e-07 -8.106478e-08 -1.776548e-08 8.251869e-09
-2.099199e-08 1.832212e-07 -1.156529e-07 -6.114053e-08 -9.557176e-09 5.250828e-09
1.001772e-07 1.235487e-07 -1.461917e-07 -1.377083e-07 4.599089e-08 -3.410802e-08
1.070072e-07 6.933134e-08 -1.464526e-07 -1.321876e-07 5.187591e-08 -2.959902e-08
-1.387968e-08 2.698916e-07 -8.041806e-08 -2.546026e-07 -7.190261e-08 4.331944e-08
4.951528e-08 4.656593e-08 -1.177272e-07 -6.433413e-08 9.277636e-08 -5.377860e-08
3.815802e-08 2.381576e-08 -2.113529e-08 1.937793e-09 4.209684e-10 -2.450641e-11
4.151648e-08 2.095456e-08 -2.084602e-08 6.742379e-09 1.607570e-09 7.462935e-10
9.901716e-08 2.011886e-07 -7.574668e-08 -3.212505e-07 -1.037383e-08 1.223535e-08
3.849940e-08 2.353796e-08 -2.423967e-08 1.039718e-08 2.514287e-09 2.715380e-09
3.276483e-08 2.846929e-08 -1.974736e-08 4.812672e-09 1.789635e-09 1.226249e-09
4.773795e-08 1.974506e-07 -3.326947e-08 -4.163227e-07 -4.023115e-08 2.976400e-08
3.853012e-08 2.336961e-08 -2.088245e-08 1.226314e-09 -1.716079e-10 3.159441e-10
3.972372e-08 2.163675e-08 -2.108161e-08 3.327830e-09 1.131702e-10 1.109889e-10
-2.367439e-08 1.132954e-07 -7.174863e-08 1.040116e-08 2.484422e-09 2.502229e-09
-2.730091e-08 1.197710e-07 -7.688264e-08 7.115870e-09 4.663488e-10 -1.592625e-09
9.317430e-08 -4.689409e-09 -4.589992e-08 -2.823520e-08 -3.659387e-09 8.570885e-09
1.395967e-07 -1.582499e-08 -7.801655e-08 -5.786914e-08 -7.856152e-09 2.504502e-08
7.537943e-08 1.710391e-08 -6.634423e-08 -6.133425e-08 -1.278181e-08 1.951651e-08
-3.166794e-08 1.179494e-07 -7.002518e-08 7.110992e-09 1.226455e-08 1.971818e-09
-3.663535e-08 1.142754e-07 -7.241876e-08 4.842325e-09 5.693129e-08 1.025482e-09
-3.111140e-08 1.318393e-07 -8.221354e-08 1.755337e-08 1.959251e-08 -4.822132e-10
-3.699026e-08 1.399159e-07 -8.206570e-08 1.094181e-08 7.264128e-09 -2.910378e-09
1.318031e-07 -1.930842e-08 -6.987104e-08 -4.843685e-08 -1.508355e-09 4.265629e-09
1.435569e-07 2.868405e-09 -8.830907e-08 -7.685448e-08 -7.095641e-09 1.220772e-08
2.266815e-08 4.828816e-08 -3.656023e-08 -4.220469e-09 -2.502044e-09 9.993282e-09
1.210882e-07 -2.133544e-08 -6.510167e-08 -3.574528e-08 -6.173636e-09 1.080081e-08
-2.590332e-07 5.075375e-07 2.068744e-07 -3.181029e-07 -5.673132e-08 -1.143090e-08
2.687541e-08 5.720035e-08 -5.125698e-08 -2.292581e-08 -1.103902e-08 6.197479e-09
2.265751e-08 4.756126e-08 -4.513427e-08 -3.760417e-09 -3.221348e-09 9.594238e-09
3.762028e-08 5.422138e-08 -6.083341e-08 -3.789049e-08 1.618816e-10 8.533902e-09
4.290796e-08 5.285476e-08 -5.961574e-08 -4.279327e-08 -1.310925e-08 1.504741e-08
-2.077472e-08 9.667451e-08 -4.793405e-08 3.028945e-09 9.436745e-09 5.131603e-09
-1.842855e-07 5.525407e-07 -1.133609e-07 -1.072382e-07 -4.501034e-08 1.691316e-10
-1.245001e-06 -1.949387e-06 4.381164e-06 -2.353259e-07 -1.378963e-07 2.088594e-06
-2.303394e-06 -2.280326e-06 8.960186e-06 -1.828854e-09 -6.913411e-07 3.781517e-07
1.988466e-07 -1.325820e-06 2.300038e-06 2.595109e-07 1.266095e-07 1.449011e-06
4.021754e-07 -1.319593e-06 3.221470e-06 -7.472188e-08 -5.258629e-08 4.196561e-07
-1.246081e-08 9.245004e-08 -5.477114e-08 3.848521e-09 3.484964e-09 6.560655e-09
-2.809121e-08 7.385723e-08 -3.462684e-08 1.628607e-08 6.485905e-08 1.564740e-08
-1.037209e-06 -1.690291e-06 4.897841e-06 -6.850346e-08 -1.726668e-08 1.811001e-07
3.217747e-07 -9.592513e-07 2.672697e-06 -4.849174e-07 -2.365181e-07 3.057624e-07
-8.811016e-07 -4.028950e-07 3.666505e-06 -5.852689e-07 -5.520205e-07 3.594803e-07
3.146092e-07 -5.756043e-07 1.903900e-06 -6.351935e-07 -3.937331e-07 5.688797e-07
-2.009139e-07 -9.645095e-07 2.073581e-06 -6.036369e-07 -1.006987e-07 5.289025e-07
-9.346809e-07 -9.308004e-07 4.685654e-06 -5.293500e-07 -9.977276e-08 3.852745e-08
-2.399009e-08 9.438090e-08 -5.587625e-08 8.856979e-09 4.041738e-10 6.226705e-09
-1.313786e-08 1.010340e-07 -6.287204e-08 2.246582e-08 3.687766e-08 1.859914e-08
-2.049414e-06 -2.034384e-06 6.839874e-06 -3.112217e-07 -1.370557e-07 1.955542e-07
-1.213480e-06 -2.228996e-06 6.665307e-06 -2.859626e-07 -1.095610e-06 1.500500e-06
-2.048672e-06 -1.126855e-06 5.808758e-06 -4.410194e-07 -9.483786e-07 5.742306e-07
-1.581658e-08 7.610295e-08 -4.779999e-08 1.142952e-08 2.236943e-08 9.404157e-09
8.681303e-08 -1.558595e-08 -3.167599e-08 -2.586145e-09 -3.857076e-10 1.369453e-09
-2.808585e-07 4.832471e-07 7.258134e-07 5.028989e-07 2.170069e-07 1.397756e-07
-2.842720e-07 3.612444e-07 4.322160e-07 4.606023e-07 -3.461143e-08 2.192854e-09
2.222995e-07 1.291509e-07 -1.167143e-07 3.211006e-07 -2.513499e-08 -2.375050e-08
-3.785303e-07 2.115928e-07 1.026454e-06 6.471930e-07 4.672515e-08 4.752139e-08
8.380521e-08 -1.211129e-08 -2.743217e-08 -3.036642e-09 -1.067494e-09 2.704617e-09
-1.500290e-07 -2.334107e-08 1.181548e-06 7.427554e-07 2.703505e-08 -8.122331e-08
8.427750e-08 -1.527506e-08 -2.651802e-08 -1.332378e-09 -1.162998e-09 8.729685e-10
8.678850e-08 -1.535247e-08 -2.653914e-08 -1.771928e-09 -1.714642e-09 2.165210e-09
-2.753558e-07 3.517829e-07 4.044197e-07 5.983302e-07 9.239828e-08 3.148130e-08
-2.008580e-07 5.030514e-07 2.502329e-07 4.556071e-07 7.546587e-08 -7.226161e-09
8.554976e-08 -1.556990e-08 -2.925403e-08 -2.934595e-09 -8.582423e-10 4.934444e-09
2.888516e-07 -9.825697e-08 -1.530264e-08 3.196235e-07 -4.839295e-09 4.451985e-08
4.288348e-07 -1.661946e-07 6.036914e-08 2.728606e-07 1.294474e-09 3.933846e-08
2.660753e-07 -6.142543e-08 -4.164983e-08 3.496056e-07 2.751801e-08 3.835104e-08
1.901708e-07 9.537042e-09 -1.000974e-07 2.436143e-07 2.679891e-08 3.618559e-08
3.794520e-07 -7.742769e-08 -8.685196e-08 2.634618e-07 3.289591e-08 3.169308e-08
6.498944e-08 1.050716e-09 -2.510511e-08 -5.363892e-09 -1.367959e-09 2.136520e-09
2.837083e-07 2.348413e-08 -3.172382e-08 2.974871e-07 1.538948e-08 2.737416e-08
5.395099e-08 8.739805e-09 -2.054966e-08 -6.083735e-09 -1.283371e-09 1.548634e-09
5.978772e-08 6.300387e-09 -2.114706e-08 -1.421745e-09 5.383054e-11 1.076636e-10
6.706249e-08 1.400659e-09 -2.267191e-08 -3.306596e-09 -1.554706e-09 7.907407e-10
3.931489e-07 -9.850526e-08 -7.864574e-08 2.640779e-07 1.179730e-08 4.142722e-08
6.598475e-08 2.569299e-09 -2.619760e-08 -1.180246e-08 -2.420347e-09 3.997849e-09
3.693450e-07 -1.161400e-07 -9.468082e-08 1.859995e-07 6.889958e-09 5.883995e-08
3.686933e-07 -1.561575e-07 -5.859482e-08 1.702570e-07 8.848663e-09 4.307666e-08
3.850125e-07 -1.091982e-07 -1.167659e-07 3.634276e-08 1.788774e-09 2.448625e-08
6.166213e-08 5.572089e-09 -2.186849e-08 -2.471874e-09 -1.359405e-09 1.561616e-09
-8.694131e-07 -3.399865e-07 2.975248e-06 7.377929e-07 -8.190308e-08 4.969499e-08
-2.112682e-07 -4.011475e-07 1.906615e-06 7.486944e-07 4.094867e-07 2.389091e-07
-9.440942e-07 9.816428e-08 2.861213e-06 6.229880e-07 1.010763e-06 6.724288e-07
-1.152992e-06 -1.049955e-06 5.199302e-06 7.772132e-07 1.314726e-06 1.152436e-06
-1.010717e-06 -8.597620e-07 3.817329e-06 6.053030e-07 6.699380e-07 3.830230e-07
6.668334e-08 1.407947e-09 -2.324838e-08 -3.307635e-09 -1.380153e-09 2.109278e-09
6.191098e-08 5.622725e-09 -2.158321e-08 -2.584342e-09 -9.481687e-10 5.946351e-10
-8.490143e-07 1.882174e-07 2.437244e-06 7.356751e-07 4.767816e-07 4.103172e-07
-1.006603e-06 6.135661e-07 1.559850e-06 1.300551e-07 4.384925e-07 -2.051723e-07
9.613987e-08 -2.128838e-08 -3.517852e-08 -5.673531e-09 -4.138019e-09 7.316932e-09
1.054076e-07 -2.464143e-08 -4.799049e-08 7.306477e-10 -2.852690e-11 -4.359438e-10
-8.353349e-07 4.742811e-07 1.426539e-06 2.100137e-07 -3.159706e-07 -3.075242e-08
-4.182909e-07 6.740056e-07 1.986526e-07 -2.753926e-08 4.025153e-08 1.974721e-08
-5.762456e-07 6.374432e-07 3.148159e-07 1.738833e-07 6.178864e-08 -3.998593e-08
-4.677249e-07 5.797736e-07 4.634365e-07 -1.258177e-07 -1.679427e-07 -1.600304e-08
9.459768e-08 -1.895564e-08 -3.402746e-08 4.817493e-09 3.013075e-09 9.651280e-09
9.161527e-08 -1.915925e-08 -2.978541e-08 2.449701e-10 9.524042e-11 2.672877e-09
8.713910e-08 -1.444981e-08 -3.109801e-08 1.134595e-09 6.773307e-10 1.478382e-09
9.822933e-08 -2.099805e-08 -3.663708e-08 7.588784e-10 -2.003801e-09 1.726180e-09
-1.071937e-06 3.313661e-07 1.506290e-06 4.392534e-07 -3.939930e-07 1.099286e-08
1.062448e-07 -2.045707e-08 -4.070302e-08 2.671708e-09 -2.738897e-10 1.347399e-09
9.393601e-08 -2.004321e-08 -3.882129e-08 3.826512e-09 7.062426e-10 7.394613e-09
8.625615e-08 -1.611902e-08 -2.869848e-08 2.439151e-09 3.982553e-10 4.898656e-09
1.003811e-07 -2.153202e-08 -3.857636e-08 -3.651124e-10 4.831753e-10 2.230508e-09
-1.330913e-06 1.545938e-07 2.448930e-06 2.535067e-07 -7.222502e-08 -6.976488e-08
1.028567e-07 -1.911553e-08 -4.163785e-08 8.159836e-09 1.609765e-09 1.477227e-08
3.675622e-07 -1.284967e-07 -1.155836e-07 5.686762e-08 -3.560365e-09 3.359142e-08
-5.707887e-07 6.523228e-07 8.238597e-07 -3.224877e-08 5.023003e-08 -5.732105e-09
2.664040e-07 -6.540177e-08 -1.073511e-07 5.613390e-08 6.321669e-09 2.140571e-08
-5.623714e-07 4.629103e-07 1.352275e-06 4.862511e-07 -2.622946e-07 -1.804608e-07
-1.266654e-06 2.011667e-07 2.890551e-06 3.398339e-07 -1.010150e-06 -6.659218e-08
-5.145361e-07 4.542992e-07 6.570364e-07 4.921421e-07 -1.193514e-07 1.672362e-08
-4.875793e-07 3.861972e-07 1.064744e-06 5.130137e-07 -6.449581e-08 -1.228572e-07
3.089363e-07 -9.954207e-08 -9.837078e-08 1.064024e-07 1.478032e-08 4.007379e-08
-4.786015e-07 5.710258e-07 1.391296e-06 3.748677e-07 -3.458329e-07 -6.627585e-08
-2.023187e-07 4.422993e-07 2.419419e-07 3.805248e-07 -2.253319e-08 -7.598025e-08
1.120092e-08 1.685045e-07 1.200239e-07 5.004237e-07 4.523606e-08 5.316309e-08
4.646085e-07 -2.017235e-07 -6.976666e-08 7.249174e-08 3.371855e-10 1.867126e-08
4.499930e-07 -1.856635e-07 -5.583780e-08 8.361219e-08 2.740768e-08 7.207180e-08
-1.406542e-06 -1.027791e-06 5.077067e-06 3.995304e-07 -1.877630e-07 -5.473747e-08
-1.000775e-06 -1.368766e-06 4.574394e-06 6.008035e-07 -1.952231e-07 -1.710761e-07
-6.760264e-07 -1.808903e-06 4.847377e-06 1.931284e-07 -6.181781e-07 -6.134067e-07
4.522079e-07 -1.508445e-07 -1.331989e-07 9.536120e-08 1.578761e-08 5.622893e-08
-8.058305e-07 -2.810223e-07 2.192886e-06 7.525158e-07 -4.667605e-07 -2.381100e-07
3.149358e-07 -1.034266e-07 -1.123421e-07 1.103889e-07 2.736596e-09 4.413995e-08
4.202769e-07 -1.562821e-07 -1.045716e-07 1.573908e-07 2.414731e-08 3.252760e-08
-1.212663e-06 -1.427204e-06 4.603710e-06 6.731070e-07 -7.513669e-07 -1.117534e-06
-1.404794e-06 -8.309188e-07 3.597248e-06 7.326071e-07 -6.506406e-07 -4.066951e-07
5.012054e-08 8.592798e-08 -9.426675e-08 2.467682e-08 -5.398614e-08 -2.039820e-08
-8.991606e-09 5.014478e-08 -4.200402e-08 -8.790650e-09 -5.151957e-08 -7.227424e-09
5.153721e-07 -2.031095e-07 -1.830248e-07 1.158532e-08 -1.762411e-08 9.517832e-09
6.115748e-07 -2.304109e-07 -2.087522e-07 2.519120e-08 -5.345484e-09 -4.601561e-09
5.344088e-07 -2.073319e-07 -1.980761e-07 3.419417e-08 -2.304557e-08 -3.064307e-08
1.636523e-08 4.738374e-08 -3.612549e-08 1.356907e-08 1.524644e-08 1.072115e-08
6.639579e-07 -2.544595e-07 -1.322089e-07 -1.082341e-07 -9.795034e-09 1.190207e-08
6.254615e-09 9.444874e-08 -8.423282e-08 2.558248e-09 -1.937413e-08 -1.111885e-09
3.104804e-08 1.029059e-07 -1.048544e-07 3.532882e-08 -2.493071e-08 -1.533653e-08
7.753162e-09 7.511141e-08 -6.831414e-08 1.089419e-09 -3.810705e-08 -7.388276e-09
6.641146e-08 7.581347e-08 -1.281331e-07 6.366179e-09 -4.094159e-08 -5.687181e-09
1.667131e-08 8.088576e-08 -9.486176e-08 1.153531e-08 -4.998215e-08 -1.140179e-08
3.480711e-07 -1.603027e-07 -1.196800e-07 8.751139e-08 9.193532e-09 -1.600946e-08
5.782886e-07 -1.994930e-07 -2.108232e-07 -3.296436e-08 1.592595e-08 -1.271861e-08
5.768032e-07 -2.198881e-07 -2.023468e-07 -2.730809e-08 8.234520e-09 -9.612468e-09
5.990622e-07 -2.116293e-07 -2.201575e-07 2.004004e-08 -5.051585e-09 7.922844e-09
4.830030e-07 -1.781347e-07 -1.024895e-07 1.468057e-07 -5.944409e-08 -4.476035e-08
-3.543898e-08 1.641618e-07 -9.949268e-08 -3.110803e-08 -6.688958e-08 2.345770e-08
-3.144321e-08 1.576760e-07 -1.002653e-07 -1.931091e-08 -7.614743e-08 2.250100e-08
-2.850571e-08 8.832141e-08 -6.700764e-08 -9.264949e-10 -7.399227e-09 1.353306e-08
5.013023e-07 -2.146809e-07 -1.885688e-07 1.751861e-10 2.146207e-09 1.826969e-08
6.309691e-07 -2.226671e-07 -2.335737e-07 6.393735e-09 -3.728731e-09 -4.768105e-17
-2.174289e-08 4.150411e-08 -4.467205e-08 -1.339414e-09 -2.130536e-08 1.803485e-08
-3.602576e-08 1.659832e-07 -1.178384e-07 -2.425645e-08 -5.032265e-09 7.716335e-09
-3.328793e-08 1.584522e-07 -1.198826e-07 -3.499644e-08 -1.279235e-08 7.015840e-09
-1.055293e-07 2.982379e-07 -1.521305e-07 -7.095719e-08 -3.008758e-08 2.159234e-09
5.080727e-07 -1.931341e-07 -2.054017e-07 -4.053596e-08 6.736369e-09 -1.755299e-08
-7.617831e-08 2.320996e-07 -1.450622e-07 -3.595909e-08 -4.147978e-08 8.498624e-09
-3.147835e-08 1.946280e-07 -1.087595e-07 -5.418965e-08 -4.430118e-08 1.982615e-08
-6.233352e-08 1.799263e-07 -1.036959e-07 -8.923493e-09 -1.036704e-07 2.614914e-08
-3.512405e-08 1.712752e-07 -1.155867e-07 -6.294489e-09 -1.140864e-09 4.198530e-09
-1.078486e-07 3.191991e-07 -1.505040e-07 -1.157730e-08 -1.872888e-08 7.890461e-09
3.890532e-08 1.219762e-07 -1.444629e-07 -1.089540e-07 1.885418e-08 -8.299501e-09
2.412482e-07 2.175866e-08 -1.940371e-07 -2.739343e-08 9.647468e-09 3.596241e-16
3.873448e-08 1.216288e-07 -1.345468e-07 -1.086554e-07 4.579540e-08 -1.803546e-08
1.039371e-07 9.170677e-08 -1.381120e-07 -9.426600e-08 5.334883e-08 -1.960493e-08
2.957480e-07 -1.842066e-08 -2.071933e-07 -5.933400e-08 1.675544e-08 -1.810246e-08
2.873320e-07 1.404349e-09 -1.999770e-07 -6.068843e-08 2.132823e-09 -1.159273e-08
1.115791e-07 1.439378e-07 -1.310685e-07 -2.222279e-07 2.884107e-08 -2.085182e-08
2.323805e-07 8.582873e-09 -1.736790e-07 -5.489127e-08 5.925012e-08 -2.714377e-08
-9.834409e-09 7.632885e-08 -4.422137e-08 3.646808e-10 -8.881785e-16 -1.931750e-09
-1.233344e-08 7.562038e-08 -3.841580e-08 -7.318239e-10 8.548650e-10 -1.202553e-09
-1.558736e-08 7.165474e-08 -3.390190e-08 -3.440829e-09 7.201385e-09 -6.233735e-09
5.170691e-09 5.318689e-08 -2.446822e-08 2.355291e-09 1.959556e-09 5.819445e-09
1.221165e-07 9.139369e-08 -1.607914e-07 -1.127108e-07 2.673509e-09 -4.334174e-09
-3.984990e-08 2.243206e-07 -1.280909e-07 -1.191599e-07 4.036074e-08 -2.178983e-08
-6.570803e-09 5.321772e-08 -2.643193e-08 2.199505e-09 4.773352e-09 8.128695e-09
-2.744617e-08 1.894505e-07 -1.231746e-07 -9.480164e-08 2.983565e-08 -1.357486e-08
-1.301735e-08 1.696807e-07 -1.272669e-07 -8.778666e-08 4.985135e-08 -3.190832e-08
-8.703644e-09 1.582821e-07 -1.079526e-07 -7.826138e-08 2.927258e-08 -1.100274e-08
-3.285157e-08 1.555931e-07 -9.387295e-08 -5.199436e-08 4.027321e-08 -1.002904e-08
-2.529932e-08 1.787857e-07 -1.126918e-07 -8.427914e-08 2.257783e-08 -2.031431e-08
-5.100969e-08 2.261180e-07 -1.262818e-07 -8.087267e-08 2.993215e-08 -1.034092e-08
-1.894934e-08 1.183485e-07 -6.941867e-08 1.689866e-08 2.906417e-09 1.549563e-09
1.244224e-08 6.402356e-08 -4.768173e-08 1.346144e-08 6.289072e-09 1.882512e-09
-4.778326e-07 6.334420e-07 2.890650e-07 -1.145597e-07 1.333581e-08 2.264051e-09
4.900361e-08 1.510883e-08 -1.960968e-08 7.269852e-09 2.032894e-09 1.891780e-09
-3.445391e-08 1.286221e-07 -7.611548e-08 4.949453e-09 2.573326e-09 -2.008047e-09
-1.400055e-08 7.357504e-08 -4.204461e-08 4.029020e-09 5.091267e-09 7.871379e-09
-1.659205e-08 5.110589e-08 -3.342701e-08 2.969306e-09 3.201666e-08 1.342012e-08
-2.484306e-07 5.556083e-07 -8.620823e-08 7.391559e-08 -3.626152e-08 1.359072e-08
-2.047094e-07 5.712031e-07 -7.796598e-08 4.611917e-08 -1.053336e-07 -8.269661e-09
-2.583791e-07 5.359943e-07 -9.560646e-09 -2.069557e-08 -1.009234e-07 -2.815498e-08
-2.035593e-08 1.033378e-07 -5.754162e-08 2.217827e-09 2.633427e-09 6.264693e-09
-2.429355e-08 9.184733e-08 -4.814638e-08 6.723331e-09 1.062555e-08 6.283225e-09
2.575627e-08 3.547583e-08 -2.104559e-08 2.095806e-09 7.197422e-10 1.472476e-09
-2.025865e-07 5.251741e-07 -1.400748e-07 -1.418739e-08 -5.697549e-08 -1.061678e-09
-6.193186e-07 7.108900e-07 7.231413e-07 2.063410e-07 7.109887e-08 -1.432151e-07
2.460409e-08 3.485953e-08 -2.683421e-08 9.224030e-09 3.530125e-09 4.121016e-09
2.385883e-08 3.547583e-08 -2.414070e-08 1.073048e-09 8.590906e-10 2.852240e-09
-4.121967e-07 6.165853e-07 3.851086e-07 1.736899e-07 -7.480673e-08 1.064007e-08
-2.401156e-07 5.420868e-07 -1.474969e-08 7.923093e-08 -9.769817e-08 -2.906456e-08
4.282989e-07 -2.506307e-07 2.849658e-07 5.307778e-07 -5.853502e-09 1.549827e-07
3.626223e-07 -9.917993e-08 2.924557e-08 3.582994e-07 -3.146607e-08 3.308468e-08
1.255775e-07 -1.166449e-07 7.945651e-07 6.948674e-07 2.013864e-07 1.600537e-07
1.878316e-07 -2.533158e-07 1.441873e-06 7.075656e-07 2.005575e-08 -6.042209e-08
7.010101e-07 -4.241567e-07 2.433145e-07 2.361819e-07 -9.365383e-08 -4.445086e-08
6.498931e-07 -5.942235e-07 8.502334e-07 3.439094e-07 -1.492318e-07 1.451258e-07
1.962826e-08 4.053750e-08 -2.206299e-08 2.030569e-09 1.089829e-09 2.630379e-09
-3.246830e-08 1.265827e-07 -7.221620e-08 -1.953152e-09 -2.199349e-16 -5.400844e-10
4.539828e-08 1.672771e-08 -2.050357e-08 2.936097e-09 3.838784e-10 7.420349e-10
-2.820473e-08 8.316432e-08 -3.078409e-08 2.987429e-09 2.492166e-08 1.543523e-09
3.908929e-07 -8.555524e-07 1.753403e-06 5.037050e-07 -2.423196e-07 5.523571e-08
3.275390e-07 -8.085782e-07 2.277634e-06 5.439025e-07 4.298459e-08 -4.433974e-08
2.604779e-07 -5.745958e-07 1.618273e-06 6.626616e-07 1.692260e-07 2.043440e-07
3.350148e-07 -7.068655e-07 1.476928e-06 6.133192e-07 -1.328357e-07 2.808106e-07
-2.770883e-08 6.068953e-08 -2.950655e-08 4.945950e-10 6.709750e-09 -1.470881e-09
2.553570e-07 -2.859063e-08 -1.173399e-07 2.008479e-07 1.824784e-08 3.161386e-08
1.874854e-07 9.174268e-09 -1.171320e-07 1.764430e-07 3.927153e-08 3.459694e-08
1.895706e-07 4.688522e-09 -1.217684e-07 1.465369e-07 9.888634e-10 2.214403e-08
1.965092e-07 -8.122053e-09 -1.165491e-07 1.445471e-07 5.812555e-09 3.003412e-08
-3.564643e-08 1.309182e-07 -7.641854e-08 4.826427e-12 1.550980e-09 2.153580e-09
-3.172291e-08 9.137675e-08 -5.316842e-08 3.390156e-09 2.542916e-08 -6.084360e-09
-3.127301e-08 8.499163e-08 -4.345964e-08 1.751621e-10 4.552669e-09 -5.424090e-09
4.207817e-08 2.339214e-08 -2.012067e-08 3.232255e-09 7.005828e-10 -5.558429e-11
-2.934024e-08 9.101132e-08 -4.681934e-08 3.862953e-09 3.770012e-08 6.108581e-09
-2.352389e-08 5.792688e-08 -2.889899e-08 9.202839e-10 7.255767e-09 4.338462e-09
3.010073e-07 -5.134991e-08 -8.770933e-08 2.136873e-07 3.539702e-08 8.413323e-08
2.310302e-07 -1.835182e-08 -1.166316e-07 1.536007e-07 2.263158e-08 6.720069e-08
-4.115218e-08 1.185503e-07 -7.747169e-08 -2.885734e-09 6.040118e-08 -2.057876e-08
-2.835814e-08 6.151182e-08 -3.330691e-08 1.014705e-09 1.559052e-08 -4.114123e-09
1.348799e-07 3.190987e-08 -1.061660e-07 1.406573e-07 1.546454e-08 4.100281e-08
-2.681517e-08 1.061427e-07 -5.966344e-08 2.214247e-09 4.214307e-09 2.938921e-09
-3.087916e-08 1.213092e-07 -6.967176e-08 -2.712777e-09 1.491948e-09 -3.094852e-09
3.445176e-08 2.752323e-08 -2.133652e-08 6.704577e-09 2.392700e-09 2.669509e-09
1.752294e-07 6.035311e-09 -1.020178e-07 1.257957e-07 2.615484e-08 3.935586e-08
-3.389621e-08 1.192751e-07 -6.874935e-08 1.013178e-08 4.323903e-08 6.769345e-09
2.736282e-08 3.098592e-08 -2.489842e-08 1.349381e-08 9.126165e-09 9.617542e-09
2.576528e-08 3.547582e-08 -2.363019e-08 1.501910e-09 1.041113e-09 3.858227e-09
-1.745270e-08 1.073104e-07 -6.541287e-08 5.467785e-09 1.227216e-09 3.626578e-09
2.388763e-08 3.849116e-08 -2.931591e-08 2.835940e-09 7.630316e-10 3.949452e-09
-3.113844e-08 7.062066e-08 -3.519379e-08 2.589791e-08 6.940476e-08 -1.833713e-09
-2.607712e-08 6.704365e-08 -3.330190e-08 8.475626e-09 1.062053e-08 7.313936e-11
4.186327e-08 2.514601e-08 -2.599741e-08 1.044667e-08 -1.511271e-10 -9.760016e-11
4.478084e-08 1.851853e-08 -1.901126e-08 4.473888e-10 2.211418e-10 5.283773e-11
-2.534776e-08 1.049540e-07 -4.922294e-08 8.423710e-09 2.941155e-08 7.752659e-09
-3.282991e-08 1.037647e-07 -4.836883e-08 4.413202e-09 1.255439e-08 2.673648e-09
3.987539e-08 2.338612e-08 -1.956715e-08 8.660921e-10 4.629506e-10 -1.445187e-10
3.495628e-08 2.953587e-08 -2.142561e-08 6.361721e-09 2.507217e-09 2.716772e-09
4.281725e-08 2.058624e-08 -1.994070e-08 6.055211e-09 9.045284e-10 5.529490e-10
-2.025267e-08 7.782458e-08 -5.148841e-08 1.062245e-08 2.008192e-08 1.007345e-08
4.222624e-08 1.971544e-08 -2.033950e-08 4.815249e-09 -2.656719e-11 1.033103e-10
5.349453e-08 1.086640e-08 -2.359272e-08 5.989181e-09 6.471932e-10 6.427463e-10
8.024540e-08 -9.507507e-09 -2.885044e-08 6.935669e-09 -1.995359e-10 4.033521e-09
7.090176e-08 -3.462787e-09 -2.204835e-08 5.055655e-09 1.025949e-09 3.506852e-09
-2.673002e-08 5.056449e-08 -3.125699e-08 2.060327e-09 4.460448e-08 3.492544e-09
7.669752e-08 -8.271342e-09 -2.456224e-08 1.618977e-09 1.627856e-09 2.650520e-09
8.206980e-08 -1.028826e-08 -2.552443e-08 6.206711e-09 2.297815e-09 6.290688e-09
-3.182443e-08 4.030608e-08 -4.088125e-08 -3.470444e-09 -5.695007e-08 -2.784838e-08
-2.940383e-08 1.205145e-07 -8.475026e-08 5.219664e-09 -4.892501e-09 -1.635728e-08
-3.443970e-08 9.838324e-08 -6.717502e-08 9.718102e-11 -7.993368e-09 -1.405005e-08
-3.864923e-08 1.604079e-07 -1.057752e-07 8.615662e-09 -1.609217e-08 -1.314613e-08
7.020739e-08 -2.339496e-09 -2.373533e-08 2.715165e-09 1.691114e-09 1.986512e-09
8.019082e-08 -9.731817e-09 -2.979079e-08 8.520091e-09 3.536672e-09 6.922843e-09
7.424216e-08 -6.147574e-09 -2.260035e-08 1.562730e-09 3.401840e-10 8.425995e-10
-7.244660e-08 2.681655e-07 -1.429304e-07 5.059126e-08 -6.862314e-08 -2.093710e-08
-2.583503e-08 5.684917e-08 -4.239654e-08 3.904155e-10 -3.631899e-08 -2.726509e-08
7.204694e-08 -4.898584e-09 -2.283834e-08 1.994727e-09 5.155951e-10 1.687974e-09
7.156356e-08 7.012156e-08 -1.392007e-07 -4.969946e-08 4.693319e-08 -2.119655e-08
1.503210e-07 4.725410e-08 -1.583674e-07 -4.403563e-08 6.173008e-08 -1.824762e-08
1.129805e-07 7.185492e-08 -1.454508e-07 -7.747652e-08 3.366575e-08 -1.801136e-08
6.444196e-08 6.785345e-08 -1.022303e-07 -5.919493e-08 8.058878e-08 -3.812035e-08
-3.048848e-08 4.824788e-08 -3.766758e-08 -7.346111e-10 -9.138729e-09 -1.740775e-08
5.655460e-08 9.221753e-08 -1.380015e-07 -9.524546e-08 5.191411e-08 -3.074888e-08
4.291348e-08 2.030778e-08 -1.915548e-08 1.604926e-09 3.781524e-10 7.987273e-11
4.020199e-08 2.107102e-08 -1.940086e-08 1.314115e-09 -1.282809e-11 -3.359562e-10
7.059649e-08 8.049978e-08 -1.306398e-07 -5.470652e-08 3.739199e-08 -1.743777e-08
3.731128e-08 2.646303e-08 -2.269289e-08 6.436528e-09 1.038304e-09 1.258181e-09
3.824310e-08 2.510648e-08 -1.974002e-08 1.496284e-09 1.084219e-10 1.704043e-10
4.697019e-08 1.855239e-08 -1.930074e-08 3.842907e-09 7.845775e-10 1.407783e-09
4.188168e-08 1.916992e-08 -1.925979e-08 1.480655e-09 -5.934076e-11 2.350431e-10
-3.182246e-08 6.327061e-08 -4.496080e-08 1.547739e-08 -1.670114e-08 -1.111171e-08
7.178282e-08 8.470954e-08 -1.435332e-07 -5.695136e-08 2.360243e-08 2.699030e-09
5.373708e-08 1.217160e-07 -1.316896e-07 -1.012634e-07 3.813276e-08 -2.722148e-08
-3.019078e-08 4.646693e-08 -4.762942e-08 -2.624807e-09 -2.377948e-08 -1.616497e-08
3.279514e-09 9.289501e-08 -6.980215e-08 -2.812461e-08 1.814577e-08 -2.947573e-09
-1.417450e-08 4.490048e-08 -3.648375e-08 -1.179485e-08 -4.881786e-08 2.913318e-08
-4.125146e-08 1.980627e-07 -1.345642e-07 -6.784250e-08 -1.343582e-08 3.325045e-09
9.716446e-09 9.704492e-08 -6.793373e-08 5.520278e-08 1.882470e-08 1.039356e-08
-2.625657e-08 6.280223e-08 -2.891625e-08 3.166883e-11 6.423787e-09 -7.843144e-09
1.799098e-08 1.159689e-07 -9.179491e-08 9.355140e-08 3.902892e-08 2.097072e-08
-2.825989e-08 8.505962e-08 -5.482039e-08 2.879870e-09 2.600828e-08 2.527321e-10
4.003707e-08 2.931990e-08 -2.954802e-08 -2.890835e-09 -1.478750e-09 2.375674e-09
2.767138e-08 1.125893e-07 -9.849250e-08 9.409239e-08 1.194111e-08 8.902864e-09
1.773948e-09 1.026925e-07 -6.959187e-08 5.467412e-08 2.530915e-08 1.591917e-08
-3.099525e-08 6.517369e-08 -3.525096e-08 -9.526198e-09 6.103822e-08 1.819545e-08
5.228307e-08 1.127862e-08 -2.021036e-08 -4.375966e-10 -5.998071e-10 2.361133e-11
5.393282e-08 1.080506e-08 -2.068663e-08 -5.796663e-09 -1.324878e-09 1.453407e-09
5.081140e-08 1.431058e-08 -2.218963e-08 -8.467394e-09 -2.113239e-09 3.453007e-09
-2.978736e-09 1.252161e-07 -7.841085e-08 5.917579e-08 1.283222e-08 9.976911e-09
5.144807e-08 1.519769e-08 -2.138254e-08 -4.230224e-09 -9.951567e-10 1.371009e-09
2.767437e-08 1.125070e-07 -9.587971e-08 9.407864e-08 3.484583e-08 1.853076e-08
3.627603e-08 2.931990e-08 -3.193928e-08 -3.551354e-09 -8.093983e-10 5.461194e-09
2.373422e-08 6.126840e-08 -5.986789e-08 4.257242e-08 1.708562e-08 1.222371e-08
5.791281e-09 1.279696e-07 -9.035535e-08 8.603134e-08 1.262641e-08 1.191717e-08
-2.643900e-08 5.964606e-08 -2.959229e-08 7.541799e-10 7.372549e-09 1.205632e-09
2.403322e-07 -8.054994e-09 -1.111037e-07 -1.119853e-07 8.873695e-08 -9.236167e-08
5.561593e-08 3.686227e-08 -6.668541e-08 -9.620721e-08 1.131548e-07 -1.382579e-07
5.015218e-08 -3.461835e-08 -6.199953e-08 4.471087e-08 9.014855e-08 -2.700545e-08
5.350747e-08 1.129271e-08 -1.996708e-08 -2.412362e-09 -7.547552e-10 1.364813e-11
3.176937e-08 5.047148e-08 -3.978397e-08 -6.980505e-08 1.134838e-07 -1.110385e-07
5.231027e-08 6.225701e-08 -5.871622e-08 -6.302453e-08 1.179273e-07 -6.354642e-08
8.922892e-08 -1.858062e-08 -2.900816e-08 1.264676e-09 1.672704e-11 6.138823e-09
8.547037e-08 -1.284241e-08 -3.095707e-08 3.166821e-09 1.052755e-09 2.037874e-10
8.505285e-08 -1.003835e-08 -3.357487e-08 9.614196e-09 1.658545e-09 4.711049e-09
9.148444e-08 -1.417750e-08 -3.749768e-08 1.387268e-08 7.895342e-10 2.124736e-09
1.161511e-08 4.948627e-08 -3.209107e-08 -1.490010e-08 -2.580059e-08 2.543610e-08
-3.350877e-08 1.282508e-07 -7.942354e-08 4.988523e-09 1.374757e-09 -1.152192e-09
2.170056e-08 3.040789e-08 -2.527820e-08 -8.845294e-09 -1.227877e-08 1.155522e-08
2.274151e-08 6.765481e-08 -6.313311e-08 -2.949247e-08 -1.680341e-08 1.715920e-08
3.166867e-08 3.085082e-08 -2.986514e-08 -1.088871e-08 -6.557689e-09 1.365448e-08
9.063681e-08 -2.057238e-08 -3.783781e-08 6.016788e-09 4.786273e-09 1.391143e-08
1.078220e-07 -2.037423e-08 -4.907198e-08 1.632634e-08 -3.124887e-09 6.477862e-09
9.559185e-08 -1.623369e-08 -4.270896e-08 1.432893e-08 -4.310106e-11 6.203170e-09
4.199073e-08 2.322320e-08 -2.080389e-08 8.743020e-09 2.138856e-09 1.712259e-09
3.119011e-07 -2.626596e-07 9.017723e-08 -5.957065e-08 -3.576140e-08 -1.684321e-07
5.961754e-08 9.515107e-09 -2.429744e-08 -1.076313e-08 -1.382175e-09 2.242821e-09
4.662339e-08 1.776061e-08 -2.244900e-08 -4.228547e-09 -1.012728e-09 1.720445e-09
-1.729813e-08 -5.233411e-08 -2.955996e-08 -4.081699e-09 1.003957e-07 -2.621045e-08
4.929188e-08 1.269226e-08 -2.083873e-08 -6.824483e-09 -1.278026e-09 2.090934e-09
4.642576e-07 -2.805152e-07 1.081800e-07 -1.072363e-07 5.861091e-09 -9.400636e-08
5.891635e-08 1.020211e-08 -2.500498e-08 -1.145630e-08 -1.035337e-09 2.882803e-09
2.445582e-07 -6.074434e-08 -1.037335e-07 -3.010717e-08 5.866491e-08 -3.445934e-08
5.549649e-08 1.008252e-08 -2.246083e-08 2.496980e-09 1.517901e-10 -5.346026e-10
4.620961e-07 -1.240591e-07 -1.389922e-07 -1.558997e-07 3.926244e-09 -2.949473e-08
-6.305815e-08 1.337341e-07 -7.811369e-08 -1.089101e-08 -8.170447e-08 3.999508e-09
4.874404e-08 1.532090e-08 -2.127365e-08 -2.176229e-09 -1.739573e-10 3.261313e-10
4.600078e-08 1.929007e-08 -2.280483e-08 -5.543163e-09 -1.933653e-09 2.993747e-09
-3.625787e-08 1.312720e-07 -1.058053e-07 3.037261e-08 -8.922800e-08 -3.954362e-08
-4.900594e-08 1.700242e-07 -1.132401e-07 1.674033e-08 -2.417000e-08 -5.127539e-09
4.778739e-08 1.790042e-08 -2.050419e-08 -4.050151e-09 -1.917940e-09 2.114096e-09
-2.049290e-07 5.738098e-07 -1.466185e-07 4.572988e-08 -2.914748e-08 5.602049e-09
1.334470e-07 -1.585364e-08 -7.584619e-08 -5.647479e-08 -1.883647e-09 1.180311e-08
2.013081e-07 -2.347047e-08 -9.844812e-08 -9.743937e-08 -1.294399e-08 3.548364e-08
1.336903e-07 -3.860485e-09 -8.718065e-08 -8.858727e-08 -1.417465e-08 2.931699e-08
1.723599e-07 -3.203102e-08 -9.723504e-08 -7.706944e-08 -9.175203e-09 3.400400e-08
1.441338e-07 -1.200208e-08 -8.294274e-08 -7.059136e-08 -3.662771e-09 6.218523e-09
9.028532e-08 -1.707201e-08 -3.140921e-08 -2.125867e-09 -3.902279e-11 2.489509e-10
8.633893e-08 -2.116728e-08 -2.429223e-08 -5.476243e-10 5.617468e-11 7.464839e-09
1.186306e-07 1.436428e-09 -7.530048e-08 -7.002140e-08 -9.215088e-09 1.811438e-08
9.010339e-08 -1.843259e-08 -2.715283e-08 3.003617e-10 2.319287e-10 1.010217e-09
7.418485e-10 1.017353e-07 -8.110229e-08 -8.193775e-09 -1.400749e-09 8.600906e-09
6.075672e-08 4.787508e-09 -2.351892e-08 -1.014144e-08 -4.250038e-09 5.298490e-09
5.169234e-08 1.109994e-08 -1.977764e-08 -3.354614e-10 7.372059e-11 4.440397e-16
5.389137e-08 1.029622e-08 -2.104787e-08 -1.759108e-09 4.943068e-11 7.935828e-10
-2.381042e-08 8.633642e-08 -3.124797e-08 1.301779e-08 4.935262e-08 1.216800e-08
5.717336e-08 7.991171e-09 -2.207146e-08 -2.220689e-09 6.581820e-10 1.804372e-10
5.688595e-08 7.930795e-09 -2.188707e-08 -9.751194e-10 -3.602720e-10 3.402358e-10
1.316686e-08 8.296350e-08 -6.706673e-08 -1.276022e-08 -2.246898e-09 2.856585e-09
8.413360e-09 9.026316e-08 -7.518952e-08 -1.363909e-08 -5.327160e-09 1.879596e-08
5.930002e-08 5.929890e-09 -2.201629e-08 -6.224417e-10 -1.354459e-09 2.595097e-10
6.972037e-09 6.156767e-08 -4.791656e-08 -1.291324e-08 -7.824559e-09 1.628919e-08
7.630375e-09 6.722950e-08 -5.658141e-08 -8.581027e-09 -5.926090e-09 1.609265e-08
-4.355571e-09 5.024226e-08 -2.927987e-08 1.033153e-08 2.246575e-08 1.318192e-08
-1.112889e-08 7.544574e-08 -4.008525e-08 1.380486e-08 2.474603e-08 1.552726e-08
5.767101e-08 7.181798e-09 -2.197625e-08 -2.024448e-09 1.889056e-10 7.417289e-10
-2.202979e-08 5.715693e-08 -3.431481e-08 1.051752e-09 4.591367e-08 2.425713e-08
-1.157475e-08 7.423290e-08 -2.940541e-08 1.784690e-08 3.526267e-08 1.702403e-08
1.081294e-07 -2.218265e-08 -4.743431e-08 -1.620121e-08 -3.533143e-10 1.537055e-09
9.470267e-08 -1.971166e-08 -3.378358e-08 -3.643308e-09 -1.116473e-09 3.338152e-10
-2.445131e-08 1.173603e-07 -7.222076e-08 4.100110e-08 6.084099e-08 6.526437e-09
8.148891e-08 -1.390831e-08 -2.463755e-08 -2.203939e-09 -1.369811e-09 1.903629e-09
8.755019e-08 -1.583543e-08 -2.685050e-08 1.472785e-09 1.146100e-09 1.852109e-09
1.019232e-07 -2.081263e-08 -4.033992e-08 9.792587e-09 2.861640e-09 1.475773e-08
-1.816074e-08 9.341501e-08 -4.604146e-08 1.732543e-08 2.932651e-08 1.388232e-08
9.146851e-08 -1.829377e-08 -3.233445e-08 1.120621e-09 -3.397204e-10 -4.708590e-11
-1.107829e-08 6.788808e-08 -3.284200e-08 3.036335e-08 5.279818e-08 1.542653e-08
8.924738e-08 -1.342644e-08 -3.408851e-08 6.614513e-09 1.508888e-09 6.226543e-09
8.370372e-08 -2.842174e-09 -3.826063e-08 1.864190e-08 2.142149e-09 6.059877e-09
1.032660e-07 -2.308458e-08 -4.043649e-08 4.902881e-09 3.794169e-10 1.618462e-08
8.719320e-08 -1.821028e-08 -2.773456e-08 8.180159e-10 1.005164e-09 3.072410e-09
1.031615e-07 -2.517428e-08 -4.179685e-08 -3.864324e-09 -1.564462e-09 1.544917e-08
8.440223e-08 -1.428840e-08 -3.195142e-08 4.075543e-09 1.873329e-10 3.673438e-09
8.323325e-08 -1.432423e-08 -2.549485e-08 8.962611e-10 1.209911e-09 1.531784e-09
8.367202e-08 -2.853606e-09 -3.684797e-08 1.861963e-08 9.587829e-10 2.551000e-09
7.666980e-08 -6.107594e-09 -2.538079e-08 1.007277e-08 3.936243e-09 8.705695e-09
8.190178e-08 -1.327005e-08 -2.340935e-08 3.244765e-09 2.216797e-09 4.924711e-09
7.767930e-08 -1.119582e-08 -2.650316e-08 1.251733e-08 3.032732e-09 1.062341e-08
8.491370e-08 -1.610327e-08 -2.595249e-08 4.908490e-09 2.608406e-09 6.662040e-09
8.493995e-08 -1.277289e-08 -2.605848e-08 5.219368e-09 1.603786e-09 6.534633e-09
-8.633368e-08 3.007985e-07 -1.135817e-07 1.240702e-08 5.457658e-08 -8.659500e-10
-4.011022e-08 1.737725e-07 -1.153124e-07 4.813818e-09 -2.184155e-09 -5.022913e-09
-1.628015e-07 3.737457e-07 -9.910602e-08 -1.672739e-08 2.697166e-08 -1.759194e-09
-5.456394e-08 2.258575e-07 -1.314905e-07 4.372879e-09 -5.048716e-08 -2.068527e-09
-1.370649e-07 3.771528e-07 -1.142265e-07 -6.253303e-09 2.535805e-08 3.412084e-09
-1.783896e-08 1.199691e-07 -8.608745e-08 6.242000e-09 -2.078582e-09 -6.430268e-09
-1.343002e-07 3.717581e-07 -1.119506e-07 5.207387e-08 1.993083e-08 2.241077e-09
-1.218184e-08 1.044407e-07 -7.614109e-08 3.924403e-09 -5.444231e-09 -9.281663e-09
-1.153539e-07 3.804921e-07 -1.193866e-07 3.857640e-08 7.728721e-08 2.599455e-09
-4.436058e-08 1.846972e-07 -1.225188e-07 -6.344633e-09 -1.682937e-11 3.665845e-09
-1.040399e-07 2.812779e-07 -1.112113e-07 3.133537e-08 6.354512e-08 -7.511758e-09
3.835306e-08 2.529666e-08 -2.548158e-08 9.661931e-09 1.613728e-09 1.795040e-09
-1.399112e-07 3.687376e-07 -9.796413e-08 2.009197e-08 7.993215e-08 -3.206504e-09
3.912762e-08 3.225059e-08 -2.855610e-08 1.817626e-08 5.162665e-09 4.921749e-09
4.757343e-08 1.678382e-08 -2.844168e-08 1.671642e-08 3.112441e-09 4.231343e-09
5.242026e-08 2.157553e-08 -3.712112e-08 3.127849e-08 2.702954e-09 -1.818276e-10
-1.485785e-07 3.603694e-07 -1.021525e-07 1.073935e-08 7.132430e-08 -2.306061e-09
-2.526231e-08 6.828902e-08 -3.056981e-08 -2.086834e-08 5.924313e-08 -1.176852e-08
4.418812e-08 2.867095e-08 -4.613844e-08 3.005251e-08 -8.440004e-10 2.549067e-10
4.679677e-08 2.144065e-08 -3.755420e-08 2.461258e-08 5.100026e-09 5.336507e-09
4.412004e-08 3.420524e-08 -3.633984e-08 2.548946e-08 5.357177e-10 5.366241e-10
-3.146131e-08 9.985830e-08 -5.527543e-08 -5.027183e-09 4.097567e-08 -7.330866e-09
-3.413843e-08 1.054943e-07 -6.187628e-08 -1.358348e-08 4.718724e-08 -1.544733e-08
-3.689146e-08 1.275289e-07 -7.808203e-08 3.300340e-09 4.094914e-09 3.741772e-10
-1.637511e-08 1.384665e-07 -1.137867e-07 -6.519190e-08 2.711198e-08 -1.112279e-08
2.910616e-08 1.080917e-07 -1.145305e-07 -5.857661e-08 7.793049e-09 -8.045444e-09
-4.303070e-08 7.942676e-08 -3.437565e-08 -8.928195e-09 7.421241e-08 -1.140227e-08
-2.854645e-08 9.924357e-08 -4.579379e-08 -2.301854e-09 1.108376e-08 -9.989632e-09
-3.761666e-08 6.597810e-08 -3.156336e-08 1.661092e-08 6.282641e-08 -1.569009e-08
2.282802e-07 3.455476e-08 4.287250e-09 -3.883634e-07 9.701930e-09 2.525622e-08
9.841533e-08 1.025071e-07 -1.120069e-07 -2.228929e-07 6.314172e-08 -2.848440e-08
-4.527990e-08 1.274991e-07 -4.531387e-08 -2.368964e-09 -9.625420e-08 -6.094706e-09
2.154558e-07 5.215137e-08 -1.577468e-07 -1.736973e-07 2.540859e-08 -6.506432e-09
5.265804e-08 1.809064e-08 -3.305264e-08 -1.794530e-08 -1.027828e-09 5.849505e-09
5.206817e-08 2.694817e-08 -3.753310e-08 -2.018554e-08 -4.953322e-10 8.512933e-10
4.232889e-08 2.926734e-08 -3.922291e-08 -2.144095e-08 -1.136019e-08 1.535637e-08
3.869279e-08 2.477977e-08 -2.639306e-08 -9.331842e-09 -2.659135e-09 8.423634e-09
-2.044691e-08 6.188860e-08 -3.044683e-08 7.664723e-09 9.852804e-09 3.719083e-09
4.898977e-08 1.854295e-08 -2.590606e-08 -7.237406e-09 -3.454534e-10 -1.840999e-10
5.925123e-08 1.311996e-08 -3.731592e-08 -2.105229e-08 -4.150213e-09 6.505372e-09
3.836814e-08 2.833813e-08 -2.731080e-08 1.361802e-08 4.641988e-09 6.083337e-09
7.561082e-08 3.886389e-09 -5.065475e-08 -3.093424e-08 -3.279509e-09 9.334740e-09
-4.833752e-08 1.874467e-07 -1.304979e-07 -7.520592e-09 -1.619631e-09 -1.967778e-09
-6.179177e-08 2.146221e-07 -1.176054e-07 -5.182755e-09 -1.144394e-07 -4.457828e-09
5.977608e-08 1.254920e-08 -2.957856e-08 -1.676632e-08 -3.815006e-09 5.198427e-09
4.041004e-07 -1.117306e-07 -1.933625e-07 -6.111933e-08 4.069052e-08 -2.089590e-08
-5.172446e-08 -6.004480e-08 -3.182800e-09 -3.653899e-08 1.096952e-07 -1.523081e-07
-6.302806e-08 2.975364e-07 -1.318001e-07 -1.723810e-07 -2.957805e-08 1.514403e-09
-3.697422e-08 2.137348e-07 -1.248485e-07 -9.166986e-08 -4.532992e-08 3.260685e-08
-2.973045e-08 2.618212e-07 -1.396984e-07 -1.517185e-07 -2.654943e-08 1.407430e-08
3.432407e-07 -7.862683e-08 -1.502432e-07 -3.596355e-08 7.317948e-08 -3.884976e-08
-2.743072e-08 1.886458e-07 -1.283504e-07 -1.112937e-07 -6.391032e-08 3.405379e-08
-3.799094e-09 2.267810e-07 -1.348536e-07 -1.739672e-07 -2.422659e-08 6.983257e-10
-8.075087e-08 3.758835e-07 -9.618739e-08 -2.378019e-07 -7.878206e-09 -3.724855e-09
-7.588753e-08 3.146535e-07 -1.406800e-07 -1.615689e-07 -4.187468e-08 1.242238e-08
4.144603e-07 -5.544215e-08 -1.403655e-07 -2.694548e-07 3.084461e-08 -2.294107e-08
4.950222e-07 -1.703660e-07 -1.158502e-08 -1.874591e-07 8.953281e-08 -1.223702e-07
1.336935e-08 2.077991e-07 -1.041491e-07 -2.211776e-07 -4.693114e-08 3.069182e-08
3.572771e-07 -1.060751e-07 -1.645609e-07 -1.877647e-07 1.114085e-08 -4.480373e-09
-9.392563e-09 1.807094e-07 -1.123792e-07 -7.861235e-08 2.472833e-08 -1.269696e-08
-3.063011e-08 8.877872e-08 -4.767616e-08 2.427856e-09 2.198152e-08 -8.826309e-09
1.395814e-08 1.329565e-07 -1.257190e-07 -1.106731e-07 5.359765e-08 -2.308872e-08
1.925902e-08 1.599200e-07 -1.297483e-07 -1.029991e-07 2.445762e-08 -2.037049e-09
5.140116e-07 -1.547304e-07 -9.124419e-08 -2.343055e-07 -1.970588e-08 5.377892e-09
4.425305e-07 -1.645406e-07 -1.813624e-07 -1.002682e-07 -2.685406e-09 -4.330108e-09
-1.026933e-07 3.328261e-07 2.290711e-08 3.388343e-07 -2.163577e-08 -2.970737e-09
5.893889e-07 -2.656010e-07 -1.295738e-07 -7.930370e-08 1.228103e-09 -1.945763e-08
4.090871e-07 -7.443665e-08 -1.255299e-07 -1.934130e-07 9.042846e-08 -1.134790e-07
2.647355e-08 3.760392e-07 7.483322e-08 4.729375e-07 -5.433145e-08 -3.700470e-08
-3.238900e-08 9.171609e-08 -6.724490e-08 7.804655e-09 -5.985056e-08 -2.717824e-08
8.765106e-08 2.450055e-08 3.222015e-07 5.362768e-07 2.038866e-08 4.597250e-09
2.385625e-07 1.078800e-08 -5.915427e-08 3.264109e-07 -4.555254e-08 -1.649663e-08
-3.551512e-08 9.514775e-08 -8.223982e-08 3.964148e-09 -3.803386e-08 -1.291113e-08
1.007256e-07 1.897899e-07 1.268321e-07 4.892697e-07 -2.622592e-08 2.568246e-08
-6.318727e-08 1.547270e-07 -1.088716e-07 2.837459e-09 -9.374466e-08 -3.361297e-08
-3.241577e-08 8.637391e-08 -6.216202e-08 4.584982e-09 -8.889458e-09 -1.692591e-08
2.742570e-07 -6.800739e-09 4.877531e-08 4.762264e-07 -1.373966e-08 3.997145e-08
3.067350e-07 -6.790832e-09 7.632840e-08 3.820220e-07 2.262317e-08 -1.988655e-09
-4.538405e-08 8.299904e-08 -4.630705e-08 1.635215e-08 -1.209940e-07 -3.559266e-08
-3.980297e-08 1.284259e-07 -8.057442e-08 8.135586e-09 -6.334081e-08 -1.742952e-08
-4.582281e-08 1.214935e-07 -8.009045e-08 2.077974e-08 -6.012994e-08 -1.748999e-08
-9.925111e-09 7.268351e-08 -5.855786e-08 2.379092e-08 3.112143e-08 2.007914e-08
1.754319e-08 4.297595e-08 -2.448683e-08 2.879584e-09 2.947457e-09 3.394888e-09
1.250042e-07 9.531874e-08 -1.054599e-07 2.556783e-07 -6.299029e-08 -4.146267e-08
2.070450e-07 1.896424e-07 2.841084e-08 4.730907e-07 -3.534876e-08 -3.893177e-08
6.636641e-07 -3.529895e-07 -9.718130e-08 3.709953e-08 -8.648660e-09 -5.314421e-08
2.330720e-08 4.190321e-08 -3.312897e-08 6.159700e-09 1.029334e-09 4.783710e-09
2.762591e-08 3.500115e-08 -3.098876e-08 1.676130e-08 9.345452e-09 8.534146e-09
5.452682e-09 7.365484e-08 -4.917914e-08 9.013032e-09 4.215772e-10 5.131825e-09
2.946602e-07 -6.654635e-07 2.066635e-06 -5.979408e-07 -4.006776e-08 -7.171693e-08
2.336724e-08 4.259933e-08 -2.868476e-08 5.896054e-09 3.171664e-09 4.264838e-09
2.373422e-08 5.739221e-08 -4.641516e-08 3.360421e-08 1.154550e-08 9.550935e-09
2.228113e-09 7.754108e-08 -5.114379e-08 7.390861e-09 -7.182081e-10 2.612639e-09
5.851307e-07 -2.977403e-07 1.662764e-07 -3.172356e-07 -8.783087e-08 3.480073e-08
6.347938e-09 5.468942e-08 -3.297918e-08 1.259081e-08 1.003220e-08 7.055225e-09
4.944713e-07 -4.001019e-07 6.060835e-07 -4.900441e-07 1.405357e-07 -4.586066e-08
5.153721e-07 -1.856334e-07 -1.827350e-07 1.067583e-08 -1.191097e-08 9.493790e-09
5.735839e-07 -2.030391e-07 -1.982340e-07 9.529180e-09 -1.605422e-08 -2.669769e-08
7.352456e-09 7.736435e-08 -5.274589e-08 3.359717e-08 2.734037e-08 1.592997e-08
1.833960e-07 3.928009e-08 -1.140850e-07 2.292810e-07 2.628050e-08 4.169047e-08
1.735045e-08 4.408323e-08 -2.921753e-08 2.422541e-09 1.219546e-09 5.791156e-09
1.073675e-08 4.145211e-08 -2.971757e-08 1.647077e-08 2.146510e-08 1.768912e-08
2.897139e-08 5.024294e-08 -3.792199e-08 2.791857e-08 1.049155e-08 7.342285e-09
2.314234e-07 -4.374810e-08 -1.071030e-07 1.456797e-07 2.491415e-08 6.263299e-08
2.327730e-07 6.092272e-10 -8.840649e-08 2.049350e-07 2.278401e-08 4.585016e-08
2.356770e-08 4.059066e-08 -3.724187e-08 2.152251e-08 1.368009e-08 1.171296e-08
2.722682e-07 -3.972128e-08 -7.435525e-08 2.717734e-07 2.300142e-09 8.728181e-09
2.437442e-07 -7.008144e-09 -1.095682e-07 2.047903e-07 2.601316e-09 2.211893e-08
1.793074e-07 3.371890e-08 -1.162784e-07 1.806263e-07 2.045634e-08 3.131617e-08
2.535199e-07 -5.409843e-08 -8.681872e-08 -8.973559e-08 9.134178e-08 -6.943577e-08
-5.106251e-07 6.054935e-07 4.199265e-07 -2.201984e-07 5.995101e-08 -8.970218e-09
-5.183635e-07 5.391159e-07 7.514347e-07 -4.370562e-07 -9.186895e-08 5.573740e-08
2.286517e-07 -8.049827e-08 -1.165979e-07 -5.269642e-08 6.987481e-08 -3.121265e-08
-4.337358e-08 5.202389e-08 -4.694525e-08 4.353901e-08 -1.208654e-07 2.135556e-08
-6.401698e-07 3.711605e-07 1.481876e-06 -5.539808e-07 1.694500e-07 -1.149675e-07
4.632675e-07 -2.169435e-07 -8.233264e-08 -7.590468e-08 4.651474e-09 -5.860251e-08
-3.929203e-07 6.448362e-07 1.434549e-07 -1.495494e-07 -3.456902e-08 6.094125e-08
-2.233997e-07 2.166465e-07 4.389368e-07 -6.163967e-07 2.145676e-07 -4.506354e-08
4.520193e-07 -1.678681e-07 -1.018713e-07 -1.663721e-07 4.403465e-08 -5.136714e-08
4.088236e-07 -7.785964e-08 -3.847486e-08 -2.377530e-07 2.585488e-08 -2.653262e-08
-2.549061e-07 4.650319e-07 2.125867e-07 -3.298730e-07 -2.916982e-08 -1.682895e-08
4.616571e-07 -1.442127e-07 1.568600e-07 -3.783116e-07 1.022501e-08 -7.254019e-08
4.827038e-07 -1.595607e-07 -4.344491e-08 -2.760406e-07 4.727924e-08 -2.420645e-08
5.349947e-07 -1.748723e-07 -1.046826e-07 -1.357672e-07 4.867746e-08 -9.091011e-08
5.564650e-07 -2.930528e-07 8.429598e-09 -1.942384e-07 2.432684e-09 -9.774452e-09
5.423732e-07 -2.654973e-07 2.087088e-07 -3.291954e-07 9.030114e-08 -5.609476e-08
4.440502e-07 -2.021741e-07 1.374777e-07 -3.265723e-07 -8.882585e-08 5.331268e-08
-2.377818e-07 5.506661e-07 -3.939447e-08 -8.996286e-08 -2.238072e-08 -1.681467e-08
6.618284e-07 -5.216019e-07 5.429045e-07 -2.587184e-07 -1.236447e-08 -6.777367e-08
-6.272147e-07 2.887788e-08 1.586220e-06 -6.615701e-07 4.022523e-07 -1.336892e-07
-5.970657e-07 7.218703e-07 5.451450e-07 -1.033351e-07 4.567569e-09 1.269522e-07
-1.383447e-07 4.327421e-07 -1.649032e-07 -7.563211e-08 -4.046883e-08 2.503364e-08
-1.000747e-07 3.604714e-07 -1.514699e-07 6.142497e-08 -2.757776e-08 8.090370e-10
-2.025794e-07 4.011231e-07 -8.551675e-08 -1.401297e-08 -9.809614e-08 -1.710502e-09
-1.775706e-07 5.109749e-07 -1.383989e-07 -1.209342e-07 -5.719411e-08 2.364537e-08
6.149324e-07 -3.927925e-07 4.571353e-07 -3.147407e-07 -1.505666e-08 -6.885064e-08
1.212091e-07 1.384291e-07 -1.033130e-07 2.814922e-07 3.707876e-08 4.402114e-08
1.701204e-08 4.734580e-08 -2.900117e-08 4.351713e-09 3.009836e-09 7.914220e-09
9.717282e-08 1.013342e-07 -1.152269e-07 2.025691e-07 4.759130e-08 4.279903e-08
2.615841e-08 3.482166e-08 -2.227490e-08 9.471684e-09 5.600498e-09 4.082011e-09
1.642992e-08 5.172456e-08 -3.166525e-08 1.443744e-08 1.081592e-08 9.916953e-09
2.390525e-08 3.830623e-08 -2.464905e-08 2.812379e-09 2.117633e-09 4.670576e-09
-2.231807e-07 3.838458e-07 4.905558e-07 -4.719634e-07 9.803665e-08 -8.501177e-08
-3.543157e-07 5.858241e-07 3.020383e-07 -3.635540e-07 -4.365305e-09 2.311772e-08
1.790289e-08 4.421513e-08 -2.677070e-08 3.114462e-09 2.542908e-09 5.948190e-09
2.553748e-08 3.457263e-08 -2.230053e-08 3.071565e-09 1.639856e-09 3.045954e-09
2.858582e-08 3.443262e-08 -2.618780e-08 8.479370e-09 3.944473e-09 2.490666e-09
3.058990e-08 4.855262e-08 -5.239379e-08 3.269859e-08 -4.546327e-12 9.333321e-10
1.882243e-08 3.886190e-08 -2.344000e-08 3.257910e-09 2.653331e-09 4.486936e-09
2.054438e-08 3.809881e-08 -2.244463e-08 2.828282e-09 2.148817e-09 2.587401e-09
6.479409e-07 -4.462217e-07 4.529219e-07 2.878750e-07 3.975416e-09 -6.424687e-08
7.191845e-07 -3.389154e-07 -4.285783e-08 9.190508e-08 -2.665097e-08 -3.489049e-08
5.942873e-07 -3.394637e-07 8.789348e-08 1.926069e-07 -4.737240e-08 -1.612587e-08
6.474657e-07 -8.531879e-07 1.225865e-06 1.448487e-07 1.464715e-08 1.664130e-07
6.686761e-07 -2.422993e-07 7.519101e-08 -2.638249e-07 -9.648478e-09 1.162718e-08
7.384542e-07 -5.896411e-07 7.035547e-07 9.760436e-08 -6.216099e-09 -5.821022e-08
4.045366e-07 -1.948738e-07 -2.582552e-08 1.498657e-07 -7.353310e-09 2.831793e-08
5.654591e-07 -2.658956e-07 2.725465e-07 -2.867876e-07 3.867260e-08 -7.756734e-08
6.685557e-07 -2.729899e-07 7.820821e-08 -2.681229e-07 -1.518487e-08 1.224241e-08
5.177772e-07 -3.160075e-07 1.440024e-07 -1.225671e-07 3.560859e-08 1.898879e-08
4.055331e-07 -1.973903e-07 -3.687978e-08 -1.380035e-07 -8.295852e-09 5.923239e-08
4.851282e-07 -2.369482e-07 8.668262e-08 -2.070573e-07 -4.220666e-10 5.059511e-08
2.888340e-07 -7.956813e-09 -7.900756e-08 -3.090020e-07 -2.564044e-08 5.700986e-08
7.354112e-07 -4.616058e-07 3.701108e-07 1.311290e-07 -1.159691e-07 -1.016521e-09
4.862820e-07 -2.832718e-07 9.180630e-08 -2.008929e-07 -1.110618e-08 4.814657e-08
6.703797e-07 -4.211610e-07 2.809086e-07 2.055134e-07 1.376600e-07 7.545092e-08
-1.532642e-08 4.713898e-08 -2.702687e-08 9.091236e-09 3.816607e-08 1.725737e-08
6.845592e-07 -3.452422e-07 5.081361e-08 1.344217e-07 1.015005e-08 1.009187e-08
6.821232e-08 -7.383285e-10 -2.527930e-08 4.522682e-09 1.297516e-09 8.343744e-10
7.802671e-08 -8.858764e-09 -2.985833e-08 3.709116e-09 6.703382e-10 1.604992e-09
8.055363e-08 -5.775744e-09 -2.810289e-08 9.874680e-09 1.709071e-09 4.859423e-09
7.692486e-08 -3.451519e-09 -2.859973e-08 6.806830e-09 1.671831e-09 1.239860e-09
7.819376e-08 -2.653346e-09 -3.388031e-08 1.255377e-08 2.647874e-10 4.376269e-10
6.981453e-08 -1.825670e-09 -3.046372e-08 1.222665e-08 4.167129e-09 6.199663e-09
6.956862e-08 -1.584988e-09 -2.627894e-08 1.218364e-08 2.274320e-09 4.890600e-09
6.974535e-08 -1.871754e-09 -2.980368e-08 1.213243e-08 5.819314e-10 3.492312e-09
7.073641e-08 -4.476151e-10 -3.445308e-08 1.679127e-08 1.937972e-09 4.101312e-09
-1.103037e-08 8.113427e-08 -4.962375e-08 -2.230987e-09 9.055111e-10 -2.764233e-09
-1.339151e-08 8.566652e-08 -5.460076e-08 -7.185080e-09 3.027964e-09 -1.951940e-09
-1.145651e-08 8.399046e-08 -5.409438e-08 -5.371898e-09 2.187859e-09 2.505921e-10
-7.050922e-09 7.059949e-08 -5.843817e-08 1.512397e-09 -2.881490e-08 -3.736749e-09
4.575932e-08 7.054865e-08 -8.028931e-08 6.769049e-08 6.815371e-09 1.757147e-09
-2.113072e-08 7.362545e-08 -3.475520e-08 2.063544e-09 -5.605494e-09 -1.967579e-09
1.306245e-08 4.784006e-08 -3.050814e-08 2.410227e-08 2.437872e-08 1.737593e-08
7.857098e-08 -1.140641e-08 -2.541695e-08 -6.258458e-09 -1.599167e-09 5.924263e-09
1.155661e-07 -2.314396e-08 -5.722639e-08 -1.261902e-08 -3.400067e-10 1.629642e-08
-2.113073e-08 6.623252e-08 -3.125396e-08 1.590968e-17 -8.184364e-09 -4.279512e-09
1.141563e-07 -3.034640e-08 -5.677323e-08 -9.340369e-09 -1.688007e-09 1.666855e-08
1.071375e-07 -2.414974e-08 -4.246836e-08 -8.876181e-10 -3.197120e-09 2.673254e-09
8.751049e-08 -1.674119e-08 -2.868081e-08 -1.160585e-09 -1.092940e-09 1.507101e-09
8.952651e-08 -1.747798e-08 -3.929362e-08 -1.407744e-08 -2.456022e-09 1.364833e-08
-1.654406e-08 7.664602e-08 -5.532017e-08 1.426173e-09 -1.181183e-08 1.981920e-09
1.053712e-07 -1.561122e-08 -4.743431e-08 -1.577858e-08 -6.546766e-11 1.742967e-09
9.435073e-08 -1.561134e-08 -3.708346e-08 -1.293903e-08 -7.664949e-10 7.812523e-10
-1.300643e-08 7.314622e-08 -3.358436e-08 2.351672e-09 -2.193352e-08 -7.374481e-09
6.997002e-08 -2.619365e-09 -2.451804e-08 -4.553477e-09 -1.604576e-09 2.239539e-09
-1.595838e-08 8.275728e-08 -5.150831e-08 -9.837092e-10 -5.966995e-09 -1.091503e-08
-1.943239e-08 6.751885e-08 -3.251553e-08 -4.569840e-09 -7.380912e-09 -7.737045e-09
-1.724680e-08 6.631923e-08 -3.327265e-08 -3.258938e-09 -1.756758e-08 -4.858902e-09
1.785368e-07 7.454889e-08 -1.720365e-07 -1.585225e-07 1.100779e-08 -7.555961e-09
7.409652e-08 -2.585409e-09 -3.242279e-08 -1.405931e-08 -5.836606e-09 9.002283e-09
-9.098197e-09 9.523176e-08 -6.055717e-08 9.197295e-09 7.357600e-10 8.201041e-10
2.225991e-08 5.380130e-09 -4.038971e-08 -4.453121e-08 1.264931e-07 -1.148318e-07
3.392384e-07 -6.666007e-08 -1.215467e-07 -1.443333e-07 6.669409e-08 -1.102005e-07
3.279920e-08 2.862548e-08 -2.060325e-08 1.946694e-09 5.397915e-10 2.728996e-10
-2.594917e-10 7.685077e-08 -4.670400e-08 4.236662e-09 3.234719e-09 4.520896e-09
1.401212e-08 7.664452e-08 -5.446973e-08 3.914272e-08 2.442791e-08 1.607866e-08
1.600780e-08 9.824076e-08 -8.662373e-08 6.127109e-08 5.959324e-09 -3.285595e-10
3.731162e-07 -6.468618e-08 -2.176469e-07 -2.958177e-08 2.596285e-08 2.935267e-09
5.264197e-08 2.762552e-08 -6.047954e-08 -2.573909e-08 8.290812e-08 -3.204964e-08
1.262465e-07 -1.453027e-08 -1.131379e-07 -8.249006e-09 8.681149e-08 -6.810407e-09
2.241444e-07 -5.204958e-08 -1.260458e-07 -8.403960e-09 7.974443e-08 -1.347587e-09
3.051714e-07 -4.885026e-08 -1.823747e-07 -6.414483e-08 5.502441e-08 -2.460568e-08
3.671161e-07 -6.486423e-08 -1.904031e-07 -2.490015e-08 5.199568e-08 -1.157042e-08
4.899095e-09 7.993794e-08 -7.801620e-08 -4.124259e-08 -5.159277e-08 4.144106e-08
2.276789e-08 9.366132e-08 -8.751577e-08 -7.681398e-08 -2.559193e-08 2.434911e-08
3.615104e-08 1.110216e-07 -1.010462e-07 -9.601163e-08 -3.871578e-08 2.529693e-08
1.344986e-08 7.221919e-08 -5.655220e-08 -5.339397e-09 -1.180436e-09 1.238632e-08
-3.936366e-09 8.800021e-08 -5.636920e-08 4.549926e-09 -2.205139e-16 1.682157e-10
2.056362e-08 9.541979e-08 -7.840885e-08 -5.125763e-08 -9.157950e-09 1.167803e-08
5.745525e-08 8.762749e-09 -2.552709e-08 1.050802e-08 1.466913e-09 2.275471e-09
6.443487e-08 7.844908e-09 -3.527996e-08 2.062192e-08 3.162459e-09 2.759134e-10
7.660688e-08 7.881940e-09 -3.977660e-08 2.916398e-08 3.375202e-09 6.278477e-09
3.272545e-08 2.896953e-08 -2.145898e-08 1.600408e-09 6.592622e-11 1.547967e-09
-2.393123e-08 1.178505e-07 -7.139029e-08 6.468152e-09 -8.884142e-11 2.723813e-09
3.085337e-08 3.413512e-08 -2.596822e-08 5.482510e-09 1.200044e-09 1.026299e-09
-2.261440e-08 8.646940e-08 -4.508152e-08 -9.583043e-09 1.665410e-08 -7.505552e-09
-2.120539e-08 6.195089e-08 -2.984895e-08 -1.285048e-09 8.617815e-09 -7.690363e-09
-2.507749e-08 7.586147e-08 -2.766501e-08 -4.001984e-09 1.968144e-08 -1.150423e-08
-1.784865e-08 8.931955e-08 -5.237643e-08 -2.849778e-09 4.345313e-09 -5.381760e-09
5.776606e-08 8.467922e-09 -2.204529e-08 1.011779e-09 -2.402110e-10 3.628981e-10
-3.511223e-08 1.157391e-07 -7.220373e-08 1.664032e-08 1.543482e-08 3.062122e-09
-2.515220e-08 1.152063e-07 -6.541932e-08 3.969891e-09 1.023750e-08 4.925174e-09
-2.730091e-08 1.346020e-07 -7.688264e-08 1.309813e-08 4.166133e-09 1.392061e-09
-3.517876e-08 9.641252e-08 -5.188850e-08 -5.302163e-09 3.346546e-08 -1.016567e-10
9.289432e-08 -1.873225e-08 -3.204887e-08 2.705317e-10 -5.398681e-10 5.738428e-10
9.219618e-08 -1.838860e-08 -3.203686e-08 3.127858e-11 4.414032e-10 2.338322e-10
-2.157660e-08 8.228820e-08 -3.764220e-08 -2.777590e-09 6.037030e-09 -8.784911e-09
-2.126111e-08 7.274274e-08 -4.129564e-08 -7.664830e-10 8.021610e-09 -1.096569e-08
-1.858700e-08 6.431905e-08 -2.824384e-08 -4.533997e-09 6.627126e-09 -4.604929e-09
3.670801e-07 -1.476038e-07 -1.355751e-07 -1.307679e-08 -2.768493e-08 -6.058989e-09
9.193325e-08 -1.825628e-08 -3.135897e-08 -3.980907e-10 -1.820235e-10 7.040475e-10
9.276528e-08 -1.877942e-08 -3.202931e-08 -7.383681e-10 5.159842e-10 6.337495e-10
9.196917e-08 -1.873997e-08 -2.995601e-08 -6.872847e-11 1.269116e-10 1.232358e-09
9.196917e-08 -1.831458e-08 -2.985479e-08 1.255149e-11 -8.829635e-11 1.202140e-09
9.284648e-08 -1.902752e-08 -3.227370e-08 3.979285e-10 8.598566e-12 2.619900e-10
6.899799e-07 -3.245630e-07 -5.944105e-08 1.236358e-07 2.071838e-08 -1.114793e-08
5.223125e-07 -2.606722e-07 -1.303152e-07 1.585058e-07 -1.215367e-08 1.317632e-09
9.129814e-08 -1.712623e-08 -3.137774e-08 -1.278774e-09 -2.688976e-13 5.616021e-10
5.690549e-07 -1.980655e-07 -5.528210e-08 2.176256e-07 -1.948853e-08 -2.422312e-08
6.083973e-07 -2.487991e-07 -8.913369e-10 1.439414e-07 -5.997203e-08 -8.157854e-08
6.109579e-07 -2.146852e-07 -2.300269e-07 1.171487e-09 1.606454e-09 9.182958e-09
4.803706e-07 -2.071948e-07 -1.338867e-07 1.730893e-09 -1.507945e-08 -4.605576e-08
2.132979e-07 -1.134531e-07 -7.728405e-08 -6.228670e-09 -5.435308e-08 1.227236e-08
3.511014e-07 -1.310326e-07 -1.257806e-07 6.012879e-08 -4.027415e-08 -1.502663e-08
4.520620e-07 -1.537572e-07 -1.524478e-07 2.104697e-07 -1.400139e-09 -2.960870e-09
-3.042530e-08 1.260531e-07 -7.490332e-08 4.020583e-09 3.086862e-10 2.583041e-09
3.292624e-08 3.157275e-08 -2.636049e-08 3.986205e-09 2.352394e-10 -1.089778e-09
-2.102848e-07 -8.014607e-07 2.935967e-06 7.589303e-07 9.043075e-07 7.807306e-07
6.487898e-07 -4.462208e-07 4.529219e-07 3.843072e-07 -1.776021e-08 -6.434254e-08
7.153274e-07 -3.433746e-07 7.097534e-08 2.084082e-07 -3.665008e-08 -6.294805e-09
4.146036e-07 -2.390122e-07 -8.235106e-08 1.105170e-07 -3.107083e-08 4.636102e-08
5.570075e-07 -2.924852e-07 1.533652e-07 -1.897689e-07 -6.639914e-09 -8.297919e-08
4.971215e-08 3.543565e-08 -4.989972e-08 -3.468857e-08 -5.856565e-09 1.324393e-08
-3.490448e-08 1.393598e-07 -8.173250e-08 -8.352706e-09 2.056179e-08 -3.650562e-09
-3.702698e-08 1.245905e-07 -6.817500e-08 -1.100221e-08 1.754329e-08 -4.165859e-09
2.364057e-08 4.940329e-08 -4.805816e-08 -1.089904e-08 -4.329902e-09 8.218331e-09
4.163156e-08 3.705845e-08 -3.588563e-08 -1.815659e-08 -8.944149e-09 1.000576e-08
3.785707e-08 3.546722e-08 -3.908847e-08 -1.304417e-08 -8.384618e-10 1.704325e-09
3.460415e-08 3.146239e-08 -2.926496e-08 -4.832500e-09 -2.092895e-09 8.815589e-09
5.830530e-08 4.224218e-08 -6.507376e-08 -5.533889e-08 -1.059085e-08 2.208858e-08
-4.186616e-08 1.408319e-07 -8.696267e-08 -7.237259e-09 8.623905e-09 -1.583548e-09
-3.087568e-08 1.178392e-07 -6.709187e-08 -2.255827e-09 8.411011e-09 -5.027006e-09
-3.043452e-08 1.153340e-07 -6.523617e-08 -4.166034e-09 8.407419e-09 -6.906322e-09
-3.066766e-08 1.201840e-07 -7.004511e-08 -4.338376e-09 3.648535e-10 -3.332337e-09
8.822979e-08 1.222355e-07 -1.608411e-07 1.183423e-07 -1.408055e-08 -2.535059e-09
6.323470e-08 1.002264e-07 -1.394385e-07 4.542786e-08 -1.371873e-08 -5.063943e-09
3.396049e-08 3.043468e-08 -2.426810e-08 3.321372e-09 -2.621681e-10 4.323772e-10
2.413902e-08 3.630200e-08 -2.223542e-08 2.028624e-09 1.143133e-09 2.948958e-09
4.757219e-08 2.667235e-08 -4.060341e-08 -2.172918e-08 1.071523e-09 4.705354e-09
3.107799e-08 3.240797e-08 -2.640972e-08 3.816720e-09 1.001239e-09 -5.557332e-11
3.619885e-08 2.948559e-08 -2.647755e-08 1.238347e-08 1.197080e-09 1.097622e-09
3.323514e-08 3.191878e-08 -2.625276e-08 9.345701e-09 2.108511e-09 1.176253e-09
5.450252e-08 5.176284e-08 -9.592883e-08 4.195719e-10 -7.275633e-08 -9.525688e-09
1.849540e-08 9.436622e-08 -9.390679e-08 6.076274e-09 -2.768517e-08 -2.311380e-09
-1.717123e-08 6.883554e-08 -4.691635e-08 6.502810e-09 -3.174269e-08 -2.156369e-08
6.244694e-09 9.500998e-08 -8.833556e-08 3.732317e-09 -1.148357e-08 -1.448262e-09
-3.900019e-08 1.153802e-07 -8.053429e-08 -1.021513e-08 6.475540e-08 -1.797679e-08
3.486311e-08 3.098879e-08 -2.664941e-08 9.254651e-09 1.130896e-09 6.420591e-11
-2.415207e-08 9.662043e-08 -5.288622e-08 -2.686966e-09 3.258083e-09 -8.477607e-09
-2.415219e-08 7.761148e-08 -3.895270e-08 -1.137360e-09 4.172424e-09 -8.418129e-09
5.255420e-08 1.143629e-08 -2.039559e-08 -1.066375e-09 -2.428286e-10 -1.278036e-10
6.904527e-08 7.466790e-09 -4.368639e-08 -2.370687e-08 -1.040426e-09 5.114523e-10
6.152615e-08 6.062213e-09 -3.185763e-08 -1.596364e-08 -3.384664e-09 5.813208e-09
6.075469e-08 5.363163e-09 -2.699561e-08 -9.759139e-09 -1.619593e-09 2.260171e-09
7.038861e-08 3.958531e-09 -3.541381e-08 -1.975943e-08 -2.715242e-09 8.409794e-10
5.338510e-08 1.157094e-08 -2.347365e-08 -5.954016e-09 -5.853148e-10 8.649841e-10
5.404056e-08 1.020212e-08 -2.912223e-08 -1.272501e-08 -2.138929e-09 3.734403e-09
5.360835e-08 1.301653e-08 -2.568202e-08 -9.363025e-09 -1.283044e-09 3.283208e-10
5.487188e-08 1.198448e-08 -2.440056e-08 -7.371196e-09 -7.913736e-10 -2.915299e-10
7.459835e-08 -3.120446e-09 -3.207109e-08 -1.219897e-08 -1.712241e-09 -4.638202e-10
5.316122e-08 1.166046e-08 -1.986110e-08 -5.342775e-10 -5.652233e-12 -6.224380e-11
-2.000683e-08 6.050429e-08 -2.720744e-08 -1.511877e-09 1.910709e-08 -8.983023e-09
5.209255e-08 1.190678e-08 -2.134805e-08 -2.657126e-09 -2.902167e-10 3.035495e-10
5.508538e-08 9.996207e-09 -2.147528e-08 -2.577594e-09 -3.655034e-10 3.700682e-10
-1.663988e-07 4.127611e-07 -8.193949e-08 1.604351e-07 4.116374e-08 1.353641e-08
-1.111259e-07 3.818974e-07 -8.422971e-08 1.833566e-07 1.107892e-08 -2.580110e-09
1.100310e-08 1.401957e-07 -1.005498e-07 -6.176649e-08 1.645806e-08 -1.111609e-08
5.738191e-08 1.374365e-07 -1.338522e-07 -9.073985e-08 1.255402e-08 -8.032692e-09
-1.304218e-07 4.009642e-07 -1.148572e-07 1.305949e-07 5.171814e-08 2.411120e-08
-1.268620e-07 3.524583e-07 -1.188841e-07 8.140677e-08 3.351181e-08 -1.596902e-09
-1.155486e-07 4.033639e-07 -5.360177e-08 2.724645e-07 7.409101e-08 3.392900e-08
-1.498811e-07 4.086321e-07 7.339400e-08 3.004064e-07 5.244390e-08 -5.484764e-09
-2.094316e-07 4.515240e-07 5.059859e-08 2.567862e-07 8.056639e-08 6.288590e-08
-1.530113e-07 4.127075e-07 -5.873623e-08 2.375917e-07 1.541251e-08 2.934238e-08
8.205246e-09 6.303967e-08 -4.513590e-08 4.078849e-09 6.376695e-10 3.819552e-09
3.118672e-08 2.872388e-08 -2.059502e-08 5.198289e-09 1.787959e-09 2.577527e-09
4.910895e-09 1.187730e-07 -8.579403e-08 6.158135e-08 5.229679e-09 9.080425e-09
-1.292123e-09 1.258532e-07 -9.987381e-08 6.579427e-08 7.912665e-09 -7.899228e-10
-8.245524e-08 3.255042e-07 -1.170683e-07 1.800961e-07 5.232097e-08 3.641985e-08
-9.348286e-08 3.082352e-07 -1.221287e-07 1.229013e-07 3.545704e-08 3.706850e-09
-2.760757e-08 1.384637e-07 -9.355171e-08 3.783001e-08 5.524544e-09 -6.863778e-10
1.062229e-07 -1.492038e-08 -5.326641e-08 -2.143170e-08 7.634035e-10 7.422414e-09
3.379493e-08 5.803841e-08 -5.239380e-08 4.171080e-08 1.756105e-09 1.282937e-09
8.941793e-08 -8.293465e-09 -3.983736e-08 -2.379431e-08 -4.165367e-09 1.125177e-08
4.924385e-08 4.896410e-08 -6.218570e-08 5.298916e-08 1.444365e-08 1.588462e-08
5.009229e-08 4.556217e-08 -6.897427e-08 6.315742e-08 5.287685e-09 5.953745e-09
1.079449e-07 -1.204838e-08 -5.571941e-08 -3.552780e-08 -1.971295e-09 4.726079e-09
1.151543e-07 -1.695430e-08 -6.509774e-08 -3.971511e-08 -2.530023e-09 1.262576e-08
5.077282e-07 -2.345891e-07 1.680275e-07 3.884924e-07 -4.670826e-08 2.485186e-08
7.190492e-07 -5.984282e-07 6.299727e-07 2.849372e-07 -2.480863e-09 1.073817e-07
6.972572e-07 -5.615347e-07 4.645566e-07 1.989400e-07 8.885631e-09 2.680729e-08
1.128816e-07 -1.946200e-08 -5.359311e-08 -2.171005e-08 -5.897828e-10 6.624942e-09
1.066640e-07 -1.747798e-08 -4.709208e-08 -1.725415e-08 -2.975927e-09 1.348083e-08
1.247242e-07 -2.294436e-08 -7.152051e-08 -2.972885e-08 1.581593e-09 8.399948e-10
1.131768e-07 -1.214687e-08 -5.177402e-08 -3.099322e-08 -6.211321e-09 1.355139e-08
-6.193566e-08 2.805767e-07 -6.748389e-08 2.142652e-07 6.945880e-08 2.777524e-08
-1.778516e-08 2.995096e-07 -2.575550e-08 3.076985e-07 4.450261e-08 4.617001e-09
-1.943600e-08 8.117163e-08 -5.101515e-08 1.375039e-09 -5.206873e-09 -1.188229e-08
-2.992048e-08 2.341571e-07 -1.236508e-07 1.522671e-07 2.131495e-08 -5.781990e-10
3.241136e-08 9.393382e-08 -1.091457e-07 7.635795e-09 -1.650626e-08 4.976178e-10
1.297152e-08 2.070556e-07 -9.442779e-08 2.111783e-07 6.216564e-08 3.860358e-08
3.170843e-09 1.206804e-07 -1.070377e-07 3.854993e-08 -1.228702e-08 6.696390e-10
-9.154244e-09 1.438252e-07 -1.257640e-07 5.306213e-08 -2.585850e-08 -1.528350e-08
9.336934e-08 -1.881798e-08 -2.761810e-08 -5.960439e-10 3.309903e-10 7.662312e-09
5.383582e-08 1.334593e-07 -1.175155e-07 2.189013e-07 3.527192e-08 5.366037e-08
1.192131e-07 6.696105e-08 -8.252939e-08 2.505594e-07 7.185999e-08 7.980223e-08
3.354147e-08 1.954980e-07 -7.073234e-08 2.592314e-07 4.273455e-08 2.089627e-08
1.563861e-08 1.623952e-07 -1.117030e-07 1.450485e-07 5.442986e-08 3.511489e-08
8.719402e-08 -1.886013e-08 -2.408944e-08 -1.150150e-10 -6.439392e-10 1.792826e-09
8.939114e-08 -1.431146e-08 -3.407260e-08 -8.407265e-09 -3.120131e-09 4.174199e-09
8.823356e-08 -2.017842e-08 -3.248594e-08 -9.347960e-09 -2.588082e-09 1.386324e-08
1.079817e-07 -2.278803e-08 -3.676165e-08 -3.532650e-09 2.742263e-10 1.011646e-08
9.490035e-08 -1.800840e-08 -3.292004e-08 -2.940245e-09 -1.143312e-09 4.743948e-09
7.243343e-08 1.158878e-08 -4.156431e-08 3.204120e-08 8.713165e-10 8.104869e-10
1.002499e-07 -1.417750e-08 -3.749768e-08 1.723781e-08 -1.055280e-09 -2.779324e-10
8.611674e-08 -9.705322e-09 -3.284271e-08 7.609304e-09 1.154162e-09 5.984374e-09
1.023007e-07 -1.749951e-08 -4.293258e-08 -1.249732e-08 -8.870135e-10 5.145363e-09
1.139537e-07 -2.338025e-08 -5.188026e-08 -1.096699e-08 -4.382453e-09 2.900316e-09
1.019363e-07 -9.437046e-09 -6.254210e-08 3.649843e-08 8.259566e-09 1.855423e-08
5.404056e-08 1.623907e-08 -2.428670e-08 -1.185472e-08 -2.143224e-09 3.527507e-09
9.410811e-08 -5.344958e-09 -4.612340e-08 3.071001e-08 6.800014e-09 1.310093e-08
6.079837e-08 3.632085e-09 -2.384816e-08 1.200308e-08 4.453694e-09 6.395495e-09
9.006155e-08 7.445283e-09 -5.925836e-08 4.576818e-08 5.909879e-09 4.427141e-09
4.689532e-08 1.527625e-08 -2.083723e-08 -9.035860e-09 -3.296374e-09 4.792170e-09
4.838548e-08 2.278409e-08 -2.527763e-08 -9.734745e-09 -2.586834e-09 3.056264e-09
-3.480146e-08 9.654669e-08 -8.848334e-08 -3.464520e-09 -4.787994e-08 2.064418e-09
3.082946e-07 -1.052944e-08 2.180103e-07 5.053267e-07 -8.622672e-08 -3.633628e-08
4.353680e-07 -2.506252e-07 3.049558e-07 3.803792e-07 5.938862e-09 2.720524e-08
3.598537e-07 -5.824040e-08 6.022249e-07 5.375363e-07 1.230844e-07 1.313506e-07
5.684108e-08 7.744462e-08 -8.710117e-08 9.452150e-08 4.537771e-09 8.500750e-09
2.427944e-08 9.428811e-08 -7.708951e-08 7.647866e-08 9.626516e-09 1.079296e-08
-7.166851e-08 1.491800e-07 -1.100357e-07 -1.532140e-08 -1.053644e-07 -2.091104e-08
8.393059e-08 6.332521e-08 -9.035614e-08 1.087309e-07 4.109973e-09 1.022677e-08
1.287297e-07 1.379098e-07 -1.255311e-07 2.288740e-07 3.465051e-09 7.245888e-09
-4.735099e-08 1.382740e-07 -5.331057e-08 -8.176125e-09 -8.692715e-08 -1.978067e-10
-2.732945e-08 1.902557e-08 -3.288531e-08 6.009862e-09 -7.416954e-08 7.519092e-09
-2.736422e-08 1.523781e-08 -3.392092e-08 1.673152e-09 -7.667413e-08 6.400624e-09
-6.017919e-08 1.717835e-07 -1.167029e-07 6.714673e-09 -2.797803e-08 -5.023839e-09
1.170450e-07 1.134310e-07 -1.024017e-07 2.190416e-07 3.508417e-08 2.628906e-08
2.072082e-08 5.527664e-08 -3.798858e-08 1.123633e-08 2.858068e-09 3.048179e-09
5.880174e-08 1.576114e-07 -1.251615e-07 2.330663e-07 2.526427e-08 1.416859e-08
8.922775e-08 9.712517e-08 -1.255311e-07 1.821805e-07 2.221754e-08 1.774547e-08
8.259886e-08 1.016677e-07 -1.044408e-07 1.533216e-07 3.406960e-08 3.619173e-08
7.605094e-09 1.114974e-07 -8.863280e-08 6.644761e-08 2.834206e-08 1.230526e-08
4.574510e-08 1.129391e-07 -1.022022e-07 1.167727e-07 6.681683e-09 8.346778e-09
3.637151e-09 9.581330e-08 -7.738331e-08 4.189667e-08 3.187194e-09 -1.480965e-09
1.401212e-08 7.890393e-08 -6.135304e-08 5.054368e-08 1.975638e-08 1.457760e-08
-4.772329e-09 1.063488e-07 -6.987187e-08 3.538695e-08 5.492824e-09 1.815223e-09
5.232925e-08 3.682536e-08 -4.293984e-08 4.247423e-08 1.157291e-08 1.147658e-08
5.496126e-08 2.136607e-08 -4.804731e-08 3.606473e-08 8.829545e-09 9.546771e-09
5.444833e-08 2.602422e-08 -4.410405e-08 3.388521e-08 3.658083e-09 1.030637e-08
5.396746e-08 2.747712e-08 -3.639429e-08 3.168780e-08 8.009575e-09 8.225136e-09
5.176098e-08 2.835093e-08 -3.712112e-08 2.807089e-08 1.092929e-09 1.493185e-09
-1.129070e-08 1.019593e-07 -5.985917e-08 3.807167e-08 2.999583e-08 1.405904e-08
-3.782094e-08 1.333213e-07 -7.710997e-08 -1.422233e-08 1.752849e-08 -4.477168e-09
4.433840e-08 1.789516e-08 -2.147492e-08 -1.060134e-08 -3.292409e-09 4.373557e-09
5.992204e-08 3.284522e-08 -4.736605e-08 4.454378e-08 6.783134e-09 8.302336e-09
4.414027e-08 2.894407e-08 -4.440243e-08 3.331420e-08 7.426803e-09 7.986549e-09
5.043157e-08 2.754701e-08 -4.772557e-08 3.469698e-08 4.794440e-09 6.452645e-09
6.362713e-08 1.655744e-08 -4.159692e-08 3.203313e-08 7.740711e-09 6.004400e-09
6.401244e-08 1.459040e-08 -3.920744e-08 2.743550e-08 2.782629e-09 7.725190e-09
4.348665e-08 1.878777e-08 -2.170242e-08 -4.739088e-09 -1.768665e-09 3.503293e-09
6.103274e-08 1.715463e-08 -3.717472e-08 2.580916e-08 6.580337e-10 1.451687e-09
-1.747369e-07 3.522611e-07 -8.428377e-08 -3.824638e-09 7.215074e-08 -9.677251e-10
-1.157230e-07 3.607454e-07 -1.330360e-07 2.016405e-08 6.315630e-08 -1.207203e-09
-1.138982e-07 2.894315e-07 -1.287063e-07 3.801757e-09 1.742578e-08 -2.614010e-10
1.268601e-07 1.251975e-08 -9.797308e-08 1.153738e-07 6.243354e-09 1.691662e-08
-3.429304e-08 1.017031e-07 -5.616119e-08 1.326027e-09 2.421630e-08 -5.547370e-10
4.055581e-08 2.255857e-08 -2.242099e-08 -1.676389e-09 -1.011475e-09 3.159948e-09
1.042183e-07 4.519915e-08 -1.036738e-07 1.252054e-07 1.224512e-08 1.766387e-08
1.488194e-07 4.259379e-09 -9.486752e-08 9.509451e-08 9.373765e-09 1.488165e-08
-4.440430e-08 1.299081e-07 -7.896121e-08 1.840751e-08 6.775882e-08 -6.143352e-09
2.405844e-07 -3.748868e-08 -1.214134e-07 1.496622e-07 -3.840637e-09 1.168305e-08
-5.397686e-07 5.043679e-07 9.287869e-07 5.308396e-07 2.237061e-07 1.292992e-07
-3.356945e-08 1.552106e-07 -6.676563e-08 2.507497e-08 4.330149e-08 7.404353e-09
-2.789234e-08 1.050582e-07 -4.985300e-08 1.208995e-08 3.117971e-08 6.485856e-09
-3.381289e-08 9.908148e-08 -5.694787e-08 1.108140e-08 3.909531e-08 6.585272e-09
7.648871e-08 7.629148e-08 -1.019913e-07 1.225904e-07 1.410380e-08 1.513941e-08
4.052754e-08 8.275550e-08 -8.724898e-08 9.409810e-08 2.715891e-08 2.185906e-08
4.581257e-08 6.402125e-08 -8.028931e-08 8.005242e-08 6.086521e-09 4.519384e-09
1.079366e-07 2.567821e-08 -8.820237e-08 8.941511e-08 1.328265e-08 1.045456e-08
-3.766497e-08 1.454172e-07 -8.852950e-08 1.472491e-08 7.722473e-09 2.020237e-09
-2.353803e-08 1.111568e-07 -7.305796e-08 -2.547157e-08 5.568075e-09 -1.650461e-09
-1.268012e-08 7.225373e-08 -3.292380e-08 -1.104955e-08 2.722862e-08 -1.288899e-08
3.988252e-07 -1.003128e-07 -1.045716e-07 1.562194e-07 6.103001e-09 4.408274e-08
2.416874e-07 -7.467844e-08 -1.012815e-07 1.446689e-07 1.245390e-08 5.166023e-08
4.591355e-07 -1.377324e-07 -1.002058e-07 -1.367084e-07 -2.443438e-08 5.854103e-08
-1.566234e-08 7.684140e-08 -4.455998e-08 -1.524729e-09 2.903855e-09 -5.591999e-09
1.050503e-07 9.115645e-08 -1.167888e-07 -8.310022e-08 8.283481e-08 -5.006429e-08
1.861599e-07 -4.089939e-08 -8.861445e-08 -5.440320e-08 -1.566343e-08 3.311449e-08
-1.283255e-08 1.111939e-07 -8.559405e-08 -3.066792e-08 1.584628e-08 -6.840937e-09
2.257930e-07 -7.193287e-08 -1.073607e-07 -8.982785e-08 -1.115093e-08 4.959072e-08
3.232013e-07 -8.012373e-08 -1.110188e-07 -1.001794e-07 -1.528531e-08 5.466192e-08
-1.747180e-07 4.633907e-07 1.366960e-07 -3.750331e-07 8.161563e-08 -3.043715e-08
-2.438186e-07 1.403449e-08 1.262296e-06 -7.254409e-07 1.356346e-07 -1.479831e-08
-2.226154e-08 7.286874e-08 -4.105578e-08 -4.755291e-09 1.460330e-08 -1.021492e-08
-1.860322e-08 1.065230e-07 -6.180445e-08 -1.357543e-08 3.373055e-09 -4.834576e-09
4.915244e-09 2.863629e-07 3.229444e-07 -4.982273e-07 3.894901e-08 -4.492131e-08
5.562631e-07 -3.304431e-07 1.313067e-07 -1.810463e-07 1.507040e-08 3.246954e-09
5.574365e-07 -4.221214e-07 2.769326e-07 -3.053508e-07 -1.757484e-08 6.173152e-08
-1.139954e-08 9.585667e-08 -6.891414e-08 -2.315440e-08 1.825990e-08 -6.215620e-09
6.899926e-07 -5.847135e-07 7.795857e-07 -7.666259e-08 -1.407104e-08 9.146304e-08
5.987535e-07 -5.049266e-07 7.752379e-07 -2.401937e-07 6.610983e-08 3.185964e-08
6.268729e-07 -6.718161e-07 1.257315e-06 2.615602e-07 -1.663290e-07 -2.904916e-07
-5.681802e-09 8.050069e-08 -5.365911e-08 -3.681760e-09 4.126514e-09 -9.412650e-10
4.738732e-07 -2.104933e-07 -6.349168e-08 3.334278e-08 8.901437e-09 2.783090e-08
-1.870556e-08 8.323042e-08 -4.802768e-08 -1.631269e-08 2.816942e-08 -1.116903e-08
1.254258e-09 7.796630e-08 -7.803627e-08 -2.740521e-08 5.798712e-08 -2.454144e-08
-1.739463e-08 5.281934e-08 -4.037555e-08 2.331744e-10 -3.848846e-08 -1.606954e-09
5.531915e-07 -3.716499e-07 1.209417e-07 1.053199e-07 -4.289059e-09 3.281578e-09
6.891411e-07 -4.491193e-07 3.402471e-07 -1.006865e-07 1.149830e-07 -1.441171e-07
7.289274e-07 -3.993710e-07 4.177204e-08 -2.885619e-08 -8.533525e-09 -1.257730e-07
6.096741e-07 -5.682229e-07 6.013126e-07 2.953372e-09 7.956364e-09 -1.128609e-07
6.764106e-07 -5.742189e-07 1.555481e-07 -2.414360e-08 6.282188e-08 3.190320e-08
6.298123e-09 8.516147e-08 -8.649146e-08 3.821708e-09 -3.024466e-08 -2.077910e-09
2.176238e-08 1.060819e-07 -1.068128e-07 2.726507e-08 -8.202249e-09 -2.229144e-09
1.601665e-07 -2.404579e-08 -1.119681e-07 1.347513e-08 -8.475160e-08 -5.782537e-09
5.621321e-07 -3.378406e-07 8.779387e-08 -4.445820e-08 -3.183338e-08 3.649733e-08
8.893934e-08 8.949855e-08 -1.424592e-07 -3.828806e-08 1.683597e-08 -1.953218e-09
3.815035e-07 -5.628264e-08 -2.148175e-07 3.466866e-08 -1.023165e-08 -4.873908e-16
2.707831e-07 1.211213e-08 -2.027615e-07 3.002643e-08 -9.908367e-09 -5.950258e-16
1.516690e-07 9.138919e-08 -1.580233e-07 -1.010673e-07 1.421223e-08 1.170270e-08
4.192213e-08 9.909485e-08 -1.257019e-07 -6.789597e-08 4.152108e-08 -2.066401e-08
9.963307e-08 1.168977e-07 -1.502595e-07 8.094840e-08 -1.362778e-08 -1.209651e-08
5.809654e-08 3.220926e-08 -8.646371e-08 -3.775320e-08 9.579330e-08 -4.791277e-08
7.144309e-08 3.110604e-08 -1.059808e-07 2.564118e-08 -7.607155e-08 9.766307e-09
1.736725e-07 -9.156238e-08 -7.068493e-08 1.198757e-08 -5.011760e-08 -6.148566e-08
9.777608e-08 -1.990189e-08 -7.170905e-08 3.110489e-08 -1.058828e-07 -4.929134e-08
4.354809e-08 2.063633e-08 -1.918310e-08 -9.073453e-11 1.004554e-10 1.187177e-10
4.217918e-08 1.978290e-08 -1.870210e-08 1.215383e-11 2.176248e-11 6.655165e-11
4.182679e-08 1.979510e-08 -1.868201e-08 3.044822e-10 5.912159e-12 -2.525058e-10
4.242417e-08 2.063634e-08 -1.903892e-08 3.474665e-10 -4.864997e-12 3.122229e-11
4.383260e-08 1.976343e-08 -1.938746e-08 1.440321e-09 -7.732356e-11 -5.192807e-10
4.515551e-08 2.091994e-08 -2.002655e-08 2.017621e-09 1.580357e-10 -4.230255e-11
4.518877e-08 1.878683e-08 -2.001140e-08 2.306684e-09 3.754914e-10 -1.978224e-11
4.211423e-08 2.053562e-08 -1.890135e-08 1.372431e-10 8.055423e-11 4.501797e-11
4.336507e-08 1.986873e-08 -1.893728e-08 1.743770e-10 -1.808053e-10 5.300449e-11
4.140429e-08 2.097120e-08 -1.911682e-08 9.295838e-10 2.791578e-10 -2.433257e-10
4.428062e-08 1.991371e-08 -1.919140e-08 7.781291e-10 7.231725e-11 -2.305169e-11
-2.207727e-07 3.376286e-07 8.371775e-07 -5.708894e-07 -1.276633e-07 1.164741e-07
-6.731440e-07 1.236105e-07 1.371381e-06 -6.762924e-07 -3.575088e-07 2.851816e-07
-7.873350e-07 -2.119226e-07 2.617799e-06 -7.197445e-07 5.549442e-08 2.803080e-08
-1.983226e-08 1.155003e-07 -7.327503e-08 1.614316e-08 1.862338e-08 7.866205e-09
-7.064868e-07 1.329892e-07 1.811569e-06 -6.314768e-07 -3.290933e-07 2.116099e-07
-1.441194e-08 7.913875e-08 -4.396826e-08 1.702274e-09 5.107059e-09 6.232829e-09
-3.340555e-08 1.602191e-07 -8.178965e-08 2.605937e-08 2.975306e-08 3.505095e-09
-1.225175e-06 5.347269e-10 2.848251e-06 -1.458346e-07 -5.143759e-07 1.637253e-07
-1.206741e-06 1.018132e-07 2.757771e-06 -2.932325e-07 -8.756518e-07 1.694761e-07
-1.429769e-06 -3.604893e-07 4.261016e-06 -1.724079e-07 -9.907369e-08 -2.582619e-08
-1.604898e-06 -3.757225e-07 3.936663e-06 4.865767e-07 -7.696886e-07 -4.248948e-08
-2.661112e-08 5.405431e-08 -3.005158e-08 7.454092e-10 3.392512e-08 -1.446942e-08
-3.137220e-08 1.255607e-07 -8.063250e-08 -2.116473e-08 2.361806e-08 -7.862503e-09
-2.544886e-08 1.397714e-07 -9.311683e-08 -4.284853e-08 3.540027e-08 -1.256379e-08
-2.795497e-07 -3.730802e-07 1.435386e-06 -7.770680e-07 -1.127782e-07 2.978661e-07
-8.845370e-07 -3.041507e-07 2.538291e-06 -8.082308e-07 -6.373736e-07 6.847719e-07
-2.482872e-08 9.559471e-08 -4.399847e-08 -5.255775e-09 1.035103e-08 -9.710577e-09
-2.860118e-08 8.499163e-08 -4.175449e-08 -1.187144e-10 4.845012e-09 -7.610085e-09
-2.488423e-08 5.706494e-08 -2.991763e-08 1.859200e-09 2.585384e-08 -1.494687e-08
-2.604044e-08 7.411888e-08 -3.249923e-08 -1.798366e-09 1.016884e-08 -8.742296e-09
-1.961560e-08 7.175026e-08 -2.483946e-08 -6.649872e-10 1.590793e-09 -7.062730e-09
-2.199926e-08 8.838346e-08 -4.796230e-08 -1.943368e-09 3.155197e-09 -7.302742e-09
-2.414916e-08 9.176434e-08 -4.439311e-08 -2.312510e-09 1.197927e-08 -1.002630e-08
-3.353846e-08 1.094770e-07 -6.562676e-08 -8.545411e-09 3.648315e-08 -1.528613e-08
-3.003467e-08 1.018961e-07 -4.747532e-08 -4.336313e-09 1.308108e-08 -8.405249e-09
-2.804648e-08 9.767854e-08 -4.450557e-08 -1.599568e-09 1.051016e-08 -8.627068e-09
-2.987086e-08 1.029615e-07 -4.807298e-08 -1.376401e-09 1.491746e-08 -7.398716e-09
-2.660964e-08 6.296903e-08 -3.163079e-08 6.173234e-11 1.067792e-08 -9.305084e-09
-2.476947e-08 6.709361e-08 -2.973618e-08 -5.125491e-09 7.672722e-09 -6.701066e-09
5.903130e-08 7.705499e-09 -2.619413e-08 1.294104e-08 3.374972e-09 3.936084e-09
8.114264e-08 -1.391167e-08 -2.434043e-08 2.443558e-09 4.058790e-10 1.658948e-09
6.124440e-08 9.711445e-09 -2.574646e-08 1.250901e-08 2.115382e-09 3.147067e-09
7.067336e-08 4.991630e-09 -3.429167e-08 1.575673e-08 3.167255e-09 3.693592e-09
6.261224e-08 5.614688e-09 -2.575817e-08 1.140927e-08 2.542031e-09 3.652800e-09
5.733101e-08 9.214929e-09 -2.313681e-08 7.503687e-09 1.062976e-09 1.656248e-09
6.275796e-08 4.556884e-09 -2.607187e-08 9.526089e-09 2.154116e-09 1.697926e-09
6.406245e-08 5.090091e-09 -2.841926e-08 1.606666e-08 2.203175e-09 4.194181e-09
4.032015e-08 2.144445e-08 -1.971585e-08 1.845008e-09 1.183951e-10 3.300524e-10
3.541201e-08 2.715914e-08 -2.085675e-08 1.139967e-09 3.399072e-10 1.074735e-09
4.555931e-08 1.906771e-08 -2.126966e-08 -1.200017e-09 -5.883779e-10 1.630776e-09
-3.034433e-08 1.268755e-07 -7.350599e-08 2.647505e-09 1.480142e-09 1.401799e-09
3.041825e-08 2.995510e-08 -2.480536e-08 8.023805e-09 2.074980e-09 2.485207e-09
3.556869e-08 2.826478e-08 -2.753116e-08 1.428147e-08 4.924190e-09 5.195282e-09
4.289608e-08 2.152239e-08 -2.141712e-08 4.967490e-09 4.209279e-10 1.792185e-10
3.955427e-08 2.437359e-08 -1.983438e-08 1.710344e-09 4.533710e-10 3.752980e-10
3.588702e-08 2.598345e-08 -2.062869e-08 1.635983e-09 3.556486e-11 7.449187e-10
3.651389e-08 2.715698e-08 -2.414622e-08 6.457358e-09 -9.926464e-11 3.860693e-10
3.330930e-08 3.066120e-08 -2.299569e-08 3.538343e-09 1.971208e-09 2.018566e-09
1.137346e-07 8.747454e-09 -6.011633e-08 1.225034e-08 -8.295564e-08 6.667105e-09
2.092694e-07 1.654786e-08 -8.292914e-08 1.176756e-07 -9.045044e-08 -8.212175e-08
2.871224e-08 3.274214e-08 -2.145953e-08 2.298732e-09 1.089590e-09 1.038836e-09
1.424039e-07 -6.331917e-08 -6.365407e-08 7.324184e-09 -6.897137e-08 7.727678e-09
2.306908e-08 4.043674e-08 -3.378166e-08 1.044293e-08 4.740784e-09 4.300311e-09
2.826892e-08 3.438984e-08 -2.800906e-08 5.516301e-09 9.042938e-10 3.471539e-09
2.684920e-07 -6.331553e-08 -1.245831e-07 -2.437831e-09 -7.474865e-08 5.616340e-09
6.675221e-08 1.092757e-07 -1.396273e-07 6.471137e-08 -4.281833e-08 -1.901162e-08
1.681580e-08 7.311180e-08 -6.070126e-08 -5.436404e-09 -2.380741e-17 2.189628e-09
3.096819e-08 3.073492e-08 -2.185281e-08 1.050889e-09 5.789944e-10 2.411473e-09
1.467068e-08 -3.717362e-08 -5.951277e-08 -2.278963e-09 -8.057241e-08 7.632278e-09
1.137346e-07 5.030001e-09 -1.122333e-07 1.248183e-08 -7.522746e-08 -5.386060e-09
3.553322e-08 2.828623e-08 -2.554289e-08 7.620791e-09 1.311646e-09 1.535282e-09
7.649352e-08 -9.976766e-09 -6.522527e-08 2.208008e-08 -9.768814e-08 -4.128845e-08
2.071389e-07 -3.550820e-09 -1.524782e-07 4.717216e-08 -6.565285e-08 -5.657062e-08
6.976170e-08 2.299104e-08 -5.490822e-08 6.137602e-08 -1.131611e-07 -9.401828e-08
2.521760e-08 4.100877e-08 -3.250871e-08 6.864768e-09 1.353712e-09 1.978819e-09
2.868929e-09 7.464990e-08 -5.861112e-08 3.007244e-08 3.348688e-08 2.304418e-08
2.816897e-08 3.597368e-08 -2.448186e-08 4.889583e-09 1.465445e-09 3.789537e-09
1.301488e-08 4.647807e-08 -2.990520e-08 1.992111e-09 2.074889e-09 7.730928e-09
5.190628e-09 5.318689e-08 -3.380791e-08 2.601892e-09 1.642139e-09 9.434614e-09
3.179522e-08 3.167914e-08 -2.582408e-08 2.397651e-09 -3.118672e-10 1.402610e-09
7.993803e-08 9.097335e-08 -1.448220e-07 3.181961e-08 -1.445920e-08 -9.878698e-09
3.904808e-08 2.808866e-08 -2.890511e-08 1.144321e-08 7.748642e-11 1.830740e-09
3.316284e-08 3.266953e-08 -2.789093e-08 8.996411e-09 -2.679886e-10 1.224948e-09
1.118665e-08 4.749523e-08 -2.329937e-08 7.853772e-09 7.447677e-09 7.945514e-09
7.816705e-09 4.538732e-08 -2.415577e-08 2.236750e-09 2.807702e-09 6.887428e-09
2.785913e-08 4.046421e-08 -3.719323e-08 1.981905e-08 1.283668e-08 1.278323e-08
1.996230e-08 4.066958e-08 -2.588885e-08 1.005125e-08 6.408297e-09 9.666157e-09
7.170120e-08 1.170653e-07 -1.502595e-07 1.031835e-07 -1.159179e-08 -1.337231e-08
1.252238e-07 6.749568e-08 -1.494016e-07 1.357003e-08 -5.178918e-08 -1.006504e-08
2.050642e-08 8.621346e-08 -7.750341e-08 3.637020e-08 -6.092439e-08 -3.088446e-08
1.120254e-08 4.314726e-08 -2.527455e-08 3.251702e-09 3.768266e-09 6.409812e-09
1.521598e-08 4.126782e-08 -2.342026e-08 2.231506e-09 2.281378e-09 5.090233e-09
2.749648e-07 -8.167582e-08 1.983239e-08 6.791864e-08 -6.286065e-08 -1.863700e-07
1.820050e-09 -8.943236e-08 4.339790e-08 3.038876e-08 -1.001699e-07 -1.046584e-07
4.729197e-08 1.211696e-07 -1.271033e-07 5.297411e-08 -8.874562e-09 -4.895708e-09
2.706681e-08 4.489354e-08 -8.473850e-08 1.652198e-08 -7.187048e-08 -2.239814e-08
3.715974e-08 -5.844853e-08 4.124595e-08 2.214682e-09 -8.192721e-08 -9.068651e-08
1.460666e-07 3.964304e-08 -1.350684e-07 3.805622e-08 -7.891926e-08 -3.229447e-08
4.831862e-07 -2.072144e-07 -6.257687e-08 -9.164096e-09 -6.155832e-09 2.330323e-08
5.517385e-07 -3.857699e-07 1.104132e-07 -6.894660e-08 -1.662849e-09 -1.198877e-09
5.535898e-07 -2.466118e-07 -4.770484e-08 -6.809066e-08 -9.761558e-09 -1.466579e-08
6.031668e-07 -4.625718e-07 4.134919e-07 1.291894e-07 2.968810e-10 1.433826e-08
5.840962e-07 -3.018828e-07 5.066919e-08 5.885942e-08 -2.212314e-08 1.353868e-08
4.619688e-07 -1.526665e-07 -1.145963e-07 -7.466834e-08 -1.603400e-08 4.281386e-08
4.522781e-07 -2.341418e-07 9.086655e-09 -9.916515e-08 8.526799e-11 7.032667e-08
-8.748785e-09 6.610498e-08 -3.227197e-08 2.967937e-09 9.663606e-09 9.072506e-09
-4.897352e-09 6.358133e-08 -3.858988e-08 1.536844e-09 2.091875e-09 7.121617e-09
-1.226735e-08 9.877963e-08 -6.122491e-08 7.104065e-09 1.526021e-09 2.281567e-09
-1.022419e-08 9.254473e-08 -5.927880e-08 4.979910e-09 1.049802e-09 4.461376e-09
-2.856873e-08 4.669400e-08 -3.818427e-08 3.812461e-09 7.837849e-08 9.112229e-09
-8.009450e-07 2.473878e-07 2.265467e-06 5.203944e-07 -2.616190e-07 -3.020455e-07
8.527599e-09 6.207335e-08 -4.444922e-08 4.301312e-09 1.031300e-09 3.166418e-09
-1.968372e-08 1.213897e-07 -7.056941e-08 3.661253e-08 4.948109e-08 2.491779e-08
4.695679e-07 -2.549286e-07 5.004925e-09 1.667365e-08 2.814037e-09 6.604554e-08
2.748679e-08 3.422753e-08 -2.713860e-08 1.340328e-08 6.671407e-09 4.550286e-09
-3.544971e-08 1.065948e-07 -6.819351e-08 9.126814e-10 -6.874906e-09 -8.674934e-09
-3.174995e-08 8.345346e-08 -3.633974e-08 2.771081e-09 -3.114707e-08 -2.111240e-08
-1.096520e-08 3.324847e-08 -3.721410e-08 -1.143582e-08 -6.393737e-08 4.209663e-08
-3.443478e-08 9.838324e-08 -4.123282e-08 3.505232e-10 -3.266821e-09 -1.330894e-08
-6.224470e-09 6.993508e-08 -5.544101e-08 -3.162680e-09 -3.484683e-09 1.695384e-08
-2.825807e-08 1.744981e-07 -1.311158e-07 5.054632e-08 -1.960370e-08 -1.481155e-08
-3.414693e-08 6.330321e-08 -4.632213e-08 -1.563709e-08 -1.771032e-08 -1.734300e-08
-4.179120e-08 3.771877e-08 -5.384640e-08 -3.381128e-09 -7.652430e-08 -2.462485e-09
8.212588e-08 8.670361e-08 -1.095029e-07 -1.469855e-07 -3.145961e-08 3.349743e-08
-1.538748e-08 7.041380e-08 -4.353274e-08 -2.688365e-09 -2.113315e-08 2.317035e-08
8.303424e-08 1.159577e-07 -1.219051e-07 -1.789783e-07 -5.703170e-08 5.070656e-08
-1.851322e-08 4.099653e-08 -3.283862e-08 -1.728153e-09 -8.962757e-09 1.952479e-08
6.744448e-10 9.198109e-08 -7.021661e-08 -7.116341e-09 -3.478519e-09 1.126174e-08
-2.684590e-08 2.766588e-08 -3.463243e-08 3.391248e-09 -6.326171e-08 2.897125e-08
-3.371886e-08 1.367800e-07 -9.819533e-08 -3.600374e-08 -6.504053e-08 2.198310e-08
1.105230e-07 9.056920e-08 -1.241839e-07 -1.518241e-07 -1.811064e-08 7.893191e-09
6.147857e-08 4.791384e-08 -7.978029e-08 -7.816387e-08 -1.856537e-08 2.288711e-08
-6.049746e-08 2.113602e-07 -1.304979e-07 -9.188761e-09 -8.445472e-09 3.232942e-09
2.659251e-08 1.151102e-07 -1.071933e-07 -1.221155e-07 -3.735805e-08 3.377154e-08
4.753422e-08 1.392386e-07 -1.181240e-07 -1.494530e-07 -5.508976e-08 3.835755e-08
5.850763e-08 7.552668e-08 -9.575311e-08 -9.777937e-08 -2.537045e-08 2.555943e-08
3.371882e-08 9.568257e-08 -9.167978e-08 -7.742103e-08 -9.171030e-09 1.142145e-08
6.136352e-08 1.016603e-07 -1.062271e-07 -1.164684e-07 -7.487419e-09 1.075003e-08
6.606261e-08 1.142002e-07 -1.198815e-07 -1.285313e-07 -1.543605e-08 7.035221e-09
-2.241586e-09 9.581749e-08 -5.908765e-08 1.565393e-08 4.173630e-09 3.949706e-09
-3.567760e-08 9.176130e-08 -4.465977e-08 6.099845e-09 -4.103629e-08 -1.449939e-08
-3.946295e-08 1.100766e-07 -4.194231e-08 6.097660e-09 -8.873387e-08 -2.671366e-08
-1.111618e-08 5.434536e-08 -2.787291e-08 2.107423e-09 4.701014e-09 9.326080e-09
-1.713936e-07 4.186635e-07 -1.526158e-07 8.243063e-08 -3.369885e-08 -1.295258e-08
-2.417546e-07 5.614957e-07 -5.001567e-08 2.442105e-08 -3.992015e-08 -1.529751e-08
-3.896241e-07 6.312799e-07 1.624739e-07 1.291268e-07 8.104911e-09 6.327484e-08
-1.974104e-07 5.201208e-07 -7.784989e-08 7.362668e-08 -5.990588e-08 -1.021393e-08
-2.662775e-07 5.200847e-07 6.528270e-08 1.042602e-07 -1.045390e-07 -7.502732e-09
-1.909418e-07 5.311593e-07 -9.395082e-08 1.397009e-07 -7.499677e-08 -1.476980e-08
-2.050336e-07 4.352876e-07 -6.673391e-08 2.788655e-08 -1.183099e-07 -1.515421e-08
8.787644e-08 -1.854790e-08 -2.693468e-08 1.687551e-10 1.017884e-10 1.909145e-09
8.717737e-08 -1.826991e-08 -2.522179e-08 7.587561e-10 3.993825e-10 1.859538e-09
8.512113e-08 -1.709818e-08 -2.449738e-08 1.225390e-09 -2.577771e-10 2.176422e-09
8.652900e-08 -1.858595e-08 -2.359896e-08 3.079940e-10 3.618025e-10 2.211017e-09
8.444415e-08 -1.397848e-08 -2.725672e-08 4.202983e-09 1.403986e-09 4.202949e-09
-3.187819e-07 5.431227e-07 -2.298438e-09 -1.393895e-08 -2.478936e-08 2.717955e-09
4.120885e-08 1.996986e-08 -1.935589e-08 1.463695e-09 2.712497e-10 3.243363e-10
4.229679e-08 1.829942e-08 -2.052971e-08 4.091351e-09 1.240994e-09 1.040451e-09
8.493523e-08 -1.622182e-08 -2.534488e-08 1.141663e-09 3.844296e-11 1.719474e-09
2.158949e-07 9.189692e-08 3.026506e-07 5.847769e-07 7.997515e-09 1.903145e-08
2.833826e-07 -2.119992e-08 -1.800833e-07 2.046263e-08 -4.945422e-08 2.553040e-09
3.633612e-07 -4.466343e-08 -2.087829e-07 8.460825e-08 -1.688122e-08 -6.337275e-09
4.544967e-07 -1.486301e-07 -3.611570e-08 2.734186e-07 -6.632388e-10 -1.185834e-08
4.354692e-07 -9.917993e-08 -1.096475e-08 3.175612e-07 -3.784571e-08 -8.959642e-08
1.489278e-08 -4.524150e-08 3.586379e-08 4.803071e-09 -4.541706e-08 -5.724790e-08
4.976860e-09 9.281520e-08 -7.378299e-08 -6.768756e-09 -4.635838e-16 1.440036e-09
4.559588e-08 1.672211e-08 -2.086315e-08 2.888974e-09 3.163241e-10 -3.465090e-10
8.489709e-09 4.502936e-08 -2.642273e-08 -9.310668e-09 -1.271280e-08 1.408808e-08
3.514686e-08 7.682774e-08 -8.148628e-08 -5.477484e-08 -8.401154e-09 4.625667e-09
1.505992e-08 1.000986e-07 -8.188410e-08 -5.502074e-08 -1.779194e-08 2.178244e-08
4.904331e-08 1.433538e-08 -2.097104e-08 2.935860e-09 5.466076e-10 4.250325e-10
4.787044e-08 1.721538e-08 -2.051448e-08 5.335529e-09 7.472693e-10 9.085162e-10
4.513055e-08 1.739492e-08 -1.972864e-08 4.788010e-10 3.770237e-10 8.067324e-11
4.716429e-08 1.678007e-08 -2.337762e-08 -1.482094e-09 -2.129401e-10 6.204438e-10
4.488215e-08 1.732504e-08 -2.197914e-08 6.692058e-09 6.554658e-10 7.597438e-10
5.265804e-08 2.026010e-08 -2.941400e-08 -1.661231e-08 -3.481666e-09 5.026501e-09
3.794648e-08 2.455722e-08 -2.054479e-08 3.544510e-09 6.975873e-10 3.907749e-10
4.184608e-08 2.066935e-08 -2.464147e-08 9.957900e-09 5.282028e-10 6.836664e-10
4.472536e-08 2.166279e-08 -2.792302e-08 1.361831e-08 -9.320839e-10 2.090954e-09
4.096442e-08 2.016258e-08 -1.882373e-08 3.911236e-10 8.881030e-16 -9.642154e-11
4.188381e-08 1.950769e-08 -1.875226e-08 0.000000e+00 -1.650635e-10 -1.684990e-10
4.368837e-08 1.879885e-08 -1.932078e-08 8.495538e-10 1.206386e-10 -1.625653e-10
4.199114e-08 2.127550e-08 -2.002890e-08 3.758659e-09 2.727801e-10 7.752076e-10
4.322525e-08 1.999638e-08 -1.903336e-08 1.316691e-09 -1.857841e-10 1.103322e-12
4.520304e-08 1.758747e-08 -2.488434e-08 1.031538e-08 1.010171e-09 2.395270e-10
4.063888e-08 2.218017e-08 -1.949066e-08 2.131267e-09 7.486477e-11 -3.435698e-11
4.217517e-08 1.997365e-08 -1.875226e-08 3.786589e-10 9.997336e-12 -5.903744e-11
4.221343e-08 1.934509e-08 -1.879502e-08 2.155385e-10 1.573474e-10 2.966516e-13
4.025579e-08 2.318208e-08 -1.961653e-08 1.834109e-09 9.604599e-10 7.923022e-10
4.014364e-08 2.317565e-08 -2.150746e-08 4.841105e-09 -3.269680e-10 4.450768e-10
9.637862e-08 -1.664556e-08 -3.748167e-08 -7.223216e-09 6.274705e-10 1.589325e-09
7.679743e-08 -3.808056e-09 -2.784760e-08 -9.535703e-09 -2.272632e-09 5.714959e-09
8.281285e-08 -1.420035e-08 -2.769921e-08 -1.095301e-08 -4.282699e-09 1.183964e-08
4.331259e-08 1.857079e-08 -1.887398e-08 3.736025e-10 -1.136882e-10 -8.882634e-16
4.561076e-08 1.687857e-08 -1.946396e-08 7.800605e-10 -2.806440e-10 -1.332706e-15
9.102590e-08 -1.878352e-08 -2.974612e-08 8.470238e-10 -1.549243e-10 1.573668e-09
5.134450e-08 1.229949e-08 -2.002108e-08 -4.532204e-10 1.597380e-10 5.961298e-11
8.390762e-08 -1.196939e-08 -2.587572e-08 -2.915147e-09 -1.619445e-09 2.262935e-09
5.057014e-08 1.216740e-08 -2.002108e-08 0.000000e+00 2.230545e-10 -3.115846e-10
5.104138e-08 1.201159e-08 -1.948404e-08 -3.045568e-10 2.072473e-10 8.233547e-11
5.292199e-08 1.046785e-08 -2.037148e-08 -5.991157e-10 -5.691431e-10 3.116487e-10
8.464591e-08 -1.203330e-08 -3.002954e-08 -2.670976e-09 -8.928626e-10 -2.718227e-10
8.568599e-08 -1.634488e-08 -2.629197e-08 -4.834149e-10 -1.318633e-09 1.716075e-09
7.241911e-08 -3.302120e-09 -2.459659e-08 -3.857966e-09 -1.296067e-09 2.797375e-09
7.144777e-08 -3.510412e-09 -2.722272e-08 -6.277490e-09 -1.342287e-09 2.979330e-09
6.856655e-08 1.942578e-09 -2.652701e-08 -1.099166e-08 -1.062323e-09 1.651880e-09
3.329554e-08 3.091438e-08 -2.206638e-08 3.533510e-09 8.876991e-10 2.265875e-09
5.366448e-08 1.111369e-08 -2.139489e-08 -1.742104e-09 3.778915e-10 4.704950e-10
7.178825e-08 -3.390986e-09 -2.869633e-08 -6.064572e-09 -1.942488e-09 2.328360e-09
6.771062e-08 1.842403e-10 -2.872932e-08 -1.180629e-08 -4.749867e-09 5.527805e-09
7.614098e-08 -6.522618e-09 -2.900630e-08 -1.187729e-08 -4.009322e-09 9.842829e-09
8.069450e-08 -6.269577e-09 -3.403720e-08 -1.350935e-08 -1.972139e-09 1.458060e-09
7.133285e-08 -1.805891e-09 -2.632270e-08 2.634798e-09 5.337197e-11 8.012005e-10
7.312825e-08 -1.352703e-09 -2.947614e-08 -1.145645e-08 4.644321e-10 6.069944e-11
6.445598e-08 2.201253e-09 -2.346101e-08 -1.342278e-09 3.916016e-10 -1.051277e-18
6.873830e-08 -1.670289e-09 -2.616990e-08 -1.138037e-08 -4.019051e-09 7.150149e-09
7.916426e-08 -7.988071e-09 -2.843350e-08 -2.643732e-09 -7.659171e-10 -4.283217e-10
5.480337e-08 9.870861e-09 -2.428670e-08 -7.882503e-09 -2.145742e-09 2.684320e-09
9.329570e-08 -9.918017e-09 -4.382517e-08 -2.127512e-08 -2.616111e-09 3.399619e-09
5.377500e-08 1.174782e-08 -2.005848e-08 -1.804735e-09 -7.387796e-10 4.178216e-10
4.787457e-08 1.642807e-08 -2.526490e-08 -1.212154e-08 -2.363043e-09 3.229420e-09
6.333843e-08 1.958281e-09 -2.122242e-08 -8.993793e-09 -3.229144e-09 4.852316e-09
7.755617e-08 -6.469682e-09 -2.753039e-08 -1.719007e-09 4.318728e-10 -1.484784e-18
4.784017e-08 1.643093e-08 -2.991093e-08 -1.211467e-08 -2.176705e-09 2.752448e-09
4.810011e-08 1.904002e-08 -2.656242e-08 -7.072329e-09 -7.673440e-10 6.546222e-10
8.057022e-08 -5.242023e-09 -3.145976e-08 -1.676537e-08 -2.400032e-09 7.020274e-09
7.529380e-08 -4.093604e-09 -2.830692e-08 -6.822503e-09 -3.241825e-10 8.213821e-10
4.952191e-08 1.511595e-08 -2.328252e-08 -4.838147e-09 -8.161113e-10 1.931733e-10
1.822268e-08 4.099186e-08 -2.352864e-08 1.596820e-09 2.084170e-09 4.255370e-09
7.090147e-08 -3.626925e-09 -2.249430e-08 -1.502583e-09 -4.428591e-10 1.489555e-09
7.448663e-08 -6.827473e-09 -2.585244e-08 -1.585859e-09 -1.459604e-09 1.026947e-09
6.187059e-08 4.669768e-09 -2.358649e-08 -5.208262e-09 2.565504e-10 4.909318e-11
6.742746e-08 2.444681e-09 -2.903445e-08 -1.249824e-08 -5.003983e-09 6.012005e-09
6.005724e-08 6.237293e-09 -2.018463e-08 -3.297785e-09 -6.358052e-10 1.429972e-09
5.098666e-08 1.461151e-08 -2.334528e-08 -8.041602e-09 -6.790235e-10 4.726708e-10
-1.927074e-08 1.420025e-07 -9.980272e-08 -7.255210e-09 -3.804615e-17 2.621988e-09
6.602875e-08 1.634916e-09 -2.492301e-08 1.772113e-09 -4.433416e-10 4.425179e-16
-1.006638e-08 4.369526e-08 -3.296942e-08 -2.290490e-09 -6.734805e-09 1.714277e-08
-1.541605e-08 4.236507e-08 -3.427998e-08 3.794300e-10 -9.116491e-09 1.975353e-08
-3.102411e-09 9.222824e-08 -7.528806e-08 -3.031982e-08 -4.453191e-08 3.305965e-08
9.314720e-09 5.426483e-08 -3.389682e-08 -3.799858e-08 -5.228898e-08 3.383362e-08
6.970733e-09 7.386104e-08 -4.554377e-08 -1.818808e-08 -1.536180e-08 1.731425e-08
1.572074e-08 5.954237e-08 -4.765625e-08 -2.483672e-08 -2.194065e-08 1.754193e-08
-2.280841e-08 9.606229e-08 -6.769753e-08 -1.480632e-08 -3.807592e-08 2.249832e-08
4.807442e-08 1.693160e-08 -2.058616e-08 7.425247e-09 1.609611e-09 8.492635e-10
-1.352012e-08 4.369526e-08 -3.175004e-08 -1.392663e-09 -7.259121e-09 1.710721e-08
1.208995e-08 7.221919e-08 -6.059909e-08 -5.562034e-09 -2.206925e-09 8.812460e-09
-6.306737e-09 5.821235e-08 -3.510912e-08 -1.039211e-08 -2.253155e-08 2.320965e-08
6.596613e-10 9.932586e-08 -7.781236e-08 -7.426770e-09 -6.815485e-09 1.190701e-08
-6.449818e-09 3.504642e-08 -3.233148e-08 -5.494195e-09 -3.560666e-08 2.926226e-08
-1.598484e-08 7.886981e-08 -5.067639e-08 4.164911e-09 -1.384385e-08 -1.121645e-08
-9.139763e-09 8.489702e-08 -6.373149e-08 -3.949914e-08 -4.226546e-08 2.741709e-08
-9.632216e-09 7.962603e-08 -7.897112e-08 -3.682084e-08 -4.949373e-08 3.686796e-08
-3.771858e-09 7.601437e-08 -5.786475e-08 -2.787275e-08 -3.954135e-08 2.522937e-08
-1.074070e-08 8.917578e-08 -6.521092e-08 -2.156442e-09 -4.538419e-09 -4.887682e-09
-2.102609e-08 1.101130e-07 -5.733856e-08 -2.353180e-08 2.911989e-08 -1.242690e-08
-1.260265e-08 8.445156e-08 -5.275094e-08 9.158219e-16 -4.232162e-09 -3.265887e-09
-5.606820e-09 9.444253e-08 -7.017478e-08 -8.680168e-12 -3.053991e-09 8.881784e-16
-2.130078e-08 8.112901e-08 -6.480225e-08 -9.288251e-09 3.639388e-08 -2.067618e-08
1.989308e-08 1.204026e-07 -9.484883e-08 8.911012e-08 5.090605e-09 8.183553e-09
2.921204e-09 1.385343e-07 -1.036540e-07 9.439526e-08 1.896004e-08 4.193011e-09
-2.114184e-08 6.143119e-08 -3.169363e-08 1.130815e-09 -1.571978e-08 -6.846321e-09
3.354780e-08 9.285451e-08 -8.798368e-08 1.023009e-07 3.081288e-08 2.849152e-08
4.626399e-08 1.269553e-07 -1.156191e-07 1.288067e-07 1.669991e-08 2.737891e-09
6.104059e-09 9.957825e-08 -7.529013e-08 5.622557e-08 2.107093e-08 1.743469e-08
-3.309460e-08 1.888910e-07 -1.121408e-07 -7.379538e-08 4.921758e-08 -1.835979e-08
-2.910032e-08 1.614533e-07 -1.018459e-07 -5.461641e-08 1.301394e-08 -6.901863e-09
-6.172433e-09 7.391399e-08 -4.500717e-08 -4.567650e-09 1.392571e-08 -2.958417e-09
9.596286e-09 1.783322e-07 -1.182174e-07 -1.019675e-07 4.009129e-08 -1.479844e-08
2.644340e-08 9.561254e-08 -9.070672e-08 -3.743702e-08 2.718389e-08 -6.737434e-09
3.680062e-09 1.506667e-07 -1.111755e-07 1.051825e-07 1.559351e-08 9.841700e-09
7.764172e-08 7.068455e-08 -1.004982e-07 1.182179e-07 2.378097e-08 2.708453e-08
5.058719e-08 1.458851e-07 -1.193448e-07 1.709926e-07 1.000774e-08 1.370554e-08
-3.201189e-09 1.881490e-07 -1.216249e-07 1.432210e-07 2.825503e-08 9.207561e-09
2.571296e-08 1.261244e-07 -1.011177e-07 1.230879e-07 3.300592e-08 2.935415e-08
2.322083e-08 1.569430e-07 -1.119657e-07 1.423330e-07 5.784044e-08 3.272517e-08
6.009740e-08 4.252265e-08 -6.323740e-08 -5.461551e-08 -8.964019e-09 4.463267e-11
9.552870e-08 4.336281e-08 -8.135631e-08 8.353760e-08 6.179670e-09 9.907229e-09
6.902085e-08 3.898097e-08 -5.386093e-08 6.214867e-08 1.859584e-08 1.812173e-08
6.550625e-08 5.871946e-08 -8.763020e-08 8.177077e-08 2.076816e-08 2.452378e-08
7.567879e-07 -5.319431e-07 6.159092e-07 -1.995795e-07 2.518476e-08 -6.128006e-08
7.480892e-07 -5.205489e-07 3.148243e-07 1.260858e-07 1.095926e-07 2.456187e-08
6.908900e-07 -8.958683e-07 1.300622e-06 -5.533900e-08 -2.962493e-08 3.615649e-07
6.391486e-07 -7.995410e-07 1.654450e-06 -2.326290e-07 -6.227395e-08 9.042404e-08
6.615120e-07 -5.215969e-07 4.182408e-07 -2.587687e-07 -1.641219e-08 2.661651e-08
7.648510e-07 -4.017733e-07 3.488432e-08 1.752170e-07 3.882207e-09 -5.566078e-08
6.011144e-08 3.607426e-08 -7.606848e-08 -5.554750e-08 6.941531e-10 9.474581e-10
7.312876e-07 -6.125099e-07 6.245954e-07 7.399669e-10 -1.859375e-08 9.020427e-08
2.613219e-07 -1.303153e-07 -9.063299e-08 -3.361276e-08 5.403605e-08 -1.883930e-08
7.559476e-08 3.061534e-08 -6.643311e-08 -5.544356e-08 -1.235662e-08 2.019240e-08
9.517269e-08 2.676142e-08 -7.741194e-08 -7.520770e-08 -1.498053e-08 2.141796e-08
5.839427e-08 4.882256e-08 -7.040512e-08 -6.544716e-08 -7.822662e-09 5.109956e-09
1.020625e-07 -9.146073e-08 -6.251278e-08 -6.791644e-08 4.760492e-08 -2.411661e-08
5.777139e-08 8.390719e-08 -8.355759e-08 -8.532931e-08 -2.322814e-08 1.733314e-08
5.732174e-07 -3.241583e-07 6.696517e-08 6.863781e-08 -4.861345e-09 -1.041693e-07
5.684936e-07 -6.639772e-07 1.118504e-06 -3.903661e-07 -1.876842e-07 2.684924e-07
5.955160e-07 -5.309617e-07 5.532308e-07 -1.210070e-07 -2.567714e-08 2.753544e-08
1.117263e-07 4.667447e-08 -9.329289e-08 -1.028562e-07 -2.468363e-08 2.795342e-08
7.641374e-08 4.666491e-08 -8.158966e-08 -7.519384e-08 -2.006888e-08 2.657784e-08
7.802396e-08 3.650901e-08 -9.188524e-08 -8.329688e-08 -4.097241e-09 5.921071e-09
6.832128e-08 8.808081e-09 -3.352946e-08 -2.183523e-08 -2.147021e-09 6.750509e-09
4.361029e-08 5.708184e-08 -6.929019e-08 -6.376169e-08 -1.624252e-08 1.162073e-08
7.635907e-08 1.716935e-07 -1.135994e-07 -2.223151e-07 -6.952414e-08 4.344404e-08
1.795709e-08 2.497890e-07 -1.113227e-07 -2.584168e-07 -1.831649e-08 1.393478e-08
-1.660080e-08 9.668899e-08 -6.465845e-08 1.596645e-08 3.420356e-09 2.249418e-09
-9.513731e-09 9.008841e-08 -6.480225e-08 -2.577147e-08 3.584963e-08 -1.350966e-08
-5.056791e-08 2.399088e-07 -1.249777e-07 -6.833218e-08 1.882393e-08 -1.128862e-08
-4.190156e-08 1.621992e-07 -8.176564e-08 -9.660985e-09 2.247692e-08 -3.126829e-09
-4.806848e-08 2.629535e-07 -1.274024e-07 -9.303969e-08 2.223996e-08 -6.085884e-09
-1.578088e-08 1.296366e-07 -7.686881e-08 3.377857e-08 3.064809e-09 1.532133e-10
-3.491810e-08 1.394334e-07 -7.453867e-08 -8.275668e-09 7.265056e-09 -2.543695e-09
-2.474606e-08 5.558738e-08 -2.407505e-08 -2.658149e-10 3.173711e-08 -1.615478e-08
-4.554472e-08 1.998677e-07 -1.083656e-07 -3.477856e-08 1.301596e-08 -6.871234e-09
-1.218316e-08 7.591472e-08 -5.148188e-08 9.651368e-09 2.019097e-08 9.798413e-09
-3.347439e-08 1.411764e-07 -8.522983e-08 -3.087609e-08 6.731706e-09 -2.799014e-09
-3.550018e-08 1.135936e-07 -7.784725e-08 1.802512e-08 7.213606e-08 1.503967e-08
-6.482997e-09 8.366603e-08 -5.495015e-08 8.599247e-09 4.576956e-09 3.816613e-09
-1.224475e-08 1.023230e-07 -7.087279e-08 2.720855e-08 6.056260e-09 2.929592e-09
-1.387967e-07 4.389585e-07 -1.566320e-07 5.555333e-08 -4.396954e-08 -4.606169e-09
1.436681e-08 5.037101e-08 -3.396660e-08 5.581515e-09 2.295536e-09 3.605443e-09
-2.822105e-08 1.120282e-07 -7.752232e-08 2.345937e-08 5.894091e-08 1.941245e-08
1.414174e-07 -1.913103e-08 -7.786004e-08 -5.308731e-08 6.935359e-10 9.521489e-09
-2.995314e-09 4.547141e-08 -2.761422e-08 6.904912e-09 1.859988e-08 1.546800e-08
-1.435632e-07 4.003621e-07 -1.217792e-07 9.165038e-08 -8.300237e-08 -2.547097e-08
-8.427525e-08 3.585159e-07 -3.352666e-08 3.030023e-07 9.238722e-08 5.933749e-08
-1.819658e-07 3.949936e-07 2.970978e-07 4.168321e-07 -2.366675e-08 -2.352659e-08
-2.636446e-08 2.995988e-07 2.136939e-07 4.222138e-07 -1.390683e-09 -2.965270e-08
-7.303940e-08 3.396263e-07 3.210330e-08 3.164565e-07 9.425855e-08 2.098866e-08
-1.181874e-08 2.365653e-07 -1.374102e-07 1.717305e-07 -5.822454e-08 -4.402993e-08
-5.395208e-09 1.344098e-07 -1.290913e-07 6.655391e-08 -4.601954e-08 -2.570417e-08
-5.683967e-08 3.016168e-07 -1.524482e-07 1.544667e-07 -3.521038e-08 -1.767219e-08
9.054427e-08 1.396705e-07 7.404892e-07 -5.968534e-07 1.412547e-07 -1.825719e-07
9.491151e-08 -5.396227e-07 1.425645e-06 -6.678403e-07 9.338304e-08 -1.771738e-07
-1.544366e-09 2.745289e-07 -1.183886e-07 -2.425929e-07 -6.303193e-09 2.070911e-09
-3.703617e-08 2.670750e-07 -1.524482e-07 1.335536e-07 -2.191433e-08 -2.251238e-08
5.947190e-08 2.293987e-07 6.887262e-08 -4.470206e-07 2.269794e-08 -5.038548e-08
3.813690e-07 -1.004055e-07 -2.593722e-08 -3.004023e-07 -9.018439e-09 -1.629808e-08
1.768827e-07 -1.847639e-08 -1.045849e-07 1.101435e-07 2.000837e-08 4.503228e-08
2.099660e-07 -2.657369e-08 -1.033148e-07 8.962399e-08 4.297421e-09 1.967571e-08
-3.581972e-08 2.512947e-07 -1.454092e-07 1.151126e-07 -1.765617e-08 -3.882897e-09
-4.034629e-08 2.109016e-07 -1.298717e-07 1.006263e-07 -6.104703e-08 -2.090940e-08
1.178578e-07 -2.548265e-09 -7.304498e-08 5.227643e-08 3.103636e-09 1.199801e-08
2.668000e-07 -6.256359e-08 -1.096584e-07 1.183032e-07 1.105016e-08 7.131479e-08
2.223997e-07 -6.261584e-08 -1.097936e-07 9.328352e-08 9.481433e-09 4.034379e-08
-4.259759e-08 2.179496e-07 -1.287107e-07 7.972125e-08 -4.985870e-08 -2.370195e-08
4.841095e-07 -2.112845e-07 -5.437842e-08 -8.522726e-09 1.144291e-08 6.053057e-08
2.605900e-07 -5.360488e-08 -1.063414e-07 7.155463e-08 1.230285e-09 1.205530e-08
4.900699e-07 -1.684225e-07 -1.065657e-07 8.642453e-09 3.314672e-09 5.026843e-08
1.872911e-07 -4.272368e-08 -9.091130e-08 6.177529e-08 2.478750e-09 4.025560e-08
2.023712e-07 -4.726173e-08 -1.122045e-07 1.020079e-07 4.820704e-09 3.037964e-08
-1.196834e-07 -6.650076e-07 2.611224e-06 -8.054363e-07 3.739936e-07 -5.688063e-07
4.154159e-07 -4.723729e-07 1.315980e-06 -5.177687e-07 9.943539e-08 -2.064249e-07
4.773050e-07 -1.998893e-07 -7.061612e-08 -6.647609e-08 3.579837e-09 1.770091e-08
4.581653e-07 -2.374653e-07 -1.605723e-08 -3.924596e-08 2.756194e-10 1.439164e-08
3.590829e-07 -1.278748e-07 -8.902755e-08 5.164655e-08 2.500947e-09 5.945731e-08
-4.458402e-08 -9.008616e-07 1.934094e-06 -4.603042e-07 3.580856e-08 -1.632058e-09
3.676570e-07 -1.059849e-07 -1.045321e-07 6.567958e-08 6.688472e-09 6.476548e-08
-4.236226e-07 6.027153e-07 6.176168e-07 -3.582364e-07 1.252381e-07 -1.555929e-07
-3.904240e-07 6.811653e-07 1.816464e-07 -4.885977e-08 -1.597727e-08 -5.761571e-08
3.668333e-07 -1.629343e-07 -9.292581e-08 5.086335e-09 6.635339e-11 1.253523e-08
-4.265583e-07 5.230006e-07 7.380764e-07 -4.271394e-07 1.374729e-07 -6.178889e-08
3.820366e-07 -1.400727e-07 -1.075104e-07 2.474494e-08 5.195138e-09 2.211914e-08
3.581142e-07 -1.383989e-07 -9.892994e-08 -2.939296e-08 -8.794307e-09 6.123898e-08
-1.781762e-06 -2.278790e-06 6.812848e-06 1.274787e-07 3.494841e-07 -2.873295e-07
2.851088e-07 -7.600627e-08 -1.068472e-07 -3.121878e-08 -6.378875e-09 5.276898e-08
-2.672430e-06 -2.324810e-06 7.429691e-06 4.116736e-07 -9.733153e-07 -9.503871e-07
7.817313e-08 -8.936699e-09 -2.527903e-08 -3.705927e-09 -1.088145e-09 1.087756e-09
7.750473e-08 -8.436910e-09 -2.624769e-08 -3.455754e-09 -6.350120e-10 2.360907e-09
7.441546e-08 -6.051499e-09 -2.308144e-08 -9.701631e-09 -2.204844e-09 6.777741e-09
7.257409e-08 -6.844029e-09 -2.361175e-08 -3.859597e-10 -6.854113e-10 8.504830e-10
7.347168e-08 -1.373650e-09 -2.943098e-08 -1.386670e-08 -2.328990e-09 7.393242e-09
7.025448e-08 -1.756190e-11 -2.749188e-08 -7.701141e-09 -1.329345e-09 -3.766222e-10
-3.688685e-08 1.451277e-07 -7.999046e-08 3.850221e-09 6.504497e-09 6.172640e-10
4.153833e-08 2.408021e-08 -2.800622e-08 1.377918e-08 3.340923e-10 3.448853e-09
3.626746e-08 2.666038e-08 -2.140364e-08 7.716399e-09 2.439996e-09 2.534206e-09
-4.439110e-08 1.737491e-07 -8.947929e-08 -4.096853e-09 6.362121e-09 3.527973e-10
4.172060e-08 2.366282e-08 -2.256543e-08 7.771835e-09 6.774483e-10 9.588037e-10
2.239092e-08 3.466381e-08 -2.372164e-08 8.509930e-09 6.295873e-09 6.479681e-09
2.903724e-08 3.092742e-08 -2.251675e-08 7.802688e-09 4.012086e-09 4.934154e-09
4.322115e-08 2.142606e-08 -2.050076e-08 7.867716e-09 1.903457e-09 2.463813e-09
4.682103e-08 2.424872e-08 -3.427505e-08 2.192704e-08 1.264303e-09 6.771656e-09
2.743172e-08 3.398564e-08 -2.163072e-08 1.306090e-08 6.285343e-09 5.625755e-09
-3.226743e-08 5.057320e-08 -3.289389e-08 3.269282e-09 4.516816e-08 4.475747e-10
4.450426e-08 2.397376e-08 -2.618804e-08 1.315700e-08 8.315211e-10 1.126370e-09
5.740103e-08 9.230742e-09 -2.226650e-08 7.459338e-09 1.320545e-09 5.087576e-10
-6.067442e-08 1.744722e-07 -1.079601e-07 -9.429532e-09 -7.691278e-08 8.855149e-09
1.576633e-08 3.642442e-08 -2.220631e-08 1.367581e-08 1.169617e-08 1.055450e-08
3.295261e-08 2.869945e-08 -2.515249e-08 7.090301e-09 2.051936e-09 2.332012e-09
-5.887491e-08 2.463170e-07 -1.340499e-07 3.198415e-08 -1.090776e-08 -1.185586e-09
3.660920e-08 4.418217e-08 -5.385592e-08 3.829386e-08 7.093689e-09 8.671402e-09
-4.086860e-08 1.068335e-07 -7.368791e-08 -2.100203e-09 -7.944173e-09 1.685897e-09
4.147628e-08 2.311142e-08 -2.240103e-08 9.137170e-09 1.831292e-09 2.911386e-09
4.863850e-08 1.767781e-08 -2.738303e-08 1.353911e-08 1.969302e-09 -2.925688e-10
-3.461477e-08 1.287540e-07 -7.649799e-08 3.172363e-09 -1.918510e-08 -1.718640e-08
-5.014405e-08 1.885294e-07 -1.318801e-07 5.708947e-09 -2.597489e-09 4.367097e-10
-4.140007e-08 1.395936e-07 -8.379621e-08 6.209416e-10 -2.303815e-08 -6.454640e-09
-4.973223e-08 2.015885e-07 -1.253192e-07 1.747389e-08 -9.841170e-09 -6.926596e-09
-1.669112e-08 1.162956e-07 -7.951257e-08 -2.560416e-08 4.676173e-09 -4.355611e-09
-2.180970e-08 8.838346e-08 -5.017036e-08 -1.956578e-09 2.911690e-09 -5.615411e-09
-2.011625e-08 8.807336e-08 -4.303039e-08 -1.369658e-08 1.971717e-08 -9.830984e-09
-1.564680e-08 6.931525e-08 -3.507679e-08 -1.081421e-09 3.427481e-09 -6.243387e-09
-1.184257e-08 8.613204e-08 -5.409438e-08 -8.585108e-09 2.716974e-09 -1.368333e-09
-6.798122e-08 2.242760e-07 -1.423491e-07 3.205722e-08 -2.910636e-08 -8.784075e-09
-6.170928e-09 1.106382e-07 -1.005498e-07 -3.921040e-08 2.436475e-09 -9.258177e-10
-2.839827e-08 8.411195e-08 -4.357831e-08 -5.460332e-09 3.074797e-08 -1.189995e-08
-2.577755e-08 7.754089e-08 -3.948466e-08 -6.951688e-10 4.406496e-09 -9.355707e-09
-7.183173e-08 2.221210e-07 -1.316900e-07 1.296903e-08 -4.952524e-08 -4.629075e-09
-5.765991e-08 2.091540e-07 -1.326541e-07 1.846736e-08 -1.307813e-08 1.030796e-09
4.973640e-08 1.429430e-08 -2.126785e-08 -1.635359e-09 -1.301785e-10 -4.904619e-10
4.868050e-08 1.532503e-08 -2.216905e-08 -2.113108e-09 -2.681073e-10 6.557006e-10
5.137732e-08 1.276343e-08 -2.347365e-08 -6.455037e-09 -9.536350e-11 -9.107382e-12
5.171088e-08 1.644418e-08 -2.831149e-08 -1.162280e-08 -2.577839e-09 1.790105e-10
5.014944e-08 1.395780e-08 -2.017454e-08 -6.856445e-10 -1.785711e-10 1.243358e-10
-2.161541e-08 7.252575e-08 -3.570074e-08 3.337512e-09 1.393479e-08 6.527932e-09
-3.849438e-08 9.812447e-08 -5.573499e-08 -8.607942e-09 4.003957e-08 -9.392939e-09
7.448663e-08 -4.367368e-09 -2.541593e-08 -1.187687e-09 -3.234124e-10 1.135432e-09
6.853904e-08 2.042224e-10 -2.414871e-08 -1.228323e-09 -2.941809e-10 8.910501e-10
4.995643e-08 1.418789e-08 -2.002228e-08 -9.105548e-10 -3.772882e-10 8.541692e-10
2.549032e-08 3.301600e-08 -2.343287e-08 7.121640e-09 3.456831e-09 3.112912e-09
6.518712e-08 3.680190e-09 -2.723321e-08 -7.773325e-09 4.884324e-10 1.052227e-10
-3.431255e-08 1.047084e-07 -5.003175e-08 -1.902404e-09 1.576555e-08 -4.351884e-09
-2.751713e-08 8.390334e-08 -2.945431e-08 8.510976e-10 2.525635e-08 -8.658111e-10
-2.971403e-08 8.352579e-08 -4.308969e-08 -2.910672e-10 5.627478e-09 -4.626201e-09
-3.030294e-08 1.047704e-07 -5.765326e-08 -4.165230e-09 4.859814e-09 -5.831583e-09
7.047096e-08 -2.099428e-09 -2.530881e-08 -1.607137e-09 4.844065e-10 -1.557015e-18
-3.116188e-08 9.089022e-08 -2.916284e-08 -4.152441e-09 4.923636e-08 -1.173864e-08
7.188895e-08 1.340485e-09 -3.319835e-08 -1.754771e-08 -3.942169e-09 3.591589e-09
6.854340e-08 1.452357e-09 -2.654078e-08 -8.590196e-09 -6.570380e-10 1.608739e-09
-2.794661e-08 8.071421e-08 -4.234532e-08 -2.139974e-09 2.933083e-09 -7.861945e-09
-4.591724e-08 1.533019e-07 -9.604360e-08 -1.590724e-08 1.772827e-08 -4.589377e-09
-4.960288e-08 1.946298e-07 -1.050341e-07 -6.925652e-09 3.874114e-08 -5.553916e-09
-4.959213e-08 1.609130e-07 -8.418236e-08 -5.074861e-09 2.470113e-08 -1.872435e-09
1.567505e-07 1.171461e-07 -1.535060e-07 1.631242e-07 -5.096098e-08 -3.703047e-08
6.038754e-08 1.514209e-07 -1.365657e-07 1.153590e-07 -4.962086e-08 -3.431354e-08
9.300757e-08 6.837825e-08 -1.275125e-07 3.545048e-08 -5.422575e-08 -1.766633e-08
1.137346e-07 8.749705e-09 -1.047408e-07 1.266334e-08 -8.226002e-08 -5.955954e-09
4.735028e-07 -1.055610e-07 1.530855e-07 -3.999896e-07 2.002210e-08 -1.860026e-08
2.186996e-07 -3.961238e-09 -4.583092e-08 -3.831962e-07 -5.677289e-08 7.378154e-08
1.254860e-07 7.833570e-08 -8.255652e-08 -3.074074e-07 -3.057342e-08 5.938049e-08
2.243398e-08 1.091752e-07 -1.289043e-07 7.205232e-08 -4.831721e-08 -2.593418e-08
1.073811e-07 1.551288e-07 -1.221033e-07 2.547972e-07 -4.644971e-08 -2.236211e-08
2.044877e-08 2.697946e-07 -1.543572e-07 2.340262e-07 -5.350612e-08 -4.036201e-08
1.606006e-07 1.265509e-07 -5.051965e-08 -3.634351e-07 2.779691e-09 -1.739950e-08
2.765055e-07 -1.936269e-08 -1.007071e-07 -2.473829e-07 -7.103014e-09 -3.955601e-09
1.209164e-07 1.502106e-07 -1.665609e-07 1.537189e-07 -1.670704e-08 -1.433529e-08
-2.780728e-08 1.711554e-07 -1.342604e-07 9.741006e-08 -6.489907e-08 -3.286517e-08
-1.467254e-08 1.754715e-07 -1.345510e-07 9.938595e-08 -1.619484e-08 -1.935998e-08
2.304501e-07 4.739633e-08 -1.176201e-07 -2.226412e-07 -2.621278e-08 2.329768e-08
2.362219e-07 5.973539e-08 -1.042387e-07 -2.636962e-07 -6.045643e-09 1.517664e-08
1.550092e-07 2.825504e-08 -1.072606e-07 -2.346783e-07 -2.779194e-08 5.727963e-08
1.818610e-07 8.986337e-08 -8.857822e-08 -3.242787e-07 -3.619799e-08 5.283595e-08
-1.551865e-08 8.979650e-08 -5.349508e-08 -4.001299e-09 3.524133e-10 -2.318768e-09
2.263776e-07 9.394522e-08 -8.099017e-08 -3.076537e-07 -4.190381e-08 2.659717e-08
-8.884352e-09 6.454019e-08 -3.945140e-08 -3.590009e-08 -7.106443e-08 4.012323e-08
7.983514e-09 8.149246e-08 -7.395485e-08 -4.885023e-09 1.091077e-08 2.546700e-10
-1.156207e-08 9.518019e-08 -7.412825e-08 -2.333364e-08 7.965835e-09 -3.161887e-09
-1.068085e-08 6.463297e-08 -3.831732e-08 -1.635479e-08 -2.697200e-08 1.716194e-08
-1.541543e-08 8.839945e-08 -5.087666e-08 -2.815086e-09 -2.204361e-16 -2.856924e-10
-6.512591e-09 7.846339e-08 -5.856238e-08 -8.572436e-09 -1.826547e-09 1.948109e-08
5.260945e-09 9.374655e-08 -6.871952e-08 -5.164566e-08 -3.745449e-08 2.432209e-08
-2.321069e-08 4.866277e-08 -3.569265e-08 5.550459e-11 -5.634838e-08 4.096476e-08
-3.348270e-08 1.001756e-07 -3.093491e-08 -1.174572e-09 5.422759e-08 -6.481282e-09
4.791909e-08 1.590394e-08 -2.389563e-08 7.322538e-09 4.656803e-10 -1.168239e-09
4.857191e-08 1.743294e-08 -2.490450e-08 1.222822e-08 9.532734e-10 1.089720e-09
3.629357e-08 3.181689e-08 -3.236068e-08 -1.130708e-08 -5.590912e-09 6.481110e-09
-2.484621e-08 4.820028e-08 -2.505437e-08 6.211216e-09 4.676370e-08 9.972029e-09
-3.509360e-08 1.159027e-07 -6.706129e-08 1.671474e-08 3.981928e-08 6.720807e-09
6.255770e-08 1.678969e-08 -4.686732e-08 3.396365e-08 6.946547e-09 1.109462e-08
6.436520e-08 1.026126e-08 -3.645607e-08 2.467801e-08 5.935078e-09 4.732458e-09
-2.126492e-08 4.632015e-08 -2.759256e-08 7.532979e-09 4.163859e-08 1.379502e-08
1.883459e-08 3.693653e-08 -2.444975e-08 7.586447e-09 5.750633e-09 4.863599e-09
5.514566e-08 1.620629e-08 -2.891257e-08 1.693810e-08 3.516325e-10 2.227194e-10
-3.154254e-08 1.306661e-07 -8.358472e-08 1.832754e-08 9.475161e-09 3.577272e-09
-3.972719e-09 9.122855e-08 -8.424012e-08 8.423431e-09 -2.038048e-08 -7.575789e-09
4.720919e-08 2.151815e-08 -2.508035e-08 1.405706e-08 2.769161e-09 3.196385e-09
4.738855e-08 1.961883e-08 -3.062173e-08 1.587707e-08 4.791529e-10 5.959065e-10
2.101150e-08 1.366125e-07 -1.232886e-07 7.203458e-08 -3.590369e-08 -2.591302e-08
2.607508e-08 1.039985e-08 -5.270213e-08 -2.207341e-08 -7.905993e-08 -1.625407e-08
2.454500e-08 4.402345e-08 -5.588718e-08 2.885857e-08 -1.014465e-07 -5.417615e-08
-2.887403e-08 1.417569e-07 -8.658109e-08 3.539555e-08 1.036660e-08 -3.590416e-09
-4.367763e-08 1.415021e-07 -7.468432e-08 2.541140e-09 6.085366e-08 1.645736e-08
-4.147384e-08 1.693429e-07 -8.727160e-08 1.357289e-08 2.863688e-08 1.771765e-09
4.970467e-08 3.754386e-08 -4.579437e-08 -2.858206e-08 -6.408832e-10 1.645154e-09
2.034673e-08 5.626077e-08 -7.909820e-08 2.685572e-08 -7.231178e-08 -2.966863e-08
4.365039e-08 2.132202e-08 -2.717234e-08 -1.902112e-09 3.756729e-10 1.421393e-09
5.208328e-08 2.486199e-08 -4.001278e-08 -2.398984e-08 -3.561777e-09 -9.859628e-10
-1.366905e-08 -6.676508e-09 -4.721522e-08 -1.460944e-09 -8.010413e-08 -3.944767e-08
5.137008e-08 1.248463e-08 -1.998671e-08 -1.161835e-09 -2.387117e-10 4.972982e-10
5.019376e-08 1.297335e-08 -2.011321e-08 -7.306271e-10 -1.260976e-10 1.583613e-10
9.470027e-08 -1.226797e-08 -4.369770e-08 2.140690e-08 9.340907e-10 9.933842e-10
1.115752e-07 -1.226592e-08 -5.508229e-08 2.927203e-08 4.877352e-10 2.138729e-09
9.675764e-08 -9.294234e-09 -4.531781e-08 2.604015e-08 6.409469e-10 1.325406e-08
8.483303e-08 -8.178976e-09 -3.869390e-08 1.869974e-08 4.194246e-09 6.671698e-09
5.377034e-08 1.177581e-08 -1.960980e-08 -1.632093e-09 -3.101378e-10 5.042018e-10
4.539787e-08 1.750566e-07 -1.382460e-07 1.105642e-07 -4.459572e-08 -2.610232e-08
2.812788e-08 1.396753e-07 -1.147445e-07 6.090933e-08 -1.014610e-08 -5.449364e-09
1.730172e-08 1.706221e-07 -1.345216e-07 9.600852e-08 -4.634372e-08 -2.335028e-08
8.319369e-09 1.446830e-07 -1.117420e-07 5.761292e-08 -1.155681e-08 -8.296705e-09
4.871364e-08 1.629902e-08 -2.078856e-08 -1.948532e-09 -2.792705e-10 1.076224e-09
1.646360e-08 1.388729e-07 -1.202474e-07 6.917678e-08 -6.037587e-09 -1.398721e-08
2.791520e-07 6.036108e-08 -1.247848e-07 3.012624e-07 -4.937836e-08 -4.679723e-08
4.187832e-09 1.514209e-07 -1.409062e-07 1.149844e-07 -5.691787e-08 -3.263133e-08
6.773593e-09 2.487087e-07 -1.409674e-07 1.494339e-07 -6.115905e-08 -2.887772e-08
1.194105e-07 -2.231642e-08 -4.567424e-08 1.213806e-08 1.065823e-09 8.417019e-09
1.999902e-08 4.015804e-08 -2.185832e-08 9.150952e-09 6.035203e-09 6.368428e-09
1.003029e-07 -1.770932e-08 -3.684030e-08 9.383762e-09 1.575816e-09 4.567528e-09
5.044302e-08 1.260304e-08 -1.954473e-08 -5.331096e-10 3.844702e-11 -1.966845e-10
1.168823e-07 -1.564163e-08 -5.877935e-08 3.279006e-08 5.575481e-09 2.805881e-09
6.395570e-08 1.123328e-08 -4.156431e-08 2.492438e-08 8.317213e-10 -7.508721e-10
1.770362e-07 -3.687022e-08 -7.644677e-08 1.892547e-08 4.599577e-10 6.393186e-09
-4.478785e-08 1.557559e-07 -8.828460e-08 -4.501649e-09 5.383751e-09 5.642633e-10
6.561165e-08 1.114363e-08 -3.548128e-08 2.325055e-08 -7.392090e-10 3.175812e-09
-8.250908e-08 2.002789e-07 -1.086946e-07 -4.035778e-09 5.779633e-08 -1.967413e-09
7.812977e-08 5.089865e-09 -4.976171e-08 2.886668e-08 1.689153e-09 -1.276454e-10
-5.885311e-08 2.055196e-07 -1.080321e-07 7.274072e-09 4.455106e-08 -8.254058e-10
-7.759879e-08 2.166499e-07 -1.102544e-07 -8.632888e-09 1.538387e-08 -3.975746e-09
7.660975e-08 7.886112e-09 -3.718651e-08 2.915882e-08 2.563211e-09 6.543477e-09
-5.885311e-08 1.963273e-07 -1.047221e-07 5.607853e-09 4.227054e-08 -1.568579e-10
-6.505244e-08 1.934618e-07 -1.009981e-07 8.201842e-11 1.219826e-08 2.774805e-09
6.651094e-08 1.579753e-08 -4.288322e-08 3.107584e-08 2.336081e-09 3.467124e-09
6.230025e-08 1.615234e-08 -3.571934e-08 2.857135e-08 5.138284e-09 9.033262e-09
-8.326556e-08 2.524115e-07 -1.249777e-07 -6.947246e-08 2.110792e-08 -7.797437e-09
7.502064e-08 1.179868e-08 -5.631239e-08 3.797042e-08 1.017074e-09 -3.695184e-10
-9.337925e-08 2.854791e-07 -1.145685e-07 -3.488460e-09 6.435886e-08 2.234960e-09
-1.049491e-07 2.823221e-07 -1.118002e-07 -1.511237e-08 6.222625e-08 -1.193808e-08
1.091935e-07 -6.275201e-08 7.078345e-07 -6.306882e-07 -1.744874e-07 9.830793e-08
3.503063e-07 -1.343426e-07 1.236330e-07 -4.674454e-07 2.274467e-08 1.240626e-07
8.962363e-08 9.903782e-09 -6.242415e-08 5.446418e-08 1.501772e-08 1.537222e-08
7.557398e-08 7.541971e-09 -4.526567e-08 3.093703e-08 1.941003e-09 1.161112e-08
4.480023e-07 -6.594281e-07 1.143069e-06 -4.655098e-07 -3.954752e-09 -3.615728e-08
4.219986e-07 -9.705996e-07 1.876987e-06 -3.881516e-07 1.902140e-07 4.236670e-07
-1.715899e-07 -6.654589e-07 2.066635e-06 -7.229687e-07 -5.485184e-09 -7.237034e-09
7.542843e-08 9.313642e-09 -4.662684e-08 3.693084e-08 1.024164e-08 9.900496e-09
-3.077858e-08 8.209324e-08 -2.995741e-08 -2.260426e-09 2.323229e-08 -6.936969e-09
6.183277e-07 -4.995234e-07 7.124445e-07 -3.986718e-07 -1.594873e-07 7.728731e-08
3.785151e-07 -1.343440e-07 1.971753e-07 -3.657694e-07 -2.272153e-08 3.552518e-08
1.958120e-07 3.455787e-08 1.026353e-07 -4.435880e-07 4.692802e-08 -3.675514e-08
-3.069113e-08 1.096386e-07 -6.777796e-08 -7.867029e-09 3.694786e-08 -1.336017e-08
-2.971428e-08 8.494421e-08 -5.315093e-08 -3.301884e-09 2.496034e-08 -5.891394e-09
-3.602346e-08 1.412517e-07 -7.692033e-08 -2.428807e-08 1.998207e-08 -5.473691e-09
-3.277380e-08 1.089149e-07 -6.148892e-08 -6.012959e-10 3.867796e-09 -2.782478e-09
-2.773570e-08 9.523898e-08 -5.418447e-08 -1.862651e-08 3.121249e-08 -1.160843e-08
1.719089e-08 1.748678e-07 -1.309599e-07 -1.540724e-07 -3.059491e-08 1.382059e-08
6.834997e-08 6.606083e-08 -8.681378e-08 -8.874923e-08 -3.131737e-09 7.353055e-09
1.132450e-07 6.877738e-08 -1.125254e-07 -1.354083e-07 -3.720812e-08 3.660471e-08
-8.826612e-08 3.605734e-07 -1.015383e-07 -2.532642e-07 -1.073064e-07 5.076113e-08
-2.544886e-08 1.217563e-07 -7.731499e-08 -3.074301e-08 2.516796e-08 -5.924138e-09
-1.214905e-07 4.128238e-07 -1.190688e-07 -1.845817e-07 -4.945510e-08 3.521015e-08
-2.685491e-08 3.022584e-07 -9.164086e-08 -2.587945e-07 -3.883662e-08 1.149092e-09
-2.685517e-08 3.112706e-07 -9.164086e-08 -3.211873e-07 -4.026387e-08 2.091135e-08
-1.051479e-08 1.021185e-07 -6.480225e-08 -2.972358e-08 3.359529e-08 -1.610777e-08
-2.879870e-08 1.256457e-07 -7.465914e-08 -1.554690e-08 3.479840e-09 -7.049763e-09
6.487121e-08 1.602902e-09 -2.592401e-08 6.362674e-09 1.692384e-09 -1.024769e-10
6.263837e-08 1.387359e-08 -3.469937e-08 2.526768e-08 3.404388e-09 4.491329e-09
5.787573e-08 2.290588e-08 -4.170663e-08 2.867950e-08 2.823449e-09 3.300739e-09
6.587061e-08 1.026977e-08 -4.016233e-08 2.692160e-08 4.904734e-09 8.387147e-09
-3.530976e-08 1.246734e-07 -6.921957e-08 -1.805706e-08 1.760187e-08 -9.254448e-09
2.461558e-08 3.361170e-08 -2.453662e-08 1.201646e-08 7.831964e-09 9.351727e-09
-2.375323e-08 2.852666e-07 -8.665685e-08 2.830886e-07 6.954233e-08 4.203131e-08
-2.992030e-08 2.733478e-07 -1.236508e-07 1.943114e-07 2.673397e-08 1.104894e-08
-5.776530e-08 3.124679e-07 -1.122508e-07 1.965808e-07 6.863945e-08 3.344872e-08
-1.527661e-07 3.500114e-07 -2.485908e-08 1.821634e-07 7.912573e-08 1.597738e-08
1.369901e-07 -3.171135e-09 -8.294274e-08 -6.466709e-08 -3.582989e-09 6.361563e-09
1.047073e-07 7.151697e-09 -8.906050e-08 -8.160907e-08 -2.418037e-08 4.434194e-08
-2.985383e-08 1.151821e-07 -6.612381e-08 -1.411315e-08 1.577335e-08 -5.313571e-09
-3.792411e-08 1.601474e-07 -9.167188e-08 -3.689839e-08 3.630936e-08 -1.402705e-08
4.713562e-08 2.624108e-08 -3.130748e-08 -1.274525e-08 -2.644218e-09 3.003283e-09
4.471913e-08 2.843578e-08 -2.873246e-08 -1.387087e-08 -6.300547e-09 5.795678e-09
9.569425e-08 9.521327e-09 -8.215260e-08 -7.998526e-08 -5.229569e-09 7.625528e-09
4.247263e-08 2.650876e-08 -2.754240e-08 -5.164752e-09 -2.564318e-09 4.717177e-09
1.717119e-07 -1.324829e-08 -1.012312e-07 -8.711862e-08 -4.602825e-09 1.358033e-08
4.358246e-08 2.038313e-08 -2.548326e-08 -7.052710e-09 -1.844368e-09 3.865214e-09
4.478313e-08 1.896898e-08 -2.560517e-08 -5.804301e-09 -9.753240e-10 1.793319e-09
3.454951e-08 2.782621e-08 -2.975736e-08 -7.738262e-09 -3.549188e-09 7.197981e-09
2.191177e-07 -4.742511e-08 -9.393412e-08 -3.345309e-08 -1.081010e-09 9.247258e-09
2.113877e-07 -5.167345e-08 -8.606662e-08 -2.969292e-08 -7.907392e-09 4.139312e-08
2.630955e-07 -5.507311e-08 -1.111726e-07 -6.700833e-08 -3.154984e-09 1.365754e-08
-6.147202e-07 2.693002e-07 1.794842e-06 -5.181028e-07 -3.309263e-07 1.271910e-07
-2.511682e-07 1.231815e-07 1.313871e-06 -6.366075e-07 -3.719265e-07 2.968275e-07
-2.456167e-07 -5.605587e-07 2.307814e-06 -7.553494e-07 1.937246e-07 3.861036e-08
4.970176e-08 2.723745e-08 -4.207587e-08 2.961952e-08 -1.313096e-09 4.991467e-09
3.967946e-08 4.292471e-08 -4.863545e-08 3.892057e-08 6.938249e-09 1.295884e-08
-4.106967e-09 1.030234e-07 2.764653e-07 -5.522114e-07 5.422537e-08 -3.716108e-08
-8.813213e-07 -4.028469e-07 3.437363e-06 -5.857659e-07 -4.586779e-07 3.805202e-07
3.618785e-08 4.540399e-08 -4.831312e-08 3.374722e-08 8.717345e-10 5.712870e-09
-2.512522e-07 3.176381e-07 6.053182e-07 -5.402269e-07 -1.986954e-07 1.186751e-07
3.174889e-08 4.191711e-08 -3.659301e-08 2.143775e-08 6.096605e-09 2.334904e-09
4.683271e-08 2.661092e-08 -2.852266e-08 2.063192e-08 5.194254e-09 5.357799e-09
1.493082e-08 2.022443e-07 2.584038e-07 -5.093113e-07 -8.855485e-08 4.439399e-08
-1.101665e-06 5.082170e-07 1.857320e-06 -2.647854e-07 2.811002e-07 -4.005671e-08
4.924515e-08 2.485542e-08 -2.977359e-08 2.069230e-08 3.006127e-09 3.016201e-09
-4.871566e-07 7.624146e-07 2.293178e-07 1.226229e-07 7.513146e-08 1.439556e-08
-7.552035e-07 6.842217e-07 1.115183e-06 -2.481961e-08 -1.528772e-08 -1.632423e-08
-4.940610e-07 7.538293e-07 1.860363e-07 -3.369185e-08 1.750186e-07 2.308667e-08
-4.727625e-07 7.835848e-07 3.405421e-07 -1.439886e-08 -6.004547e-08 1.412976e-09
3.912762e-08 3.223562e-08 -2.831084e-08 1.816949e-08 4.661396e-09 4.466991e-09
-7.186521e-07 6.544321e-07 8.985596e-07 -1.833216e-07 1.401144e-07 -1.251823e-08
3.482367e-08 3.100041e-08 -2.799361e-08 9.232427e-09 7.203826e-10 1.989409e-09
-6.515447e-07 6.733861e-07 9.110407e-07 -1.604406e-07 -4.688309e-08 -6.957158e-09
4.314761e-08 2.654350e-08 -3.294298e-08 1.931157e-08 -1.008886e-09 3.353952e-09
3.915383e-08 2.822231e-08 -3.633983e-08 1.900938e-08 -1.209099e-09 -3.312599e-10
-2.712164e-07 6.325545e-07 -4.797508e-08 1.646915e-07 2.191831e-08 -2.015753e-08
-3.199746e-07 6.980451e-07 5.807187e-08 -1.002129e-08 -9.260078e-08 2.207834e-09
-4.188936e-07 7.109734e-07 1.754854e-07 2.629338e-07 2.176282e-07 1.116799e-08
-4.382061e-07 5.810672e-07 3.126075e-07 1.883647e-07 1.525760e-08 -1.908855e-09
-6.031961e-08 3.176309e-07 2.300966e-08 -4.588793e-07 5.353493e-08 4.178630e-08
-1.264658e-07 3.633593e-07 1.911516e-07 -4.809407e-07 -3.446193e-08 9.381492e-08
2.909665e-07 -9.172011e-08 -1.130794e-07 4.086750e-08 1.030310e-08 1.436962e-08
2.147002e-07 -6.849337e-08 -1.076945e-07 -3.951678e-08 -2.503361e-09 1.830110e-08
7.129821e-08 -1.264076e-07 1.390690e-06 -6.804287e-07 4.732419e-08 -2.067869e-07
1.660037e-07 -5.169245e-08 -8.623977e-08 -2.241683e-08 -5.845371e-09 3.463282e-08
2.951504e-07 -9.656452e-08 -1.129978e-07 -5.054004e-09 8.375627e-09 1.951877e-08
-5.973721e-08 2.015979e-07 7.994860e-07 -6.060773e-07 -7.739450e-08 -1.754689e-08
2.262866e-07 -3.461702e-07 1.279198e-06 5.522494e-07 -1.322092e-07 -4.258446e-07
2.476339e-08 4.103472e-08 -3.074138e-08 2.075879e-08 1.538133e-08 8.831929e-09
1.005541e-07 1.444687e-07 4.430640e-08 -3.942661e-07 -1.536110e-08 -1.029424e-08
5.459425e-08 -8.003142e-07 2.320461e-06 8.259634e-07 -3.042487e-07 -7.620943e-07
6.034203e-08 2.230365e-07 -8.563582e-08 -3.134059e-07 -1.753105e-10 -8.757326e-09
1.296744e-07 1.215298e-07 3.326698e-07 -5.918203e-07 -1.995485e-08 6.594715e-08
8.187331e-08 7.246401e-08 2.118542e-07 -5.348582e-07 5.767839e-08 -1.809833e-08
-8.445866e-07 5.700891e-07 1.382654e-06 -2.682287e-07 -4.713157e-07 5.795378e-09
2.276788e-07 1.144948e-07 2.769284e-07 -5.269526e-07 -7.607990e-08 3.357412e-08
2.844457e-07 -1.413179e-07 3.603888e-07 -4.905540e-07 5.520553e-08 -1.043832e-07
-4.842716e-08 1.815306e-07 -1.107373e-07 5.049783e-08 -9.091735e-08 -3.145092e-08
-2.413986e-06 -1.608974e-06 6.725169e-06 1.915274e-08 -1.548274e-06 7.962453e-07
-1.482056e-06 3.968503e-08 3.603860e-06 8.826222e-08 -5.359763e-07 -2.250421e-07
-2.028883e-06 -8.719917e-07 5.034598e-06 6.200725e-07 -1.231472e-06 -4.518844e-07
-2.223997e-06 -1.615811e-06 6.303783e-06 3.930490e-07 -8.790771e-07 -3.446370e-07
-3.254232e-08 1.567928e-07 -1.071214e-07 6.282230e-09 -1.626898e-09 -7.031773e-09
-1.653577e-06 -1.768839e-06 6.301546e-06 4.496453e-07 -7.363343e-07 -4.136876e-07
-4.972378e-08 1.907343e-07 -1.301384e-07 2.676840e-08 -1.228149e-08 -6.305980e-09
3.696595e-07 -5.282658e-07 2.008707e-06 -5.458085e-07 2.984793e-07 -5.970448e-07
1.430146e-07 -1.654178e-07 4.447646e-07 -6.682651e-07 1.369916e-07 -4.763027e-08
-2.361405e-08 1.257780e-07 -8.492968e-08 2.826699e-08 -4.898740e-08 -2.571139e-08
-4.733348e-08 1.789769e-07 -1.251544e-07 9.737246e-09 -5.881955e-09 -3.491148e-09
-5.014399e-08 2.160059e-07 -1.318801e-07 1.042383e-08 -9.244422e-09 -1.844437e-09
-1.694852e-06 -1.892500e-06 6.662491e-06 -3.780001e-07 7.271348e-07 -3.931829e-07
-4.543210e-08 1.777574e-07 -1.202903e-07 9.449718e-09 -4.238536e-09 6.299124e-10
-1.404589e-07 -1.272241e-06 2.675060e-06 -6.025866e-07 2.331756e-07 -4.535403e-07
4.514959e-07 -6.444844e-07 1.321866e-06 -4.041694e-07 1.159163e-07 -2.460956e-07
-3.778639e-08 1.690778e-07 -1.106929e-07 3.263239e-08 -2.615861e-08 -9.923632e-09
-5.887746e-08 2.050362e-07 -1.340499e-07 2.233321e-08 -8.955180e-09 -2.728671e-10
5.932417e-07 -1.983611e-07 -2.064961e-07 -5.984253e-08 2.530270e-09 -1.415820e-08
6.573810e-08 2.104310e-09 -2.437727e-08 1.379886e-08 3.297312e-09 6.727390e-09
7.197808e-08 -4.152441e-09 -2.400323e-08 1.372945e-09 9.092819e-10 9.701004e-10
6.442049e-08 2.454513e-09 -2.411788e-08 8.862784e-09 4.051036e-09 5.932806e-09
6.757064e-08 1.654460e-09 -2.817878e-08 8.113515e-09 -1.696305e-10 -5.273788e-10
7.145299e-08 -3.763382e-09 -2.523707e-08 4.941454e-09 2.006625e-09 3.959226e-09
2.833826e-07 -4.522535e-08 -1.813492e-07 2.202285e-08 -5.815110e-08 2.681117e-09
4.888709e-07 -1.231191e-07 -2.251561e-07 3.335244e-08 -7.062289e-09 -2.490446e-16
6.253812e-08 3.459727e-09 -2.221021e-08 8.814967e-10 1.521998e-09 8.697265e-10
6.810431e-08 -8.767769e-10 -2.360155e-08 1.354240e-09 2.256202e-09 9.270988e-10
-8.143905e-09 1.003592e-07 -8.698245e-08 2.551034e-08 -2.259083e-08 -1.104588e-08
2.157934e-08 1.060568e-07 -1.006218e-07 2.743078e-08 -1.205867e-08 -1.227280e-10
5.202725e-07 -1.620799e-07 -2.030262e-07 1.516216e-07 -1.905864e-08 -2.409189e-08
4.639636e-07 -1.396666e-07 -1.888211e-07 5.497964e-08 -4.921546e-08 -5.279450e-08
5.659512e-08 -2.097112e-08 -6.475532e-08 -3.500770e-08 -9.593005e-08 -1.826177e-08
3.523752e-07 -8.422871e-08 -1.836960e-07 2.308878e-08 -4.406695e-08 1.089136e-08
-2.399512e-08 5.813636e-08 -3.594194e-08 -1.181997e-09 -2.943114e-08 -1.683727e-08
4.053703e-07 -6.254455e-08 -2.114786e-07 5.316773e-08 -9.332771e-09 1.384578e-08
-2.444347e-08 1.486093e-07 -1.029387e-07 2.490170e-08 -5.728544e-09 -5.408676e-09
-1.050897e-08 1.153186e-07 -8.625712e-08 2.530198e-08 -1.779753e-08 -1.197430e-08
1.646210e-07 4.226971e-09 -1.349775e-07 1.592499e-08 -7.832896e-08 -2.868378e-08
9.031636e-08 2.414357e-08 -7.104672e-08 4.694631e-08 -9.818758e-08 -4.951946e-08
-2.568431e-08 5.470948e-08 -3.342522e-08 1.914435e-09 -3.759953e-08 -2.288345e-08
-1.938534e-08 1.246754e-07 -9.172794e-08 1.322958e-08 -4.895786e-09 -1.267241e-09
-2.499327e-08 7.938674e-08 -4.263660e-08 2.179140e-09 -1.488587e-08 -1.765846e-08
2.452469e-07 -3.759534e-08 -8.253976e-08 1.174425e-07 -9.864251e-08 -1.011672e-07
2.949746e-07 -2.314733e-08 -1.783932e-07 1.886656e-07 -7.861576e-09 -5.950512e-09
2.686052e-07 1.340705e-09 -1.551760e-07 1.881617e-07 -7.093959e-08 -5.534784e-08
3.387574e-07 -3.866191e-08 -2.121305e-07 6.592175e-08 -1.776032e-08 -2.056450e-08
1.725243e-07 9.649408e-08 -1.703024e-07 1.172399e-07 -1.500419e-08 -1.241154e-08
3.790199e-09 1.190716e-07 -9.546078e-08 3.337927e-08 -8.134103e-09 -5.587910e-09
-1.530753e-08 1.241237e-07 -9.394554e-08 1.252947e-08 -3.789698e-09 1.480522e-10
3.865280e-08 2.385344e-08 -1.928957e-08 1.120603e-09 1.025020e-10 -3.164498e-10
3.606879e-08 2.619337e-08 -2.096242e-08 5.291576e-09 9.564883e-10 3.812179e-10
3.623899e-08 2.717775e-08 -2.435025e-08 8.181595e-09 2.618456e-09 3.853938e-09
-1.125249e-08 1.132350e-07 -8.653031e-08 1.245736e-08 -3.391973e-09 -4.610632e-09
3.306756e-08 3.375726e-08 -3.145199e-08 1.704743e-08 8.086944e-09 9.397740e-09
3.597530e-08 3.398356e-08 -3.408841e-08 1.551631e-08 3.469047e-10 3.127992e-09
3.105280e-08 3.073492e-08 -2.025311e-08 1.577148e-09 3.443701e-10 5.985753e-10
2.647691e-08 3.897396e-08 -3.074396e-08 5.361454e-09 1.653294e-09 1.296687e-10
-1.516829e-08 1.390977e-07 -9.394554e-08 3.054127e-08 -6.234657e-10 -4.853700e-09
1.529787e-07 -2.424842e-08 -9.052507e-08 -6.797368e-08 -1.641246e-08 2.632327e-08
1.929349e-07 -3.093812e-08 -1.066497e-07 -6.279559e-08 -1.389071e-09 1.799814e-08
1.909527e-07 -4.051013e-08 -8.072848e-08 -4.987916e-08 -1.154834e-08 3.968535e-08
-3.429082e-08 1.112850e-07 -6.151752e-08 -7.551495e-10 4.792144e-09 -6.832741e-10
-3.580011e-08 1.288448e-07 -7.547878e-08 -2.462896e-09 1.790895e-09 1.292467e-09
-3.660230e-08 1.288627e-07 -7.753041e-08 -2.683020e-09 1.190980e-09 -1.479998e-10
-3.435418e-08 1.214742e-07 -6.933056e-08 -2.213675e-09 9.956379e-09 -3.410789e-09
-3.280157e-08 1.224085e-07 -7.510554e-08 -5.607856e-09 1.000758e-09 1.757137e-10
-3.130933e-08 1.075375e-07 -5.979785e-08 -1.750472e-09 3.806938e-09 -4.592649e-09
1.548919e-07 -2.932284e-08 -7.512384e-08 -4.299339e-08 -8.703566e-09 6.872099e-09
2.162835e-07 -4.006982e-08 -1.119488e-07 -8.942705e-08 -1.060374e-08 5.621149e-08
-2.295059e-08 5.514005e-08 -3.106027e-08 9.709258e-10 2.735499e-08 -1.399773e-08
-2.338878e-08 1.071498e-07 -5.939741e-08 -1.647931e-08 1.422901e-08 -6.345336e-09
-2.392250e-08 1.026768e-07 -5.589458e-08 -1.471892e-08 2.567703e-08 -1.313526e-08
-2.795864e-08 1.138194e-07 -7.001463e-08 -6.443407e-09 1.052193e-09 2.119620e-10
-2.757839e-08 1.015172e-07 -5.581200e-08 -2.165796e-09 3.765340e-09 -5.100856e-09
-2.132532e-09 6.529360e-08 -6.856947e-08 1.358489e-09 -4.702856e-08 -3.024809e-09
2.008928e-07 -4.511987e-08 -1.052913e-07 -1.083605e-07 -1.002813e-08 3.903644e-08
2.068028e-07 -3.201029e-08 -1.126035e-07 -1.001217e-07 -5.594443e-10 2.326290e-08
2.282730e-07 -4.023575e-08 -1.035502e-07 -8.195307e-08 -1.798276e-08 4.604357e-08
2.366001e-07 -5.772835e-08 -1.209038e-07 -9.042520e-08 -6.017052e-10 1.102856e-08
-1.458952e-06 -2.318619e-06 7.372711e-06 3.877782e-07 -1.079698e-06 -1.364475e-06
-1.349361e-06 -2.322834e-06 7.686595e-06 2.837481e-07 -9.282918e-07 -1.551958e-06
-1.960503e-08 4.240152e-08 -4.042306e-08 9.757646e-10 -4.953025e-08 -1.192103e-08
-2.581677e-06 -2.621978e-06 8.310110e-06 3.888032e-08 2.242847e-07 -8.003305e-08
4.456702e-08 8.989833e-08 -1.241168e-07 1.869073e-08 -2.354109e-08 -6.288939e-09
2.749002e-08 4.379416e-08 -5.732885e-08 1.682199e-08 -7.649801e-08 -2.600174e-08
4.952690e-08 6.536184e-08 -8.848248e-08 2.482717e-08 -6.366751e-08 -1.208680e-08
-1.617341e-08 4.249188e-08 -4.068257e-08 -7.905435e-10 -4.936130e-08 -1.099358e-08
1.715889e-09 3.830867e-08 -5.171109e-08 -9.399469e-09 -6.438744e-08 -1.013443e-08
7.718281e-08 1.000436e-07 -1.394385e-07 3.151848e-08 -6.865035e-09 -8.489088e-09
-7.037132e-07 -1.847653e-06 5.587503e-06 2.327178e-07 -3.813782e-07 -8.222089e-07
-2.385375e-06 -2.013602e-06 7.181182e-06 1.366365e-07 -1.963179e-07 4.834483e-08
-2.396101e-06 -2.169882e-06 7.453897e-06 1.918209e-07 -1.429819e-07 -2.097204e-08
-2.544313e-06 -2.585818e-06 8.590795e-06 -3.025446e-07 -3.529172e-07 6.938529e-07
-1.725727e-09 6.161776e-08 -3.762475e-08 -4.102145e-08 -6.878343e-08 3.649206e-08
-2.464751e-06 -1.608982e-06 7.792001e-06 2.601316e-08 -1.550325e-06 -5.109481e-07
-2.719727e-06 -2.599946e-06 9.051507e-06 -6.063688e-08 -2.594066e-07 -5.637059e-07
-7.574813e-08 2.834747e-07 -1.459594e-07 -9.143905e-08 -2.941542e-08 -5.072195e-09
-2.860243e-06 -2.783158e-06 9.084942e-06 1.165794e-07 -3.314866e-07 -4.502876e-07
-4.823440e-08 1.700395e-07 -9.385338e-08 1.916544e-10 1.059480e-08 -3.827994e-09
6.955103e-07 -3.338920e-07 -3.992497e-08 -1.197305e-07 2.572296e-08 -4.289782e-08
7.100778e-07 -4.017733e-07 3.488432e-08 1.181073e-07 -1.247335e-09 -5.812062e-08
6.765112e-07 -3.489956e-07 -8.175975e-09 1.276231e-07 -9.455629e-08 -6.906516e-08
3.951215e-08 1.600801e-07 -1.249512e-07 -1.011974e-07 2.339022e-08 -1.430201e-08
-1.030848e-07 4.001110e-07 -1.125298e-07 -2.214941e-07 -8.886610e-08 3.746313e-08
8.333334e-08 1.620123e-07 -1.491754e-07 -1.538255e-07 2.237310e-08 -1.766946e-08
-2.275799e-08 2.834325e-08 -3.213010e-08 -4.149266e-09 -5.660008e-08 3.288228e-08
6.286032e-08 1.367583e-07 -1.425096e-07 -1.592685e-07 1.492391e-08 -8.880237e-10
-3.291914e-10 1.594036e-07 -1.323593e-07 -1.098649e-07 2.138077e-08 -9.371722e-09
1.757297e-08 1.602709e-07 -1.196068e-07 -9.998546e-08 4.049897e-08 -2.790416e-08
1.930439e-08 1.725203e-07 -1.183528e-07 -1.624203e-07 6.301666e-08 -2.786543e-08
1.598622e-08 1.635461e-07 -1.047229e-07 -1.678837e-07 6.443038e-08 -2.733621e-08
-2.179299e-08 9.075050e-08 -4.048676e-08 -9.160175e-09 -3.568719e-08 2.045690e-08
-4.691008e-09 1.831351e-07 -1.299583e-07 -1.608250e-07 1.555920e-08 -6.552223e-09
-2.758479e-08 2.609342e-08 -4.092403e-08 -7.107337e-10 -1.047233e-07 4.073110e-08
-3.418983e-08 7.874252e-08 -4.398698e-08 -3.380545e-08 -1.147039e-07 3.590437e-08
-2.636469e-08 5.864400e-08 -4.415723e-08 -1.560227e-08 -1.622628e-08 9.746809e-09
3.285159e-08 2.209838e-07 -1.088883e-07 -2.311216e-07 2.898395e-08 -1.698900e-08
5.207376e-08 1.444933e-08 -2.397283e-08 9.058691e-09 4.848020e-10 6.001546e-10
-2.309056e-08 4.199896e-08 -3.931830e-08 -1.215998e-09 -9.024536e-09 1.470075e-08
5.234473e-08 1.295224e-08 -2.127972e-08 4.379720e-09 2.194245e-10 1.658402e-10
-1.825657e-08 5.675077e-08 -4.154965e-08 -1.652944e-08 -1.418030e-08 1.249001e-08
4.124947e-08 2.256746e-08 -1.938279e-08 1.312521e-09 6.525279e-11 4.923722e-11
4.218135e-08 2.138548e-08 -1.917152e-08 4.158283e-10 1.439343e-10 -1.136769e-10
5.273958e-08 1.296066e-08 -2.032698e-08 2.354699e-09 7.508035e-10 1.875567e-10
5.215052e-08 1.098174e-08 -2.045188e-08 4.741087e-10 -2.027940e-10 2.987175e-10
5.471872e-08 1.339049e-08 -2.334506e-08 8.292807e-09 1.673868e-09 2.402932e-09
5.904401e-08 5.933531e-09 -2.032019e-08 3.762545e-09 1.135749e-09 1.581624e-09
5.229251e-08 1.235429e-08 -2.188735e-08 8.885736e-09 2.573720e-09 1.821604e-09
-1.589010e-08 7.362545e-08 -4.939945e-08 8.897067e-10 -2.304136e-09 -5.218731e-09
2.862063e-08 9.431635e-08 -1.042985e-07 5.394530e-09 -2.631120e-08 -6.637138e-09
-1.106849e-08 8.546984e-08 -6.534391e-08 1.284151e-09 -7.092925e-09 -4.676205e-09
3.338149e-07 -3.603323e-07 4.486630e-07 5.532412e-07 -1.469446e-07 -7.785489e-08
4.754964e-07 -2.394268e-07 1.829826e-07 3.444813e-07 3.638664e-08 5.804934e-08
4.405022e-07 -1.335437e-07 1.075322e-08 4.107217e-07 3.487158e-08 3.463914e-08
-4.062028e-08 1.364092e-07 -9.839030e-08 2.094445e-08 -8.753447e-08 -1.561919e-09
3.276340e-07 -6.322540e-08 2.318474e-07 5.029573e-07 2.649557e-08 1.055605e-07
-2.774344e-08 1.080675e-08 -4.742637e-08 3.152648e-09 -1.417883e-07 2.451336e-08
1.682226e-07 1.326995e-07 1.965784e-07 4.800971e-07 -2.458681e-08 -2.664270e-08
3.591520e-07 -2.957181e-08 1.391261e-07 4.042566e-07 3.717689e-08 4.779101e-08
-4.810364e-09 3.670188e-09 -5.392522e-08 2.684893e-10 8.104252e-08 -3.542448e-09
3.119943e-07 -4.879102e-08 3.064112e-08 3.741512e-07 -1.033707e-08 -2.666686e-08
3.320359e-07 -8.636438e-08 1.159029e-08 2.787029e-07 1.094148e-08 3.760717e-08
-7.006032e-09 6.465615e-08 -3.537823e-08 -1.574194e-08 -2.536989e-08 2.277136e-08
-4.669202e-09 1.194140e-07 -8.853690e-08 -7.551682e-09 4.283167e-16 1.044308e-09
2.613567e-08 2.742289e-08 -2.823729e-08 -1.283579e-08 -1.238236e-08 1.691361e-08
2.123545e-08 4.435893e-08 -4.113520e-08 -2.338320e-08 -1.889237e-08 1.743510e-08
4.298996e-07 -7.594891e-08 4.468580e-09 3.709365e-07 2.448035e-08 2.418896e-08
2.916289e-08 3.377688e-08 -2.603780e-08 -3.248838e-09 -3.852998e-09 6.150839e-09
3.041808e-08 2.767276e-08 -2.404651e-08 -7.007425e-09 -4.436151e-09 8.525520e-09
4.458661e-08 1.930516e-08 -2.380066e-08 -5.589843e-09 -1.929140e-09 1.733085e-09
4.447500e-08 1.972084e-08 -1.915921e-08 1.404017e-09 2.367304e-11 1.280411e-10
4.829501e-08 1.619072e-08 -1.983958e-08 3.524904e-09 9.668307e-11 1.685419e-09
4.892050e-08 1.627883e-08 -1.992027e-08 1.814878e-09 5.233819e-10 2.387711e-10
6.267622e-08 3.856231e-09 -2.407044e-08 1.843574e-09 9.336536e-10 -1.939604e-11
4.136426e-08 1.842393e-08 -2.263769e-08 -1.137937e-08 -5.341605e-09 7.392666e-09
4.365440e-08 2.301769e-08 -2.544118e-08 -1.466904e-09 -1.366720e-09 8.943135e-10
8.684862e-08 -1.939129e-08 -2.455773e-08 -5.640365e-10 -1.338555e-10 2.196889e-09
8.660978e-08 -1.726988e-08 -2.311733e-08 -2.728692e-09 -9.184674e-10 5.500277e-09
3.191961e-08 3.884296e-08 -3.409862e-08 -1.456586e-08 -8.403240e-09 1.139740e-08
3.752849e-08 2.278557e-08 -2.282857e-08 -6.138378e-09 -2.803078e-09 5.612210e-09
-1.154123e-08 1.029736e-07 -6.467908e-08 9.806624e-09 8.472897e-10 3.746507e-09
-2.120766e-08 8.436403e-08 -5.062129e-08 7.071321e-09 2.002695e-08 4.050997e-09
8.700124e-08 -1.817524e-08 -2.671193e-08 -4.482730e-10 -6.331932e-10 1.046570e-09
8.243309e-08 -1.477966e-08 -2.582907e-08 -3.567616e-10 -4.586785e-10 1.175403e-09
-2.230427e-08 5.123249e-08 -3.193717e-08 3.907437e-09 4.117406e-08 8.044039e-09
2.913758e-08 3.249670e-08 -2.442474e-08 -7.858914e-09 -5.718980e-09 7.906052e-09
3.875452e-08 3.099506e-08 -2.825465e-08 -1.190041e-08 -6.005943e-09 9.712651e-09
-2.035915e-08 7.913875e-08 -4.418603e-08 1.992204e-09 5.012753e-09 6.543407e-09
-1.119284e-08 6.126213e-08 -3.065351e-08 7.291469e-09 1.733836e-08 1.118237e-08
4.721693e-08 2.090897e-08 -3.080020e-08 -1.373828e-08 -6.122018e-10 -6.326275e-10
-5.588651e-08 1.725517e-07 -9.872767e-08 1.698809e-08 1.485935e-08 1.260149e-09
3.340450e-08 3.249164e-08 -2.954778e-08 1.451506e-08 5.211796e-10 -5.158998e-10
8.617515e-08 -1.228513e-08 -3.207531e-08 -8.035516e-09 -5.083543e-10 2.403226e-09
6.717215e-08 -1.165880e-10 -2.204651e-08 -8.115914e-10 -1.525812e-09 8.149319e-10
6.520516e-08 1.098078e-09 -2.269631e-08 -1.107043e-08 -1.999362e-09 6.422695e-09
6.717215e-08 -1.899694e-09 -2.258606e-08 -3.921219e-10 -5.271285e-10 6.241838e-10
4.139552e-08 2.047179e-08 -2.366941e-08 -7.401092e-09 -4.144107e-09 6.067789e-09
4.034905e-08 2.258799e-08 -2.245105e-08 -2.126842e-09 -1.174531e-09 2.006455e-09
6.914810e-08 -3.428672e-09 -2.384392e-08 -7.158897e-09 -2.774811e-09 3.770978e-09
5.400736e-08 1.126635e-08 -2.087047e-08 -2.539704e-09 -5.899326e-10 4.330763e-10
5.124073e-08 2.155808e-08 -4.341736e-08 -2.800786e-08 -6.780093e-09 8.307477e-09
5.025385e-08 1.406569e-08 -2.057055e-08 -1.803830e-09 -4.173879e-10 8.678051e-11
5.185595e-08 1.358514e-08 -1.971687e-08 -8.882277e-10 -6.799921e-11 -6.137163e-11
4.478084e-08 1.849032e-08 -1.923213e-08 5.303837e-10 -1.455862e-10 7.812595e-11
-8.033717e-09 2.171412e-08 -4.364151e-08 -2.438884e-08 1.132875e-07 -7.495246e-08
5.322020e-08 1.233760e-08 -2.028708e-08 -1.004551e-09 -9.497990e-11 2.113826e-10
5.031607e-08 1.380549e-08 -1.986114e-08 -6.454116e-10 -1.146460e-10 3.530296e-10
5.134452e-08 1.253675e-08 -1.946885e-08 -4.170771e-10 7.457990e-11 -1.649533e-10
1.189468e-07 -4.889885e-10 -7.759641e-08 6.214048e-08 3.783263e-09 5.135732e-09
4.219052e-08 2.043512e-08 -1.896914e-08 8.098495e-10 1.821300e-10 8.868971e-11
4.336507e-08 1.994531e-08 -1.902477e-08 2.706422e-10 7.253142e-11 3.679701e-11
1.067651e-08 3.138224e-08 -6.211414e-08 -2.591030e-08 1.010233e-07 -3.904788e-08
7.100142e-08 1.517035e-08 -4.223742e-08 3.903777e-08 3.046471e-09 6.822858e-09
8.782114e-08 1.020404e-08 -5.249350e-08 4.871230e-08 9.091595e-09 1.941378e-08
9.120213e-08 7.535677e-09 -4.951950e-08 4.312288e-08 3.172227e-09 9.835742e-09
5.721705e-08 8.806468e-09 -2.039119e-08 -8.403762e-10 -2.097133e-10 6.961839e-10
1.104263e-07 -4.855480e-09 -6.358345e-08 4.697486e-08 4.900577e-09 8.944072e-09
8.635204e-08 -5.600796e-09 -3.608110e-08 2.248692e-08 2.930404e-09 3.985695e-09
7.257409e-08 -4.686981e-09 -2.307276e-08 -8.253762e-10 -1.796481e-09 1.022216e-09
6.276276e-08 3.465176e-09 -2.350896e-08 -2.418188e-09 5.057554e-11 8.945984e-10
9.365458e-08 3.378361e-09 -6.192461e-08 4.324825e-08 2.612991e-09 2.566022e-09
5.784601e-08 7.940315e-09 -2.081287e-08 -8.229764e-10 -1.057040e-09 3.200877e-10
-2.724040e-08 1.476647e-07 -8.192867e-08 2.988233e-08 4.977716e-09 4.773144e-10
5.439903e-08 1.070742e-08 -1.986966e-08 -5.018421e-10 -5.263791e-10 3.145708e-10
5.435416e-08 1.130997e-08 -1.992739e-08 -1.897393e-10 -1.947164e-10 3.574226e-10
6.456694e-08 1.669318e-09 -2.187897e-08 -2.022439e-09 -3.568114e-10 4.405230e-10
6.821807e-08 5.074425e-10 -2.564517e-08 -6.115261e-09 1.298446e-10 1.478338e-10
2.306864e-08 7.801166e-08 -6.506882e-08 -4.602795e-08 -2.228784e-08 2.348197e-08
7.854141e-09 4.441571e-08 -2.865626e-08 -8.414209e-09 -7.023757e-09 1.533054e-08
6.267622e-08 3.921750e-09 -2.328450e-08 1.238641e-09 -2.893992e-10 1.766724e-10
-3.450683e-08 1.313122e-07 -7.436703e-08 -1.315379e-09 1.898735e-08 -1.027946e-09
5.776606e-08 6.336592e-09 -2.270381e-08 9.840542e-10 9.531937e-10 3.765512e-10
2.566979e-09 8.864662e-08 -7.096583e-08 -2.383983e-08 -1.269570e-08 9.167368e-09
-3.383827e-08 1.129475e-07 -6.215894e-08 9.960521e-10 4.027912e-09 -3.127032e-10
4.230671e-08 4.186591e-08 -4.457732e-08 -2.559068e-08 -4.570341e-09 6.494196e-09
3.109709e-08 5.022400e-08 -5.132139e-08 -1.163040e-08 -5.855565e-10 -5.899885e-10
3.453128e-08 3.567675e-08 -4.404561e-08 -1.833747e-08 -2.880818e-09 5.362503e-09
-4.778455e-08 1.545430e-07 -8.466070e-08 8.105769e-09 2.363365e-08 2.859037e-10
1.808771e-08 4.346858e-08 -2.529276e-08 -1.135901e-08 -8.429980e-09 1.439080e-08
-3.776093e-08 1.379272e-07 -8.686765e-08 1.286244e-08 4.133935e-09 -2.554185e-10
-3.675698e-08 1.479442e-07 -8.027270e-08 1.412188e-09 5.244895e-09 4.135190e-10
-4.393055e-08 1.700640e-07 -9.114018e-08 6.051012e-10 3.459495e-08 -4.736458e-10
-6.273510e-08 2.297610e-07 -1.335178e-07 1.791800e-08 -5.569043e-08 -7.458921e-09
-3.145310e-08 4.414327e-08 -3.989107e-08 -2.923745e-10 -1.083780e-08 -1.130183e-08
-3.982369e-08 1.176090e-07 -9.290953e-08 2.084185e-08 -6.678380e-08 -3.751880e-08
-4.023288e-08 1.429203e-07 -7.942354e-08 6.712801e-09 4.440173e-09 2.337944e-09
-3.315890e-08 5.888629e-08 -4.789446e-08 1.526088e-08 -1.768355e-08 -4.291757e-09
5.495171e-08 1.241230e-08 -2.602825e-08 1.186294e-08 3.690430e-09 3.478448e-09
4.846017e-08 1.848860e-08 -2.225264e-08 9.554962e-09 1.308873e-09 1.023068e-09
4.912200e-08 1.693669e-08 -2.382097e-08 8.473382e-09 -4.165690e-10 1.255010e-09
4.718940e-08 1.574372e-08 -2.027160e-08 8.825657e-10 2.086016e-10 -2.856364e-10
3.717576e-08 2.459311e-08 -2.964687e-08 -1.019901e-08 -3.840366e-09 6.192072e-09
2.718059e-08 2.797654e-08 -2.751908e-08 -9.351666e-09 -9.093376e-09 1.176290e-08
4.411961e-08 1.955365e-08 -2.138088e-08 -1.433994e-09 -9.019349e-10 1.084085e-09
4.786066e-08 1.726430e-08 -2.121794e-08 -1.928226e-09 -7.442878e-10 1.421127e-09
4.530032e-08 1.670021e-08 -1.976778e-08 5.426485e-09 6.080080e-10 8.395548e-10
5.409339e-08 1.219811e-08 -2.406154e-08 7.265422e-09 -4.595577e-10 5.508127e-11
4.598492e-08 1.595640e-08 -2.053576e-08 3.272099e-09 1.075646e-11 7.513990e-11
4.971726e-08 1.450400e-08 -1.970786e-08 -7.081305e-10 -1.264793e-10 -5.568089e-11
4.930267e-08 1.482005e-08 -2.080478e-08 4.568106e-09 -8.803338e-11 6.816229e-10
-3.126809e-08 6.158850e-08 -4.654263e-08 1.705289e-08 -1.740725e-08 8.203409e-09
-5.311315e-08 2.028682e-07 -1.328635e-07 -2.063948e-08 -1.439072e-08 -2.443384e-09
4.824694e-08 1.588301e-08 -2.226493e-08 6.143122e-09 -6.460651e-10 -1.527061e-10
-3.464652e-08 8.515662e-08 -5.280958e-08 -1.682175e-09 -2.687526e-08 2.165028e-09
-2.951206e-08 1.165693e-07 -7.212369e-08 -1.163136e-08 -1.945497e-08 1.765500e-08
8.213497e-08 -1.310102e-08 -2.804116e-08 7.998917e-10 1.428352e-09 1.249012e-09
-5.476074e-08 2.189522e-07 -1.293337e-07 -9.740738e-09 -4.515869e-08 4.750722e-09
8.038802e-08 -1.153087e-08 -2.517513e-08 1.032523e-09 1.713824e-09 1.702542e-09
3.594120e-08 4.522124e-08 -4.154110e-08 3.096018e-08 5.833310e-09 6.072322e-09
4.116909e-08 4.429118e-08 -4.459588e-08 3.323849e-08 1.543545e-09 1.383660e-09
8.151426e-08 -1.342086e-08 -2.402705e-08 1.921529e-09 -1.033430e-11 2.016386e-09
3.653183e-08 3.679082e-08 -4.459588e-08 2.550655e-08 -1.089253e-09 4.247473e-10
1.458937e-08 4.294824e-08 -2.424266e-08 3.848295e-09 3.046965e-09 4.228159e-09
8.314115e-08 -1.798380e-08 -2.619805e-08 4.162834e-09 1.359825e-09 8.032892e-09
2.897139e-08 4.624120e-08 -4.870942e-08 3.433557e-08 1.144295e-08 9.676497e-09
7.991918e-08 -1.441199e-08 -2.594060e-08 5.512882e-09 1.792542e-09 6.944804e-09
3.398596e-09 7.445828e-08 -6.569327e-08 -4.803464e-09 -2.608673e-09 1.556413e-08
2.167206e-09 5.443276e-08 -3.305087e-08 1.978101e-08 2.630119e-08 2.264281e-08
5.822209e-10 5.674797e-08 -3.585015e-08 -5.770317e-09 -1.123959e-08 1.509079e-08
3.000037e-08 1.754564e-07 -1.345510e-07 9.947482e-08 -1.634239e-08 -1.042268e-08
1.211362e-07 1.172358e-07 -1.504329e-07 1.726103e-07 -4.596805e-08 -4.334246e-08
1.860367e-09 9.036066e-08 -7.819366e-08 -2.482982e-08 -1.508125e-08 1.421736e-08
4.945902e-09 1.040967e-07 -9.951378e-08 -5.857473e-08 -1.886364e-08 9.859394e-09
4.496190e-08 2.022186e-07 -1.539142e-07 1.621829e-07 -5.211805e-08 -3.461091e-08
1.421740e-07 -4.039944e-08 -7.308523e-08 -9.299018e-09 -2.428795e-09 2.639660e-08
-9.690390e-09 1.092956e-07 -9.243179e-08 -1.607967e-08 -7.288244e-09 7.301012e-09
2.653794e-09 7.685377e-08 -6.398547e-08 -2.192597e-08 -2.122907e-08 1.591040e-08
-2.974923e-09 1.633026e-07 -1.104813e-07 -7.172573e-08 -7.944897e-09 9.216804e-09
9.496314e-08 -2.000681e-08 -3.813605e-08 4.941270e-09 2.370390e-10 2.650804e-09
1.668130e-07 -3.271821e-08 -7.373622e-08 -2.773482e-08 -5.516957e-10 4.450737e-09
-5.644890e-08 2.515883e-07 -8.715284e-08 -2.185963e-07 5.224307e-08 -2.111876e-08
-8.424008e-08 2.880282e-07 1.229426e-08 -2.928962e-07 5.050569e-08 -1.853356e-08
-3.576973e-08 3.812745e-07 3.425260e-08 -3.677687e-07 4.784495e-09 2.049321e-08
8.764377e-08 -1.892408e-08 -2.471662e-08 -1.618600e-10 -4.369310e-10 1.800304e-09
-4.585233e-07 4.226719e-07 5.636517e-07 -4.726174e-07 5.612644e-08 -3.871278e-08
-2.047455e-07 3.447310e-07 1.718013e-07 -4.350207e-07 4.796918e-08 -4.379428e-08
1.218714e-07 -3.154291e-08 -5.918601e-08 1.510272e-09 1.749933e-10 7.390842e-09
8.894286e-08 -1.699457e-08 -3.110245e-08 2.319860e-09 2.493767e-10 1.278850e-09
1.088483e-07 -2.214659e-08 -3.782950e-08 5.693178e-09 5.662980e-10 1.027178e-08
8.232213e-08 -1.132264e-08 -2.570196e-08 -2.106121e-09 -2.021232e-09 1.316482e-09
-1.354102e-07 3.577216e-07 -2.831096e-08 -2.374735e-07 -7.974405e-08 1.512069e-08
-2.847721e-07 5.124517e-07 1.635716e-09 -1.370177e-07 -2.286188e-08 3.790776e-09
-1.306078e-07 4.568745e-07 -5.139913e-08 -3.126150e-07 -4.963542e-08 1.371850e-08
1.336441e-07 -1.916102e-08 -7.287096e-08 4.573768e-08 -1.970673e-09 1.136055e-08
1.166349e-07 -9.428613e-09 -6.293759e-08 4.455459e-08 7.462040e-09 1.981934e-08
9.377268e-08 5.535966e-10 -5.719754e-08 3.431734e-08 4.599041e-09 9.800215e-09
1.500566e-07 -1.629025e-08 -7.824443e-08 6.176908e-08 2.268483e-09 7.464436e-09
-1.738680e-08 1.042447e-07 -6.443010e-08 5.422821e-09 1.075845e-08 5.193883e-09
1.178499e-07 -2.534427e-09 -6.098441e-08 5.229479e-08 3.921807e-09 1.200120e-08
-1.743641e-08 9.237303e-08 -5.596819e-08 4.495488e-09 3.762292e-09 4.111410e-09
-2.174463e-08 1.197673e-07 -7.576005e-08 1.728745e-08 5.012826e-09 7.368568e-09
-5.542064e-08 1.706973e-07 -9.629570e-08 1.739534e-09 9.402262e-09 4.268345e-10
-2.045533e-07 -1.438589e-06 4.464107e-06 4.283131e-07 7.968561e-08 2.987335e-08
-2.928964e-07 -5.778825e-07 2.876826e-06 7.697467e-07 8.610699e-07 7.037263e-07
-1.158938e-07 -1.097046e-06 2.127110e-06 5.074202e-07 8.115244e-08 6.106061e-07
-3.380679e-08 1.425128e-07 -8.193270e-08 3.719378e-08 3.034271e-08 2.786298e-10
1.889224e-07 -5.533065e-08 -9.545544e-08 5.966707e-08 1.010757e-08 4.190997e-08
1.743069e-07 -4.039942e-08 -7.266040e-08 -1.185818e-08 -2.986773e-09 3.087387e-08
2.287743e-07 -5.338800e-08 -9.055651e-08 3.056173e-08 3.488351e-09 2.175656e-08
3.999394e-07 -1.100509e-07 -1.109636e-07 -1.563371e-07 -3.892801e-09 2.928264e-08
3.200302e-07 -1.098147e-07 -1.109636e-07 -1.237957e-07 -5.796171e-10 2.523265e-08
4.040163e-07 -1.873302e-07 -4.428602e-08 -1.341322e-07 9.253739e-09 2.547692e-08
4.390243e-07 -1.873233e-07 -5.539682e-08 -1.049798e-07 -1.245806e-09 4.046286e-08
1.464242e-07 -3.571754e-08 -6.907544e-08 -6.088461e-09 6.139048e-09 7.259275e-09
1.463535e-07 -4.180153e-08 -7.479278e-08 -4.243651e-09 -3.319566e-10 9.976087e-09
1.786304e-07 -4.255833e-08 -7.156245e-08 3.022167e-09 6.433541e-10 3.396553e-08
4.774919e-07 -1.642347e-07 -1.117684e-07 5.005584e-08 1.042250e-08 1.756669e-08
2.191772e-07 -7.280900e-08 -1.105955e-07 -2.605363e-08 8.751493e-10 5.680505e-09
4.567354e-07 -2.464236e-07 -1.128802e-08 -4.316978e-08 -4.246895e-09 6.350058e-08
2.215886e-07 -6.136399e-08 -9.995435e-08 -3.146673e-08 -1.025550e-08 1.077956e-08
2.235076e-07 -5.592786e-08 -9.029647e-08 -8.327915e-09 -2.518838e-09 4.252190e-08
4.123262e-07 -2.243839e-07 -1.718031e-08 1.322850e-07 2.695542e-08 4.248724e-08
2.262979e-07 -6.831090e-08 -9.715314e-08 -7.328567e-09 7.133155e-09 4.312635e-08
9.542494e-08 -1.319712e-08 -4.261316e-08 1.289534e-08 6.361724e-10 6.100142e-09
1.183064e-07 -2.010659e-08 -6.818670e-08 3.268728e-08 -1.199499e-09 1.534132e-09
2.886606e-07 -9.833452e-08 -1.044993e-07 1.111767e-09 -8.351104e-09 5.626487e-08
9.180592e-08 -1.265263e-08 -3.242868e-08 6.103529e-09 9.718056e-11 5.186264e-09
2.295947e-07 -6.655684e-08 -1.016010e-07 1.292887e-08 1.026267e-08 1.317741e-08
1.031502e-07 -2.452339e-08 -4.100547e-08 6.133825e-09 1.288780e-09 1.548006e-08
1.031869e-07 -2.255880e-08 -4.292976e-08 1.008184e-08 1.068341e-09 5.771906e-09
3.246558e-08 5.814984e-08 -6.885855e-08 -3.605534e-08 1.165489e-09 1.946644e-09
1.051268e-08 6.159025e-08 -4.172653e-08 4.472093e-09 -6.629381e-16 3.572991e-10
4.361675e-08 5.703129e-08 -8.518035e-08 -6.375741e-08 -9.392053e-09 8.545607e-09
3.545262e-08 3.763675e-08 -4.034275e-08 -1.686213e-08 -5.583431e-09 3.261177e-09
2.335354e-08 5.104830e-08 -4.307833e-08 2.071735e-08 7.799003e-10 -2.276332e-09
1.104489e-08 5.499990e-08 -3.792791e-08 2.171400e-09 2.377245e-09 5.817452e-09
3.519239e-08 4.231640e-08 -5.329179e-08 -2.210523e-08 -5.755690e-09 3.912581e-09
3.666393e-09 5.974718e-08 -3.264712e-08 -1.521101e-08 -2.005842e-08 1.824728e-08
6.396700e-08 4.109611e-09 -2.523517e-08 6.327693e-09 3.535758e-10 7.018031e-11
4.628668e-08 4.364777e-08 -5.443731e-08 -4.118133e-08 -8.407563e-09 9.234730e-09
5.770311e-08 8.215131e-09 -2.273278e-08 9.523582e-09 3.805788e-09 3.008845e-09
6.974869e-08 -2.010585e-09 -2.246852e-08 9.937659e-09 2.127824e-09 6.106035e-09
5.416621e-08 1.159007e-08 -2.246399e-08 3.225094e-09 5.949203e-10 1.531199e-10
4.002213e-08 2.779511e-08 -3.193392e-08 -3.166081e-09 4.491235e-10 2.766028e-09
4.932529e-08 1.416329e-08 -2.038729e-08 1.034650e-09 -3.999987e-10 4.432615e-16
4.336090e-08 4.043920e-08 -4.917623e-08 -2.796725e-08 -8.612049e-10 6.289190e-09
5.160817e-08 1.269957e-08 -2.168849e-08 2.554949e-09 -4.300738e-10 9.866086e-11
5.237341e-08 1.194656e-08 -2.179520e-08 2.122433e-09 1.546585e-11 7.533750e-10
-2.807221e-08 1.244560e-07 -7.257596e-08 3.350135e-09 2.216809e-16 -5.427347e-11
4.243870e-08 4.190130e-08 -4.380819e-08 -2.588948e-08 -4.401674e-09 4.782042e-09
3.719530e-08 2.559196e-08 -2.506297e-08 -1.772748e-08 -1.152139e-08 1.185150e-08
-3.432810e-08 1.311428e-07 -7.422011e-08 -7.299583e-11 -1.332239e-15 -1.973803e-10
-7.735256e-08 2.719198e-07 -1.239892e-07 5.367644e-08 1.922279e-08 1.130263e-08
-1.031354e-07 2.710665e-07 -1.282957e-07 4.538461e-08 1.718925e-08 -3.019381e-09
-6.301260e-08 2.511044e-07 -1.167967e-07 5.768331e-08 5.718932e-08 1.266101e-08
-7.772149e-08 2.499028e-07 -1.258087e-07 7.827975e-08 1.412377e-08 -3.137012e-09
-1.640580e-07 3.635860e-07 -9.151194e-08 3.637952e-08 1.888555e-08 -2.573395e-09
-1.412887e-07 3.536608e-07 -1.081163e-07 7.112239e-08 8.531178e-08 6.472227e-09
-1.535197e-07 3.919628e-07 -4.285082e-08 1.450922e-07 6.263106e-08 1.912585e-09
-2.581014e-09 6.452353e-08 -3.624924e-08 1.448086e-09 3.539181e-09 9.699629e-09
1.478370e-08 6.958645e-08 -5.802411e-08 4.033667e-08 5.982387e-09 2.895316e-09
-3.370801e-09 9.794394e-08 -7.715771e-08 4.417563e-08 2.193734e-08 8.011251e-09
-9.080565e-08 3.501530e-07 -1.314507e-07 8.986298e-08 2.774749e-08 8.418099e-09
-3.519619e-08 1.336928e-07 -8.264206e-08 1.753629e-08 2.108954e-08 2.090413e-09
-9.995111e-08 3.341241e-07 -1.286002e-07 6.522825e-08 6.315636e-08 1.393426e-08
1.401212e-08 8.054827e-08 -6.223183e-08 3.993961e-08 1.729733e-08 1.278423e-08
-1.183651e-07 3.355290e-07 -9.855194e-08 6.917505e-08 7.191001e-08 1.164412e-08
-1.401350e-06 -6.867320e-07 5.011488e-06 -5.203773e-07 7.735797e-07 -2.440680e-07
1.453985e-08 4.005328e-08 -2.253164e-08 1.728042e-08 1.555955e-08 9.773042e-09
1.671646e-08 4.990180e-08 -3.782902e-08 1.961280e-08 1.116015e-08 4.058755e-09
-1.431292e-06 -7.473159e-07 4.330035e-06 -5.730454e-07 5.717302e-07 -5.042626e-07
1.767924e-07 -3.761646e-08 -7.483531e-08 -2.043899e-08 -2.923403e-09 2.311113e-08
1.055330e-07 1.130839e-07 -1.250255e-07 -1.771739e-07 -1.397554e-08 1.487009e-08
9.376448e-08 -2.133797e-08 -3.148581e-08 -6.289637e-09 4.050471e-10 1.324657e-08
9.139483e-08 1.133624e-07 -1.287701e-07 -2.281751e-07 -2.204726e-08 1.808468e-08
3.810116e-08 1.465823e-07 -1.228557e-07 -1.861615e-07 -4.287701e-08 4.941612e-08
1.159469e-07 -3.148996e-08 -5.866556e-08 -3.510654e-09 -7.068036e-10 1.950964e-08
1.064380e-07 -2.153202e-08 -4.036634e-08 -1.059649e-09 2.086892e-10 1.162764e-09
1.091745e-07 -2.517428e-08 -4.451708e-08 -3.993967e-09 -1.317069e-09 1.042473e-08
-1.018331e-06 5.164780e-07 2.171568e-06 4.028884e-08 -7.370786e-07 -1.993862e-07
1.060226e-07 -1.971166e-08 -4.103368e-08 -5.085712e-09 4.059033e-10 1.878187e-09
-1.051656e-06 3.321419e-07 1.485840e-06 4.330637e-07 -3.248159e-07 -1.165276e-07
-7.422817e-07 5.480918e-07 1.209526e-06 1.184955e-07 -1.682369e-07 -1.116065e-07
5.453682e-07 -2.246440e-07 9.415867e-09 -2.405111e-07 -6.306029e-10 -5.104838e-08
-3.025258e-08 1.625461e-07 -1.173406e-07 3.519096e-08 -7.127821e-09 -2.161255e-09
-1.161936e-08 1.175113e-07 -8.775192e-08 4.288931e-08 4.328686e-09 -1.772907e-09
2.336468e-08 1.374952e-07 -1.383190e-07 -1.053715e-07 1.008933e-08 -1.893137e-09
1.579733e-08 1.633578e-07 -1.379466e-07 -1.675890e-07 2.352164e-08 -1.241738e-08
3.637151e-09 1.106738e-07 -7.738331e-08 5.430656e-08 5.850861e-09 2.967860e-09
-2.947820e-09 1.250791e-07 -7.740997e-08 5.932197e-08 2.417005e-08 1.112873e-08
-7.468864e-08 2.929990e-07 -1.315527e-07 1.834784e-08 2.776770e-08 -3.629319e-10
4.574043e-08 7.773637e-08 -9.399912e-08 -9.937765e-08 -2.762658e-08 2.995742e-08
-6.340582e-08 1.919081e-07 -1.120167e-07 2.055535e-08 3.230802e-08 -2.948911e-09
-6.785664e-08 1.919658e-07 -1.075703e-07 2.257981e-08 3.306261e-08 3.296491e-09
-7.468805e-08 2.171516e-07 -1.131464e-07 1.413474e-08 1.704924e-08 -2.546201e-09
1.324144e-07 1.545404e-07 -7.110546e-08 -2.943199e-07 6.599687e-08 -5.358409e-08
1.259749e-07 9.140067e-08 -1.632266e-07 -1.307602e-07 1.840592e-08 -4.618877e-09
7.530344e-08 6.940472e-08 -9.538528e-08 -9.854916e-08 -2.897478e-08 3.159164e-08
7.131907e-08 7.821080e-08 -1.079451e-07 -1.363634e-07 -3.509735e-08 3.526826e-08
4.566748e-08 1.235487e-07 -1.285797e-07 -1.575863e-07 6.440414e-08 -3.236321e-08
6.783315e-08 2.202765e-07 -1.463885e-07 -2.249572e-07 2.082612e-08 -1.674171e-08
7.499182e-08 -6.804479e-09 -2.394482e-08 7.462599e-09 2.959663e-09 4.929229e-09
1.170368e-07 -2.452339e-08 -4.312167e-08 8.327628e-09 1.627451e-09 1.461447e-08
1.187709e-07 -2.974941e-08 -6.178849e-08 5.512035e-09 -2.799372e-10 -1.838361e-10
6.623549e-08 2.525252e-10 -2.272594e-08 1.291064e-08 2.248898e-09 7.664307e-09
1.096982e-07 -2.215220e-08 -4.596861e-08 -1.346350e-08 1.610173e-10 5.028692e-09
9.951609e-08 -2.291579e-08 -3.806908e-08 1.716881e-09 1.926079e-10 6.056091e-09
1.183083e-07 -2.286964e-08 -4.465987e-08 -8.736946e-09 -6.645631e-10 8.684970e-09
5.865279e-08 7.716746e-09 -2.338012e-08 1.302359e-08 2.948213e-09 4.432886e-09
-2.853598e-08 3.308287e-08 -4.827611e-08 -6.132010e-09 -8.473762e-08 -3.844209e-09
-6.664383e-08 -1.142181e-06 2.774183e-06 -3.480931e-07 -2.025927e-08 4.172230e-08
4.447316e-08 1.835734e-08 -1.942493e-08 3.583350e-09 5.302352e-10 -1.020837e-10
4.524790e-07 -1.199884e-06 2.570647e-06 -3.507805e-07 -2.328597e-07 7.248262e-07
4.727150e-07 -6.639767e-07 8.383108e-07 -5.194609e-07 -1.381317e-07 6.518507e-07
4.642572e-07 -1.063958e-06 1.933175e-06 -2.016605e-07 3.122516e-07 1.400855e-07
6.263923e-08 1.386641e-08 -3.278200e-08 2.526378e-08 2.008498e-09 4.634560e-09
6.639097e-08 7.740910e-09 -4.014990e-08 2.348132e-08 2.852553e-09 3.713631e-09
5.302153e-08 1.225457e-08 -2.406154e-08 8.912937e-09 -3.991649e-10 3.554401e-11
8.060200e-08 -1.719730e-09 -3.441463e-08 2.192074e-08 4.883274e-09 7.863761e-09
6.366560e-08 1.099264e-08 -3.283694e-08 2.036912e-08 3.887400e-10 4.688623e-10
5.696500e-08 9.095843e-09 -2.078150e-08 5.016052e-09 1.319525e-09 8.458838e-10
2.169756e-07 -8.235767e-08 -1.008022e-07 4.910832e-09 -2.595315e-10 5.013739e-08
-2.738497e-08 9.503864e-08 -4.451573e-08 -4.037297e-09 9.789488e-09 -8.555371e-09
1.844628e-07 1.426948e-08 -1.213535e-07 -1.616217e-07 -1.364054e-08 2.984627e-08
-1.266175e-08 1.124526e-07 -7.534954e-08 -2.881113e-08 8.010737e-09 -8.451684e-09
-3.493475e-08 1.247710e-07 -7.823982e-08 -1.840390e-08 5.717440e-09 -2.358348e-09
1.688639e-07 -1.341601e-08 -1.159011e-07 -1.133238e-07 -1.003196e-08 3.333842e-08
1.076804e-07 3.096670e-08 -1.049575e-07 -1.213450e-07 -8.167017e-09 8.171190e-09
1.431935e-07 5.875190e-10 -1.075889e-07 -1.185855e-07 -8.263930e-09 1.569894e-08
-1.644450e-08 6.646477e-08 -3.424858e-08 -3.894236e-09 1.933470e-08 -1.094410e-08
1.418570e-07 2.805267e-09 -8.952042e-08 -7.650462e-08 -9.357451e-09 2.910733e-08
-2.820441e-08 6.926950e-08 -3.254288e-08 -7.576293e-09 1.044063e-08 -3.395840e-09
6.606324e-08 1.033223e-07 -1.198815e-07 -1.540019e-07 -1.478315e-08 1.009280e-08
1.283149e-07 1.685635e-08 -8.740924e-08 -9.624501e-08 -8.473443e-09 1.003065e-08
1.108419e-07 -4.978544e-09 -7.092317e-08 -6.051176e-08 -1.203372e-08 1.634065e-08
8.148805e-08 2.568189e-08 -5.779462e-08 -5.287009e-08 -8.016641e-09 9.155898e-09
1.346483e-07 5.817751e-08 -1.224488e-07 -1.689756e-07 -1.647725e-08 2.473134e-08
-2.883626e-08 8.204916e-08 -3.054048e-08 3.502278e-10 4.162268e-09 -3.022656e-10
1.152995e-07 -4.265289e-09 -7.591539e-08 -7.628900e-08 -8.813073e-09 7.997931e-09
-4.458301e-08 2.680446e-07 -1.248560e-07 1.276943e-07 2.237599e-08 6.775680e-09
1.176417e-07 1.354295e-07 -1.163733e-07 -2.546953e-07 -4.538494e-09 -5.716482e-11
-8.686848e-08 3.678037e-07 -1.156703e-07 1.784529e-07 3.236463e-08 9.111195e-09
-2.208875e-08 1.805937e-07 -1.144556e-07 9.817661e-08 2.332992e-08 2.789899e-09
2.172867e-07 1.153580e-07 -4.425298e-08 -3.568139e-07 -7.534851e-08 6.658872e-08
7.627100e-08 1.717352e-07 -1.251183e-07 -2.222439e-07 -1.649510e-08 1.508026e-08
-1.190339e-08 1.887698e-07 -1.125384e-07 1.293411e-07 4.992877e-08 3.431767e-08
-3.059979e-08 2.184011e-07 -1.105404e-07 1.504300e-07 6.372184e-08 3.008040e-08
-2.812719e-08 1.927507e-07 -1.278250e-07 7.334322e-08 -4.789942e-08 -2.669650e-08
1.264981e-07 1.008295e-07 -9.435748e-08 -3.314059e-07 -3.129709e-08 2.778446e-08
6.152846e-08 8.995188e-08 -1.093027e-07 -1.498595e-07 -3.461455e-08 4.442984e-08
2.930378e-07 -1.001298e-07 -1.045716e-07 1.280471e-07 -2.768733e-09 2.752637e-08
9.139708e-08 1.432068e-07 -1.287701e-07 -1.954141e-07 -2.622549e-08 8.911719e-09
1.796140e-07 1.223229e-07 -6.516892e-08 -3.614595e-07 -7.530364e-08 9.576120e-08
7.121290e-08 7.845316e-08 -1.070834e-07 -1.363742e-07 -9.712840e-09 1.730569e-08
1.079965e-07 2.118365e-08 -7.555220e-08 -7.474998e-08 -1.137756e-08 1.378392e-08
5.520176e-08 1.520350e-07 -4.035504e-08 -4.002667e-07 1.951101e-09 5.489031e-08
3.832745e-08 1.329565e-07 -1.264884e-07 -1.071832e-07 5.549742e-08 -1.716236e-08
2.051735e-08 2.797411e-07 2.233859e-07 -4.785620e-07 -6.550537e-08 6.090140e-09
8.772005e-08 9.296719e-08 -1.213743e-07 -2.178487e-07 -3.134211e-08 5.135440e-08
1.133119e-07 1.702133e-07 -9.251303e-09 -4.202351e-07 -4.773110e-08 7.022038e-08
1.253584e-07 1.357595e-07 -7.909628e-08 -2.663581e-07 -4.477838e-08 4.796858e-08
6.319714e-08 1.230521e-07 -1.370108e-07 -8.989242e-08 1.958683e-08 -9.728313e-09
2.164067e-07 7.092691e-08 -5.995256e-08 -2.889904e-07 -3.023375e-08 5.186793e-08
-1.070542e-07 -6.195564e-07 2.348518e-06 -7.555340e-07 3.788712e-07 -4.581047e-07
5.521095e-08 1.624889e-07 -1.404840e-07 -1.583422e-07 2.814869e-08 -6.466589e-09
1.063088e-07 1.366078e-07 -1.551397e-07 -1.343223e-07 1.732762e-08 -1.094704e-08
-1.189424e-06 -1.481944e-06 4.515520e-06 -7.242065e-07 7.145595e-07 -1.480262e-06
4.154227e-07 -1.467124e-07 9.283399e-07 -6.048894e-07 2.392456e-07 -3.154070e-07
1.333242e-07 5.327783e-08 -1.686221e-07 7.184438e-08 -5.598408e-08 -3.587362e-08
-1.160150e-06 -8.430583e-07 6.203641e-06 -5.305671e-07 1.378521e-06 -1.341947e-06
1.015745e-07 8.312618e-08 -1.476300e-07 1.563446e-08 -9.764509e-09 -1.193504e-15
-2.200351e-06 -8.757488e-07 5.785100e-06 -7.414278e-07 1.497178e-06 -6.389377e-07
-2.663399e-06 -2.448334e-06 7.860398e-06 -1.534306e-07 6.401402e-07 -1.059097e-06
-7.909887e-09 8.164664e-08 -5.105443e-08 -5.660751e-09 6.678166e-09 -1.179873e-09
1.702575e-08 4.202639e-08 -2.714724e-08 -2.656289e-09 -2.664458e-09 1.056055e-08
1.155139e-08 3.730183e-08 -2.842041e-08 -2.871238e-09 -5.936195e-09 1.368151e-08
-1.298817e-08 9.826283e-08 -6.390902e-08 -2.289821e-08 1.422399e-08 -6.505294e-09
-2.140535e-08 1.363966e-07 -9.169238e-08 3.311008e-08 -2.467191e-08 -1.451132e-08
-6.756519e-08 2.302708e-07 -1.368627e-07 4.820322e-08 -1.605322e-08 -3.923457e-09
1.159294e-07 -1.522588e-07 6.747073e-08 4.873412e-08 3.963401e-08 -9.611238e-08
3.217777e-08 -4.658048e-08 7.231495e-08 -4.444927e-08 3.468745e-08 -1.744362e-07
5.106238e-08 1.358655e-08 -2.061815e-08 -2.636592e-09 -6.418853e-10 6.382865e-10
1.917356e-08 8.525208e-08 -8.322537e-08 -5.116060e-09 4.384420e-09 -4.486191e-17
4.909192e-08 1.539611e-08 -2.238494e-08 -5.435806e-09 -1.500698e-09 2.184252e-09
4.975778e-08 1.450400e-08 -2.044335e-08 -6.527401e-10 -1.656086e-10 4.505944e-10
4.981315e-08 1.521663e-08 -2.025444e-08 -1.237197e-09 -1.561094e-10 3.696042e-10
1.451648e-08 5.499990e-08 -3.446041e-08 3.404927e-09 4.674061e-10 2.010166e-09
3.293064e-08 3.081728e-08 -2.636049e-08 7.353182e-09 9.649837e-11 1.470175e-10
1.814406e-08 1.038082e-07 -9.890824e-08 1.879699e-08 -9.956429e-09 -2.506637e-09
-7.765779e-09 8.127902e-08 -5.866275e-08 8.906611e-09 -2.851893e-08 -1.250937e-08
-9.700945e-09 9.444253e-08 -6.332394e-08 1.140876e-09 -1.364339e-09 -3.063484e-09
1.455488e-07 -2.955134e-08 -5.926878e-08 1.346486e-08 1.354976e-09 1.590734e-08
1.630157e-07 -2.967964e-08 -7.322863e-08 3.241630e-08 3.294237e-10 5.957461e-09
4.487183e-08 1.352812e-07 -1.426519e-07 1.205886e-07 -4.530412e-08 -2.017265e-08
7.046317e-09 9.248599e-08 -8.477880e-08 1.690415e-08 -4.574356e-08 -1.807703e-08
1.010410e-08 8.342928e-08 -7.921067e-08 -3.586011e-08 -6.048092e-09 7.474170e-09
2.449765e-07 -8.366543e-08 -8.159859e-08 3.242196e-10 8.838108e-09 -5.628670e-08
1.346097e-08 5.867937e-08 -4.227312e-08 -4.520378e-09 -2.993323e-09 1.278581e-08
5.083371e-07 -1.468733e-07 -1.782332e-07 -5.304834e-08 1.656059e-08 -3.098965e-08
2.951832e-08 5.307698e-08 -4.679860e-08 -9.284167e-09 -2.224429e-09 6.312557e-09
2.553146e-07 -8.858559e-08 -7.148510e-08 -1.529351e-08 5.352934e-08 1.335731e-08
4.785249e-08 1.707612e-08 -2.312629e-08 -2.502933e-09 -1.340275e-10 -2.945671e-10
4.858332e-08 1.436376e-08 -2.188499e-08 -8.449908e-10 -3.281837e-10 1.120361e-09
5.190955e-08 1.127139e-08 -2.057300e-08 -1.575535e-09 -5.520935e-10 2.795293e-10
5.062216e-08 1.418388e-08 -1.983122e-08 -3.049148e-10 -3.256104e-10 1.684341e-10
1.499066e-07 -7.885506e-08 -7.772759e-08 -2.416217e-08 7.253610e-08 -7.126633e-08
-1.518513e-08 6.623420e-08 -2.263013e-08 -3.080612e-10 6.446166e-09 -5.762344e-10
-4.523395e-08 6.279495e-08 -4.542308e-08 -4.093943e-08 -1.188376e-07 -9.543672e-09
-3.258359e-08 7.801156e-08 -3.563581e-08 -1.776766e-09 6.140020e-08 -3.063342e-08
-1.947047e-08 6.700607e-08 -2.409123e-08 -5.781389e-10 1.126058e-08 -7.786772e-09
-2.745764e-08 9.819930e-08 -5.425288e-08 -4.433813e-09 4.381165e-09 -6.352147e-09
-2.732811e-08 6.106627e-08 -2.949004e-08 2.756964e-09 3.389989e-08 -2.012299e-08
3.519096e-08 3.320872e-08 -2.492474e-08 1.103596e-08 4.320810e-09 3.109059e-09
-2.243033e-08 1.392833e-07 -9.007448e-08 -3.652294e-08 1.304157e-08 -4.375191e-09
-1.047658e-08 1.294837e-07 -9.514059e-08 -5.105832e-08 3.480198e-08 -1.274517e-08
2.832371e-08 3.238734e-08 -2.490581e-08 6.486900e-09 2.330988e-09 2.948377e-09
-1.859083e-10 1.130930e-07 -7.415578e-08 -3.791823e-08 1.067396e-08 -4.900072e-09
5.067105e-09 1.109890e-07 -8.057937e-08 -3.483780e-08 5.340068e-09 -2.062418e-09
-5.864530e-10 1.070034e-07 -6.480225e-08 -3.829062e-08 3.725665e-08 -1.435201e-08
3.661358e-08 2.529681e-08 -1.996045e-08 1.118579e-09 2.345364e-10 -5.388205e-12
3.528971e-08 2.674665e-08 -2.218402e-08 1.481148e-09 1.758087e-10 9.629888e-10
3.085914e-08 3.443808e-08 -2.792676e-08 5.437647e-09 5.862652e-10 1.169929e-09
3.718375e-08 2.475147e-08 -2.088442e-08 2.482746e-09 -5.888385e-11 2.517482e-10
-2.564864e-09 4.415241e-08 -4.286526e-08 7.782624e-09 5.081926e-08 -5.903703e-09
1.906145e-08 9.439087e-08 -9.709700e-08 -3.121860e-08 1.203132e-08 -2.474393e-09
6.627751e-09 5.590334e-08 -6.079594e-08 -1.863129e-09 4.365213e-08 -2.712957e-09
6.933374e-08 -3.451208e-09 -2.170754e-08 -9.526699e-09 -3.643643e-09 6.672208e-09
1.934099e-08 4.871310e-08 -7.329791e-08 -6.818939e-10 5.919716e-08 -4.810427e-09
-1.162175e-08 3.622258e-08 -5.099277e-08 1.329809e-09 -6.433440e-08 -1.589497e-08
6.413268e-08 1.933608e-09 -2.303576e-08 -6.697357e-09 -2.331222e-09 2.651186e-09
-1.879429e-08 2.294273e-08 -4.127645e-08 -1.206586e-09 -8.580814e-08 -4.128829e-08
6.716165e-08 -3.643069e-10 -2.364383e-08 -5.064785e-09 -1.139559e-09 2.008303e-09
2.937803e-08 1.216601e-07 -1.271033e-07 6.490601e-08 -8.874889e-09 -4.895465e-09
-2.141247e-08 3.627622e-08 -3.233672e-08 -2.680063e-09 -8.060003e-08 -3.055354e-08
5.158886e-08 1.226150e-08 -2.193438e-08 -6.496558e-09 -1.646293e-09 1.547583e-09
6.655520e-08 1.276066e-09 -2.960930e-08 -1.144859e-08 -2.066263e-09 3.948513e-09
-1.904390e-08 7.657470e-08 -3.135618e-08 -9.336104e-09 2.882011e-08 -1.292917e-08
5.784601e-08 7.893196e-09 -2.025533e-08 -7.394769e-10 -2.438757e-11 3.424911e-10
6.810390e-08 -4.496074e-10 -2.229299e-08 -9.005729e-09 -2.053386e-09 4.981260e-09
-3.599942e-08 1.068335e-07 -4.512431e-08 -1.027232e-10 -3.521481e-09 3.858065e-10
-3.074492e-08 3.813067e-08 -5.349674e-08 -6.632517e-09 -3.044308e-08 -1.018907e-08
-2.734311e-08 7.941361e-08 -4.575073e-08 2.454989e-09 -4.482638e-08 3.332777e-09
-1.805197e-08 6.882844e-08 -3.808661e-08 -3.713764e-09 1.004640e-08 -6.495315e-09
-1.684559e-08 8.204846e-08 -3.741636e-08 -4.312366e-09 6.068981e-09 -6.750210e-09
-6.374576e-08 2.016020e-07 -1.179884e-07 8.656864e-09 -1.209756e-07 -3.590743e-09
-3.541536e-08 9.368567e-08 -4.751969e-08 3.789118e-09 -4.161159e-08 -1.104861e-08
-2.018688e-08 8.989716e-08 -5.226518e-08 1.600140e-08 3.753052e-08 1.282446e-08
-1.530530e-08 4.916457e-08 -3.153620e-08 4.618908e-09 3.194293e-08 1.573908e-08
-1.936736e-08 4.621899e-08 -3.389110e-08 7.157759e-09 6.350267e-08 1.851124e-08
-1.870323e-08 6.388264e-08 -2.610620e-08 2.897406e-09 6.365013e-09 -7.737435e-09
-1.368543e-08 9.472471e-08 -5.675403e-08 -1.122174e-08 2.876698e-09 -4.008595e-09
-4.569563e-08 1.837097e-07 -1.174249e-07 5.702194e-08 9.076817e-09 -3.120029e-09
-3.620311e-08 1.576643e-07 -1.034381e-07 3.577308e-08 9.653878e-09 -6.833723e-10
-3.204101e-08 1.753997e-08 -4.510389e-08 -8.192937e-09 -1.487062e-07 1.581567e-09
-3.273849e-08 9.819872e-08 -5.660592e-08 7.237441e-09 2.250879e-08 1.441399e-09
-1.514704e-08 6.326903e-08 -3.147877e-08 9.129292e-09 8.251090e-09 5.200016e-09
-2.121954e-08 5.208645e-08 -3.062817e-08 2.748080e-09 3.838870e-08 1.212090e-08
-2.770828e-08 6.184302e-08 -3.156607e-08 -6.320067e-09 5.479631e-08 1.891898e-08
-1.132877e-08 8.081933e-08 -4.420671e-08 -9.499145e-09 1.032306e-08 -5.657497e-09
-1.576044e-08 6.826129e-08 -3.543684e-08 -2.587588e-09 1.005943e-08 -6.762193e-09
1.194922e-08 5.972347e-08 -4.285271e-08 5.195731e-09 1.519735e-09 5.507982e-09
-3.026011e-08 4.574814e-08 -3.802861e-08 3.663740e-09 8.155804e-08 1.004757e-09
-2.311408e-08 1.139561e-07 -6.146862e-08 1.018461e-08 -1.801964e-08 -1.889019e-08
-2.519759e-08 8.295717e-08 -2.982826e-08 2.896620e-09 2.477610e-08 3.275269e-09
-2.121919e-08 7.076853e-08 -2.960881e-08 1.369130e-09 5.346188e-09 4.159671e-09
5.423326e-08 1.081352e-08 -2.193438e-08 -5.940304e-09 -1.216309e-09 1.986500e-09
5.396866e-08 1.102979e-08 -2.033421e-08 -1.778358e-09 -1.955032e-10 5.601499e-10
-1.700534e-08 6.931525e-08 -3.415455e-08 -6.216352e-10 3.897904e-09 -6.487677e-09
-1.675518e-08 6.440079e-08 -2.352766e-08 1.100300e-09 5.043078e-09 -4.418714e-09
5.390795e-08 1.173161e-08 -2.040863e-08 1.751446e-09 4.327940e-10 9.899349e-13
4.328290e-08 2.052169e-08 -2.322779e-08 -1.423291e-08 -7.349900e-09 7.903593e-09
3.158686e-08 3.030249e-08 -2.389931e-08 -9.679353e-09 -6.279776e-09 9.068057e-09
5.205740e-08 1.360905e-08 -2.193438e-08 -8.584083e-09 -2.529497e-09 4.180978e-09
2.894430e-07 -1.302507e-07 -1.351416e-07 1.329316e-08 -2.174657e-08 1.668236e-08
1.406478e-07 -1.391292e-07 -6.129548e-08 -1.065659e-07 -1.215321e-08 -4.707930e-08
6.209004e-07 -3.461234e-07 2.408367e-07 2.942037e-07 5.502687e-08 1.981527e-08
1.141184e-07 -6.691774e-08 -7.677208e-08 8.508040e-08 -6.716509e-08 -4.183750e-08
1.749276e-07 -3.598821e-08 -7.308970e-08 2.759857e-08 3.708881e-09 2.369052e-08
1.469494e-07 -2.431722e-08 -7.572819e-08 4.360812e-08 8.038336e-09 4.960242e-09
4.244092e-08 2.467877e-08 -2.661697e-08 -1.841377e-08 -1.031511e-08 1.228132e-08
9.379523e-08 2.181909e-08 -6.247705e-08 -5.577445e-08 -3.282931e-09 6.638358e-09
6.890704e-08 1.947310e-08 -5.193720e-08 -3.960653e-08 -1.126688e-08 8.385671e-09
6.910089e-08 6.484987e-09 -3.952692e-08 -2.645696e-08 -4.652864e-09 7.960102e-09
4.743538e-08 1.696971e-08 -2.842391e-08 -1.236535e-08 -3.176996e-09 5.146790e-09
4.776564e-08 1.623925e-08 -1.995991e-08 -4.696175e-09 -2.565863e-09 1.434457e-09
7.416948e-08 8.598864e-09 -4.871158e-08 -3.300861e-08 -3.114097e-11 7.070069e-09
9.220873e-08 1.007198e-08 -5.145175e-08 -4.780648e-08 -1.612847e-09 -1.194202e-10
-2.812719e-08 1.927831e-07 -1.308670e-07 8.276298e-08 -5.133905e-08 -2.253970e-08
3.787372e-08 2.577489e-08 -2.198639e-08 -2.062422e-09 -5.220300e-10 2.648016e-09
3.776401e-08 2.577489e-08 -2.517040e-08 -1.392237e-09 -9.442544e-10 5.209513e-09
4.657439e-08 1.906266e-08 -2.547273e-08 -2.787221e-09 -4.682972e-10 1.539487e-09
-1.468468e-08 1.600047e-07 -1.215900e-07 4.697733e-08 -7.833970e-09 -9.236255e-09
-3.485128e-08 2.265263e-07 -1.421004e-07 1.006297e-07 -1.986602e-08 -1.092714e-08
1.151690e-07 4.175164e-08 -8.933187e-08 9.953615e-08 -1.106055e-07 -5.956764e-08
4.313154e-08 2.750805e-08 -3.251244e-08 2.066964e-08 5.448867e-09 1.490261e-09
4.579986e-08 2.701944e-08 -3.019417e-08 1.813392e-08 3.870608e-10 4.932623e-10
2.230026e-08 2.073362e-08 -6.502755e-08 3.053275e-08 -8.275421e-08 -1.724161e-08
6.719736e-08 6.831775e-08 -1.000570e-07 5.153658e-08 -7.715324e-08 -3.824156e-08
4.376183e-08 1.827925e-08 -2.444678e-08 -1.076844e-08 -4.648569e-09 7.208277e-09
3.683481e-08 2.248950e-08 -2.602424e-08 -1.239851e-08 -7.796763e-09 1.153536e-08
5.381594e-08 2.283207e-08 -3.240163e-08 2.042163e-08 4.107885e-10 5.101122e-10
2.480015e-08 4.646747e-08 -3.369333e-08 1.525725e-08 5.470685e-09 4.887451e-09
1.605950e-08 5.784288e-08 -4.222381e-08 1.453473e-08 8.825954e-10 1.702548e-09
2.335355e-08 5.247613e-08 -4.856316e-08 2.439411e-08 -1.221167e-09 1.429796e-09
-1.159448e-08 7.325539e-08 -4.513956e-08 -3.423779e-09 9.240310e-09 -4.352460e-09
-3.018217e-08 2.634464e-08 -3.813935e-08 -3.528685e-09 -6.460339e-08 -2.438980e-08
5.697971e-08 9.179445e-09 -2.361619e-08 5.678399e-09 3.075371e-10 4.324523e-10
5.744641e-08 7.762996e-09 -2.337529e-08 3.046065e-09 -1.577551e-10 1.157422e-09
5.434119e-08 1.046237e-08 -2.671453e-08 1.340910e-08 2.469903e-09 4.227569e-09
6.340069e-08 3.162948e-09 -2.766059e-08 1.166617e-08 7.147260e-10 1.496564e-09
7.017482e-08 1.116099e-09 -2.952841e-08 9.935351e-09 -1.052548e-09 1.531693e-09
4.530047e-08 1.856249e-08 -1.987350e-08 5.469768e-09 6.678535e-10 8.313605e-10
6.810431e-08 -8.781145e-10 -2.196303e-08 1.312467e-09 3.694891e-10 9.452343e-10
1.108436e-07 6.969299e-08 -1.537873e-07 -1.737342e-08 2.326240e-08 -1.071030e-09
1.225863e-07 8.277549e-08 -1.580233e-07 -4.126048e-08 5.687943e-09 -1.162056e-08
6.098646e-08 5.227907e-09 -2.098373e-08 1.667954e-09 5.684754e-10 1.318244e-09
6.959559e-08 -2.525240e-09 -2.272049e-08 -2.089489e-09 -2.314613e-10 7.198517e-10
-3.550917e-08 1.394834e-07 -7.713633e-08 4.537356e-09 -2.291115e-08 -1.270666e-08
7.464028e-08 -4.530163e-09 -2.780616e-08 -1.275672e-08 -2.512577e-09 5.861046e-09
6.968664e-08 -1.541070e-09 -2.716565e-08 -8.804207e-09 -3.710154e-09 3.958496e-09
-1.304015e-08 1.182075e-07 -8.580443e-08 8.368460e-09 -3.288086e-10 -4.684163e-09
-2.044185e-08 1.270137e-07 -9.669073e-08 1.497925e-08 -6.122661e-09 -5.827154e-09
6.898102e-08 -1.284924e-09 -2.213888e-08 -1.729124e-09 -1.081210e-09 4.929920e-10
7.002255e-08 -2.576010e-09 -2.148369e-08 -4.312194e-09 -8.750536e-10 2.846488e-09
6.621928e-08 1.322582e-09 -3.046152e-08 1.437599e-08 4.789914e-09 7.407496e-09
7.222585e-08 -5.287435e-09 -2.375548e-08 1.312697e-08 2.227947e-09 9.770987e-09
3.367532e-07 7.905063e-09 6.003651e-08 -3.663187e-07 -2.796651e-09 2.178012e-08
5.404363e-08 1.315616e-08 -2.100152e-08 5.554953e-09 1.003556e-09 1.660420e-09
5.389176e-08 1.049802e-08 -2.185674e-08 1.250919e-09 -4.731915e-10 -4.452731e-16
4.310332e-07 -1.209438e-07 1.192752e-07 -4.275033e-07 -3.018504e-08 9.896965e-08
6.068869e-08 7.113691e-09 -2.523517e-08 8.241120e-09 1.309683e-09 1.848974e-09
1.738215e-07 4.229014e-08 2.301877e-08 -4.491817e-07 -3.821863e-08 3.687944e-08
3.035858e-07 2.625492e-09 -4.136463e-08 -3.520211e-07 -5.088060e-08 1.087714e-07
1.738202e-07 1.688358e-07 2.301877e-08 -4.036304e-07 -5.614775e-08 2.397167e-08
-4.333316e-07 5.473299e-07 2.549058e-07 -4.822437e-08 -1.760993e-09 2.728099e-08
-3.112412e-07 7.266507e-07 1.462499e-07 -1.875881e-07 1.618070e-08 3.610316e-09
-1.123720e-07 3.872355e-07 -1.491045e-07 -3.943783e-08 -3.611849e-08 4.019654e-09
-5.561999e-08 1.293564e-07 -7.150062e-08 1.233501e-08 -6.813620e-08 -1.455907e-08
-4.577586e-08 1.713813e-07 -1.127226e-07 -1.186082e-08 -2.015633e-08 5.599525e-09
-2.346212e-08 2.374556e-07 -1.287071e-07 -1.195344e-07 3.125298e-08 -7.317751e-09
-3.667655e-08 1.788127e-07 -1.173766e-07 -8.469366e-08 3.732329e-08 -2.272471e-08
-4.243839e-09 7.227599e-08 -5.803369e-08 -2.042806e-09 2.007192e-08 -1.383179e-09
1.934100e-08 6.223527e-08 -8.049755e-08 -4.333683e-09 5.793255e-08 -1.782475e-09
1.074824e-07 4.775577e-08 -1.182921e-07 -7.278432e-08 9.305026e-08 -5.459031e-08
1.779162e-08 1.006692e-07 -8.920175e-08 -3.046378e-08 4.986881e-09 -3.430790e-09
1.945577e-08 9.831430e-08 -9.974563e-08 -4.401851e-08 3.516384e-08 -1.439664e-08
1.617183e-08 1.176472e-07 -1.178759e-07 -6.948602e-08 3.692111e-08 -1.506030e-08
-6.318547e-09 7.727975e-08 -5.449134e-08 -9.081836e-09 1.196832e-08 -2.853679e-09
1.924399e-08 7.713962e-08 -6.708865e-08 -1.223846e-08 4.193852e-08 -1.031325e-08
1.870560e-09 1.198103e-07 -1.134433e-07 -7.318945e-08 4.054759e-08 -2.034178e-08
3.953393e-08 1.587215e-07 -1.195519e-07 -1.010177e-07 4.172101e-08 -2.011911e-08
-3.123830e-09 1.595224e-07 -1.204224e-07 -1.067982e-07 4.653830e-08 -1.742519e-08
2.933926e-08 1.150787e-07 -1.109733e-07 -5.637578e-08 1.297054e-08 -6.773206e-09
-1.947818e-07 4.234617e-07 1.621091e-07 -3.429972e-07 -5.070528e-08 6.382693e-09
-2.082212e-07 4.466481e-07 5.640844e-07 -4.656640e-07 -1.796504e-07 1.313554e-07
3.423461e-07 -1.106779e-07 -1.209820e-07 -1.055608e-07 7.716717e-08 -9.881181e-08
5.055686e-07 -2.510063e-07 3.808530e-07 -3.662359e-07 -1.870193e-08 -6.931742e-08
1.457625e-07 -3.702645e-08 -6.661310e-08 -5.160029e-09 -7.894678e-09 2.157496e-08
5.133352e-07 -5.049912e-07 1.089883e-06 -4.740612e-07 -7.762749e-08 -1.943633e-10
4.913945e-07 -1.240591e-07 -1.389922e-07 -2.240329e-07 2.588067e-08 -3.421511e-08
1.437297e-07 -3.318837e-08 -6.704203e-08 -1.368664e-08 -6.678587e-09 5.403021e-09
1.407372e-07 -4.255833e-08 -7.273399e-08 3.073004e-09 6.573762e-10 2.661542e-08
6.337458e-07 -2.149109e-07 -1.278437e-07 -1.623507e-07 5.507149e-09 -2.394745e-08
5.875249e-07 -2.201096e-07 -2.076110e-07 -3.114327e-08 5.043375e-09 -2.093156e-08
6.525453e-07 -3.799607e-07 2.266053e-07 -2.789266e-07 8.228863e-08 -4.294817e-08
5.101910e-07 -1.527184e-07 -1.814507e-07 -5.980957e-08 2.786047e-08 -4.494154e-09
7.780248e-08 2.168035e-08 -6.722144e-08 6.498764e-08 1.938836e-08 1.089063e-08
1.798267e-07 -5.641291e-08 -9.215343e-08 3.560555e-09 3.564698e-10 1.414640e-08
2.237621e-07 -6.873752e-08 -9.571607e-08 -1.170165e-08 -1.153058e-08 4.117406e-08
1.016592e-07 2.280705e-08 -7.529850e-08 7.966494e-08 6.048165e-09 1.479009e-08
8.682321e-08 1.399011e-08 -5.631239e-08 4.731063e-08 1.393100e-09 2.577407e-09
-1.162512e-07 2.826362e-07 -1.099459e-07 -1.233055e-08 6.300980e-08 -6.896593e-09
-7.759011e-08 2.983282e-07 -1.263041e-07 -1.442499e-08 1.519410e-08 -1.950326e-09
-6.765451e-08 2.052867e-07 -1.083656e-07 -3.293780e-08 1.424226e-08 -3.942903e-09
-6.758239e-08 2.736361e-07 -1.283782e-07 -4.641417e-08 2.496758e-08 -8.681958e-09
2.264409e-07 -7.010426e-08 -9.764432e-08 1.677167e-08 -6.700705e-09 4.322463e-08
-2.773755e-07 4.539246e-07 -9.684913e-09 2.789900e-08 5.060199e-08 5.411373e-10
-3.481660e-07 5.202678e-07 1.852382e-07 -1.460894e-07 4.166387e-08 -3.693162e-08
-1.573631e-07 4.889759e-07 1.392233e-07 -2.909686e-07 -1.900332e-08 4.376910e-08
-3.214345e-08 2.904433e-07 -1.049669e-07 2.622209e-07 -1.390440e-08 -3.543968e-09
-6.368898e-08 1.195698e-07 -4.490021e-08 6.063613e-09 -1.435672e-07 -5.769303e-09
3.817561e-08 2.507857e-08 -2.250782e-08 5.374205e-09 5.796148e-10 1.252678e-10
4.293710e-08 1.930488e-08 -1.885091e-08 6.375301e-10 6.709610e-11 -4.462743e-11
4.336507e-08 2.073718e-08 -1.918310e-08 -5.085177e-11 9.861389e-11 1.205764e-10
-7.772166e-08 3.264024e-07 -1.258087e-07 1.027969e-07 2.769344e-08 5.560858e-09
-1.351693e-07 3.382013e-07 -1.037457e-07 9.599541e-08 2.391930e-08 -3.737666e-09
-7.587125e-08 2.314239e-07 -1.155547e-07 7.879598e-08 7.052289e-08 1.761162e-08
4.259833e-08 1.980931e-08 -1.986463e-08 2.157781e-09 1.480172e-10 4.716414e-10
4.382860e-08 2.282446e-08 -2.225264e-08 9.713592e-09 1.104303e-09 1.728630e-09
-1.950887e-08 6.734366e-08 -3.295957e-08 2.787461e-08 5.931556e-08 1.185550e-08
3.268252e-08 2.969902e-08 -2.140088e-08 2.456992e-09 4.602975e-10 2.414361e-09
-8.686837e-08 2.914688e-07 -1.156703e-07 1.352470e-07 2.179424e-08 -2.854588e-09
-1.837422e-07 4.313699e-07 -5.917038e-08 1.426325e-07 9.377837e-08 2.872402e-08
4.314269e-08 1.942241e-08 -2.549811e-08 9.151777e-09 -7.854542e-10 -1.193136e-09
4.808021e-08 1.848860e-08 -2.135441e-08 9.525771e-09 1.542116e-09 2.484874e-09
-1.752459e-06 -9.837920e-07 5.833228e-06 -1.385041e-07 -1.036359e-06 2.873010e-07
-7.953226e-07 -4.398615e-07 2.652602e-06 -7.924556e-07 6.801363e-09 3.871678e-08
-2.513352e-07 -8.937826e-07 2.739409e-06 -6.293272e-07 -6.958944e-08 5.700698e-07
3.722928e-08 3.822569e-08 -4.759581e-08 -3.002571e-08 -1.493736e-08 2.188390e-08
4.393666e-07 -2.070627e-07 3.917948e-08 -1.422280e-07 2.119258e-08 -3.402643e-08
2.379299e-07 -1.162508e-07 -7.335159e-08 -5.421499e-08 5.572870e-08 -4.656671e-08
1.995500e-07 -2.611521e-08 -1.172929e-07 -1.047175e-07 -1.566448e-09 1.679015e-08
2.011003e-07 1.248473e-08 -1.162849e-07 -1.470611e-07 -2.342715e-08 4.211351e-08
8.082317e-08 -1.525686e-07 3.057046e-08 3.516153e-08 7.403688e-08 -1.031292e-07
1.818281e-07 9.042588e-09 -1.124143e-07 -1.555399e-07 -2.488535e-08 3.583083e-08
2.515409e-07 -2.213548e-08 -1.159138e-07 -1.549363e-07 -2.842334e-08 7.196470e-08
-2.974771e-08 1.864633e-07 -1.173406e-07 4.992010e-08 -6.259895e-09 -1.107336e-09
2.202981e-07 -5.151046e-08 -1.012859e-07 -1.967101e-07 -1.473636e-08 4.279396e-08
-1.566120e-08 7.026871e-08 -3.719819e-08 5.115917e-09 -2.572881e-08 -3.759401e-09
-9.893796e-09 6.190128e-08 -3.854133e-08 1.051497e-08 -4.276974e-08 -7.326582e-09
7.130451e-08 -1.262366e-07 1.264123e-06 -6.803950e-07 1.831791e-07 -1.860910e-07
1.988350e-07 -4.152563e-07 9.749697e-07 -6.451675e-07 -1.396510e-08 2.224054e-08
4.379854e-07 -3.260445e-07 3.163508e-07 -4.555606e-07 -2.586192e-08 4.710480e-08
1.314479e-07 2.602608e-08 -1.060981e-07 -1.186307e-07 -1.247430e-08 1.866400e-08
3.922980e-07 -5.158602e-07 1.254804e-06 -5.627326e-07 4.016818e-08 -1.921336e-07
4.151593e-07 -3.445434e-07 3.819162e-07 -4.052998e-07 4.445566e-08 -6.579990e-08
5.996929e-07 -4.789981e-07 4.044078e-07 -2.349284e-07 -2.684606e-10 -1.887839e-08
-7.190066e-07 5.844792e-07 8.905908e-07 -1.518260e-07 -2.244596e-07 3.868429e-08
-6.341550e-07 6.270446e-07 8.906807e-07 1.458496e-08 -2.703931e-07 -9.079428e-08
-5.983450e-07 6.232544e-07 8.238597e-07 -1.467029e-07 1.028718e-07 7.049243e-10
-3.019470e-07 5.103784e-07 9.111098e-08 -3.018539e-07 6.008990e-08 -1.843122e-08
-5.399245e-07 5.740845e-07 1.312760e-06 -4.312179e-07 -4.544320e-07 2.636544e-07
-9.812242e-09 4.054809e-08 1.129446e-06 6.575157e-07 9.001219e-08 -5.424023e-09
-2.736685e-08 2.273969e-07 1.554144e-07 5.097536e-07 -1.131970e-07 -3.982247e-09
-9.702900e-07 4.217520e-07 2.448930e-06 -1.003123e-07 -3.023615e-08 -1.520671e-07
-1.002917e-06 5.351412e-07 1.525666e-06 -1.349830e-07 -4.148049e-07 7.663203e-08
-4.825978e-07 4.452158e-07 7.819722e-07 4.797035e-07 -8.277400e-08 -1.487587e-07
-2.603564e-07 1.126002e-07 8.420622e-07 6.570277e-07 4.152136e-08 1.800656e-08
-1.068439e-06 1.215465e-07 2.667197e-06 3.627268e-07 -6.535544e-08 -3.109606e-08
-8.586018e-07 4.900945e-07 1.240420e-06 -2.161429e-08 -1.172460e-07 2.819592e-08
-6.220160e-07 6.334932e-07 7.989535e-07 -5.133580e-08 -2.610413e-07 7.756473e-08
2.050463e-07 5.755463e-08 -1.012493e-07 -2.742902e-07 -5.617026e-08 8.695577e-08
1.567924e-07 4.576861e-08 -1.199597e-07 -2.456654e-07 -2.034060e-08 2.392217e-08
1.567951e-07 1.015182e-07 -1.199597e-07 -2.190527e-07 -2.836019e-08 1.626608e-08
8.757894e-08 1.267747e-07 -1.148260e-07 -1.898492e-07 -4.784683e-08 4.361910e-08
2.992363e-07 -1.483351e-07 1.326570e-07 -4.882680e-07 -4.342111e-08 6.189986e-08
4.668107e-07 -7.266939e-08 2.647752e-08 -3.513424e-07 -4.782889e-08 5.106305e-08
2.360223e-07 -3.162200e-08 -9.456840e-08 -2.725672e-07 -4.565869e-08 7.009787e-08
2.207823e-07 3.690596e-08 -1.043102e-07 -2.087602e-07 -2.795041e-08 4.700099e-08
2.503079e-07 -2.824705e-08 -4.368986e-08 -2.795452e-07 -2.321390e-08 2.742774e-08
1.543769e-07 8.326722e-08 -1.068797e-07 -2.077174e-07 -3.617145e-08 4.965169e-08
1.105275e-07 6.262298e-08 -1.241839e-07 -1.723038e-07 -1.403841e-08 1.386210e-08
1.556921e-07 4.038650e-08 -1.113560e-07 -1.371958e-07 -3.578720e-08 3.958117e-08
1.434978e-07 3.026875e-08 -1.075889e-07 -1.114798e-07 -1.655195e-08 1.191682e-08
1.381871e-07 2.226426e-08 -9.282810e-08 -1.041032e-07 -1.877183e-08 3.637678e-08
-2.303474e-06 -2.282802e-06 7.633787e-06 -2.530066e-09 -4.056421e-07 3.976911e-07
-9.062516e-07 -2.738439e-07 2.443731e-06 8.014185e-07 -7.427986e-07 1.169338e-09
-8.620081e-07 2.565410e-07 1.546043e-06 5.144244e-07 -3.243929e-07 1.220476e-08
1.392359e-07 -4.946862e-07 1.546043e-06 7.181469e-07 -1.368143e-07 -2.852927e-07
-5.403958e-07 -2.783408e-07 1.690139e-06 8.092762e-07 8.238649e-09 -1.372223e-08
-1.259039e-06 -2.438693e-07 3.135535e-06 8.268770e-07 -9.426611e-07 -6.584106e-07
-1.604361e-06 -3.786207e-07 3.856159e-06 4.857974e-07 -5.853752e-07 -8.613929e-08
5.757543e-07 -4.595733e-07 6.781740e-07 4.504585e-07 -1.593150e-07 -2.605749e-08
1.121006e-07 -1.557007e-08 -6.233595e-08 3.706931e-08 3.164899e-09 7.298488e-09
-5.040394e-07 1.685554e-07 1.690139e-06 6.124075e-07 2.398632e-08 -2.594628e-08
1.042002e-07 -1.930548e-08 -5.389437e-08 1.909883e-08 -1.297272e-09 1.948206e-09
1.005219e-07 -1.593568e-08 -4.752480e-08 1.695368e-08 4.018812e-09 1.753588e-09
1.099426e-07 -1.994639e-08 -4.392071e-08 1.455772e-08 2.860543e-09 1.312499e-08
1.304729e-07 -2.968015e-08 -7.322863e-08 2.560319e-08 -1.719735e-09 1.063123e-09
1.125897e-07 -2.329727e-08 -5.523940e-08 1.762462e-08 1.623553e-09 7.243584e-09
9.410578e-08 3.348623e-09 -5.234017e-08 4.044367e-08 -2.701318e-10 7.424160e-09
7.774475e-08 3.843993e-09 -4.750214e-08 3.000595e-08 4.826402e-09 1.252692e-08
4.722429e-07 -9.445054e-07 2.243868e-06 5.894032e-08 9.543674e-08 -9.728529e-07
2.831651e-07 -1.273021e-06 3.121527e-06 -2.149300e-07 1.821912e-07 -8.623690e-07
-1.631391e-08 -1.186105e-06 3.609328e-06 -3.745331e-08 1.052133e-07 -1.522763e-07
5.070847e-08 1.360175e-08 -2.616845e-08 -8.481983e-09 -1.836643e-09 1.561049e-09
4.341876e-08 1.168375e-07 -1.059687e-07 1.263723e-07 4.135992e-08 3.348911e-08
4.715671e-08 1.669050e-08 -2.220342e-08 -1.336812e-09 -5.403884e-10 4.161748e-10
-1.401814e-07 -1.279510e-06 3.575522e-06 -3.893404e-07 2.325096e-07 -1.407280e-06
-2.740795e-07 -9.560113e-07 3.064688e-06 5.893853e-07 -1.852820e-07 -7.417111e-07
4.974835e-08 1.620706e-08 -2.450613e-08 -6.046168e-09 -3.639413e-10 9.446093e-10
-1.562110e-06 -2.251845e-06 7.217983e-06 -2.742697e-07 1.020217e-06 -1.352855e-06
7.500888e-08 -5.670939e-09 -3.212611e-08 -1.239189e-08 -5.340313e-09 7.907787e-09
8.305334e-08 -1.077337e-08 -3.047322e-08 -4.050106e-09 -7.734606e-10 7.855369e-10
8.533342e-08 -1.322653e-08 -3.006023e-08 -1.425772e-09 -1.081775e-09 7.863325e-10
8.652986e-08 -1.436844e-08 -3.099618e-08 -2.733454e-09 5.288589e-10 1.212271e-09
8.249063e-08 -8.834564e-09 -2.987275e-08 4.765376e-09 8.991092e-10 2.069128e-09
5.454053e-08 1.060409e-08 -2.564651e-08 1.052922e-08 9.810716e-10 2.695684e-09
7.782995e-08 -1.114088e-08 -2.474628e-08 1.219531e-08 1.472196e-09 1.117168e-08
7.714746e-08 -3.736894e-09 -3.011175e-08 1.485406e-08 2.606257e-09 8.965903e-09
1.549778e-07 -4.055797e-08 -8.325688e-08 -4.105425e-08 -8.708760e-09 2.996530e-08
-4.677389e-08 3.026250e-07 -9.195136e-08 -2.347487e-07 -5.651963e-08 2.361327e-08
3.507749e-08 3.924563e-08 -3.375977e-08 2.278317e-08 8.692769e-09 7.476878e-09
3.912762e-08 2.759078e-08 -3.490573e-08 2.159359e-08 4.664971e-09 4.595707e-09
3.065880e-08 3.334103e-08 -3.387343e-08 1.699524e-08 4.579179e-09 3.842859e-09
3.224126e-08 4.033601e-08 -4.070725e-08 2.326828e-08 3.209097e-09 1.793746e-09
3.340162e-08 3.474090e-08 -2.954778e-08 1.082789e-08 3.163478e-10 1.557327e-10
4.028696e-08 3.441428e-08 -3.883133e-08 2.736018e-08 7.802282e-09 2.705194e-09
-1.696728e-07 4.580926e-07 -6.036317e-08 -2.113037e-07 -1.032887e-07 4.855374e-08
-6.313386e-08 2.659008e-07 -1.135047e-07 -1.691323e-07 -7.569310e-08 3.100139e-08
8.441338e-08 -1.010361e-09 -4.037963e-08 2.304701e-08 3.161670e-09 1.072736e-09
6.162010e-07 -3.600631e-07 1.134277e-07 2.538084e-08 4.345345e-08 4.444188e-08
7.453120e-08 -1.199892e-09 -3.625668e-08 1.524845e-08 -1.208876e-09 6.164196e-10
7.469175e-08 -8.137046e-09 -2.547132e-08 -9.184751e-09 -4.649404e-09 7.822104e-09
1.004795e-07 -1.641225e-08 -4.558357e-08 -2.018249e-08 -7.877899e-10 2.310115e-09
8.987160e-08 -1.154924e-08 -3.181016e-08 -1.511833e-08 -3.615494e-09 6.134926e-09
8.749427e-08 -1.631002e-08 -2.864655e-08 -1.946435e-09 9.753864e-11 1.507941e-09
6.549262e-08 1.996749e-09 -2.567016e-08 4.081385e-09 7.010815e-11 3.980825e-11
7.497131e-09 7.615890e-08 -5.495926e-08 -1.999949e-08 -1.142283e-08 1.802696e-08
1.719927e-08 6.575781e-08 -5.360046e-08 -7.616643e-09 -4.647324e-10 8.924104e-09
9.232072e-08 -1.585388e-08 -3.869089e-08 1.155873e-08 4.704984e-09 1.584648e-08
2.729865e-08 3.686506e-08 -4.025913e-08 -1.623128e-08 -1.775607e-08 1.745414e-08
7.345170e-08 -2.653349e-09 -3.128635e-08 1.063298e-08 -1.131926e-09 4.971335e-10
8.791442e-08 -9.999001e-09 -3.530222e-08 1.192963e-08 1.059782e-09 7.500350e-09
1.910655e-08 5.650148e-08 -4.040889e-08 1.821429e-08 8.932255e-09 6.458190e-09
6.950651e-09 4.970263e-08 -4.599249e-08 -3.599588e-09 -2.743194e-09 1.776754e-08
7.146840e-09 3.897368e-08 -2.875494e-08 -2.646852e-09 -3.558331e-09 1.503341e-08
3.058975e-08 4.858286e-08 -3.906487e-08 2.558832e-08 1.461057e-11 1.211322e-09
-6.658737e-08 2.149373e-07 -1.320336e-07 4.688791e-09 -1.125682e-08 3.071947e-09
-6.049746e-08 2.650303e-07 -1.481852e-07 -1.468835e-08 -2.776683e-08 7.384798e-10
8.399937e-08 -1.564425e-08 -2.433566e-08 7.710625e-10 8.815451e-10 1.688347e-09
-9.226069e-08 2.230343e-07 -1.147861e-07 -9.528142e-09 -1.193851e-07 -2.022563e-10
-8.481608e-08 2.494638e-07 -1.421188e-07 2.705736e-08 -1.918530e-08 -2.303627e-09
-4.081450e-08 1.550598e-07 -1.009989e-07 -1.351762e-09 -5.226350e-09 2.718982e-09
7.838881e-08 -1.097600e-08 -2.305494e-08 2.553892e-09 6.169943e-10 2.898580e-09
8.042089e-08 -1.152438e-08 -2.333966e-08 6.257626e-10 2.166125e-10 1.749727e-09
8.486508e-08 -1.813298e-08 -2.657338e-08 2.182688e-09 7.524976e-10 7.635480e-09
8.515224e-08 -1.590182e-08 -2.650093e-08 8.725091e-10 7.017092e-10 1.007501e-09
8.510983e-08 -1.801871e-08 -2.716491e-08 3.653749e-09 4.283902e-09 1.357358e-08
-4.983915e-08 1.884983e-07 -1.256543e-07 -7.065164e-09 -3.903897e-09 -3.405650e-09
-6.658736e-08 2.646529e-07 -1.413916e-07 8.766734e-09 -2.042525e-08 -4.199375e-10
-6.115411e-08 2.265870e-07 -1.317996e-07 4.979066e-09 -5.014570e-08 -3.608668e-09
-4.670899e-08 1.550598e-07 -1.026600e-07 -9.352885e-10 -5.045491e-09 -4.735361e-10
4.583458e-08 1.884054e-08 -2.430550e-08 -1.543856e-09 7.269492e-19 -2.354330e-10
4.158491e-07 -1.697887e-07 -1.776132e-08 -3.159009e-08 2.223859e-09 -4.857668e-08
3.182078e-07 -3.018466e-07 9.146472e-08 -1.771899e-08 5.247049e-08 -1.616779e-07
4.187541e-08 2.414002e-08 -2.779676e-08 -2.358839e-09 1.332788e-15 -1.103495e-10
6.676264e-07 -3.566960e-07 4.937612e-08 -9.003058e-08 -3.665711e-08 5.324660e-08
-1.673594e-08 7.448447e-08 -3.612194e-08 -6.611492e-09 1.517367e-08 -9.794653e-09
-2.975546e-08 9.831250e-08 -6.597041e-08 -1.230633e-08 4.122785e-08 -2.122637e-08
1.201440e-08 1.080395e-07 -9.826082e-08 -4.057636e-08 1.283757e-08 -2.717891e-09
3.325952e-08 9.254058e-08 -1.013425e-07 -1.916545e-08 4.376405e-09 -3.344024e-09
5.600375e-07 -1.653424e-07 -2.268436e-07 -2.379059e-08 8.335024e-09 4.749865e-17
4.850564e-07 -1.208887e-07 -2.160242e-07 -4.640123e-08 3.818633e-09 1.629607e-08
-1.424069e-08 6.361719e-08 -2.768841e-08 -2.730084e-09 1.475343e-08 -1.708332e-09
2.030331e-09 8.517708e-08 -6.556928e-08 -1.113995e-08 5.969359e-09 -1.479820e-09
6.285555e-09 8.431719e-08 -6.703775e-08 -7.352038e-09 4.541240e-09 4.617583e-10
-4.371102e-09 7.774955e-08 -4.528522e-08 -2.177621e-08 4.245842e-08 -2.248440e-08
3.591224e-08 8.816025e-08 -1.064768e-07 -1.818297e-08 9.131616e-09 -4.693591e-09
8.293170e-08 -5.653004e-09 -3.388031e-08 1.571072e-08 4.555849e-10 -7.594081e-11
1.601665e-07 -2.414234e-08 -6.801541e-08 1.392616e-08 -8.304706e-08 -1.254689e-09
8.013266e-08 -1.196478e-09 -3.625668e-08 1.935110e-08 -1.163386e-10 1.362468e-09
1.795021e-07 -4.949061e-08 -8.275849e-08 1.847994e-09 -8.446049e-09 3.154701e-08
-4.028070e-08 1.962471e-07 -1.201063e-07 -2.197285e-08 -8.386742e-09 3.622916e-09
1.700663e-07 -3.869818e-08 -7.051271e-08 1.908010e-08 3.788272e-09 3.160236e-08
1.619382e-07 -4.811783e-08 -8.647920e-08 2.895566e-08 6.648392e-09 3.740433e-08
-4.513602e-08 1.802948e-07 -1.123957e-07 -4.578069e-09 -2.151346e-08 4.737678e-09
5.386533e-08 1.486245e-08 -2.568411e-08 -9.061683e-09 -1.144267e-10 4.817828e-10
2.778664e-07 -4.000788e-08 -1.810896e-07 -1.085736e-07 5.100894e-08 -2.877401e-08
2.372104e-07 -7.789841e-08 -9.839482e-08 -5.741386e-08 8.311955e-08 -5.548421e-08
3.074352e-07 -7.875551e-08 -1.449382e-08 -1.720011e-07 1.010162e-07 -1.411331e-07
5.208516e-08 1.308076e-08 -2.906783e-08 -1.332300e-08 -5.181545e-10 2.091487e-09
6.185610e-08 7.408697e-09 -2.735430e-08 -1.160704e-08 8.823254e-11 -2.218066e-10
5.486414e-07 -1.821180e-07 -2.156568e-07 -9.158246e-09 4.607249e-09 -8.009767e-10
6.675573e-08 1.063043e-08 -4.652911e-08 -2.735866e-08 -4.309587e-09 3.637773e-09
7.860150e-08 -6.789052e-09 -2.830692e-08 -8.851368e-09 -1.109833e-09 -8.221922e-10
7.121804e-08 -2.660391e-09 -2.318381e-08 -2.827090e-09 -2.363264e-09 4.702331e-10
6.639588e-08 1.274164e-09 -2.578023e-08 -1.142791e-08 -2.169624e-09 4.286128e-09
8.972778e-08 -1.228511e-08 -3.487140e-08 -9.287907e-09 7.092544e-10 2.114131e-09
8.118081e-08 -1.004901e-08 -2.922481e-08 -2.814478e-09 3.898817e-10 1.199136e-09
7.975608e-08 -1.096525e-08 -2.757462e-08 -1.164271e-09 -1.340781e-09 1.043305e-09
4.770255e-08 2.470346e-08 -4.593674e-08 -2.500728e-08 -2.400913e-09 4.680595e-09
8.573104e-08 -6.039671e-09 -3.809593e-08 -1.594997e-08 -2.410141e-09 4.592482e-09
5.265804e-08 1.756401e-08 -3.607841e-08 -2.083492e-08 -4.412681e-09 4.509639e-09
7.274809e-08 -9.329426e-10 -2.873409e-08 -1.244734e-08 -1.188394e-09 2.111759e-09
2.485301e-07 1.553327e-09 5.506449e-08 -3.966492e-07 -8.754057e-09 -1.257039e-08
5.209347e-08 1.925419e-08 -3.018327e-08 -1.379418e-08 -3.822973e-10 5.150209e-10
5.993934e-08 2.104417e-08 -3.658378e-08 -2.342335e-08 -7.145005e-10 1.102492e-09
6.215761e-08 1.279606e-08 -3.457276e-08 -1.870651e-08 -4.846194e-09 2.362793e-09
2.977450e-07 5.325665e-08 1.343417e-07 -4.557483e-07 -7.705398e-08 5.133106e-08
5.984511e-08 1.340209e-08 -3.813988e-08 -2.629625e-08 -1.021929e-09 3.317751e-09
6.694607e-08 9.699027e-09 -3.465478e-08 -2.249112e-08 -2.087199e-09 3.971177e-09
5.292897e-07 -2.215362e-07 -7.653490e-08 -4.421857e-08 2.956568e-08 -1.287870e-07
1.077324e-07 7.243345e-08 3.099612e-07 -5.276643e-07 2.968241e-08 -8.091324e-08
5.893964e-08 1.549230e-08 -3.109970e-08 -1.552425e-08 -1.465864e-09 2.188917e-10
6.648323e-08 1.763383e-08 -3.868228e-08 -2.708453e-08 -3.638399e-09 6.290770e-09
9.543625e-08 -4.211152e-09 -4.938589e-08 2.955339e-08 1.016474e-09 3.377512e-09
3.939371e-08 5.288565e-08 -5.301218e-08 4.684264e-08 7.832670e-09 4.161859e-09
8.172918e-08 -9.344113e-10 -4.297621e-08 2.594535e-08 3.011721e-09 5.378426e-09
3.970578e-08 4.027749e-08 -5.253443e-08 4.270850e-08 1.166002e-08 1.116580e-08
7.467743e-08 7.484383e-09 -4.570232e-08 3.122883e-08 5.003997e-09 1.392557e-09
1.212840e-07 -1.505702e-08 -5.197599e-08 2.861405e-08 1.710635e-09 8.579715e-09
1.160448e-07 -2.154055e-08 -6.360709e-08 3.345224e-08 6.966526e-09 2.109317e-08
1.613691e-07 -3.194369e-08 -6.741659e-08 3.299810e-08 7.689190e-09 3.031625e-08
1.193937e-07 -2.229678e-08 -4.285635e-08 1.214374e-08 1.473556e-09 8.857900e-09
1.325344e-07 -1.241940e-08 -6.399677e-08 4.662275e-08 5.005821e-09 1.652738e-08
7.446386e-08 -1.474594e-09 -3.113921e-08 1.503776e-08 -2.134574e-10 3.213858e-09
6.147814e-08 -7.868838e-08 1.020129e-07 -5.138019e-09 -3.896690e-08 -1.552036e-07
-3.938880e-08 1.586852e-07 1.321181e-07 -4.668344e-07 9.746609e-10 4.823243e-08
-2.384689e-08 3.269332e-07 1.695342e-07 -4.064201e-07 -2.444073e-08 4.048025e-08
4.475083e-07 -1.659538e-07 -1.806498e-07 1.502003e-08 -3.143000e-08 3.898758e-09
-3.781526e-09 1.033382e-07 1.917715e-07 -5.525966e-07 -7.291622e-09 8.013487e-08
-2.306788e-07 3.208730e-07 5.603855e-07 -5.576628e-07 1.041130e-07 -2.691083e-08
6.761268e-07 -3.234346e-07 -5.016691e-08 -1.656019e-07 1.510364e-08 -2.200381e-08
7.612345e-08 -8.852679e-09 -2.288808e-08 1.073583e-09 1.403337e-09 1.710040e-09
-4.341490e-08 1.218709e-07 -5.261990e-08 -2.269372e-11 -4.692776e-08 -8.752378e-09
-3.687128e-07 5.711075e-07 4.697158e-07 -2.489142e-07 -1.692342e-07 7.499917e-08
-3.893271e-08 1.381163e-07 -7.737674e-08 2.126257e-09 -2.357195e-08 -1.412815e-08
-4.538736e-07 6.120912e-07 2.351936e-07 -8.975287e-08 -5.724759e-09 -8.580890e-10
-1.357970e-06 2.082580e-07 2.519636e-06 2.152681e-07 2.845781e-08 -1.236502e-07
-3.314600e-08 3.106507e-08 -4.569575e-08 -1.260794e-08 -1.121230e-07 -3.916444e-08
-1.236153e-06 5.355735e-07 2.000015e-06 -1.089001e-08 6.518826e-07 1.994501e-08
-5.108784e-07 5.997028e-07 4.820500e-07 3.483147e-07 -1.110328e-07 -8.505438e-08
1.563754e-08 3.846471e-08 -2.671208e-08 1.190656e-08 1.216923e-08 1.291476e-08
1.593838e-07 -3.143825e-10 -1.115359e-07 -1.418417e-07 -1.298876e-09 1.905945e-08
2.561868e-07 -2.901220e-08 -1.168637e-07 -1.609998e-07 -1.966953e-08 6.959102e-08
2.836251e-07 -7.728498e-09 -1.236975e-07 -1.943022e-07 -2.591131e-08 3.242978e-08
2.251999e-08 4.194132e-08 -2.804891e-08 2.172680e-08 1.628099e-08 1.315785e-08
2.258949e-07 -1.011837e-08 -1.158386e-07 -1.273955e-07 -1.936062e-08 3.063031e-08
1.950514e-07 -2.389579e-08 -1.088450e-07 -1.105569e-07 -1.146936e-08 4.389309e-08
1.118566e-08 4.163328e-08 -2.447195e-08 8.145341e-09 1.021842e-08 7.764660e-09
2.812476e-07 -6.839331e-08 -1.096634e-07 -5.114371e-08 -5.728898e-09 2.420444e-08
1.935633e-08 3.485104e-08 -2.717206e-08 1.405409e-08 1.396831e-08 1.332085e-08
1.579194e-08 3.890402e-08 -2.595852e-08 9.271773e-09 8.592149e-09 8.350817e-09
1.951954e-07 4.255420e-08 -1.188634e-07 -2.371189e-07 -2.210256e-08 3.983416e-08
1.533425e-07 7.935050e-09 -1.080685e-07 -1.645325e-07 -2.490852e-08 4.955436e-08
1.061086e-07 4.601104e-08 -1.157008e-07 -1.614623e-07 -2.494305e-08 4.554463e-08
4.475083e-07 -1.663332e-07 -1.445654e-07 1.218137e-08 -4.069330e-08 9.223076e-09
1.839021e-07 4.119368e-08 -1.245432e-07 1.867941e-07 1.990762e-08 3.289030e-08
1.082485e-07 2.085816e-08 -7.381733e-08 7.636300e-08 1.180455e-08 2.733478e-08
1.280207e-07 2.766457e-08 -1.058954e-07 1.404333e-07 1.166380e-08 1.169334e-08
2.351117e-07 -2.238565e-08 -1.172929e-07 -1.298182e-07 -4.844427e-09 1.924925e-08
2.127626e-07 -4.545414e-08 -1.172111e-07 -1.018860e-07 -8.474515e-09 2.279410e-08
9.185674e-09 -1.671216e-08 -6.063151e-08 -1.245484e-09 -9.129158e-08 1.410199e-09
9.998953e-08 -5.964732e-08 -5.325176e-08 -5.715656e-08 -8.287037e-08 -3.572440e-08
-2.797030e-07 5.133454e-07 4.461294e-08 1.863326e-07 3.834070e-08 3.044614e-08
-4.050529e-07 6.400928e-07 2.142855e-07 2.207170e-07 4.194767e-08 1.374790e-08
-8.572764e-07 6.296603e-07 8.238597e-07 1.229177e-07 5.601391e-08 -7.917656e-08
-4.782005e-07 6.114837e-07 5.240817e-07 3.888104e-07 -6.506253e-08 -8.087173e-08
5.963743e-07 -2.809074e-07 -5.242586e-08 2.644117e-07 -1.601805e-08 -3.888409e-08
4.876095e-07 -1.629349e-07 -9.292581e-08 7.682354e-09 9.883836e-10 3.393087e-08
4.811028e-07 -1.458677e-07 -1.140934e-07 1.029348e-07 1.204468e-09 2.122947e-08
7.490281e-08 -6.641536e-09 -2.729989e-08 -1.095113e-08 -1.294688e-09 8.206013e-09
4.773035e-07 -1.642314e-07 -8.855152e-08 5.005303e-08 4.252086e-09 7.015891e-08
-1.921008e-08 2.775181e-08 -3.900761e-08 -1.365641e-09 -7.220920e-08 -3.380195e-08
-1.799975e-08 6.853191e-08 -3.951111e-08 1.977887e-09 -2.344079e-08 -1.291339e-08
7.671561e-08 -1.279108e-08 -2.710208e-08 -1.010430e-08 -5.221087e-09 1.222056e-08
7.705520e-08 -8.596458e-09 -2.646335e-08 -1.342441e-08 -3.579997e-09 9.809366e-09
1.251466e-08 1.020581e-07 -9.558495e-08 1.318507e-08 -7.769512e-09 -4.147821e-09
2.288141e-09 7.470501e-08 -6.206343e-08 1.535189e-08 -4.189967e-08 -1.391376e-08
-2.624542e-08 4.085511e-08 -4.569692e-08 6.774470e-10 -6.894273e-08 -3.813275e-08
3.518852e-08 -7.543797e-09 -5.966415e-08 3.034604e-08 8.679847e-08 -1.898696e-08
1.815935e-07 3.148642e-09 -1.255821e-07 -2.625942e-08 9.383495e-08 -2.956891e-08
4.234495e-08 2.106269e-08 -1.994882e-08 2.557424e-09 3.800129e-10 -6.640206e-11
1.447477e-09 8.171422e-08 -6.264147e-08 -3.150266e-09 1.946909e-08 -1.638469e-09
3.147081e-08 2.380165e-08 -2.898170e-08 -1.443245e-08 -1.431337e-08 1.737478e-08
3.126733e-08 2.912634e-08 -2.829950e-08 -1.627753e-08 -1.208093e-08 6.964797e-09
1.243831e-08 1.083709e-07 -8.169493e-08 -4.100296e-08 2.328462e-08 -9.907065e-09
2.409655e-07 -8.118010e-08 -1.286260e-07 -1.789332e-08 5.987214e-08 7.058886e-09
5.164638e-08 1.180215e-08 -1.981015e-08 -6.112422e-10 -1.173925e-10 3.901522e-11
2.816154e-07 -2.112241e-08 -1.730420e-07 -1.297831e-07 3.867690e-08 -1.460480e-08
4.130239e-07 -8.848207e-08 -2.178607e-07 -6.532090e-08 1.837389e-08 -2.283238e-08
1.712065e-07 -6.332440e-08 -1.051323e-07 5.898618e-09 -6.063943e-08 -7.125798e-08
-3.035815e-08 7.254133e-08 -3.264153e-08 9.937752e-09 1.182262e-08 -4.768161e-09
2.897109e-08 4.057878e-08 -3.383952e-08 -5.484156e-09 -3.983597e-09 1.191319e-08
-2.727062e-08 6.806045e-08 -3.241802e-08 -5.688474e-09 8.888315e-09 -4.718962e-09
3.430278e-08 2.400071e-08 -2.539492e-08 -8.220354e-09 -6.638903e-09 9.020398e-09
-2.392720e-08 1.100559e-07 -6.541250e-08 9.484718e-09 1.027638e-08 5.108746e-09
3.008459e-07 -7.818331e-08 -1.108067e-07 5.192048e-09 -4.529228e-11 1.498704e-08
2.770744e-07 -1.136732e-07 -1.047226e-07 -1.349770e-08 -2.978889e-09 6.334684e-08
3.813501e-07 -1.096770e-07 -1.157423e-07 -2.292215e-08 -7.455372e-10 2.254150e-08
6.357031e-08 7.235208e-08 -8.930568e-08 9.717143e-08 9.525530e-09 1.056741e-08
-2.768958e-08 1.148388e-07 -7.382216e-08 1.251154e-08 1.689692e-08 5.303385e-09
-7.159602e-09 8.979648e-08 -5.901138e-08 5.134789e-09 2.869434e-10 3.290838e-09
-1.894934e-08 1.087746e-07 -6.941867e-08 9.223277e-09 8.595152e-10 -1.732451e-09
-2.167171e-08 1.104167e-07 -6.882168e-08 8.622871e-09 2.616486e-09 -4.321118e-10
-8.387281e-09 7.875437e-08 -5.043901e-08 1.017428e-08 6.153908e-09 1.115397e-08
-1.113236e-08 6.780192e-08 -3.301148e-08 3.157497e-09 1.019100e-08 1.060536e-08
8.700124e-08 -1.795637e-08 -2.347696e-08 -1.953260e-10 -5.101573e-10 1.566399e-09
7.983906e-08 -1.153220e-08 -2.318106e-08 -8.977090e-10 -1.186829e-09 1.825381e-09
8.891542e-08 7.520974e-08 -1.012267e-07 1.197922e-07 1.354296e-08 9.132994e-09
5.073423e-08 1.513356e-08 -2.902643e-08 1.532012e-08 1.927402e-09 2.153516e-09
3.915480e-08 3.038586e-08 -2.983319e-08 1.462886e-08 3.333680e-10 2.467235e-10
8.347292e-08 -1.150974e-08 -3.308157e-08 -1.096286e-08 -6.782461e-10 1.417734e-09
8.202997e-08 -1.097996e-08 -2.863034e-08 -9.195886e-09 -3.198516e-10 5.953377e-09
8.975064e-08 -1.331850e-08 -3.207531e-08 -5.292096e-09 -2.751288e-10 1.028022e-09
8.371025e-08 -1.519093e-08 -2.373657e-08 -7.521093e-10 -1.040179e-09 2.185925e-09
8.000812e-08 -8.898979e-09 -2.836663e-08 -1.491436e-09 -5.492714e-10 7.229293e-10
-8.988836e-08 2.601500e-07 -1.413916e-07 -1.906664e-09 -2.099626e-08 -2.153794e-09
-8.819738e-08 2.610017e-07 -1.481852e-07 -2.624814e-08 -2.736223e-08 2.370954e-09
5.679056e-08 9.836953e-09 -2.031857e-08 -6.615335e-10 -5.956595e-10 4.477835e-10
-1.019464e-07 2.827291e-07 -1.476417e-07 3.933234e-08 -6.643464e-08 -1.476106e-08
-2.555162e-08 1.023368e-07 -6.346996e-08 -9.781445e-09 2.822432e-08 -1.389746e-08
-2.186927e-08 6.748085e-08 -2.846278e-08 -4.602098e-09 6.291042e-09 -7.127792e-09
-8.578825e-08 2.923907e-07 -1.457608e-07 2.524512e-08 -7.646900e-08 -6.247890e-09
-2.355354e-08 7.761148e-08 -3.874968e-08 -1.158428e-09 4.183400e-09 -8.768911e-09
-8.988836e-08 3.439209e-07 -1.537032e-07 -2.530432e-09 -3.357223e-08 -4.837992e-09
-2.544886e-08 1.194277e-07 -6.968147e-08 -3.006685e-08 4.508663e-08 -1.761974e-08
3.708518e-08 2.539312e-08 -2.188050e-08 9.507139e-09 2.537344e-09 3.522868e-09
3.110245e-08 2.876642e-08 -2.327417e-08 1.122104e-08 4.941018e-09 6.043669e-09
2.907010e-07 -6.471660e-07 1.417998e-06 6.294477e-07 -3.310704e-07 -6.622214e-07
5.004912e-07 -7.735356e-07 1.652860e-06 1.406690e-07 1.487437e-08 5.186270e-08
2.371670e-07 -1.483415e-06 2.944650e-06 4.151549e-07 -4.056979e-07 -7.182552e-07
-1.950182e-08 7.175026e-08 -3.751043e-08 -5.263833e-10 1.948901e-09 -9.367860e-09
-2.161324e-08 6.712951e-08 -2.771808e-08 2.801205e-09 5.274826e-09 -1.001414e-08
-3.319740e-08 4.990308e-08 -3.062608e-08 -3.230495e-09 -4.737130e-08 -2.841647e-08
-1.979998e-08 1.479107e-07 -1.120389e-07 4.590008e-08 -3.608068e-08 -1.840212e-08
3.438473e-07 -8.066118e-08 -7.485982e-08 -1.864438e-07 -1.166915e-08 4.730095e-08
-2.877366e-08 7.738021e-08 -6.075711e-08 4.963778e-10 -6.042540e-09 -1.919333e-08
3.898461e-08 2.437904e-08 -2.205346e-08 9.735641e-09 3.077429e-09 3.874182e-09
3.912358e-08 2.462067e-08 -2.065137e-08 5.521478e-09 1.349604e-09 1.448095e-09
-1.342143e-08 5.976898e-08 -2.910333e-08 2.072276e-09 2.167045e-08 -2.969540e-09
3.150398e-07 -6.423415e-08 -1.093770e-07 -1.206883e-07 -9.710719e-09 6.121402e-08
2.406417e-07 -4.960670e-08 -1.065974e-07 -7.392518e-08 -8.197997e-09 1.719699e-08
-7.301395e-07 5.982854e-07 1.049549e-06 3.242350e-07 -4.130955e-08 2.260573e-07
-7.922192e-08 -1.209624e-09 1.081990e-06 6.679659e-07 -1.939913e-07 -3.115606e-07
1.805267e-08 1.773068e-08 -5.904894e-08 -3.102536e-08 8.099408e-08 -1.891779e-08
-1.240028e-07 2.875568e-07 4.789388e-07 5.314895e-07 -6.534508e-08 -1.272480e-07
-3.297464e-07 3.535486e-07 6.186190e-07 5.422835e-07 3.678455e-08 1.195582e-07
2.024688e-08 1.140563e-08 -5.493389e-08 2.184443e-08 7.956106e-08 -1.441199e-08
-1.967659e-07 4.849728e-07 6.040619e-08 3.437439e-07 -3.340048e-08 2.807911e-09
-9.818573e-10 -1.668462e-08 -5.799924e-08 -7.131399e-11 8.824915e-08 -3.056708e-09
3.979277e-08 1.641264e-07 -1.305030e-07 -1.927299e-07 -2.184507e-08 1.440236e-08
1.271032e-07 2.023543e-07 1.190005e-07 -4.523276e-07 -8.765167e-08 3.999201e-08
5.747743e-08 1.800257e-07 -1.247303e-07 -2.213412e-07 -7.273545e-08 5.839661e-08
1.472560e-07 -3.020303e-08 -6.282783e-08 -3.761734e-09 -2.203107e-10 4.172601e-09
1.201411e-07 -3.078023e-08 -5.866205e-08 -7.787873e-09 -6.115020e-10 7.757309e-09
1.417133e-07 -3.763293e-08 -7.805911e-08 -1.066450e-08 7.588019e-10 5.806538e-10
-1.616768e-08 6.187861e-08 -2.684859e-08 3.620716e-10 7.881474e-09 -3.416698e-09
1.387378e-07 -3.217264e-08 -6.548662e-08 -1.541640e-08 -8.343687e-09 1.667326e-08
4.177838e-07 -1.969703e-07 3.407221e-07 4.998277e-07 -3.474414e-08 -5.541925e-08
-3.336646e-08 1.597220e-07 -9.685565e-08 -4.830079e-08 3.748208e-08 -8.213494e-09
-1.085290e-08 6.387628e-08 -4.046141e-08 -3.559510e-10 1.868298e-08 -1.642825e-09
-8.183491e-09 7.659218e-08 -5.215133e-08 -4.856454e-09 2.689151e-08 -1.028400e-08
-3.792411e-08 1.371167e-07 -7.784225e-08 -2.796642e-08 5.146484e-08 -1.492671e-08
-1.051479e-08 1.070034e-07 -9.513877e-08 -3.979905e-08 3.429359e-08 -1.276362e-08
-3.191917e-08 1.439933e-07 -8.329112e-08 -2.802638e-08 9.359126e-09 -9.654507e-10
-5.321504e-08 2.160888e-07 -1.156145e-07 -5.609065e-08 5.710113e-08 -1.854827e-08
-2.966708e-08 1.824501e-07 -1.101635e-07 -6.269145e-08 1.581645e-08 -2.330063e-09
-2.205343e-08 1.931491e-07 -1.106970e-07 8.746815e-08 1.444628e-08 5.571866e-09
-1.671591e-08 6.577092e-08 -2.517819e-08 -7.965166e-10 4.662935e-09 -4.273128e-10
4.691344e-08 1.685471e-08 -2.507110e-08 -1.097921e-08 -5.630915e-09 7.474024e-09
-5.001275e-09 1.144540e-07 -9.075040e-08 6.322655e-08 3.636838e-08 2.043916e-08
-2.019830e-08 1.771867e-07 -1.019257e-07 8.818923e-08 4.718008e-08 2.455987e-08
1.488059e-09 1.061146e-07 -8.642136e-08 -1.707726e-08 -4.211239e-09 -1.623519e-09
4.061703e-08 2.016829e-08 -2.647871e-08 -1.324896e-08 -9.026197e-09 1.198229e-08
6.361222e-09 9.832835e-08 -7.843009e-08 -1.187257e-08 7.748935e-10 4.708584e-09
-1.687125e-08 1.354141e-07 -9.799741e-08 -1.216498e-08 -2.655579e-09 4.816966e-09
7.092077e-08 -4.031223e-09 -2.207815e-08 1.150971e-09 1.409925e-09 1.379499e-09
-1.247521e-08 1.307082e-07 -9.663214e-08 -1.488498e-08 -1.611301e-09 2.333292e-09
1.736909e-08 -4.526062e-08 1.104095e-08 3.920859e-09 -1.126461e-07 -9.384402e-08
7.909267e-08 -8.307030e-09 -2.556627e-08 3.093772e-09 9.754879e-10 2.049405e-11
7.424216e-08 -6.104856e-09 -2.396302e-08 1.052158e-09 1.502274e-09 1.138788e-09
2.437496e-07 -1.250582e-07 2.054844e-08 1.585052e-07 -6.654194e-08 -1.659383e-07
-3.322046e-08 4.881036e-08 -3.537800e-08 -6.776696e-09 -4.209747e-08 -2.672090e-08
-2.423170e-08 7.842302e-08 -3.491032e-08 6.461880e-09 -2.639065e-08 -2.011784e-08
-2.228855e-08 8.871677e-08 -4.314350e-08 1.319233e-08 -4.431765e-08 -2.434470e-08
-2.099199e-08 1.546268e-07 -1.156529e-07 -4.028917e-08 -4.625807e-09 -1.941176e-09
-2.281601e-08 3.469368e-08 -3.569074e-08 7.408647e-10 -5.398958e-08 3.068323e-08
-2.635904e-08 2.471762e-08 -3.557526e-08 3.898925e-10 -7.087579e-08 2.039998e-08
-2.704550e-08 3.031843e-08 -3.976298e-08 -3.314566e-09 -8.441637e-08 4.464823e-08
-8.815442e-09 9.983583e-08 -9.033594e-08 -4.368643e-08 -6.984081e-08 4.325991e-08
3.100506e-09 5.511208e-08 -2.449330e-08 9.450179e-09 1.170351e-08 9.853234e-09
8.568599e-08 -1.634795e-08 -2.400642e-08 -6.826650e-10 -4.684096e-10 1.448913e-09
-7.869738e-09 7.258342e-08 -5.680041e-08 2.583856e-08 3.045524e-08 1.721280e-08
-3.318317e-09 5.511637e-08 -2.633842e-08 8.028366e-09 1.256993e-08 1.141497e-08
8.243309e-08 -1.303856e-08 -2.510190e-08 -7.256272e-10 -1.583877e-09 1.414516e-09
8.698311e-08 -1.947535e-08 -2.406644e-08 4.359272e-10 1.063261e-11 2.453138e-09
8.901009e-08 -1.533128e-08 -2.828731e-08 -3.280579e-09 -1.125603e-09 3.770265e-09
9.193326e-08 -1.826909e-08 -2.998101e-08 -4.058538e-10 2.648932e-10 6.923337e-10
-5.450882e-09 5.660589e-08 -2.930843e-08 -1.218291e-09 5.401885e-09 1.013422e-08
8.634269e-08 -1.804213e-08 -2.446965e-08 3.771240e-10 9.062869e-10 1.754667e-09
1.765042e-09 5.169531e-08 -2.651982e-08 6.620213e-11 3.711256e-09 8.532221e-09
-2.178161e-08 9.784802e-08 -5.520689e-08 -2.763566e-09 6.822028e-09 -6.469213e-09
8.760024e-08 -1.923564e-08 -2.407970e-08 -2.856435e-10 6.497233e-11 2.090104e-09
-5.076380e-09 6.993508e-08 -3.375103e-08 -4.378366e-09 -1.398407e-09 1.628072e-08
2.073619e-08 6.111076e-08 -5.634343e-08 -5.600148e-09 -9.646021e-11 6.893025e-09
-2.203608e-08 1.036933e-07 -6.408334e-08 -7.409022e-09 2.879066e-09 3.006467e-12
-2.565466e-08 1.079530e-07 -6.314468e-08 -1.437221e-08 1.303124e-08 -2.920548e-09
2.166223e-08 3.604980e-08 -3.999483e-08 -2.099376e-08 -1.812124e-08 1.840184e-08
5.153156e-09 1.024940e-07 -7.732754e-08 -5.221080e-08 -2.139688e-08 2.094036e-08
-1.679054e-08 7.590976e-08 -3.493567e-08 9.752750e-10 -1.057564e-08 -7.919864e-09
-1.603587e-08 7.362545e-08 -3.164762e-08 7.519092e-10 -4.757556e-09 -6.017914e-09
-1.367519e-08 8.857612e-08 -6.313228e-08 -1.127021e-08 9.139426e-09 -3.956438e-09
-1.657720e-08 9.315263e-08 -5.801740e-08 -6.618074e-09 2.507246e-09 2.791180e-10
-1.654406e-08 7.601374e-08 -2.957841e-08 7.649784e-10 -1.140064e-08 -1.828785e-09
-2.053585e-08 7.986175e-08 -5.882366e-08 6.218871e-09 -1.287183e-08 -1.403719e-08
-1.454009e-08 4.771554e-08 -4.478171e-08 3.278748e-09 -4.253765e-08 -2.054767e-08
3.351314e-08 8.985456e-08 -8.815422e-08 8.356478e-08 3.006804e-08 2.254194e-08
2.441966e-08 7.694288e-08 -5.990897e-08 5.142600e-08 1.381018e-08 8.671729e-09
-1.368553e-08 7.144755e-09 -3.653554e-08 6.745059e-10 -9.644202e-08 -4.370127e-08
3.491265e-08 5.569039e-08 -5.892418e-08 4.439709e-08 1.525970e-08 1.487702e-08
3.313444e-07 3.403193e-08 -1.352536e-07 2.611863e-07 -5.940891e-08 -4.024118e-08
1.202966e-07 8.702404e-08 -1.535068e-07 3.271842e-08 -1.341165e-08 6.854489e-09
6.499697e-09 1.034967e-07 -8.134985e-08 5.958220e-08 1.169994e-08 9.909246e-10
2.621798e-08 7.224818e-08 -6.964511e-08 5.303030e-08 2.074510e-08 1.792348e-08
1.382280e-07 8.185223e-08 -1.639212e-07 4.646595e-08 -5.792831e-09 -6.758419e-09
4.375573e-08 6.427222e-08 -6.670966e-08 6.180926e-08 3.600750e-09 6.052672e-09
3.235666e-08 7.386070e-08 -6.302955e-08 5.437756e-08 9.015325e-09 5.580626e-09
2.296265e-07 2.781552e-08 -1.986303e-07 6.048784e-08 -1.809827e-08 -1.963438e-08
2.228146e-07 4.756351e-08 -1.914635e-07 6.049809e-08 -4.193593e-09 -1.539963e-08
6.383052e-08 7.198102e-08 -9.229060e-08 9.728437e-08 2.568650e-08 2.001732e-08
3.468683e-08 8.573243e-08 -8.216600e-08 8.023323e-08 2.943332e-08 1.717818e-08
1.010062e-07 2.737633e-07 -9.695704e-08 3.629637e-07 -3.490226e-08 -2.391912e-08
-3.069660e-08 8.352579e-08 -4.480995e-08 -1.209837e-10 5.169078e-09 -2.982974e-09
-2.797596e-08 7.739212e-08 -4.108102e-08 1.931495e-10 3.714037e-09 -6.883993e-09
-4.866810e-08 1.480483e-07 -8.296071e-08 -1.912798e-08 6.544711e-08 -1.313208e-08
-5.042533e-08 2.201704e-07 -1.168394e-07 -5.101204e-08 5.327497e-08 -1.918806e-08
-3.066567e-08 1.163834e-07 -7.103361e-08 -7.260939e-09 2.832652e-09 -2.609767e-09
-2.748727e-08 5.357316e-08 -3.103921e-08 1.535398e-09 3.769747e-08 -1.140091e-08
-4.076442e-08 1.394726e-07 -8.677060e-08 -1.025048e-08 3.474258e-09 -5.599867e-10
-3.775357e-08 1.479730e-07 -8.066628e-08 -1.782886e-08 2.357580e-08 -6.513810e-09
2.908402e-08 3.345872e-07 -8.118418e-08 3.463029e-07 -5.765289e-08 -5.851723e-08
-5.309501e-08 2.410953e-07 -1.159550e-07 -6.522752e-08 5.252007e-08 -1.492585e-08
-8.445612e-08 2.305447e-07 -1.176815e-07 -1.769579e-08 2.057774e-08 -7.895050e-10
-6.483818e-08 1.879620e-07 -1.030234e-07 -1.771449e-08 3.816128e-08 -8.477960e-09
3.944057e-08 2.819512e-07 -1.393450e-07 2.344323e-07 -3.436087e-08 -1.992782e-08
7.333087e-08 5.019728e-09 -3.815667e-08 2.334016e-08 5.756010e-10 1.712891e-09
8.643135e-08 3.293103e-09 -4.976171e-08 3.518487e-08 1.165804e-09 3.869593e-09
2.022901e-08 2.027422e-07 -9.695704e-08 2.743206e-07 -2.829155e-08 -1.138166e-08
6.220613e-08 1.744592e-08 -4.563397e-08 3.243068e-08 2.912813e-09 -5.859412e-11
7.125352e-08 1.786099e-08 -4.658231e-08 4.210845e-08 9.045897e-09 1.277947e-08
7.097950e-08 1.529301e-08 -4.433089e-08 3.903882e-08 6.526703e-09 8.340139e-09
6.860959e-08 2.020274e-07 -1.357730e-07 2.609039e-07 -1.440290e-08 -1.405915e-08
7.948913e-08 3.505697e-09 -4.301790e-08 2.287659e-08 2.411711e-09 5.061381e-09
-4.070024e-09 1.958125e-07 -8.475733e-08 2.766189e-07 -6.488725e-08 -4.281931e-08
1.049953e-07 -1.122589e-09 -6.192461e-08 5.064789e-08 2.146715e-09 4.398150e-09
9.330329e-08 2.153373e-09 -5.571451e-08 4.158858e-08 1.064564e-08 1.220200e-08
1.212449e-07 -1.444090e-08 -7.282495e-08 5.403738e-08 3.540580e-09 1.100532e-08
1.305054e-07 2.010585e-07 -1.550874e-07 2.426680e-07 -2.394065e-08 -1.975737e-08
8.647928e-08 2.258390e-08 -6.057453e-08 5.645154e-08 9.840433e-09 1.360514e-08
6.469679e-08 1.025297e-08 -3.105684e-08 2.249416e-08 3.859711e-09 7.724196e-09
1.290942e-07 -3.194369e-08 -6.850311e-08 2.645083e-08 6.030528e-09 2.408364e-08
1.388759e-07 -2.597211e-08 -5.990811e-08 1.735509e-08 3.400278e-10 3.744693e-09
-4.129707e-08 1.185621e-07 -8.027322e-08 1.974038e-08 -6.234719e-08 -1.557182e-08
-3.653956e-08 1.516785e-07 -9.804002e-08 -3.477204e-09 -5.220424e-09 8.973516e-09
1.818419e-07 -2.048781e-07 1.447694e-06 7.449583e-07 3.674140e-07 3.626305e-07
-5.697544e-08 2.228066e-07 -1.371439e-07 2.622616e-08 -8.435495e-09 -1.085217e-09
3.025577e-08 3.360517e-08 -2.794447e-08 9.621200e-09 3.859650e-10 2.964490e-09
3.723130e-08 2.640145e-08 -2.615380e-08 1.074108e-08 2.502656e-10 1.446976e-10
-1.090930e-07 -8.085696e-07 2.277634e-06 6.943928e-07 -6.337554e-09 2.720886e-08
3.971431e-08 2.151597e-08 -2.099793e-08 3.280401e-09 7.394353e-10 5.321354e-10
1.766634e-07 -5.401877e-08 -9.578684e-08 -6.705391e-09 -4.077629e-11 2.832375e-09
-3.998855e-08 1.720833e-07 -1.160977e-07 7.186939e-09 -4.841485e-10 -5.622813e-09
-5.054511e-08 1.883005e-07 -1.256838e-07 6.021706e-09 -3.940621e-09 2.878460e-09
1.370951e-07 -3.869818e-08 -7.111947e-08 1.541407e-08 2.769677e-09 2.592999e-08
2.241487e-07 -7.818322e-08 -1.108067e-07 4.877290e-09 -1.211202e-10 5.892218e-09
1.158995e-07 -2.242115e-08 -5.098160e-08 1.483162e-08 5.037697e-09 3.473506e-09
-1.397815e-06 -6.812051e-07 3.759276e-06 -5.250898e-07 8.187661e-07 -2.545954e-07
-9.677774e-07 -5.630026e-07 3.189340e-06 -6.194707e-07 1.394450e-07 -8.927706e-08
-4.599672e-08 1.562744e-07 -1.014947e-07 1.746542e-09 -5.289025e-09 -4.683565e-09
-1.493887e-06 -1.473484e-06 6.039968e-06 -4.521420e-07 1.893880e-07 -6.691876e-08
-1.630137e-06 -1.867630e-06 5.433830e-06 -3.038227e-07 3.144803e-07 -8.332140e-07
-4.947205e-08 2.490862e-07 -1.241517e-07 -1.005876e-07 6.594726e-08 -2.561853e-08
-2.088330e-08 5.126573e-08 -3.133042e-08 -2.012716e-09 4.129921e-08 -2.225238e-08
4.537360e-07 -1.461506e-07 -1.027472e-07 -1.031598e-07 -1.229001e-08 5.398027e-08
3.689839e-07 -9.458439e-08 -1.172751e-07 -7.748659e-08 -3.247362e-09 2.480255e-08
1.655101e-07 -3.303641e-08 -9.463540e-08 6.945497e-08 1.402455e-08 3.659549e-08
1.511833e-07 -8.968035e-09 -8.922761e-08 9.231035e-08 1.849266e-08 3.629352e-08
3.240502e-07 -1.325435e-07 -9.834143e-08 -8.058537e-08 -1.280809e-09 4.481531e-08
1.657876e-07 -5.419611e-09 -1.143053e-07 -1.006577e-07 -1.423399e-08 3.044674e-08
3.088560e-07 -6.701232e-08 -1.136049e-07 -1.116765e-07 -1.839611e-08 6.640078e-08
2.905941e-07 -5.692600e-08 -1.209038e-07 -1.167619e-07 -4.776424e-09 1.537695e-08
2.554324e-07 -4.456780e-08 -1.172929e-07 -1.433465e-07 -1.072800e-08 8.983666e-09
1.428276e-07 -1.501671e-08 -9.158518e-08 -7.477510e-08 -1.954150e-08 3.429900e-08
1.695712e-07 -1.168798e-08 -9.038362e-08 -9.233029e-08 -2.214666e-08 4.061333e-08
3.089801e-07 -1.620248e-08 -4.697603e-08 -2.527263e-07 -1.615845e-08 4.592032e-08
2.355958e-07 -3.339917e-08 -1.043528e-07 -2.714302e-07 5.591660e-09 1.628998e-08
2.624237e-07 -2.858927e-08 -9.979154e-08 -1.637808e-07 -1.207965e-08 5.757202e-08
2.162512e-07 7.281560e-08 3.083775e-07 -4.970179e-07 2.924364e-08 -4.607330e-08
3.410157e-07 -1.276619e-07 -2.780391e-08 -3.395533e-07 2.112826e-08 4.644990e-09
4.042098e-07 -9.357823e-08 -9.394418e-08 -2.496199e-07 -4.884698e-10 2.695685e-08
1.572103e-07 -2.052186e-08 -8.206525e-08 -6.307491e-08 -1.018430e-08 3.243593e-08
3.105616e-07 -1.011325e-07 -1.007449e-07 -2.168707e-07 6.137450e-09 8.349167e-09
1.724100e-07 -3.522119e-08 -8.888027e-08 -6.774335e-08 -4.207922e-09 7.675858e-09
-1.316680e-06 9.115451e-09 3.740977e-06 1.223193e-07 -5.095884e-07 -7.413600e-08
1.703727e-07 -4.051702e-08 -9.298935e-08 -6.885366e-08 -1.214047e-08 4.383887e-08
-1.938735e-06 -1.684238e-06 6.986015e-06 -1.142218e-07 -1.836955e-07 6.236517e-08
-3.965027e-07 5.581968e-07 3.212028e-07 -2.012912e-07 -3.844097e-09 -1.025999e-08
-2.147235e-07 -9.336781e-07 2.848220e-06 -6.074932e-07 -5.146343e-07 3.192276e-07
-1.705525e-06 -4.714601e-07 4.874185e-06 -3.081409e-07 -1.341929e-06 4.911367e-07
-1.996122e-06 -6.592855e-07 4.750937e-06 -6.193005e-07 -1.184048e-06 7.988207e-07
-1.195487e-06 -2.054799e-06 5.659526e-06 -3.103716e-07 4.270341e-07 4.222119e-07
4.459348e-07 -2.350726e-07 -1.463053e-08 6.612527e-08 1.489548e-08 5.791944e-08
5.013493e-07 -1.943349e-07 -9.836778e-09 1.888434e-07 3.735539e-09 7.032470e-08
-3.197534e-07 7.001507e-07 -3.564742e-08 -1.200307e-08 2.006257e-08 -3.507272e-09
7.486681e-08 5.978468e-08 -1.008980e-07 -1.151710e-07 -8.586814e-09 7.835599e-09
-2.876183e-08 5.370461e-08 -3.967845e-08 2.837007e-09 5.540345e-08 -2.348093e-08
-3.452603e-07 5.454094e-07 1.988538e-07 -2.779456e-07 -3.079232e-08 6.920379e-09
-1.482456e-07 3.515011e-07 -3.948328e-09 -2.878827e-07 2.761021e-08 -2.101619e-08
1.056971e-07 7.976666e-08 -1.115691e-07 -1.465688e-07 -3.704599e-08 4.140923e-08
-1.326283e-08 1.409251e-07 -1.094036e-07 -6.175315e-08 2.240393e-08 -1.490366e-08
-2.738331e-08 1.070998e-07 -7.372010e-08 -2.146570e-08 5.447068e-08 -2.179299e-08
1.553113e-08 2.243652e-07 -1.276997e-07 -2.359684e-07 -3.984713e-08 2.726251e-08
4.758006e-08 1.943651e-07 -1.178196e-07 -2.852218e-07 -3.058885e-08 2.006084e-08
-1.112653e-08 5.373031e-08 -3.206278e-08 3.995268e-09 3.416253e-08 -4.153074e-09
-3.671581e-08 1.150692e-07 -6.752308e-08 -9.821527e-09 3.952020e-08 -1.173978e-08
-2.115773e-08 5.978917e-08 -2.749609e-08 -2.436944e-09 2.315164e-08 -1.157373e-08
-4.866810e-08 1.905578e-07 -1.061938e-07 -3.162079e-08 4.500419e-08 -1.033382e-08
4.960336e-08 1.893360e-07 -1.028128e-07 -2.274036e-07 -5.793029e-08 4.437263e-08
6.145017e-08 1.012380e-07 -1.079054e-07 -1.246631e-07 -3.868439e-08 3.335314e-08
-3.470649e-08 1.048650e-07 -6.643382e-08 -1.090192e-08 5.266830e-08 -1.200655e-08
-3.175158e-08 1.173720e-07 -6.832677e-08 -8.077707e-09 1.569965e-08 -4.854703e-09
-8.438938e-08 2.312821e-07 -1.144867e-07 -1.793204e-08 5.700029e-08 -8.449055e-09
-2.912886e-08 7.082272e-08 -3.246626e-08 -2.327608e-08 6.727832e-08 -6.124330e-09
1.130174e-07 4.224402e-08 -1.115505e-07 -1.488841e-07 -3.202819e-09 1.701069e-08
2.264927e-08 1.991223e-07 -1.265950e-07 -2.164709e-07 -6.158474e-08 4.385900e-08
8.360267e-08 1.211454e-07 -1.230893e-07 -1.743326e-07 -6.672946e-09 7.085478e-09
1.031223e-07 4.306765e-08 -9.614446e-08 1.126026e-07 1.842118e-08 1.677301e-08
3.625005e-08 4.377362e-08 -4.549392e-08 3.449961e-08 1.069694e-08 4.717735e-09
-3.091059e-09 7.653421e-08 -5.980981e-08 -9.599229e-09 2.573151e-08 -8.452318e-09
-2.023040e-08 6.843456e-08 -4.436020e-08 4.343867e-08 -1.070778e-07 -2.754237e-08
7.028670e-07 -2.573914e-07 -1.109580e-07 1.543248e-07 -1.860820e-08 -3.830888e-08
-3.900361e-08 9.838324e-08 -6.946031e-08 -1.346001e-09 -6.863097e-09 -1.080389e-08
1.748407e-07 5.726586e-08 -1.779211e-07 2.247202e-08 -1.100099e-08 -4.944288e-16
-4.907301e-09 7.821697e-08 -5.759800e-08 -2.509405e-09 7.709698e-09 -1.258664e-09
-4.922060e-08 1.622981e-07 -1.011302e-07 2.030783e-08 -7.013301e-08 -2.114560e-08
-4.243837e-09 7.806077e-08 -4.991702e-08 -1.418533e-09 1.221299e-08 -2.646584e-09
-5.766239e-09 9.439705e-08 -7.459958e-08 -2.338521e-08 2.023793e-08 -9.932974e-09
-6.462608e-09 9.072278e-08 -6.204216e-08 -1.877337e-08 3.894869e-09 -1.607838e-09
-1.348244e-08 7.581268e-08 -4.158202e-08 -3.181350e-09 4.434327e-09 -4.910839e-09
2.684920e-07 -1.063086e-07 -1.400771e-07 1.026625e-08 -6.396651e-08 8.113155e-10
4.177035e-07 -8.435471e-08 -2.199961e-07 3.613818e-08 -2.297313e-08 3.780995e-09
4.011620e-07 -8.417435e-08 -1.771902e-07 2.933776e-08 -5.315361e-08 -2.736483e-08
5.197414e-07 -1.583035e-07 -2.271571e-07 2.714163e-08 -1.926275e-08 6.334812e-09
4.475083e-07 -1.584300e-07 -1.785631e-07 1.367311e-08 -2.740627e-08 3.303855e-09
-2.841606e-08 2.674058e-08 -3.740440e-08 -2.682850e-09 -7.879059e-08 -1.751906e-08
3.523752e-07 -9.965561e-08 -1.793242e-07 2.395148e-08 -4.543630e-08 1.050235e-08
-4.574815e-08 1.855998e-07 -1.259629e-07 3.053720e-08 -7.353674e-09 -2.241837e-09
-2.821385e-09 1.072438e-07 -7.310518e-08 -3.214224e-08 5.826168e-09 -3.697802e-09
-1.062097e-08 8.079265e-08 -5.101962e-08 -3.422474e-09 1.920948e-09 -1.187817e-09
-2.778565e-08 5.607091e-08 -4.327849e-08 4.581903e-08 -1.158210e-07 -1.455041e-08
-1.151810e-08 5.228362e-08 -3.850196e-08 -6.328146e-09 3.834902e-08 -1.670110e-08
6.275297e-09 7.808650e-08 -6.532138e-08 -1.650910e-08 4.027144e-08 -1.137380e-08
-2.841482e-08 1.378706e-08 -3.727626e-08 -1.429928e-09 -7.748056e-08 -1.782440e-08
-4.023288e-08 1.752625e-07 -9.872766e-08 1.008549e-08 1.532350e-08 -3.126107e-10
-3.776093e-08 1.732786e-07 -8.686764e-08 2.292552e-08 9.454363e-09 2.773593e-09
2.888089e-08 3.441796e-08 -2.860120e-08 9.011757e-09 3.449447e-09 3.712573e-09
2.705494e-08 3.357315e-08 -2.137538e-08 2.320610e-09 1.551552e-09 1.586013e-09
4.889260e-08 1.676887e-08 -2.113202e-08 8.519994e-09 1.241588e-09 1.794082e-09
-2.525048e-08 1.193055e-07 -7.056301e-08 4.316212e-09 1.576133e-09 2.464268e-09
-3.692343e-08 1.480145e-07 -9.009506e-08 7.505756e-09 1.014526e-08 -3.052920e-09
-3.587731e-08 1.306113e-07 -7.628665e-08 8.343633e-10 1.281445e-09 -2.382923e-09
-3.383922e-08 1.303358e-07 -7.432402e-08 6.915548e-10 1.506488e-09 -1.370619e-10
5.057711e-08 1.295595e-08 -1.988307e-08 3.489127e-09 1.154080e-09 4.223278e-10
-2.423631e-08 1.013096e-07 -6.551729e-08 2.181605e-08 3.682005e-08 1.294163e-08
-3.323204e-08 1.320456e-07 -7.442757e-08 1.673853e-09 -7.775166e-19 -2.322535e-10
4.718146e-08 1.616002e-08 -2.032770e-08 4.315304e-09 4.374477e-10 4.671061e-10
2.141805e-08 4.468115e-08 -3.059073e-08 2.984740e-09 1.544095e-09 2.166480e-09
2.477810e-08 4.537392e-08 -3.685447e-08 1.697928e-08 3.495174e-09 6.951215e-09
1.383284e-08 5.924545e-08 -3.994385e-08 5.495906e-09 3.977602e-10 2.823686e-09
-1.547797e-08 2.017421e-07 -1.302908e-07 1.838956e-07 -6.517029e-08 -4.384451e-08
1.750310e-08 2.530781e-07 -1.531233e-07 1.496004e-07 -3.205364e-08 -1.712233e-08
6.607694e-09 7.070718e-08 -5.546921e-08 2.457027e-08 9.166759e-09 5.562341e-09
1.605950e-08 5.684430e-08 -3.895969e-08 6.888567e-09 5.391219e-10 1.006304e-09
1.391171e-08 8.270576e-08 -6.500850e-08 4.742004e-08 4.843302e-09 2.433438e-09
4.616870e-07 -1.091715e-07 -2.242729e-07 -2.992647e-08 6.781953e-09 7.043035e-16
8.295659e-08 4.478384e-08 7.612412e-07 -6.185385e-07 -9.803199e-08 1.018216e-07
5.206754e-07 -1.748327e-07 -2.152672e-07 -6.011464e-08 1.464833e-08 -1.548921e-08
3.314219e-07 3.455315e-08 -8.706166e-08 -3.596142e-07 2.770399e-08 -1.541049e-08
1.637850e-07 1.003138e-07 1.061509e-07 -4.516137e-07 6.915522e-08 -5.095502e-08
6.943020e-09 1.795621e-07 1.109908e-07 -4.958507e-07 4.748818e-08 -3.593304e-08
2.422824e-07 4.585846e-08 -8.706166e-08 -2.869801e-07 2.707694e-08 -2.383573e-08
6.150123e-07 -2.148695e-07 -2.263848e-07 -6.184425e-09 -1.198751e-09 6.809616e-16
1.388575e-07 1.413274e-07 -1.591978e-07 -2.076194e-07 1.195029e-08 -2.039766e-08
1.984993e-07 1.378952e-07 -1.189868e-07 -2.972790e-07 2.278778e-08 -1.945435e-08
4.330067e-07 -1.397904e-07 -1.902576e-07 -2.074513e-08 3.409982e-08 8.706804e-09
5.178825e-07 -1.754517e-07 -2.074765e-07 -1.846072e-08 1.936645e-08 1.330900e-08
-1.142203e-07 2.827878e-07 -1.396832e-07 5.796174e-08 -1.027505e-07 -2.015002e-08
-7.623032e-08 3.157808e-07 -1.454433e-07 9.816308e-08 -2.185826e-08 -2.203224e-09
-3.214771e-08 4.596296e-08 -4.671624e-08 -7.880632e-09 -9.042297e-08 -4.179387e-08
5.225293e-07 -1.979721e-07 -1.615067e-07 -6.096031e-08 -2.074006e-09 -2.742631e-08
-5.462462e-08 2.251062e-07 -1.375432e-07 4.810282e-09 -7.475819e-09 -5.281565e-09
3.307094e-08 1.900853e-07 3.204526e-07 5.219908e-07 -6.093538e-08 -3.183273e-08
8.404887e-08 1.235935e-07 5.160454e-08 3.790488e-07 -6.322724e-08 -2.254187e-08
6.751281e-08 2.572244e-07 5.357884e-08 3.565041e-07 -5.339313e-08 -6.576055e-10
-5.647686e-08 -8.882265e-08 1.190264e-06 -7.099041e-07 1.686064e-07 -2.842068e-07
-1.035196e-08 7.251162e-08 -4.061022e-08 -1.063652e-08 2.540068e-08 -7.875778e-09
1.929292e-07 7.483627e-08 5.465912e-08 3.698538e-07 -8.869348e-08 -3.737299e-08
1.557100e-07 2.097872e-07 -7.617728e-08 3.570083e-07 -6.093794e-08 -4.551267e-08
-3.570280e-07 3.278012e-07 5.369016e-07 -5.907824e-07 1.660418e-07 -2.343113e-09
1.049700e-07 2.106039e-07 -3.694040e-08 3.780651e-07 -3.362440e-08 -4.555064e-08
-9.830369e-08 -1.479787e-06 4.158096e-06 5.672071e-07 6.463964e-07 1.288736e-06
-1.403376e-07 -1.540397e-06 3.624543e-06 3.973467e-08 5.007116e-07 3.540369e-07
-1.032693e-06 -1.438436e-06 4.464107e-06 5.459876e-07 4.691234e-08 1.449329e-07
4.903760e-07 -1.066896e-06 2.020681e-06 7.706579e-08 -3.229612e-07 1.638668e-07
-8.797124e-07 -6.349045e-07 3.219901e-06 -6.520947e-07 1.153316e-07 -3.716569e-08
-8.903681e-07 -5.811905e-07 2.906807e-06 -7.963641e-07 9.468772e-07 -4.307235e-07
6.187198e-07 -7.504005e-07 1.260587e-06 2.722792e-07 1.229965e-07 3.085346e-07
5.129055e-07 -1.045669e-06 2.141639e-06 -2.536924e-07 -4.785851e-07 5.940359e-07
7.281783e-07 -6.860228e-07 8.961949e-07 -1.299949e-07 -1.784288e-07 7.000569e-08
4.214320e-07 -9.014957e-07 1.813026e-06 -3.718470e-07 -3.776669e-07 2.182521e-07
-5.753499e-07 -5.209889e-07 2.314415e-06 -8.507613e-07 3.350160e-07 -1.837160e-07
-3.024753e-07 6.913771e-07 4.043376e-08 -8.335842e-08 -6.281369e-08 -2.928465e-10
-2.015846e-07 4.411554e-07 -1.205078e-07 -4.994960e-08 -3.150226e-08 1.761372e-09
-1.915656e-07 5.127179e-07 7.129998e-09 -2.971636e-07 -8.473485e-08 3.625586e-08
2.884632e-07 -1.011646e-07 -1.045455e-07 7.598772e-09 8.682648e-09 5.608084e-08
2.844999e-07 -6.842044e-08 -1.108744e-07 4.219623e-08 1.144645e-09 1.686837e-08
2.274836e-07 -1.215790e-07 2.769284e-07 -5.885124e-07 -4.687576e-08 4.875849e-08
-4.541377e-08 -1.466988e-07 1.071288e-06 -7.405712e-07 1.567498e-07 -1.153203e-08
2.145515e-07 -7.034006e-08 -1.030438e-07 3.266356e-08 5.419696e-09 5.086267e-08
1.284007e-07 8.261639e-08 -1.185902e-07 2.089203e-07 3.123492e-08 2.924766e-08
2.294889e-07 -5.305644e-08 -9.504960e-08 1.679981e-08 8.576827e-10 1.045424e-08
-2.529198e-08 7.739213e-08 -2.869380e-08 -7.606671e-10 3.825978e-09 -7.364038e-09
-5.855946e-09 -9.410836e-07 2.749968e-06 4.752488e-07 -2.317642e-07 1.656462e-07
-5.251657e-07 4.060027e-07 6.838692e-07 5.123965e-07 -5.835876e-08 -2.450608e-08
-5.961271e-07 7.043253e-07 8.340911e-07 4.636244e-07 1.390429e-07 5.623662e-08
-2.323765e-07 -2.856655e-07 2.099891e-06 8.575756e-07 -6.378316e-07 -7.690100e-07
6.005058e-07 -2.545481e-07 -5.516443e-08 1.844028e-07 7.601422e-09 1.756709e-08
5.510812e-08 2.487795e-08 -6.190163e-08 8.840122e-09 -7.914353e-08 -3.487583e-08
-4.877994e-07 7.644014e-07 3.942223e-07 1.220409e-07 1.170341e-09 -9.818449e-09
-3.305206e-07 3.490407e-07 1.060984e-06 5.633944e-07 1.377068e-07 9.482326e-10
6.297270e-08 4.749183e-08 -8.810360e-08 8.951807e-08 4.782043e-09 8.724168e-09
9.599167e-08 6.554540e-08 -1.050066e-07 1.179093e-07 2.885033e-08 3.039520e-08
8.915215e-08 1.123655e-07 -1.255311e-07 1.564465e-07 2.513252e-08 7.897041e-09
8.954545e-08 4.677751e-08 -1.012267e-07 1.291743e-07 1.025453e-08 1.140855e-08
1.561925e-07 1.299547e-08 -1.206229e-07 -1.713023e-07 -1.442305e-08 1.649412e-08
1.723541e-07 6.187557e-08 -1.730598e-07 -3.567499e-08 1.376799e-08 7.080454e-09
8.495251e-08 2.545700e-08 -7.368732e-08 -7.919432e-08 -1.508952e-08 1.837699e-08
1.036082e-07 8.572986e-08 -1.464374e-07 -2.595845e-08 1.238964e-08 4.242916e-09
2.027810e-07 3.651999e-08 -1.902337e-07 -5.583948e-08 1.730422e-08 -1.871601e-08
1.714840e-07 4.256814e-08 -1.600432e-07 -1.639961e-08 5.139851e-08 -1.227097e-09
-2.412514e-08 6.308723e-08 -2.797769e-08 -6.102756e-10 5.342469e-09 -8.299986e-09
-1.897143e-08 6.049135e-08 -2.515430e-08 -1.365255e-10 5.097653e-09 -7.003924e-09
7.143220e-07 -3.452422e-07 -1.171703e-07 1.450967e-07 3.283283e-09 1.310927e-07
5.011245e-07 -7.662674e-07 1.361257e-06 3.835855e-07 -1.396822e-08 -2.804183e-08
6.394117e-07 -4.212211e-07 2.987644e-07 3.832343e-07 -3.861809e-09 2.925456e-07
-1.680316e-08 1.021497e-07 -5.801740e-08 -1.692477e-08 -1.483631e-10 -2.154826e-09
-1.334521e-08 1.078111e-07 -7.338265e-08 -2.719861e-08 1.943422e-08 -3.536555e-09
-2.293780e-08 6.361216e-08 -3.149279e-08 1.813078e-10 1.014633e-08 -9.911080e-09
-1.705942e-08 6.931525e-08 -2.404877e-08 -8.146230e-10 3.019600e-09 -5.500474e-09
-1.955977e-08 9.457427e-08 -5.970686e-08 -8.175899e-09 3.374932e-09 -3.071431e-09
5.845425e-07 -4.212211e-07 4.459177e-07 2.818504e-07 2.951277e-08 7.806885e-08
-3.072981e-08 1.089149e-07 -6.129520e-08 -4.084257e-10 3.896271e-09 -1.975583e-09
-2.833815e-08 8.083382e-08 -3.047999e-08 -6.324399e-10 2.496882e-08 -4.457816e-09
5.815414e-07 -6.253896e-07 1.012985e-06 4.118379e-07 5.227410e-08 1.177782e-07
4.010475e-07 -1.319624e-06 2.535433e-06 -7.448619e-08 -1.630434e-08 3.106621e-07
7.187343e-07 -5.984561e-07 3.446487e-07 2.850879e-07 -5.777339e-08 1.724434e-07
7.653387e-07 -5.900743e-07 6.300182e-07 9.683684e-08 -1.731107e-08 4.041596e-07
4.750149e-08 1.651465e-08 -2.260000e-08 -1.068097e-08 -4.538945e-09 4.262751e-09
-3.952587e-08 3.308528e-07 -1.322470e-07 1.999459e-07 -6.787990e-08 -3.009389e-08
3.039598e-08 2.372617e-07 -1.408678e-07 1.654172e-07 -6.049284e-08 -3.622961e-08
6.696844e-08 2.059789e-07 -1.546611e-07 1.632000e-07 -2.029489e-08 -1.514656e-08
9.941514e-08 1.171476e-07 -1.491066e-07 1.819910e-07 -5.573859e-08 -3.259788e-08
5.158554e-08 1.267058e-08 -2.133429e-08 -6.448208e-09 -1.135611e-09 1.589548e-09
5.124073e-08 2.402667e-08 -3.959832e-08 -2.532504e-08 -2.238287e-09 9.606308e-09
5.325915e-08 1.572299e-08 -2.332734e-08 -1.086609e-08 -3.764413e-09 4.023718e-09
4.629860e-08 1.287425e-07 -1.156191e-07 1.551663e-07 1.701138e-08 1.192557e-08
-1.521580e-07 2.810320e-07 7.212103e-08 4.938348e-07 -5.580030e-08 -8.853391e-08
1.344878e-08 6.810126e-08 -5.426622e-08 2.863613e-08 2.380549e-09 1.593029e-09
8.190115e-09 7.081532e-08 -4.819501e-08 1.651205e-08 9.843789e-10 1.899321e-09
-2.307251e-08 6.397269e-08 -2.580093e-08 -2.147305e-10 4.649451e-09 -8.907936e-09
1.344878e-08 6.503352e-08 -4.819500e-08 1.989571e-08 4.136219e-09 3.581477e-09
-2.191054e-08 -1.081472e-08 -1.320921e-08 -5.280050e-09 -1.134401e-07 -9.640666e-08
-2.628386e-08 1.335426e-08 -2.041479e-08 1.016466e-08 -9.689929e-08 -6.959270e-08
-2.266920e-08 1.004648e-08 -1.538998e-08 -3.672870e-09 -9.441457e-08 -7.978530e-08
5.080415e-08 2.370702e-08 -7.740111e-08 6.170483e-08 -1.276019e-07 -9.297536e-08
4.847585e-08 2.357614e-08 -4.344490e-08 6.526641e-08 -1.349738e-07 -9.849549e-08
5.515453e-08 2.234301e-08 -8.593727e-08 6.535315e-08 -1.469762e-07 -1.199423e-07
-1.631747e-08 -1.304719e-08 -1.369099e-08 -2.326049e-09 -9.478730e-08 -8.654121e-08
-2.042302e-08 -1.240038e-08 -1.495468e-08 1.191501e-08 -8.405299e-08 -8.892572e-08
-8.048754e-09 -2.427648e-08 -4.161674e-09 6.849525e-09 -8.664987e-08 -7.718314e-08
1.380615e-08 -1.240038e-08 -4.386225e-08 3.213496e-08 -1.124399e-07 -1.026575e-07
3.888761e-08 -1.329904e-08 -5.564411e-08 4.114736e-08 -1.080219e-07 -9.702826e-08
1.540035e-08 -2.427648e-08 -2.125338e-08 2.355305e-08 -1.101000e-07 -8.755608e-08
4.030524e-08 4.076607e-08 -6.863575e-08 6.531985e-08 -1.117196e-07 -9.784569e-08
4.760943e-08 4.057047e-08 -7.129539e-08 6.615862e-08 -1.221757e-07 -1.308799e-07
5.125460e-08 6.526517e-08 -8.673567e-08 9.772587e-08 -1.126786e-07 -9.226651e-08
3.367779e-08 1.640539e-08 -4.384190e-08 4.261356e-08 -1.107710e-07 -9.767763e-08
6.808840e-09 2.064215e-08 -4.959858e-08 3.375110e-08 -1.119453e-07 -7.860246e-08
1.005596e-08 1.348670e-08 -4.612652e-08 3.732755e-08 -1.072188e-07 -7.520296e-08
-1.603315e-08 -6.731498e-09 -3.122499e-08 -4.589972e-09 -1.189383e-07 -6.703298e-08
-1.085816e-08 -5.737836e-09 -1.571996e-08 2.395913e-09 -1.192868e-07 -7.852879e-08
-1.786644e-08 -5.830389e-09 -3.656102e-08 -2.883759e-09 -1.134909e-07 -6.513938e-08
-2.349193e-08 -6.746860e-09 -3.351036e-08 -5.494028e-09 -1.207619e-07 -7.536637e-08
-1.647265e-08 -1.741654e-08 -2.634565e-08 -7.049376e-09 -1.304267e-07 -8.751542e-08
2.104565e-09 -1.730011e-08 -3.161526e-08 -3.643365e-10 -1.166520e-07 -6.938505e-08
2.984048e-09 -1.875135e-08 -3.600820e-08 -3.393816e-09 -1.030314e-07 -7.077185e-08
-2.061634e-08 -7.467385e-09 -3.406067e-08 -6.708831e-09 -1.120153e-07 -5.682270e-08
2.655893e-08 1.335425e-08 -4.246391e-08 3.603991e-08 -1.249836e-07 -8.811232e-08
3.433175e-08 3.885010e-08 -5.231503e-08 6.266398e-08 -1.330453e-07 -8.077107e-08
-1.306033e-08 1.004648e-08 -5.604378e-08 1.517564e-08 -1.148722e-07 -6.627183e-08
8.038659e-08 -1.416780e-08 -2.400435e-08 7.269075e-09 3.287701e-09 1.140010e-08
8.168977e-08 -1.450721e-08 -2.425378e-08 7.620735e-09 3.782776e-09 9.999325e-09
8.120762e-08 -1.267096e-08 -2.769542e-08 6.571046e-09 4.992848e-09 1.144945e-08
8.103189e-08 -1.640870e-08 -2.598340e-08 7.663143e-09 3.734492e-09 1.453398e-08
8.107973e-08 -1.838606e-08 -2.604530e-08 8.076731e-09 3.303289e-09 1.468986e-08
8.041494e-08 -1.777041e-08 -2.816815e-08 8.649258e-09 2.875063e-09 1.599402e-08
7.960466e-08 -1.529385e-08 -2.391471e-08 8.383461e-09 3.955868e-09 1.034388e-08
8.021445e-08 -1.439889e-08 -2.351656e-08 7.513319e-09 3.258414e-09 1.120731e-08
8.159600e-08 -1.439769e-08 -2.271897e-08 7.698639e-09 3.100579e-09 1.015043e-08
8.342617e-08 -1.704306e-08 -2.417674e-08 1.002115e-08 3.502068e-09 1.092338e-08
8.402891e-08 -1.704333e-08 -2.913106e-08 1.004209e-08 3.465725e-09 1.370708e-08
8.425422e-08 -1.588714e-08 -2.893893e-08 1.097425e-08 2.522547e-09 1.239550e-08
8.280982e-08 -1.571233e-08 -2.438720e-08 9.427098e-09 2.188424e-09 1.284036e-08
8.350957e-08 -1.599080e-08 -2.530252e-08 1.188060e-08 -5.842019e-11 1.300459e-08
8.366288e-08 -1.595790e-08 -2.305919e-08 9.076793e-09 2.241441e-09 1.156990e-08
7.740915e-08 -1.209819e-08 -2.607646e-08 1.142060e-08 4.022000e-09 1.341233e-08
7.680913e-08 -1.260751e-08 -2.392891e-08 1.083794e-08 3.654068e-09 1.259067e-08
7.691791e-08 -1.195325e-08 -2.802534e-08 1.111326e-08 4.586599e-09 1.317908e-08
-2.350721e-08 -1.167457e-08 6.935159e-09 -1.961704e-09 -1.049153e-07 -9.653126e-08
-2.448415e-08 -9.273190e-09 -1.638288e-08 -2.616278e-09 -1.158621e-07 -1.027449e-07
-2.742181e-08 3.142967e-09 -3.194222e-10 8.003920e-09 -1.010293e-07 -8.559520e-08
-2.361881e-08 -5.619330e-09 -1.231205e-09 -6.214878e-09 -1.047205e-07 -9.574297e-08
1.002952e-08 1.015766e-08 -4.279999e-08 3.537197e-08 -1.255610e-07 -9.858796e-08
2.083692e-08 1.435385e-08 -5.774419e-08 4.217966e-08 -1.195703e-07 -9.122915e-08
1.854141e-08 1.642794e-08 -3.521555e-08 4.532882e-08 -1.269008e-07 -9.746887e-08
2.371512e-08 1.482982e-08 -5.459083e-08 4.616701e-08 -1.414358e-07 -1.150111e-07
-2.573242e-08 -1.234534e-08 -7.697464e-09 -5.813394e-10 -9.388348e-08 -9.055480e-08
-2.224912e-08 -1.199011e-08 -1.630070e-08 -3.264219e-09 -9.995986e-08 -8.811830e-08
-2.430078e-08 -1.455997e-08 -1.702793e-08 4.060266e-09 -9.369609e-08 -8.942694e-08
-2.049284e-08 -1.818622e-08 -1.220162e-08 2.491813e-09 -9.549691e-08 -8.513981e-08
-8.112521e-09 -1.234534e-08 -3.234786e-08 1.363338e-08 -1.138396e-07 -9.414389e-08
-5.722620e-09 -1.455997e-08 -3.233363e-08 1.792206e-08 -1.131567e-07 -9.701679e-08
1.296264e-08 -3.959591e-09 -3.790478e-08 3.162094e-08 -1.198370e-07 -1.028848e-07
-5.232040e-09 -1.818622e-08 -2.222361e-08 1.527990e-08 -1.134501e-07 -9.228283e-08
4.829733e-09 1.709235e-08 -3.844657e-08 3.761715e-08 -1.179319e-07 -1.010110e-07
1.901407e-08 1.722863e-08 -5.210684e-08 4.283346e-08 -1.107196e-07 -9.574375e-08
2.510086e-08 1.692044e-08 -4.519703e-08 4.438567e-08 -1.271423e-07 -1.237744e-07
2.712057e-08 4.068471e-08 -5.499175e-08 6.217426e-08 -1.159997e-07 -1.024086e-07
-1.623196e-08 2.483226e-09 -2.921101e-08 1.443341e-08 -1.058824e-07 -8.936057e-08
9.641243e-09 8.977864e-09 -3.239004e-08 2.827264e-08 -1.072373e-07 -9.578585e-08
-6.060627e-09 1.184656e-08 -3.693920e-08 2.203975e-08 -1.083861e-07 -8.118658e-08
-7.335799e-09 8.804703e-09 -3.677143e-08 2.455203e-08 -1.059731e-07 -8.188914e-08
-2.684977e-08 -7.237203e-09 -5.250648e-09 -1.002810e-09 -1.184487e-07 -8.567990e-08
-2.226223e-08 -5.810955e-09 -1.576029e-08 -1.801034e-09 -1.213597e-07 -8.141905e-08
-1.746470e-08 -7.171522e-09 -7.291319e-09 2.763367e-09 -1.166050e-07 -8.537602e-08
-2.133658e-08 -7.240574e-09 -2.625031e-08 -1.169601e-09 -1.122671e-07 -7.455785e-08
-2.684471e-08 -5.814973e-09 -2.234282e-08 -2.049146e-09 -1.218494e-07 -8.777908e-08
-2.185964e-08 -1.170506e-08 -2.724105e-08 -3.726079e-09 -1.292657e-07 -9.481514e-08
-9.380853e-09 -1.164525e-08 -1.549348e-08 -2.788794e-10 -1.221588e-07 -7.897534e-08
-9.234279e-09 -1.530919e-08 -2.058762e-08 -5.434899e-10 -1.062029e-07 -8.108929e-08
-2.302605e-08 -7.668831e-09 -1.904860e-08 -3.406322e-09 -1.132277e-07 -6.990552e-08
-7.571277e-09 -1.167457e-08 -2.703631e-08 1.066071e-08 -1.186153e-07 -8.952977e-08
1.207091e-08 3.142973e-09 -3.233844e-08 2.801213e-08 -1.227456e-07 -9.227709e-08
1.339796e-08 1.463523e-08 -3.525076e-08 3.312137e-08 -1.243751e-07 -9.127857e-08
-9.873429e-09 -5.619330e-09 -3.596299e-08 7.929997e-09 -1.200730e-07 -8.720244e-08
7.942397e-08 -1.549454e-08 -2.508777e-08 7.587335e-09 4.628574e-09 1.300910e-08
7.957486e-08 -1.514634e-08 -2.407953e-08 7.818010e-09 3.714049e-09 1.245502e-08
8.049869e-08 -1.552649e-08 -2.365184e-08 7.984945e-09 4.134568e-09 1.132680e-08
8.004185e-08 -1.428509e-08 -2.621199e-08 6.941515e-09 5.088291e-09 1.262094e-08
7.999848e-08 -1.748256e-08 -2.558027e-08 9.086164e-09 3.083850e-09 1.455939e-08
8.060382e-08 -1.677028e-08 -2.537198e-08 8.269187e-09 3.508315e-09 1.419424e-08
8.062629e-08 -1.794726e-08 -2.563296e-08 8.457061e-09 2.927322e-09 1.425019e-08
8.003201e-08 -1.756465e-08 -2.645314e-08 9.007831e-09 2.855046e-09 1.522160e-08
7.872425e-08 -1.583225e-08 -2.274947e-08 8.431892e-09 3.904698e-09 1.247546e-08
7.899167e-08 -1.583106e-08 -2.374895e-08 8.613807e-09 4.009951e-09 1.171531e-08
7.977172e-08 -1.529666e-08 -2.355581e-08 7.954284e-09 3.652746e-09 1.219548e-08
8.051035e-08 -1.529689e-08 -2.287880e-08 7.919820e-09 3.681910e-09 1.148370e-08
8.105416e-08 -1.756701e-08 -2.575192e-08 9.888808e-09 3.252955e-09 1.351592e-08
8.180005e-08 -1.756103e-08 -2.374878e-08 9.763127e-09 3.659086e-09 1.194358e-08
8.221257e-08 -1.756489e-08 -2.708962e-08 9.753040e-09 3.388831e-09 1.385127e-08
8.231227e-08 -1.704977e-08 -2.723118e-08 1.016577e-08 3.043219e-09 1.328067e-08
8.101099e-08 -1.730159e-08 -2.458573e-08 1.002953e-08 2.195947e-09 1.355419e-08
8.155693e-08 -1.653209e-08 -2.440632e-08 9.176450e-09 2.627565e-09 1.323400e-08
8.190808e-08 -1.696114e-08 -2.479182e-08 1.083188e-08 1.282061e-09 1.344545e-08
8.201301e-08 -1.648424e-08 -2.327908e-08 8.906703e-09 2.944193e-09 1.246415e-08
7.690002e-08 -1.448054e-08 -2.538509e-08 1.012500e-08 4.320708e-09 1.410092e-08
7.762480e-08 -1.275526e-08 -2.570215e-08 1.126823e-08 4.109017e-09 1.385465e-08
7.679090e-08 -1.343256e-08 -2.404940e-08 1.048144e-08 4.033348e-09 1.340205e-08
7.666330e-08 -1.324168e-08 -2.653267e-08 1.040997e-08 4.748263e-09 1.402690e-08
-2.518484e-07 4.825553e-07 5.841747e-07 -6.646570e-07 7.402766e-07 -2.234056e-07
-5.696027e-07 3.783820e-07 1.260698e-06 -9.379131e-07 1.095188e-06 -3.339244e-07
-3.330050e-07 4.421268e-07 1.847357e-06 -1.005617e-06 1.040186e-06 -9.574715e-07
-3.206584e-07 2.375579e-07 1.786054e-06 -1.063811e-06 9.223474e-07 -1.004780e-06
4.370982e-08 3.560815e-08 2.425117e-06 -8.460825e-07 1.379458e-06 -9.097356e-07
-3.701714e-07 1.351737e-07 2.431415e-06 -7.052563e-07 1.148366e-06 -7.443408e-07
8.513708e-08 1.166796e-07 1.085035e-07 3.371107e-07 8.961764e-08 8.282613e-08
6.215236e-08 1.055486e-07 -6.797928e-08 2.168962e-07 1.589005e-07 1.208143e-07
5.745843e-09 6.974637e-08 -6.590830e-08 1.273029e-07 8.769388e-08 9.790093e-08
5.250145e-08 1.396809e-07 -2.443720e-08 2.260412e-07 8.648050e-08 5.951595e-08
2.462506e-10 1.695738e-07 -6.262071e-08 2.163161e-07 1.355205e-07 1.069969e-07
-6.069776e-08 1.201206e-07 6.112099e-10 1.613561e-07 1.112924e-07 7.687423e-08
-1.904636e-07 3.510747e-07 -3.574236e-09 1.175404e-07 7.698600e-08 -1.238915e-09
-1.749143e-07 1.999803e-07 4.000807e-08 1.245914e-07 1.452058e-07 5.231646e-08
-9.744657e-08 3.591378e-07 -6.260482e-08 7.464005e-08 1.468002e-07 2.255107e-08
-2.118109e-07 3.615179e-07 -4.400144e-08 7.295179e-08 1.538239e-07 1.902683e-09
-2.402711e-07 -9.712948e-08 1.362583e-06 7.255251e-07 -3.422631e-07 -4.530875e-07
-2.630384e-07 -1.258842e-07 2.117278e-06 6.995712e-07 -2.116335e-07 -3.053832e-07
-9.988027e-08 -7.151756e-08 1.830140e-06 1.280508e-06 -1.274825e-06 -2.038773e-06
-2.711187e-07 8.224852e-08 2.156076e-06 7.198007e-07 -4.848612e-07 -1.088259e-06
-1.215395e-07 3.257760e-07 3.141194e-10 -1.434307e-07 1.780751e-07 -6.119271e-08
-2.612015e-07 3.402805e-07 2.845290e-07 -1.516366e-07 6.975337e-10 -4.841883e-08
-2.176971e-07 3.192013e-07 9.660286e-08 -1.871173e-07 2.167750e-07 -5.486942e-08
-3.655446e-07 3.363840e-07 3.737689e-07 -1.846357e-07 3.952370e-08 -8.357938e-09
-3.917002e-08 4.058247e-08 -4.482981e-08 -3.160567e-08 -2.032504e-07 7.240157e-08
-1.573631e-07 4.889759e-07 5.525863e-08 -2.909686e-07 1.011639e-07 -8.784111e-09
-5.874832e-08 2.735416e-07 -4.215520e-08 -2.106240e-07 1.732103e-07 -5.302362e-08
-1.351571e-07 2.942853e-07 -7.659819e-08 -1.827037e-07 1.698064e-07 -1.207698e-07
-8.025342e-08 1.353477e-07 -1.400091e-08 -1.329790e-07 1.147055e-07 -5.436720e-08
-3.788652e-08 1.737479e-07 -7.201039e-08 -1.310532e-07 1.393679e-07 -6.450318e-08
-1.406012e-07 3.566178e-07 -7.371823e-08 -1.827353e-07 9.445767e-08 -2.159471e-08
-7.268940e-08 2.209805e-07 -4.930369e-08 -1.529768e-07 1.431794e-07 -5.748539e-08
-5.232429e-08 1.118511e-07 -8.318201e-08 -1.259267e-07 1.620990e-07 -1.590114e-07
-1.951930e-08 -4.815998e-08 4.422582e-08 -1.127454e-07 1.473733e-07 -8.907503e-08
-4.374916e-08 1.409283e-07 -2.239654e-08 -1.079504e-07 1.726462e-07 -9.432091e-08
-1.054121e-07 1.234885e-07 7.753088e-08 -1.180405e-07 2.253653e-07 -5.870110e-08
-2.949205e-08 -5.763668e-08 1.422564e-07 1.004140e-08 2.597626e-07 -1.664602e-08
8.129640e-08 -2.355798e-08 -3.185868e-08 1.059210e-08 3.222093e-09 2.587507e-08
-2.527645e-06 -3.599625e-06 2.051562e-05 9.579420e-07 -8.946132e-07 5.796856e-06
9.607334e-08 -2.410723e-08 -2.944179e-08 1.120292e-08 3.253300e-09 3.195456e-08
1.028216e-07 -2.789895e-08 -4.197248e-08 8.387391e-09 7.318998e-09 3.450798e-08
1.110502e-07 -2.147864e-08 -3.940948e-08 1.750043e-08 3.262254e-09 2.878715e-08
9.108696e-08 -2.112077e-08 -3.807807e-08 1.826652e-08 4.433817e-09 3.865007e-08
1.743258e-07 -2.475227e-08 -7.978030e-08 -6.093417e-08 -1.655718e-08 5.181340e-08
1.630599e-07 -3.248823e-08 -7.196451e-08 -3.158398e-08 -9.502373e-09 5.238542e-08
3.865980e-07 -1.919089e-07 -2.212912e-08 -2.889072e-08 -5.932549e-09 1.627302e-07
3.451015e-07 -1.817355e-07 3.383099e-08 1.809839e-08 -1.254997e-08 1.035348e-07
3.740637e-07 -2.632432e-07 1.377308e-07 1.104911e-07 3.994819e-08 2.614010e-07
3.050200e-07 -1.728529e-07 -5.502949e-08 -1.932218e-09 3.413689e-08 1.009876e-07
-1.143304e-07 1.681964e-07 -2.825707e-08 6.930350e-08 1.763619e-07 3.247311e-08
-2.911652e-08 7.679693e-08 -4.079975e-08 -2.506706e-08 8.381725e-08 -3.003791e-08
1.595112e-07 -8.762974e-08 -4.948215e-08 -3.433682e-08 -2.129217e-09 1.517947e-07
1.989651e-07 -9.453471e-08 -2.282022e-08 -3.955313e-08 -2.729616e-08 1.069974e-07
4.061534e-07 -1.497747e-07 3.350647e-07 2.662179e-08 -1.008643e-07 1.169135e-07
5.649775e-08 1.944157e-08 -5.250673e-08 -4.016451e-08 -1.599763e-08 2.123363e-08
5.305737e-08 1.329519e-08 -2.740653e-08 1.507412e-08 4.636473e-09 4.607063e-09
2.607436e-08 1.306621e-08 -3.381479e-08 -2.211894e-08 -3.722839e-08 3.973632e-08
7.007923e-08 3.994620e-09 -4.417289e-08 3.671865e-08 2.090958e-08 3.642155e-08
7.653094e-08 1.377415e-08 -4.187055e-08 5.517494e-08 3.365395e-08 4.280322e-08
9.786433e-08 -6.900054e-10 -5.134028e-08 5.608750e-08 2.629005e-08 4.814027e-08
-3.372648e-08 9.214932e-08 -6.615363e-08 4.862528e-08 1.066986e-07 3.932260e-08
-3.793187e-08 1.065567e-07 -6.928915e-08 5.420427e-08 8.894589e-08 5.213973e-08
-4.829093e-08 1.176391e-07 -7.321024e-08 7.564859e-08 1.194376e-07 5.972628e-08
-7.624274e-09 8.551413e-08 -6.645909e-08 4.989444e-08 8.378021e-08 3.977584e-08
-1.988595e-08 1.134711e-07 -4.091191e-08 4.153707e-08 9.112920e-08 5.410725e-08
-2.601884e-08 9.926115e-08 -7.058366e-08 5.733759e-08 1.222990e-07 5.142065e-08
1.464508e-07 -5.590552e-08 -5.273688e-08 -3.752044e-08 -2.964105e-08 1.028706e-07
2.523696e-07 -6.645579e-08 -9.226370e-08 -8.345799e-08 -2.978313e-08 1.471557e-07
1.961474e-07 -8.130433e-08 -8.554972e-08 -3.245321e-08 -8.053433e-09 7.821769e-08
1.385835e-07 -4.547426e-08 -7.768526e-08 -4.163408e-08 -1.562680e-08 7.838098e-08
1.590510e-07 -4.540628e-08 -7.609606e-08 -6.605403e-08 -1.962490e-08 8.491335e-08
2.374561e-07 -6.708272e-08 -1.032894e-07 -7.840173e-08 -1.831715e-08 1.048870e-07
-7.765139e-07 6.118800e-07 1.936404e-06 9.629144e-07 1.702742e-06 3.435963e-07
-1.195147e-06 1.172874e-06 2.528957e-06 4.964654e-07 2.527597e-06 8.106919e-07
-5.771997e-07 5.875798e-07 1.122119e-06 3.523887e-07 7.555429e-07 2.594410e-07
-2.544886e-08 1.397714e-07 -6.968147e-08 -4.284853e-08 4.957001e-08 -1.761974e-08
-8.248498e-07 4.563571e-07 1.017486e-06 6.505520e-07 6.366182e-07 2.267080e-07
-3.283326e-07 5.979097e-07 2.834410e-07 4.489109e-07 5.586311e-07 1.512391e-07
-5.790922e-07 1.047747e-07 1.466209e-06 1.021023e-06 1.701983e-06 1.206136e-06
-7.874689e-07 1.671785e-07 2.393085e-06 7.873106e-07 1.069840e-06 6.334266e-07
9.593957e-08 -1.239422e-08 -4.657732e-08 3.230209e-08 1.337414e-08 3.767239e-08
1.134211e-07 -2.020905e-08 -4.468674e-08 3.157412e-08 1.255021e-08 3.645774e-08
1.128413e-07 -1.992689e-08 -5.331515e-08 3.220473e-08 1.302731e-08 3.319188e-08
4.261306e-08 3.390413e-08 -6.054108e-08 -3.912726e-08 -3.066380e-08 3.224190e-08
9.574744e-08 -1.333210e-08 -5.483212e-08 3.228592e-08 6.935793e-09 3.180849e-08
2.235405e-09 1.663201e-08 -3.364170e-08 -1.968730e-08 -5.404322e-08 4.732866e-08
-1.636838e-07 1.644608e-07 4.096007e-07 1.346276e-07 1.418583e-07 -3.373708e-08
-2.393448e-07 1.997886e-07 4.348609e-07 4.296134e-07 -4.868074e-07 8.523755e-09
-2.564303e-07 1.396306e-07 1.521730e-06 4.883713e-07 -1.087899e-07 1.286113e-08
-1.824308e-07 1.844112e-07 -2.948502e-08 -1.673291e-07 -1.590456e-07 1.902961e-07
-1.595612e-07 -5.821440e-08 1.904064e-07 -1.655522e-08 -1.822311e-07 1.005115e-07
-1.476857e-07 -5.836843e-08 1.171702e-07 3.773964e-09 -1.285436e-07 2.599167e-08
-2.112659e-07 4.032201e-07 8.794570e-08 8.149406e-08 1.300237e-07 1.165619e-08
4.961298e-08 1.020271e-07 -1.916220e-08 -3.459939e-07 -9.866100e-08 1.373034e-07
-2.111802e-07 4.921288e-07 -5.144767e-08 8.645473e-08 4.219259e-09 1.242561e-08
-3.311480e-07 4.025975e-07 3.618033e-07 2.337396e-08 4.665974e-08 7.848787e-08
-1.807810e-07 4.400988e-07 -4.201748e-08 6.417171e-09 6.005412e-08 2.897483e-08
-1.144374e-07 3.628013e-07 -6.516890e-08 1.026474e-08 1.863689e-07 2.520972e-10
-2.134829e-07 3.626173e-07 -5.280079e-08 -6.538914e-09 1.961595e-07 1.938232e-08
1.129841e-07 -3.125977e-08 -4.463593e-08 -8.184920e-09 -6.331402e-09 3.837008e-08
1.286811e-07 -4.293478e-08 -5.281290e-08 -1.149002e-08 -1.119961e-08 5.547514e-08
1.125159e-07 -3.207020e-08 -3.851136e-08 -2.135459e-09 -2.328203e-09 5.509390e-08
1.139398e-07 -3.538619e-08 -4.278080e-08 -4.406572e-09 -2.361688e-09 3.256349e-08
1.224772e-07 -3.922864e-08 -3.967157e-08 -1.602755e-08 -4.217831e-09 4.729068e-08
1.324206e-07 -3.475127e-08 -6.392335e-08 -2.530280e-09 -1.608599e-09 4.741480e-08
1.309145e-07 -3.476486e-08 -4.607412e-08 -3.303765e-09 -2.930720e-10 4.371902e-08
-2.339949e-08 1.492162e-07 -7.315527e-08 1.081155e-07 9.935286e-08 4.946777e-08
-5.700808e-07 4.473159e-07 1.383487e-06 2.420647e-07 -1.076805e-06 -4.058467e-07
-1.406655e-07 2.703823e-07 -6.301431e-08 -8.744626e-08 1.366325e-07 -2.156452e-08
-5.921435e-07 6.826143e-07 9.999006e-07 3.238720e-07 -1.465469e-06 -3.133861e-07
-1.028098e-07 3.650317e-07 -1.061397e-07 -1.009344e-07 -1.587181e-07 4.730353e-08
-5.922829e-07 7.625955e-07 4.792672e-07 5.530876e-08 -9.234408e-07 1.130975e-07
-1.781726e-06 8.528540e-07 2.422189e-06 3.495461e-08 -1.836246e-06 -1.540439e-07
-1.804858e-06 3.592044e-07 5.130553e-06 -1.264385e-07 -2.815236e-06 -1.029077e-07
2.608253e-08 7.094239e-09 -3.609194e-08 -2.697476e-08 -4.853509e-08 5.633444e-08
-5.617458e-08 1.943287e-07 -1.469794e-07 -3.377175e-08 -1.664467e-07 2.565203e-08
-8.517456e-08 2.493232e-07 -9.799833e-08 -5.596315e-08 -1.300339e-07 2.410130e-08
-9.598779e-08 3.099446e-07 -1.090431e-07 -2.764836e-08 -1.179873e-07 1.233383e-08
-9.307951e-08 1.964675e-07 -7.403166e-08 -3.695549e-08 -1.791171e-07 3.513322e-08
-7.459842e-08 1.551223e-07 -5.560758e-08 -3.099742e-08 -1.840718e-07 2.467065e-08
-1.028138e-07 2.316834e-07 -6.312959e-08 -9.924056e-08 1.236316e-07 -3.952223e-08
-8.666945e-08 3.327784e-07 -1.494570e-07 -1.405510e-07 7.880388e-08 -3.004753e-08
-8.079682e-08 1.917695e-07 -1.102740e-07 -5.108749e-08 6.034927e-08 -2.605460e-08
1.575452e-08 4.810049e-08 -6.397125e-08 -8.088395e-08 -8.428799e-08 8.364392e-08
-1.287962e-07 1.425373e-07 3.911255e-08 -9.277219e-08 1.159219e-07 -6.411192e-08
-1.218949e-07 3.796942e-07 -5.715960e-08 -1.805394e-07 1.446294e-07 -8.818491e-08
-1.014588e-07 3.132238e-07 -7.164608e-08 -1.585281e-07 9.122943e-08 -3.082718e-08
-6.116711e-08 2.752319e-07 6.858894e-08 -2.071892e-07 1.099770e-07 -3.594449e-08
-2.039938e-07 3.170471e-07 8.102013e-08 -1.998810e-07 5.964957e-08 2.527900e-08
-1.019753e-07 2.322884e-07 -5.372448e-08 -1.005725e-07 1.991807e-07 -6.537051e-08
-4.781100e-08 2.302385e-07 -9.745811e-08 -1.132291e-07 9.697154e-08 -2.300110e-08
-1.296489e-07 2.910993e-07 1.107234e-07 -1.869204e-07 8.411694e-08 -6.794639e-08
5.755283e-07 -6.969839e-07 1.298408e-06 -7.494768e-08 6.802245e-09 8.182458e-07
-1.051479e-08 9.379283e-08 -6.480225e-08 -3.504225e-08 4.377557e-08 -1.610777e-08
5.879313e-07 -8.180702e-07 2.337527e-06 4.600011e-07 1.273392e-07 1.297893e-06
6.450735e-07 -1.194110e-06 2.283544e-06 3.209037e-07 5.828338e-07 1.698874e-06
-2.007213e-07 -1.047798e-06 5.445508e-06 1.152621e-07 -4.524528e-07 3.568926e-06
-9.941737e-08 -1.618601e-06 5.056130e-06 -1.246444e-07 2.641250e-06 3.049686e-06
-2.825636e-07 -2.663810e-07 5.358556e-06 3.926275e-07 -5.893782e-07 3.378893e-06
8.764836e-08 -7.748721e-07 4.305466e-06 -2.104208e-07 -4.287871e-07 3.879086e-06
2.078610e-08 1.007294e-07 3.676418e-06 3.527458e-08 -6.992369e-07 4.114280e-06
8.206631e-07 -9.743982e-07 2.902392e-06 -1.561047e-07 3.018241e-07 2.642513e-06
-1.794416e-07 -4.647088e-07 1.797647e-06 8.246940e-07 -9.684885e-07 -9.142422e-07
-2.731508e-07 -2.246282e-07 2.847976e-06 8.478216e-07 -7.307762e-07 -6.156235e-07
-3.323472e-07 -5.709433e-07 2.108831e-06 4.447975e-07 -1.609110e-06 -8.567434e-07
-2.805393e-07 2.104101e-07 1.043414e-06 6.433809e-07 -9.187897e-07 -1.206307e-06
-9.387204e-08 9.586425e-08 7.340023e-07 5.337218e-07 -6.382480e-07 -2.422929e-07
1.004827e-07 9.010575e-08 5.754495e-07 4.981177e-07 -4.059940e-07 -7.599996e-07
1.073284e-07 5.141043e-08 -9.907216e-08 -1.212948e-07 -5.819582e-08 9.482662e-08
1.123844e-07 3.992642e-08 -9.061982e-08 -1.476050e-07 -5.267174e-08 8.054131e-08
9.744147e-08 9.355176e-08 -9.400761e-08 -1.841593e-07 -8.294557e-08 1.021772e-07
1.038319e-07 4.207214e-08 -9.832802e-08 -1.800356e-07 -9.885412e-08 1.014505e-07
5.885491e-08 5.477577e-08 -9.011120e-08 -1.428747e-07 -9.847115e-08 1.113386e-07
8.345211e-08 5.206384e-08 -8.854705e-08 -1.245193e-07 -9.264510e-08 1.176836e-07
5.943884e-08 4.713998e-09 -3.189248e-08 2.433501e-08 9.617424e-09 1.778455e-08
6.266142e-08 9.455080e-10 -4.107136e-08 3.196272e-08 1.854227e-08 3.277224e-08
6.098599e-08 1.369505e-08 -2.760637e-08 3.479896e-08 1.443968e-08 2.510611e-08
5.632906e-08 9.072198e-09 -2.510709e-08 2.572818e-08 1.081314e-08 1.452883e-08
6.686430e-08 2.752194e-09 -2.742443e-08 2.954001e-08 1.216854e-08 2.163780e-08
7.796190e-08 1.353251e-08 -6.288761e-08 -9.079146e-08 -6.195981e-08 7.852694e-08
3.470852e-08 2.793974e-08 -2.826007e-08 2.557749e-08 1.571667e-08 1.502977e-08
3.549396e-08 3.197767e-08 -3.381574e-08 2.399638e-08 1.075591e-08 1.453667e-08
2.592456e-08 3.032246e-08 -2.641246e-08 2.800299e-08 2.053325e-08 1.661587e-08
5.696637e-08 4.474919e-09 -2.466863e-08 1.508680e-08 5.034473e-09 8.693730e-09
2.771226e-08 3.210691e-08 -4.274616e-08 2.979211e-08 2.422983e-08 1.994011e-08
2.072337e-08 3.083715e-08 -2.785172e-08 1.959672e-08 1.560756e-08 1.370625e-08
2.777451e-08 3.363103e-08 -2.527099e-08 2.405498e-08 1.277384e-08 9.320370e-09
3.922163e-07 -2.689731e-07 1.361167e-07 -1.848748e-07 -3.297988e-08 8.929640e-08
4.655847e-07 -2.597216e-07 3.693803e-07 -2.231440e-07 8.144303e-09 -4.802270e-08
2.983753e-07 -2.799091e-07 2.771819e-07 -1.159784e-07 -2.906024e-08 9.145257e-08
4.066247e-07 -1.140764e-07 -1.964025e-08 -1.859372e-07 -2.726598e-08 1.176088e-07
4.117079e-07 -1.430128e-07 -2.133450e-08 -2.123335e-07 -3.429063e-08 1.106328e-07
4.361266e-07 -1.637586e-07 7.486727e-08 -2.438805e-07 -4.541641e-08 8.098118e-08
4.518373e-08 3.685827e-08 -6.206033e-08 -7.589367e-08 -6.899537e-08 8.181797e-08
6.968633e-08 4.351157e-08 -6.613501e-08 -8.687115e-08 -4.626788e-08 6.517861e-08
8.544715e-08 3.480644e-08 -9.515910e-08 -1.457828e-07 -6.332146e-08 7.842284e-08
7.137479e-08 2.429028e-08 -6.311856e-08 -9.156327e-08 -4.362990e-08 6.272836e-08
5.369069e-08 4.095164e-08 -6.289342e-08 -8.185511e-08 -7.073414e-08 8.382572e-08
1.058386e-07 9.340936e-08 -9.682965e-08 -1.518618e-07 -5.943757e-08 6.934020e-08
1.113532e-07 -2.191979e-08 -4.619190e-08 1.757703e-08 5.247929e-09 2.926799e-08
1.111153e-07 -2.764657e-08 -4.806629e-08 1.592923e-08 1.910918e-09 2.817912e-08
1.099789e-07 -3.008285e-08 -4.629365e-08 1.562772e-08 3.948725e-09 4.044505e-08
9.750094e-08 -2.457671e-08 -4.108028e-08 1.087171e-08 5.594103e-09 3.337338e-08
8.964214e-08 -2.083294e-08 -2.850895e-08 1.006216e-08 1.852806e-09 1.944983e-08
4.238489e-08 -1.973254e-08 -3.426371e-08 -2.974362e-08 -2.324189e-08 6.613562e-08
6.872703e-08 -3.280660e-09 -5.058791e-08 -4.114421e-08 -2.417806e-08 5.055641e-08
6.962422e-08 -5.322112e-09 -3.180674e-08 -3.949645e-08 -1.980283e-08 3.910578e-08
7.791108e-08 -3.433532e-09 -3.887242e-08 -4.499900e-08 -3.137091e-08 6.149427e-08
8.157292e-08 -1.131467e-08 -2.954886e-08 -3.133576e-08 -2.161904e-08 4.338975e-08
6.972367e-08 8.877482e-09 -6.181967e-08 -5.648308e-08 -3.839687e-08 6.276345e-08
7.460298e-08 -8.806485e-09 -6.642331e-08 -5.113826e-08 -4.486170e-08 7.835355e-08
8.283788e-08 1.993904e-08 -6.295228e-08 -8.277339e-08 -5.844978e-08 7.971760e-08
1.141133e-07 1.112872e-08 -6.806092e-08 -1.048575e-07 -4.235937e-08 7.206163e-08
6.178097e-08 1.707679e-08 -6.538033e-08 -6.686868e-08 -3.898350e-08 7.222469e-08
1.055433e-07 1.872594e-08 -9.531260e-08 -1.162230e-07 -4.581396e-08 7.143049e-08
5.211574e-08 -5.661251e-09 -4.252997e-08 3.226341e-08 4.086692e-08 5.359399e-08
7.619224e-08 9.787812e-09 -4.580422e-08 6.636975e-08 4.262440e-08 7.339607e-08
7.260062e-08 9.064911e-09 -5.671776e-08 6.299226e-08 2.515162e-08 5.478309e-08
9.068762e-08 4.004662e-08 -7.180123e-08 8.511069e-08 3.762353e-08 4.298399e-08
7.102479e-08 1.975862e-08 -5.807269e-08 5.625530e-08 3.269391e-08 3.452342e-08
4.783048e-08 2.069998e-08 -4.126210e-08 5.385431e-08 3.191147e-08 4.893639e-08
1.186293e-07 -1.045357e-08 -7.008495e-08 6.155260e-08 2.092481e-08 3.756691e-08
9.800415e-08 -3.275663e-10 -5.368853e-08 5.292616e-08 2.762583e-08 5.061300e-08
1.007182e-07 -8.977588e-09 -7.458667e-08 6.105938e-08 2.408176e-08 5.077471e-08
8.233397e-08 1.092742e-08 -4.370209e-08 -4.135774e-08 -2.100527e-08 3.420860e-08
8.167502e-08 1.069097e-08 -7.430815e-08 6.524835e-08 2.363359e-08 4.802663e-08
9.190489e-08 1.111119e-08 -5.248330e-08 5.666155e-08 2.814934e-08 4.529854e-08
1.373548e-07 -2.484970e-08 -6.667520e-08 3.991083e-08 1.305519e-08 3.766244e-08
1.336550e-07 -2.506524e-08 -7.182256e-08 3.897247e-08 1.418567e-08 4.313295e-08
-4.409665e-08 2.196215e-07 -1.023399e-07 7.723615e-08 8.643046e-08 3.031155e-08
1.037680e-07 -3.366060e-08 -5.445819e-08 2.479943e-08 8.903788e-09 5.528070e-08
1.369631e-07 -3.383153e-08 -5.678118e-08 2.985827e-08 1.052281e-08 5.615071e-08
1.328362e-07 -3.607186e-08 -5.350299e-08 3.577890e-08 1.433199e-08 5.438515e-08
-4.383061e-08 1.178123e-07 -3.842162e-08 -2.541130e-10 7.937718e-08 -2.577581e-09
-6.005872e-08 1.206972e-07 -6.640696e-08 8.743938e-09 1.431545e-07 2.109359e-10
-8.072851e-08 2.025326e-07 -8.075944e-08 -6.538616e-09 9.938035e-08 -9.034587e-09
-5.464398e-08 1.800824e-07 -7.965531e-08 -2.865858e-08 9.057152e-08 -2.937124e-09
-5.241153e-08 9.922020e-08 -4.727358e-08 5.782592e-09 1.154386e-07 1.019101e-09
4.679677e-08 2.144065e-08 -3.109819e-08 2.461258e-08 5.697822e-09 7.254730e-09
-6.468533e-08 1.391787e-07 -8.769838e-08 2.765718e-09 9.869311e-08 -1.623251e-10
4.411265e-07 -2.463373e-07 3.315978e-08 -3.168967e-08 -7.025659e-09 6.209740e-08
3.253999e-07 -1.684330e-07 -5.738908e-08 2.030532e-08 8.248228e-09 9.267530e-08
5.484541e-07 -1.841537e-07 1.399119e-08 1.639148e-08 -2.441171e-08 2.634719e-08
3.152255e-07 -1.727818e-07 -5.258037e-08 2.965343e-08 1.013821e-08 9.608595e-08
5.549016e-07 -2.295325e-07 -5.003906e-08 1.661883e-08 3.229872e-08 1.942099e-08
-1.586696e-07 2.388677e-07 -5.792971e-08 3.964790e-08 -3.353636e-07 -1.141762e-07
-1.127460e-07 1.328940e-07 -6.273300e-08 1.162181e-07 -3.905138e-07 -1.385082e-08
5.189304e-08 9.578202e-09 -2.389041e-08 1.371854e-08 3.541592e-09 5.974930e-09
-1.697530e-07 2.878267e-07 2.745019e-08 1.400724e-07 -2.135887e-07 -6.899613e-08
-2.524259e-07 5.625962e-07 -4.480758e-08 2.447958e-08 1.445685e-07 -1.841036e-08
-2.826595e-07 2.889235e-07 3.357929e-07 7.183529e-08 -2.715448e-07 7.913919e-08
-2.424483e-07 4.472424e-07 9.299872e-08 8.332438e-09 -9.182721e-08 3.576356e-08
-2.666830e-07 4.768772e-07 6.790862e-08 1.115601e-07 -1.739668e-07 -4.575265e-08
-9.559020e-08 -2.675881e-08 3.503178e-08 2.621181e-08 -2.136849e-07 -1.979482e-10
-1.051737e-07 1.549446e-07 -7.439892e-08 -2.025355e-08 -2.221805e-07 7.675753e-08
-3.645967e-08 1.538312e-07 -3.550809e-08 -4.351678e-09 -1.622356e-07 3.317902e-08
-9.272616e-08 3.057392e-07 -6.140218e-08 -9.136041e-08 -2.393845e-07 6.400041e-08
-2.172205e-07 4.361591e-07 -2.043929e-08 -1.142554e-07 -1.243017e-07 6.329083e-08
-2.554186e-08 1.738272e-07 2.349603e-08 1.458786e-07 -9.926984e-08 -8.700355e-08
-5.133562e-08 1.094774e-07 1.998747e-08 1.923138e-07 -1.539964e-07 -6.573263e-08
-2.017780e-08 2.965339e-07 -1.274922e-08 3.053321e-07 -9.064600e-08 -7.165919e-08
1.059546e-07 4.185077e-09 -8.960955e-08 9.134765e-08 3.620275e-08 6.985728e-08
1.033698e-07 -2.058047e-08 -6.096087e-08 8.380279e-08 5.329447e-08 9.381151e-08
9.980222e-08 6.560006e-09 -7.444608e-08 9.103359e-08 4.618000e-08 8.141020e-08
7.562397e-08 -1.005356e-08 -6.598143e-08 9.064090e-08 4.483158e-08 1.140735e-07
1.150674e-08 6.098557e-08 -4.658017e-08 3.850357e-08 3.874305e-08 2.910059e-08
1.797846e-08 8.700001e-08 -5.786870e-08 5.742321e-08 4.298074e-08 2.739838e-08
8.976976e-09 7.867416e-08 -6.062539e-08 6.548700e-08 4.562974e-08 2.702405e-08
1.550235e-08 6.892004e-08 -6.204179e-08 5.362755e-08 4.086910e-08 2.559463e-08
1.128394e-07 9.185741e-09 -5.935499e-08 -7.141480e-08 -3.177881e-08 5.036544e-08
3.669658e-08 -6.717614e-09 -3.400523e-08 -2.619656e-08 -3.229648e-08 5.473807e-08
1.025579e-07 -2.185580e-09 -6.806772e-08 -6.875334e-08 -4.007138e-08 7.543921e-08
6.991052e-08 8.882435e-09 -3.998005e-08 -5.644819e-08 -4.017181e-08 5.627602e-08
5.668136e-08 8.299434e-09 -6.190657e-08 -4.850504e-08 -3.803853e-08 6.144087e-08
7.311528e-08 -4.515889e-09 -3.847992e-08 -5.347475e-08 -3.157047e-08 6.507295e-08
5.600649e-08 8.593427e-09 -3.984024e-08 -4.808326e-08 -4.073037e-08 5.576166e-08
-6.648840e-08 -2.199999e-07 5.572589e-07 1.712497e-07 2.325291e-08 -1.961543e-07
2.689498e-07 -8.529316e-08 -1.847131e-08 3.746112e-07 1.146415e-07 -1.428793e-07
2.753552e-07 -2.218220e-07 1.132094e-07 2.364399e-07 -2.025938e-08 9.916206e-08
2.757672e-07 -9.625170e-08 1.375227e-07 2.751287e-07 -2.006826e-07 -1.153143e-07
-1.693005e-07 -5.381823e-07 3.029478e-06 8.261053e-07 -1.216932e-06 -1.054617e-06
-5.394980e-07 7.091101e-08 2.843768e-06 7.858575e-07 -9.491734e-07 1.019903e-07
-1.695012e-07 -1.516531e-06 4.026146e-06 9.386593e-07 -7.197762e-07 -2.142359e-06
-1.239011e-07 1.502766e-07 2.235411e-06 1.321576e-06 -1.574989e-06 -2.099848e-06
-4.898839e-07 5.082153e-07 4.807719e-07 1.767270e-08 -9.269682e-08 6.720182e-08
-3.795660e-07 4.796960e-07 2.207484e-07 1.169060e-07 -4.841182e-08 1.210200e-07
-3.325899e-07 3.039318e-07 3.164316e-07 -8.313686e-08 -1.185471e-07 -1.031925e-07
-3.175061e-07 3.605273e-07 2.258896e-07 1.113005e-07 1.172460e-08 9.912499e-09
-5.530808e-07 6.702096e-07 3.427862e-07 7.621485e-08 -3.326525e-07 -3.082348e-07
-3.858248e-07 4.566477e-07 5.539953e-07 1.047868e-07 6.558940e-09 1.571899e-07
-3.420330e-07 6.623038e-07 5.726371e-07 1.243018e-07 -3.197667e-07 -3.120620e-08
1.940279e-08 1.320911e-07 -7.887716e-08 1.153903e-07 1.165869e-07 6.524110e-08
-1.002978e-08 7.256889e-08 -6.930012e-08 5.608050e-08 1.049962e-07 6.581268e-08
4.913158e-08 1.137046e-08 -2.242603e-08 1.811771e-08 7.450521e-09 1.134470e-08
-2.144108e-09 5.021423e-08 -3.429032e-08 5.320030e-08 6.389064e-08 4.543849e-08
-1.962254e-08 8.200117e-08 -4.169928e-08 4.704234e-08 1.076563e-07 7.176202e-08
-1.307495e-08 8.316114e-08 -3.595844e-08 3.629117e-08 7.537302e-08 5.008967e-08
1.046186e-07 -2.921705e-08 -3.683292e-08 2.935627e-10 -3.826383e-09 3.327860e-08
1.000820e-07 -2.429823e-08 -4.044031e-08 9.045219e-09 6.120997e-09 2.808592e-08
9.374296e-08 -2.586399e-08 -2.969910e-08 8.153002e-09 3.927831e-09 3.319621e-08
-1.160150e-06 -8.430583e-07 3.930489e-06 -5.305671e-07 1.567051e-06 -1.148889e-06
8.868585e-08 -2.567952e-08 -3.116497e-08 -8.781878e-10 3.344572e-09 2.582758e-08
6.651579e-08 4.175421e-09 -4.381061e-08 3.055482e-08 1.021877e-08 1.975582e-08
7.635389e-08 3.889072e-09 -4.146805e-08 3.124717e-08 1.013298e-08 1.474179e-08
6.878824e-08 5.221396e-09 -3.312412e-08 2.852968e-08 8.109919e-09 1.723493e-08
6.521615e-08 4.791955e-09 -2.952247e-08 2.353758e-08 1.006178e-08 1.386169e-08
6.607297e-08 6.731302e-09 -4.198786e-08 2.623779e-08 7.236616e-09 1.324417e-08
6.928311e-08 5.520467e-09 -3.611319e-08 2.891466e-08 6.803292e-09 1.563007e-08
-2.858174e-08 1.737597e-07 -6.992074e-08 1.103798e-07 1.351771e-07 6.815332e-08
-3.060000e-08 1.865613e-07 -8.781621e-08 1.443777e-07 1.051298e-07 4.679750e-08
-2.523784e-08 1.900884e-07 -1.032553e-07 1.338478e-07 9.385609e-08 4.381937e-08
-3.494997e-09 1.700673e-07 -8.845423e-08 1.766436e-07 1.430486e-07 6.076646e-08
-1.931527e-09 1.110599e-07 -5.147299e-08 1.465657e-07 1.533173e-07 9.159357e-08
-3.798257e-08 2.120739e-07 -8.259884e-08 1.611478e-07 1.199526e-07 8.587303e-08
-4.347648e-09 1.686594e-07 -5.286552e-08 1.753393e-07 1.139453e-07 4.885882e-08
-5.595385e-08 1.173887e-07 -6.790580e-08 2.263282e-08 1.307663e-07 1.569885e-08
-4.919266e-08 1.328699e-07 -7.476748e-08 1.784498e-08 1.271730e-07 1.706564e-08
-6.527597e-08 1.812864e-07 -8.065690e-08 3.894377e-08 9.330278e-08 9.663903e-09
-4.681570e-08 1.000994e-07 -5.959396e-08 1.606456e-08 1.106319e-07 3.227084e-08
-5.347192e-08 1.482057e-07 -7.597635e-08 1.274861e-08 8.211820e-08 1.740290e-08
-6.158968e-08 1.793461e-07 -8.479478e-08 4.133301e-08 1.005009e-07 1.303029e-08
4.062114e-07 -9.413444e-08 3.809277e-07 -5.116485e-07 -2.411044e-07 3.564610e-07
5.275852e-07 -2.480089e-07 5.358223e-07 -5.155042e-07 -3.564649e-07 5.248030e-07
4.461355e-08 2.053015e-08 -3.805502e-08 4.567107e-08 1.753181e-08 2.498338e-08
4.923745e-08 2.234763e-08 -4.004382e-08 3.750914e-08 2.090537e-08 2.608972e-08
5.469109e-08 1.025861e-09 -3.064666e-08 3.206664e-08 2.875388e-08 2.454439e-08
9.306597e-08 6.124280e-09 -8.117470e-08 9.098677e-08 3.857679e-08 5.524357e-08
5.208522e-08 2.217450e-08 -4.559572e-08 5.640871e-08 3.354380e-08 5.074126e-08
5.338231e-08 7.991621e-09 -4.333695e-08 3.774428e-08 2.556867e-08 3.730027e-08
4.366127e-08 1.371849e-08 -4.465283e-08 3.443193e-08 2.484789e-08 4.176295e-08
1.604302e-08 1.483058e-07 -1.127391e-07 -1.168347e-07 8.465885e-08 -3.647892e-08
3.541901e-08 1.748264e-07 -1.109955e-07 -1.350521e-07 1.209167e-07 -5.567767e-08
-4.173503e-06 -1.461484e-06 1.939285e-05 -1.048839e-06 -3.401873e-06 -1.359648e-06
8.628493e-09 1.507318e-07 -9.627035e-08 -1.059254e-07 1.318947e-07 -6.763986e-08
1.478554e-09 7.194233e-08 -5.985540e-08 -7.561897e-08 1.296431e-07 -6.523010e-08
-4.180195e-08 -3.958325e-09 -2.719219e-08 -1.192193e-08 1.207643e-07 -7.541824e-08
6.829881e-09 8.003997e-08 -5.358667e-08 -7.718832e-08 1.384202e-07 -9.704992e-08
-8.803791e-09 8.390489e-08 -5.576107e-08 -7.705697e-08 1.274134e-07 -5.926529e-08
-4.538888e-07 -3.002134e-06 8.276154e-06 1.431844e-07 1.229599e-06 -3.576674e-06
-3.586869e-06 -4.054274e-06 1.167890e-05 -6.954877e-07 -2.601182e-08 -1.865271e-06
-2.428545e-06 -2.419782e-06 1.377482e-05 5.482918e-07 -3.082875e-06 -1.930424e-06
-4.171500e-06 -8.170832e-07 1.520913e-05 -8.404573e-07 -5.760503e-07 -1.486876e-06
-2.438052e-06 -4.535892e-06 2.668584e-05 -1.376960e-06 -1.868503e-06 -3.148827e-06
-3.628822e-06 -3.852659e-06 2.871582e-05 -1.022312e-06 -1.390380e-06 5.070757e-07
-4.276746e-07 -5.180247e-07 4.205231e-06 1.216745e-06 -3.778417e-06 -6.386895e-06
-1.090453e-07 -3.610419e-06 1.065639e-05 -9.288422e-08 -3.724396e-06 -9.817642e-06
7.112358e-08 6.220105e-08 2.675757e-08 1.720763e-07 -1.350516e-07 -2.076114e-07
-6.714010e-09 -1.352174e-07 2.585523e-08 4.945938e-08 -5.909737e-08 -7.869318e-08
-1.362754e-07 2.897876e-07 -8.783433e-08 2.307633e-09 -2.023025e-07 9.577709e-09
-1.387304e-07 2.877705e-07 -9.185172e-08 4.537771e-09 -1.861993e-07 -9.380371e-09
-1.000261e-07 2.877669e-07 -1.164779e-07 2.988188e-08 -1.064931e-07 -1.529238e-08
-2.168336e-07 3.719397e-07 3.638649e-08 4.424311e-08 -1.738873e-07 -2.897185e-08
-1.575971e-07 3.407345e-07 -9.835265e-08 2.427173e-08 -1.395744e-07 -2.393344e-08
-2.292899e-07 4.595971e-07 -4.961284e-08 1.348038e-08 -1.282285e-07 5.528579e-09
6.277083e-08 4.482661e-09 -2.730693e-08 1.958428e-08 8.353865e-09 1.313816e-08
6.454911e-08 5.090092e-09 -2.924058e-08 1.794495e-08 2.640442e-09 1.058420e-08
6.056211e-08 5.493076e-09 -2.605434e-08 1.981156e-08 6.834089e-09 1.432442e-08
6.251009e-08 4.680263e-09 -2.715359e-08 1.971703e-08 5.005449e-09 9.764536e-09
6.513476e-08 8.627658e-09 -2.810388e-08 2.444465e-08 7.639554e-09 1.347013e-08
-1.518931e-08 1.138993e-07 -6.279007e-08 1.163306e-07 -1.477833e-07 -7.711037e-08
-3.498587e-08 9.101931e-08 -3.162695e-08 8.557438e-08 -1.419766e-07 -5.036460e-08
-6.420737e-08 1.060280e-07 -3.909159e-08 5.135405e-08 -1.392253e-07 -8.587193e-08
-7.915657e-08 1.437402e-07 -3.605596e-08 5.835298e-08 -1.887659e-07 -6.708876e-08
-2.886070e-08 1.701781e-07 -9.804036e-08 1.159938e-07 -1.377393e-07 -5.285588e-08
-3.297034e-08 1.841664e-07 -1.090184e-07 9.987100e-08 -1.277873e-07 -8.824577e-08
-5.389528e-08 2.110310e-07 -9.922523e-08 1.183588e-07 -1.253765e-07 -6.947927e-08
-7.712124e-08 2.211577e-07 -8.982857e-08 -1.185601e-08 1.247330e-07 -6.082445e-09
-1.073017e-07 2.157615e-07 -9.019524e-08 9.060611e-10 1.232401e-07 -2.542994e-09
-1.270130e-07 2.764205e-07 -6.273568e-08 -2.692132e-08 1.553015e-07 -1.239210e-08
-1.745727e-07 2.963561e-07 -4.220446e-08 -7.485518e-09 1.243262e-07 2.512164e-10
-1.064121e-07 2.955498e-07 -4.884526e-08 2.727491e-09 1.214047e-07 9.341384e-09
6.365502e-07 -3.234346e-07 3.584406e-07 -2.158430e-07 4.069129e-08 -6.455562e-08
4.600803e-07 -3.911202e-07 8.757263e-07 -1.106510e-07 -1.734498e-07 2.138262e-07
3.863565e-07 -5.142985e-07 7.442328e-07 -2.793713e-07 -1.733120e-07 1.683311e-07
6.159523e-07 -3.623134e-07 3.771499e-07 -1.865972e-07 1.313978e-08 -5.115136e-08
4.061667e-08 2.473770e-08 -3.242999e-08 2.409673e-08 1.233094e-08 1.661242e-08
3.885186e-08 2.656356e-08 -2.780262e-08 1.893279e-08 8.092801e-09 9.918266e-09
4.170208e-08 2.899619e-08 -3.452524e-08 2.354475e-08 7.999376e-09 1.002447e-08
4.125605e-08 3.093061e-08 -3.040053e-08 2.376106e-08 1.083431e-08 1.046016e-08
3.862852e-08 3.124523e-08 -3.076829e-08 2.404945e-08 1.074630e-08 1.144471e-08
3.801950e-08 2.435834e-08 -3.539862e-08 2.514815e-08 1.343251e-08 1.382936e-08
3.579631e-08 7.840384e-08 -4.319593e-08 -1.810549e-07 -1.323911e-07 1.200946e-07
7.697158e-08 1.680741e-07 -7.962361e-08 -2.428392e-07 -7.181567e-08 8.874496e-08
7.454624e-08 1.642412e-07 -2.265209e-08 -2.391410e-07 -4.739860e-08 8.077080e-08
5.636782e-08 8.235696e-08 -6.385283e-08 -1.544384e-07 -1.517004e-07 1.345932e-07
-6.102945e-07 7.545143e-07 1.096153e-06 -1.122782e-07 1.850443e-07 -2.584281e-07
4.078479e-08 2.072255e-08 -4.368375e-08 -3.748792e-08 -3.071124e-08 3.079155e-08
3.894672e-08 1.956781e-08 -3.087790e-08 -4.466242e-08 -4.483033e-08 5.305175e-08
-6.374576e-08 2.449544e-07 -1.179884e-07 8.588028e-09 -1.126870e-07 -3.590743e-09
4.237773e-08 2.215011e-08 -4.340095e-08 -3.589820e-08 -3.006594e-08 3.154987e-08
4.679519e-08 2.003498e-08 -5.527694e-08 -4.398992e-08 -4.282046e-08 4.839005e-08
-3.729225e-07 -1.005772e-06 9.456271e-06 2.996835e-07 -5.030905e-06 -4.450227e-06
1.047323e-07 9.027592e-08 9.910312e-08 -2.741640e-07 -8.914420e-08 1.177577e-07
-1.518424e-07 4.056264e-07 -5.719375e-08 -1.696488e-07 -1.382438e-07 6.688887e-08
-2.021159e-07 4.725945e-07 -1.919556e-08 -7.981938e-08 -1.700182e-07 3.078325e-08
-2.046667e-07 3.835976e-07 -8.142622e-09 -1.740909e-07 -8.589339e-08 -1.716306e-08
-1.833969e-07 3.630586e-07 -6.578625e-08 -4.921590e-08 -8.743268e-08 -1.296550e-08
-1.508622e-07 2.981828e-07 -2.672973e-08 -1.127996e-07 -2.389956e-07 5.544005e-08
-1.068255e-07 2.266459e-07 -4.326027e-08 -8.229942e-08 -1.808141e-07 7.254131e-08
-1.197807e-07 1.821849e-07 -4.051348e-08 -1.812477e-08 -2.088419e-07 2.432987e-08
-1.791959e-07 1.845575e-07 -2.132990e-08 -9.487967e-08 -2.572341e-07 2.118070e-08
-3.766612e-08 -1.944923e-08 -2.148047e-08 9.456423e-09 -1.412734e-07 9.701712e-08
-1.021418e-06 -1.703613e-06 1.507514e-05 -3.404251e-07 -4.101512e-06 5.373234e-06
-3.621059e-08 -4.651617e-09 -2.869151e-08 1.452491e-08 1.397886e-07 -5.282653e-08
1.006017e-07 -2.184860e-08 -4.387949e-08 2.147568e-08 3.895480e-09 2.548160e-08
1.043375e-07 -2.282859e-08 -4.694994e-08 2.256298e-08 6.325343e-09 2.660681e-08
9.681832e-08 -1.999710e-08 -4.561358e-08 1.243421e-08 4.081074e-10 2.256174e-08
1.314829e-07 -2.396219e-08 -6.435971e-08 5.850919e-08 2.045962e-08 6.897643e-08
1.086989e-07 -3.941935e-09 -6.504516e-08 5.009747e-08 1.347165e-08 3.697365e-08
1.222254e-07 -8.426397e-09 -7.303611e-08 6.988884e-08 2.653383e-08 5.655334e-08
1.224679e-07 -9.402024e-09 -8.328360e-08 7.363762e-08 2.226490e-08 6.184353e-08
-2.467092e-08 -1.610006e-07 5.531206e-08 -2.299409e-08 2.753594e-08 -8.946039e-08
-5.333435e-08 -3.656892e-08 2.628131e-08 2.304308e-08 1.878807e-07 -1.663850e-07
2.415547e-07 1.188713e-08 1.429961e-07 -3.329555e-07 5.025426e-08 -1.246358e-07
1.405529e-07 -6.063788e-08 4.214706e-08 -2.215275e-07 1.108731e-07 -1.765525e-07
3.251534e-07 4.902747e-08 -4.072068e-08 -3.267160e-07 2.818295e-08 -6.153355e-08
2.523721e-07 1.527616e-10 2.734264e-08 -3.266363e-07 1.449386e-07 -7.960496e-08
2.301366e-07 -4.457552e-08 9.801402e-08 -2.559645e-07 6.088584e-08 -1.332078e-08
3.661022e-07 -1.172060e-07 -7.356095e-08 -1.512673e-07 -4.627848e-08 1.409470e-07
3.805040e-07 -1.268721e-07 -1.184586e-08 -1.333375e-07 -3.658840e-08 6.462571e-08
7.565677e-07 -1.373280e-06 3.994838e-06 -3.414465e-07 -2.597026e-07 2.585241e-06
2.705618e-07 -5.706911e-08 -6.026626e-08 -1.829135e-07 -1.060198e-07 1.884115e-07
2.702304e-07 -1.118159e-07 -8.859670e-08 -1.123630e-07 -2.675992e-08 1.231284e-07
1.682535e-07 -6.422097e-08 -2.982292e-08 -6.566062e-08 -5.720797e-08 1.896314e-07
-3.202641e-08 9.708755e-08 -4.901307e-08 5.651324e-09 1.180178e-07 -4.126632e-09
-4.920517e-08 1.190276e-07 -6.857409e-08 1.869051e-08 1.296521e-07 1.640453e-08
-5.970555e-08 1.687004e-07 -7.795447e-08 -1.109738e-08 8.944181e-08 9.404022e-09
-6.176683e-08 1.203091e-07 -6.599079e-08 7.082317e-09 1.436452e-07 1.973508e-09
-7.712378e-08 1.979240e-07 -8.099725e-08 1.916407e-08 9.938993e-08 2.000786e-09
-7.416601e-08 1.984237e-07 -8.505312e-08 2.142183e-08 1.050295e-07 5.336741e-09
-3.574923e-06 -2.742137e-06 9.159487e-06 1.410118e-07 -1.812347e-06 -4.978345e-07
4.407246e-07 -7.007188e-07 1.053259e-06 5.577884e-07 -5.498978e-08 -5.473381e-07
4.146289e-07 -5.959281e-07 8.542253e-07 5.467865e-07 -2.875478e-07 -3.833221e-07
6.017475e-07 -6.969720e-07 1.164892e-06 2.824640e-07 -1.570423e-07 -3.935435e-07
6.214921e-07 -6.785813e-07 4.927119e-07 3.062107e-07 -1.766897e-09 -3.401940e-07
3.948321e-07 -3.557680e-07 1.201910e-06 3.250723e-07 -5.260867e-07 -6.784967e-07
1.836989e-07 -4.335559e-07 1.335749e-06 5.291962e-07 -4.370819e-07 -6.355051e-07
1.328458e-07 -3.626768e-08 -7.376302e-08 3.590357e-08 1.204152e-08 5.660541e-08
1.584553e-07 -3.197507e-08 -6.349594e-08 4.592586e-08 2.144404e-08 7.337599e-08
3.341036e-08 2.432064e-08 -2.328790e-08 1.513248e-08 7.708028e-09 6.591924e-09
1.201714e-07 -1.792585e-08 -5.850063e-08 4.959422e-08 1.247674e-08 6.560668e-08
1.469596e-07 -3.305195e-08 -8.549798e-08 6.658928e-08 1.900210e-08 6.791834e-08
-7.751643e-08 2.465511e-07 -3.892532e-08 1.295851e-07 -9.170034e-08 3.971761e-08
-8.419987e-08 1.930994e-07 -4.131416e-08 -1.786518e-08 -2.228171e-07 -1.075848e-07
6.889616e-08 -5.922489e-09 -2.665786e-08 -1.432126e-08 -6.321635e-09 1.216064e-08
-8.969034e-08 8.878155e-09 3.586335e-08 2.476593e-08 -1.320804e-07 -3.658473e-08
-5.163313e-08 1.609301e-07 -9.641324e-08 -8.435351e-08 9.435044e-08 -2.979876e-08
-5.552066e-08 -8.964253e-07 5.063001e-06 2.236994e-07 -3.188658e-06 -2.538710e-06
-3.869565e-08 1.838513e-07 -8.190833e-08 -6.009421e-08 1.396172e-07 -4.902675e-08
-5.972984e-08 1.054353e-07 -6.601710e-08 -2.817595e-08 1.126537e-07 -4.379476e-08
-3.012350e-08 1.078150e-07 -7.036576e-08 -5.552289e-08 1.095301e-07 -4.083424e-08
-2.614394e-08 1.455064e-07 -1.069684e-07 -6.850289e-08 1.058744e-07 -4.064889e-08
4.291725e-07 -1.587948e-07 1.409720e-08 1.928118e-07 -4.210542e-10 1.580083e-07
1.370068e-07 -1.125365e-07 2.391694e-08 1.591584e-07 3.844982e-08 1.817899e-07
3.691325e-07 -1.705952e-07 1.313370e-07 2.324534e-07 1.078533e-08 2.365667e-08
2.062044e-07 -1.517837e-07 3.355035e-08 1.918220e-07 4.965231e-08 4.514336e-08
-7.171857e-08 1.530918e-07 -4.492878e-08 -3.747838e-08 1.790636e-07 -5.415729e-08
-3.342735e-08 1.881279e-07 -4.576080e-08 4.389675e-09 1.938964e-07 -1.879804e-08
-1.446365e-07 2.529032e-07 -1.739787e-08 -5.884486e-08 1.378088e-07 -1.740198e-08
-1.216999e-07 1.963363e-07 1.329524e-08 -2.616031e-09 2.162665e-07 1.103282e-08
-1.455093e-07 1.842428e-07 -5.024866e-08 -6.143466e-09 1.386798e-07 6.817531e-09
-2.759924e-06 -1.477021e-06 8.290539e-06 1.072524e-06 3.103887e-06 1.057619e-06
-1.388229e-07 4.296533e-07 -7.559912e-08 -7.312463e-08 1.461095e-07 -3.200718e-08
-1.722683e-07 1.927819e-07 -6.193021e-10 1.460871e-07 -9.255342e-08 -2.457894e-08
-2.603421e-08 1.251019e-07 -5.258739e-09 1.395744e-07 -2.996502e-07 -1.289638e-07
5.235471e-08 1.183574e-07 -9.407905e-08 1.891910e-07 -8.882393e-08 -5.828267e-08
1.921570e-09 1.308697e-07 -2.567581e-08 1.129500e-07 -1.390512e-07 -1.110389e-07
5.677171e-08 -2.177439e-09 -3.202232e-08 2.343931e-08 1.508644e-08 3.480067e-08
-1.978111e-06 -2.199333e-06 7.811305e-06 1.133106e-06 2.442150e-06 2.569804e-06
-2.552299e-06 -2.657428e-06 9.450064e-06 -6.669161e-08 6.692324e-07 1.963414e-06
-3.398673e-06 -3.146403e-06 1.457892e-05 -2.556305e-07 1.717147e-06 -1.126241e-06
-3.692602e-06 -3.766433e-06 1.308024e-05 -2.106192e-07 -9.815439e-07 -3.047992e-07
7.179794e-08 -6.048389e-09 -3.058256e-08 3.741892e-08 2.073752e-08 4.002099e-08
-2.892652e-06 -2.656601e-06 1.035056e-05 2.399333e-08 6.001398e-07 1.465548e-06
-2.916065e-06 -1.708741e-06 1.042293e-05 6.190410e-07 4.697704e-06 8.117870e-07
-1.593935e-07 -1.949405e-06 5.142460e-06 -2.615664e-07 -2.097728e-07 2.651302e-06
-1.245001e-06 -1.949387e-06 5.887463e-06 -2.353259e-07 -2.234862e-07 2.196045e-06
-1.826622e-06 -2.229119e-06 8.512099e-06 -3.640653e-07 -1.261476e-06 3.383501e-06
-1.878303e-06 -2.049969e-06 1.080508e-05 -5.618903e-07 -6.957093e-07 3.788074e-06
-2.056220e-06 -1.702304e-06 6.260685e-06 -5.663672e-07 -2.165963e-06 2.649625e-06
1.068430e-07 -1.389202e-06 4.187790e-06 -6.318612e-07 -1.490535e-07 2.489146e-06
5.733084e-08 2.189722e-08 -3.310095e-08 3.401349e-08 1.382394e-08 1.875709e-08
5.346218e-08 1.775110e-08 -3.460105e-08 2.225705e-08 8.804910e-09 1.001884e-08
6.113262e-08 1.671288e-08 -4.147447e-08 2.968414e-08 9.690292e-09 1.334950e-08
4.889874e-08 1.781783e-08 -2.882346e-08 2.266660e-08 6.791184e-09 1.248383e-08
5.379069e-08 1.237232e-08 -2.656228e-08 2.244778e-08 6.251185e-09 9.355441e-09
1.051315e-07 4.923095e-08 -8.059926e-08 -1.117113e-07 -2.802529e-08 3.564091e-08
6.476518e-08 1.193388e-07 -8.189559e-08 1.692789e-07 1.133452e-07 1.129932e-07
1.642462e-07 1.191084e-07 -8.112148e-08 3.096408e-07 9.281062e-08 8.151714e-08
-9.052472e-07 -1.873269e-06 5.832777e-06 -8.718704e-07 1.274286e-06 -2.388256e-06
-2.500128e-06 -2.117327e-06 8.599383e-06 7.723541e-07 8.831407e-07 -3.338236e-06
7.233515e-07 -1.876234e-06 4.074772e-06 -2.353345e-08 -4.536747e-08 -2.429044e-06
-1.003647e-06 -2.289173e-06 7.484373e-06 -1.123193e-06 7.769203e-07 -3.035377e-06
-3.614832e-06 -4.009099e-06 1.295425e-05 -7.868983e-07 5.286005e-07 -4.073021e-06
-3.363665e-06 -2.774419e-06 1.605412e-05 -8.043004e-07 2.551183e-06 -2.909324e-06
4.725660e-07 -3.887907e-07 3.883149e-06 1.321784e-06 -3.839871e-06 -2.017965e-06
7.624426e-07 -9.316733e-07 5.897658e-07 -1.561074e-07 -1.489958e-07 5.454093e-07
7.704691e-07 -9.237922e-07 1.414840e-06 -7.479055e-08 -5.152198e-08 1.468153e-06
-1.082160e-07 4.285156e-07 -1.112628e-07 -9.573298e-08 -9.703748e-08 2.867296e-08
-8.715867e-08 1.942960e-07 9.613594e-08 -1.252026e-07 -7.568555e-08 1.200280e-08
1.332167e-09 2.273655e-07 1.598184e-07 -2.338230e-07 3.451101e-08 -2.832227e-08
-1.502934e-07 2.190474e-07 1.333241e-07 -2.028593e-07 -1.083988e-07 7.156504e-08
-1.354174e-07 3.476845e-07 2.521051e-08 -2.520140e-07 -5.886678e-08 3.254948e-08
-3.812314e-08 2.864570e-07 3.963696e-08 -4.577945e-08 -2.500434e-07 7.952005e-08
-4.833188e-08 3.545423e-07 -8.468086e-08 -2.072781e-07 -2.085890e-07 1.106438e-07
1.009121e-07 4.775249e-08 -4.893248e-08 -1.309449e-07 -5.222088e-08 8.861725e-08
1.190766e-07 7.214250e-09 -2.788101e-08 -2.136235e-07 -1.046456e-07 2.263968e-07
1.394865e-07 -1.105006e-08 -2.407883e-08 -1.272375e-07 -6.937247e-08 5.565936e-08
1.410515e-07 -3.431198e-08 -1.231220e-08 -1.581100e-07 -7.477251e-08 1.399791e-07
1.786079e-07 -1.246989e-08 -7.551361e-08 -1.949953e-07 -6.041975e-08 9.774720e-08
6.503751e-08 4.288897e-09 -4.326097e-08 -2.845400e-08 -1.003935e-08 1.632192e-08
6.006096e-08 1.440711e-08 -3.162318e-08 -2.730645e-08 -1.206323e-08 1.671904e-08
5.269659e-08 1.159386e-08 -3.833252e-08 -2.765258e-08 -1.645510e-08 2.064287e-08
8.115552e-08 1.267573e-08 -4.486489e-08 -4.016927e-08 -1.167531e-08 1.929582e-08
6.248643e-08 4.747747e-09 -3.682102e-08 -2.768897e-08 -1.421275e-08 2.038714e-08
3.283645e-07 -1.529128e-07 -6.042082e-08 -5.659307e-08 -1.062562e-08 9.502911e-08
3.162221e-07 -1.704078e-07 -5.241130e-08 -3.928613e-08 -1.283506e-08 1.036385e-07
2.419529e-07 -1.037590e-07 -3.707489e-08 -4.132734e-08 1.505760e-09 1.689552e-07
2.466177e-07 -1.385879e-07 2.399422e-09 -2.067789e-08 -1.045185e-08 1.189956e-07
3.418582e-07 -2.058293e-07 3.930593e-08 -9.455380e-08 -8.030758e-09 1.735414e-07
2.888066e-07 -1.891840e-07 -2.263652e-08 -4.346402e-08 2.531615e-08 1.115174e-07
2.477588e-07 -1.705466e-07 2.028906e-08 -3.085413e-08 -1.583723e-09 1.123767e-07
8.080300e-07 -3.274377e-07 1.029894e-06 2.602484e-07 5.095832e-07 -1.534806e-06
6.249583e-07 -5.659299e-07 1.216656e-06 -2.022574e-07 5.025616e-07 -1.045168e-06
7.186081e-08 -1.619552e-08 -3.209692e-08 2.194547e-08 1.153473e-08 3.369424e-08
6.798320e-07 -9.074939e-07 1.712145e-06 -2.911098e-07 2.336288e-07 -1.051844e-06
5.062695e-07 -7.495056e-07 2.564734e-06 -3.702981e-07 -4.213589e-08 -9.726885e-07
2.855905e-07 -1.339158e-07 -5.307527e-08 -5.160862e-08 -3.483082e-08 9.980173e-08
2.387826e-07 -1.364094e-07 6.105557e-09 -9.750840e-08 -1.407055e-08 1.435570e-07
3.097486e-07 -1.365928e-07 7.641805e-09 -7.100225e-08 2.726967e-08 7.476351e-08
1.158085e-07 -8.673191e-08 7.920947e-08 -1.141550e-07 -3.303536e-08 1.091597e-07
3.623929e-07 -1.525545e-07 -1.989763e-08 -6.117998e-08 -1.731671e-08 1.724826e-07
2.688538e-07 -1.406581e-07 2.590659e-08 -6.531148e-08 -2.795315e-09 1.142230e-07
1.611029e-07 -2.419132e-08 4.486215e-08 -1.468460e-07 -6.943464e-08 2.170926e-07
-9.423566e-08 1.723468e-07 -9.099634e-08 -3.640447e-08 1.162421e-07 -2.704637e-08
3.322941e-07 -3.028527e-07 1.545272e-06 1.379296e-07 3.696198e-07 -1.390861e-06
5.320270e-08 1.244655e-08 -2.856024e-08 -1.577436e-08 -3.687395e-09 6.172619e-09
-6.497203e-08 1.258754e-07 -7.213626e-08 -2.011382e-08 1.665925e-07 -2.782769e-08
-5.552262e-08 1.437924e-07 -7.107081e-08 -6.483874e-08 1.303640e-07 -2.328442e-08
-7.231833e-08 1.677395e-07 -6.376796e-08 -3.860973e-08 2.064766e-07 -4.933212e-08
-9.459232e-08 2.506594e-07 -6.807261e-08 -6.447676e-08 1.172385e-07 -3.092212e-08
-6.859353e-08 1.751895e-07 -6.340905e-08 -8.697744e-08 1.718704e-07 -4.774617e-08
1.675630e-08 2.960434e-07 1.177313e-07 -1.753039e-07 -1.235348e-07 9.605900e-08
-4.094238e-08 -1.425793e-08 -5.338165e-09 -1.281473e-09 1.915797e-07 2.134656e-08
-5.227255e-07 3.251321e-07 7.562196e-07 -1.850273e-07 1.297720e-10 -5.430497e-08
-1.612159e-08 2.454295e-07 -1.177136e-07 1.262442e-07 -1.187657e-07 -3.930694e-08
-1.157230e-07 3.607454e-07 -1.051539e-07 2.016405e-08 1.243442e-07 5.319264e-09
-4.559804e-08 2.238359e-07 -1.199038e-07 7.492094e-08 -1.674645e-07 -5.526711e-08
2.052049e-07 -1.132802e-06 4.461277e-06 -9.004258e-08 -4.486905e-07 3.992369e-06
-7.739193e-08 2.305150e-07 -5.630367e-08 1.161688e-07 -1.729720e-07 -8.571870e-08
-5.120685e-08 1.639245e-07 -7.613801e-08 7.074049e-08 -1.239641e-07 -5.061169e-08
-1.529474e-08 7.816591e-08 -6.061741e-08 -2.866398e-08 7.245309e-08 -2.853137e-08
-2.876355e-08 1.123460e-07 -7.255873e-08 -6.583546e-08 9.377223e-08 -4.883213e-08
-2.657636e-08 9.633785e-08 -7.681853e-08 -3.059585e-08 7.234438e-08 -2.602835e-08
1.870560e-09 1.198103e-07 -8.765877e-08 -7.318945e-08 6.772631e-08 -2.966407e-08
9.766782e-10 1.104555e-07 -9.279841e-08 -7.012147e-08 7.481776e-08 -3.182696e-08
-1.989294e-08 1.333247e-07 -7.675033e-08 -5.256340e-08 7.399630e-08 -2.719791e-08
-6.820911e-08 1.076197e-07 -6.239672e-08 -5.545967e-08 1.322348e-07 -6.184576e-08
-2.260951e-08 9.851494e-08 -6.823277e-08 -3.909938e-08 9.858165e-08 -4.492113e-08
-2.828402e-08 7.687640e-08 -6.059971e-08 -4.890208e-08 1.210670e-07 -8.184206e-08
-1.219210e-08 1.644150e-07 -9.530281e-08 -9.637754e-08 1.226859e-07 -5.189128e-08
-3.512355e-08 8.839731e-08 -6.819641e-08 -5.172178e-08 9.708003e-08 -4.771001e-08
-4.961912e-07 6.288628e-07 7.463307e-07 2.910181e-07 3.865164e-07 4.950595e-08
9.103120e-09 -2.419993e-08 -1.458819e-08 -2.179457e-08 -8.153197e-08 1.252347e-07
-6.513846e-07 3.711293e-07 8.337818e-07 7.347142e-07 3.762949e-07 5.419083e-07
-4.277595e-07 5.285729e-07 -2.584984e-08 3.407924e-07 3.752954e-07 -1.666090e-07
6.783225e-07 -6.202511e-07 1.015723e-06 -5.180257e-07 6.097653e-07 -1.496225e-06
2.101061e-07 -8.068249e-07 2.083188e-06 -8.126198e-07 8.418812e-07 -1.164555e-06
2.174463e-07 -6.496114e-07 1.742259e-06 -8.773169e-07 8.666824e-07 -1.256309e-06
-2.988437e-07 -6.799699e-07 3.847165e-06 -1.061556e-06 1.247107e-06 -1.497187e-06
-1.295941e-06 -1.087719e-06 3.768524e-06 -7.250513e-07 1.354287e-06 -1.338844e-06
-3.269413e-06 -2.588750e-06 7.712182e-06 -2.991783e-07 8.861039e-07 -3.321365e-06
-3.652804e-08 -4.985446e-08 -1.210542e-08 7.397967e-09 -1.943514e-07 3.097160e-08
-1.175420e-07 1.586135e-07 2.111455e-09 -1.639627e-08 -1.775407e-07 3.614675e-08
-1.385423e-07 3.402527e-07 -7.088824e-08 -6.826634e-08 -2.051157e-07 3.529801e-08
-1.130381e-07 1.778411e-07 -4.727050e-08 -1.219951e-08 -1.772769e-07 -1.059017e-08
1.147934e-07 1.054457e-08 -7.694505e-08 1.000244e-07 4.445195e-08 7.778370e-08
1.402631e-07 3.051826e-08 -9.401140e-08 1.249211e-07 4.705072e-08 6.740164e-08
8.801463e-08 1.584270e-08 -7.054240e-08 7.737088e-08 5.841690e-08 7.888724e-08
-2.842720e-07 3.612444e-07 3.028600e-07 4.606023e-07 -6.247690e-08 -1.301120e-07
8.822880e-08 2.678531e-10 -7.405654e-08 8.270481e-08 4.746455e-08 7.971467e-08
5.839330e-08 2.018417e-08 -7.708250e-08 7.373820e-08 4.654869e-08 5.688202e-08
9.215459e-08 3.485526e-08 -7.703048e-08 1.105463e-07 4.964387e-08 5.853816e-08
-1.051479e-08 1.070034e-07 -8.466596e-08 -3.979905e-08 4.732008e-08 -2.335495e-08
-2.979023e-08 7.805258e-08 -4.158712e-08 -2.663319e-08 8.551755e-08 -3.500769e-08
-1.936414e-08 8.845821e-08 -5.807733e-08 -2.436468e-08 6.733395e-08 -3.085818e-08
-1.794169e-08 9.456227e-08 -4.405030e-08 -2.695807e-08 6.717962e-08 -2.232320e-08
-2.088330e-08 4.488129e-08 -3.133042e-08 -3.464919e-09 4.675866e-08 -2.225238e-08
-1.101982e-08 6.481176e-08 -3.262645e-08 -1.865781e-08 5.620586e-08 -2.630437e-08
-2.876183e-08 5.290725e-08 -3.967845e-08 -2.215262e-09 6.163559e-08 -2.348093e-08
4.700402e-07 -5.097450e-07 7.191094e-07 -2.154433e-07 -9.200125e-09 2.737182e-07
5.066782e-07 -3.678111e-07 1.412851e-07 -1.616321e-07 -2.676638e-08 1.448961e-07
5.323591e-07 -2.805152e-07 1.081800e-07 -1.139607e-07 5.861091e-09 1.667061e-07
4.346355e-07 -3.673778e-07 3.108203e-07 -1.619409e-07 -1.725932e-09 -1.767660e-07
5.870917e-07 -4.263769e-07 1.691097e-07 -1.374725e-07 -8.220410e-08 2.174447e-07
5.278456e-07 -2.207922e-07 1.357303e-07 -1.136860e-07 -2.912810e-08 2.776134e-07
4.783166e-07 -4.519869e-07 8.961970e-07 -7.409536e-08 -1.358530e-07 1.493403e-07
5.407170e-07 -3.713185e-07 5.386800e-08 -2.828854e-08 -1.494173e-07 4.505953e-10
1.074842e-07 -3.413927e-09 -4.958480e-08 -6.752352e-08 -4.446407e-08 9.434708e-08
1.434665e-07 -1.234352e-08 -7.081295e-08 -8.757014e-08 -5.064700e-08 8.087306e-08
2.011003e-07 1.248473e-08 -9.836125e-08 -1.470611e-07 -5.251169e-08 9.761377e-08
1.204908e-07 -8.964713e-09 -8.489119e-08 -1.053162e-07 -3.866464e-08 6.689420e-08
9.168007e-08 3.660353e-09 -8.140825e-08 -8.320993e-08 -3.084134e-08 5.103762e-08
1.098354e-07 -6.791315e-09 -5.877928e-08 -6.074866e-08 -3.743890e-08 5.740359e-08
1.123089e-07 9.343427e-09 -8.317126e-08 -7.152956e-08 -2.907457e-08 5.496262e-08
9.866568e-08 5.858973e-09 -8.185518e-08 -7.862396e-08 -3.301225e-08 4.909468e-08
1.108051e-07 -2.513373e-09 -7.564692e-08 -8.023070e-08 -3.325973e-08 8.124851e-08
-6.477783e-08 -7.092571e-08 4.887770e-09 4.316465e-09 -1.637499e-07 -4.405951e-08
-7.185295e-08 1.643230e-07 -8.181282e-08 2.277951e-08 -2.073660e-07 -3.837036e-08
-1.305186e-07 2.717711e-07 -1.041287e-07 5.963961e-08 -1.971427e-07 -2.107212e-08
-6.570896e-08 2.345399e-07 -9.559097e-08 5.079986e-08 -1.970732e-07 -4.495649e-08
8.436878e-08 6.324579e-09 -5.896249e-08 -4.894393e-08 -1.231039e-08 3.466376e-08
6.390594e-08 6.269241e-11 -4.868284e-08 -4.542330e-08 -2.131712e-08 4.452993e-08
9.207121e-08 1.392854e-09 -7.798062e-08 -5.814738e-08 -2.891110e-08 5.813389e-08
9.171996e-08 1.259458e-08 -7.011317e-08 -7.340706e-08 -1.859474e-08 3.820405e-08
8.428956e-08 -1.091002e-10 -6.374784e-08 -4.794828e-08 -1.828796e-08 3.582868e-08
-2.523642e-08 -3.571571e-08 4.787218e-08 -1.357115e-08 -4.015408e-08 1.255215e-07
5.284505e-07 -1.056818e-06 1.701406e-06 5.667054e-08 2.185098e-07 -8.772618e-07
6.705180e-07 -8.282295e-07 1.684638e-06 -1.867339e-07 1.086495e-07 -1.243770e-06
-2.110433e-08 7.100965e-08 -3.549288e-08 -1.118828e-07 -1.632563e-07 8.574004e-08
-1.518633e-08 2.471995e-07 -4.652807e-08 -2.379034e-07 -1.443178e-07 9.137222e-08
-6.225967e-08 1.166166e-07 -1.521676e-08 -1.053160e-07 -1.650524e-07 9.472992e-08
-7.912775e-08 1.256509e-07 -4.013159e-09 -1.446412e-07 -1.509642e-07 7.839953e-08
-1.980102e-08 1.841752e-07 -7.123842e-08 -2.580746e-07 -1.844201e-07 7.731854e-08
-3.631897e-08 1.363315e-07 -4.754170e-08 2.621796e-08 1.871187e-07 9.936653e-09
-1.023652e-07 1.513895e-07 -1.975823e-08 3.774926e-08 1.918513e-07 2.128387e-08
-1.078929e-07 1.483941e-07 -5.312774e-08 1.785066e-08 1.855701e-07 -1.014618e-08
-1.100391e-07 1.483943e-07 -8.141014e-09 1.786454e-08 1.857559e-07 -1.604166e-08
-2.135809e-07 1.971434e-07 1.252137e-07 5.495602e-08 1.822537e-07 1.092016e-08
8.298472e-09 1.360565e-07 -8.751721e-08 1.514255e-07 9.507229e-08 7.402280e-08
5.322211e-08 9.791323e-08 -8.685886e-08 1.703254e-07 9.345918e-08 6.854165e-08
4.542749e-09 1.286107e-07 -9.139160e-08 1.179981e-07 9.425810e-08 5.230311e-08
9.679589e-09 1.036651e-07 -9.238681e-08 1.041715e-07 7.285129e-08 5.571387e-08
5.178103e-09 -2.102438e-08 -3.065312e-08 4.996759e-08 7.336887e-08 9.470447e-08
2.639235e-08 4.721837e-08 -4.535852e-08 7.618058e-08 8.906541e-08 8.320336e-08
6.863713e-08 3.102819e-08 -4.939610e-08 1.119373e-07 9.877333e-08 1.428737e-07
5.049388e-08 9.592016e-08 -4.372676e-08 2.524777e-07 1.659394e-07 1.357977e-07
3.104266e-08 4.895733e-08 -6.248649e-08 7.910027e-08 1.033674e-07 1.013910e-07
4.173262e-08 2.615432e-08 -5.390070e-08 1.213905e-07 1.244497e-07 1.255012e-07
5.438166e-08 9.954096e-08 -6.482716e-08 1.854739e-07 7.872104e-08 9.222595e-08
5.551317e-08 9.639640e-08 -6.178126e-08 1.848157e-07 1.110527e-07 1.196279e-07
-1.080251e-08 1.405538e-07 -2.927598e-08 1.277606e-07 1.110693e-07 6.460594e-08
-1.393051e-07 1.106198e-07 1.451375e-07 2.039282e-07 8.182588e-08 8.621055e-08
-1.484249e-07 2.279999e-07 5.125446e-08 6.451257e-08 1.879212e-07 1.041948e-07
-3.952157e-08 2.116079e-07 2.033940e-08 3.059958e-07 1.076259e-07 9.122760e-08
5.350890e-08 9.006278e-08 -1.301781e-08 2.554959e-07 1.001961e-07 1.104056e-07
-3.979466e-10 9.897214e-08 6.333114e-08 1.883364e-07 5.870342e-08 3.389151e-08
-7.845258e-08 -9.714046e-09 7.226050e-08 -6.047941e-08 -1.444240e-07 1.315865e-07
1.163240e-07 1.138532e-07 -1.276669e-08 -3.066809e-07 -1.092716e-07 8.789243e-08
1.805336e-08 5.447261e-08 4.317315e-08 -2.091396e-07 -6.482658e-08 8.260711e-08
1.736366e-08 2.118552e-07 -6.902316e-08 -1.590989e-07 -1.455197e-07 1.074410e-07
2.240498e-08 7.359230e-08 -5.069164e-08 -1.321851e-07 -1.099437e-07 1.414199e-07
2.579327e-07 -1.969621e-07 9.208488e-08 1.405576e-07 -7.748536e-09 1.843999e-07
4.159419e-07 -1.135324e-07 1.771152e-07 -4.293861e-07 -2.641588e-09 -3.571656e-08
4.067253e-07 -2.270580e-07 2.969565e-08 1.157200e-07 9.484525e-09 1.724866e-07
6.556953e-07 -3.010453e-07 1.080923e-07 1.399348e-07 1.666676e-08 -7.904450e-08
6.015373e-07 -4.049203e-07 3.128469e-07 2.267084e-07 -1.206025e-07 -6.613145e-08
4.042825e-07 -1.566822e-07 7.268777e-08 1.174527e-07 1.714748e-08 -2.720901e-08
2.145451e-08 3.971108e-08 -5.369865e-08 4.981184e-08 5.949661e-08 4.375009e-08
3.494641e-08 3.210955e-08 -5.596292e-08 5.570546e-08 4.799620e-08 3.613316e-08
1.744962e-08 4.593157e-08 -4.709490e-08 3.957374e-08 4.212067e-08 2.823001e-08
6.540163e-09 2.157154e-08 -3.678587e-08 2.929115e-08 6.047609e-08 4.151200e-08
8.417463e-09 4.563898e-08 -3.561194e-08 4.875605e-08 6.635704e-08 4.817824e-08
1.164912e-08 4.825965e-08 -4.721507e-08 3.944940e-08 4.205765e-08 2.907465e-08
8.151639e-09 5.217051e-08 -4.064353e-08 4.017023e-08 4.689411e-08 3.195997e-08
3.168157e-08 9.692739e-08 -4.394359e-08 -8.087309e-08 9.194771e-08 -6.116981e-08
-1.030914e-07 4.564701e-08 5.583011e-09 -1.750168e-08 1.341163e-07 -8.852251e-08
1.367043e-08 3.926198e-08 -9.012312e-09 -1.339871e-07 9.544757e-08 -2.498690e-08
2.556270e-08 4.431444e-08 6.248330e-08 -1.436499e-07 1.316202e-07 -5.902305e-08
6.553857e-08 3.686227e-08 -6.668541e-08 -9.200238e-08 1.131548e-07 -1.155340e-07
3.061920e-09 8.791640e-08 -4.615958e-08 -1.125611e-07 9.372014e-08 -9.628503e-08
3.089801e-07 -1.620248e-08 -4.998304e-08 -2.527263e-07 -8.074172e-08 1.249813e-07
4.072425e-08 1.231840e-07 -4.989278e-08 -2.702829e-07 1.423200e-07 -7.354084e-08
1.284667e-08 8.708373e-08 -3.671523e-08 -1.174639e-07 1.173480e-07 -1.192749e-07
-5.982626e-08 1.071558e-07 -5.302820e-08 8.385197e-08 -1.700762e-07 1.651126e-08
9.151249e-08 4.979482e-08 -8.604036e-08 1.567888e-07 8.883960e-08 1.303238e-07
8.220406e-08 7.636147e-08 -7.891587e-08 1.386664e-07 7.870564e-08 8.123047e-08
7.232796e-08 3.936010e-09 -3.055508e-08 -2.388430e-08 -8.083442e-09 1.429536e-08
2.318472e-09 2.179788e-08 -3.537213e-08 2.512697e-08 5.978541e-08 5.605424e-08
7.856257e-08 -1.137532e-09 -3.193250e-08 -2.127978e-08 -6.686453e-09 1.426581e-08
7.284371e-08 -2.573531e-09 -3.546861e-08 -2.576057e-08 -6.076183e-09 1.638709e-08
7.709058e-08 -4.971432e-10 -3.350385e-08 -2.277266e-08 -8.472748e-09 1.273295e-08
7.003698e-08 -4.211320e-09 -3.714467e-08 -2.360523e-08 -7.987189e-09 1.903021e-08
1.040806e-07 1.953497e-07 -7.594837e-08 2.465394e-07 -1.180700e-07 -1.289777e-07
8.689927e-08 1.766762e-07 -8.915634e-08 2.671494e-07 -1.347373e-07 -1.136296e-07
2.333052e-08 1.127948e-07 -6.472465e-08 1.132737e-07 -1.152773e-07 -6.742671e-08
6.339960e-08 8.845435e-08 -6.112442e-08 1.743625e-07 -1.238032e-07 -7.499205e-08
3.305072e-08 1.609853e-07 -2.404919e-08 2.459914e-07 -1.441480e-07 -1.449732e-07
-3.571047e-08 8.711413e-08 -6.054978e-08 7.023705e-08 -1.512552e-07 -1.081097e-07
-6.270171e-08 1.785524e-07 -4.977914e-08 -1.935359e-08 -1.254764e-07 1.379992e-08
9.232877e-08 -1.616918e-08 -3.952856e-08 -1.536176e-08 -8.651283e-09 1.652923e-08
7.922968e-08 -1.652027e-08 -3.176422e-08 -1.322239e-08 -5.777554e-09 2.253501e-08
8.647695e-08 -1.852514e-08 -2.951809e-08 -1.472976e-08 -6.891277e-09 2.659753e-08
9.172038e-08 -1.420988e-08 -3.702397e-08 -1.512641e-08 -5.446748e-09 1.823410e-08
9.828683e-08 -1.122691e-08 -3.812175e-08 -2.366971e-08 -1.008324e-08 2.600758e-08
8.323759e-08 -1.066013e-08 -3.055695e-08 -1.921062e-08 -2.494790e-09 2.033532e-08
1.214727e-07 -2.483928e-08 -6.187693e-08 -3.132375e-08 -8.011075e-09 3.806022e-08
1.160973e-07 -3.040327e-08 -4.394939e-08 -2.055088e-08 -1.831579e-08 7.012916e-08
1.312828e-07 -3.161022e-08 -5.252558e-08 -1.888069e-08 -8.960309e-09 5.267587e-08
7.499064e-08 -3.206585e-08 -3.819889e-08 -1.192910e-08 -1.009634e-08 5.738490e-08
1.015183e-07 -3.266099e-08 -4.530121e-08 -1.262849e-08 -5.079566e-09 4.224654e-08
1.051098e-07 -2.526603e-08 -4.437905e-08 -1.720724e-08 -7.133080e-09 3.756218e-08
9.990118e-08 -2.427266e-08 -4.446632e-08 -2.650212e-08 -8.154975e-09 3.687957e-08
3.865202e-08 1.102296e-07 -2.795093e-08 1.055065e-07 1.771832e-07 9.413293e-08
-8.458572e-08 -3.790859e-08 1.180951e-08 3.601624e-08 2.129579e-07 8.038075e-08
-6.220397e-08 2.692896e-07 -1.859837e-08 1.829449e-07 8.212270e-08 1.779639e-08
-6.430153e-08 2.327436e-07 -4.701014e-08 1.693639e-07 1.796668e-07 9.574722e-08
-8.298387e-08 2.054231e-07 -5.479589e-08 1.071127e-07 1.553907e-07 8.163707e-08
2.949695e-08 2.817769e-09 2.800447e-08 2.158536e-07 1.735647e-07 1.302842e-07
6.270196e-07 -3.604661e-07 1.687142e-07 -1.986398e-07 -6.668340e-08 2.112991e-07
6.267872e-07 -3.042937e-08 5.970084e-08 -1.037498e-07 -8.638626e-08 7.305805e-07
4.918013e-07 -3.509409e-07 7.434288e-07 -2.838248e-08 8.878725e-08 3.194713e-07
6.871462e-08 -4.297737e-07 7.676144e-07 -1.797107e-07 -7.333477e-08 3.929480e-07
4.636636e-07 -2.028500e-07 1.774473e-07 -2.748368e-07 -1.274488e-07 1.755349e-07
-6.708314e-08 -2.151126e-07 6.318456e-07 -1.736448e-07 -7.979869e-08 2.234750e-07
-3.475057e-08 1.253097e-07 -5.095371e-08 -7.763490e-08 1.484804e-07 -9.145434e-08
-6.585409e-08 1.168317e-07 -6.451938e-08 -7.015747e-08 1.841984e-07 -7.257288e-08
-4.865592e-08 1.489149e-07 -7.154994e-08 -1.057751e-07 9.524337e-08 -4.910314e-08
9.166377e-08 -3.337698e-09 -4.133449e-08 -3.482906e-08 -8.361455e-09 1.595288e-08
-1.115405e-07 1.266573e-08 1.335137e-07 -8.031528e-09 2.240230e-07 -8.887029e-08
4.472212e-09 1.086163e-07 -6.161262e-08 -1.283524e-07 1.614086e-07 -1.238509e-07
-1.465817e-07 1.419786e-07 5.743839e-07 -3.407501e-07 -4.121537e-08 -1.109977e-07
-1.107843e-07 1.207582e-08 1.621974e-07 -6.510193e-08 -8.573321e-08 1.703751e-08
-7.268845e-08 -9.837202e-09 2.365707e-07 2.689490e-08 2.827074e-08 7.061168e-08
-1.118494e-07 3.250080e-07 2.048449e-07 -2.863018e-07 -7.304299e-08 6.689573e-08
-2.016424e-07 -1.031769e-07 3.657585e-07 -7.759866e-08 2.965200e-08 6.389245e-08
1.110476e-07 -2.727623e-07 2.245360e-06 1.024336e-06 9.324808e-07 1.531526e-06
6.529009e-07 -4.196602e-07 1.716023e-06 5.120869e-07 2.518422e-07 1.398916e-06
6.595307e-07 -6.815657e-07 2.078798e-06 5.097729e-07 6.995581e-07 1.489488e-06
8.203476e-08 -1.971920e-07 1.616151e-06 7.794203e-07 9.028048e-07 9.015645e-07
-7.801901e-08 1.345981e-07 -4.470981e-08 7.321266e-10 1.528439e-07 -8.640037e-09
-3.915716e-08 1.030325e-07 -1.870543e-08 -6.100395e-08 -2.009669e-07 9.824629e-08
-2.746575e-08 8.714846e-08 -4.212367e-08 -4.456292e-08 -9.398851e-08 4.199154e-08
-2.558161e-08 1.536573e-07 -8.091938e-08 -9.198976e-08 -1.307864e-07 5.806801e-08
-2.983153e-08 1.209674e-08 -3.036951e-08 -5.109386e-10 -1.471156e-07 5.962600e-08
-2.627717e-10 7.508656e-08 -5.862857e-08 4.201000e-08 5.784149e-08 4.112754e-08
6.454464e-10 6.695975e-08 -6.229818e-08 4.512007e-08 6.371304e-08 3.778445e-08
-4.836013e-10 6.626726e-08 -3.821436e-08 3.242832e-08 5.329238e-08 3.091989e-08
1.495353e-08 8.711938e-08 -5.942747e-08 5.811275e-08 4.220642e-08 2.971699e-08
-1.396146e-08 7.907708e-08 -4.014487e-08 4.331743e-08 7.825888e-08 3.340066e-08
-3.683116e-09 7.361877e-08 -6.150775e-08 4.615920e-08 6.703877e-08 4.028064e-08
6.732253e-08 1.383211e-08 -3.454978e-08 -2.680151e-08 -7.652479e-09 1.004936e-08
-4.023447e-08 1.527303e-07 -9.419825e-08 -4.936901e-08 -1.836229e-07 7.250911e-08
4.696354e-07 -3.313217e-07 -3.419152e-08 -9.487535e-08 8.966947e-08 9.798619e-08
-5.847842e-08 2.667793e-07 -1.115761e-07 -7.569203e-08 -1.280510e-07 4.109912e-08
-8.029221e-08 2.221532e-07 -7.119817e-08 -8.874274e-08 -1.486202e-07 6.280038e-08
-3.467774e-08 1.306518e-07 -5.715883e-08 -4.894279e-09 -1.609022e-07 3.721235e-08
-7.916847e-08 2.256472e-07 -8.498218e-08 -5.735012e-08 -2.109557e-07 6.134742e-08
-5.491753e-08 1.615869e-07 -4.589383e-08 -3.003836e-08 -1.214471e-07 2.926232e-08
-5.408634e-08 9.719525e-08 -5.325300e-08 -3.507377e-08 -1.586606e-07 3.360442e-08
-3.406050e-08 1.200059e-07 -4.579993e-08 -4.062891e-08 -1.333869e-07 8.380866e-08
-6.006655e-08 -7.147702e-09 -3.482404e-08 1.571350e-08 -1.323764e-07 7.481452e-08
-2.279317e-08 7.687746e-08 -7.043630e-08 -9.771969e-08 -1.295872e-07 8.453686e-08
-3.346620e-08 1.621092e-07 -8.232345e-08 -1.936540e-07 -1.827544e-07 7.482387e-08
1.411799e-08 1.598923e-07 -8.642271e-08 -1.550980e-07 -1.311590e-07 1.045303e-07
1.747920e-07 1.542194e-07 8.183638e-08 -4.322882e-07 5.308859e-09 -2.312859e-08
-5.328871e-09 1.421810e-07 -9.052396e-08 -1.976179e-07 -2.242799e-07 4.945924e-08
7.620696e-08 2.545356e-07 -2.632443e-08 -2.758309e-07 -1.270409e-07 1.326578e-07
8.179150e-08 2.519521e-07 1.047004e-07 -4.574655e-07 -5.367530e-08 5.558943e-08
3.865869e-08 1.093993e-07 1.352241e-07 -3.437901e-07 -1.975218e-08 7.136234e-08
5.448690e-07 -2.726104e-07 2.114769e-07 -6.973914e-08 -2.399109e-08 -4.737983e-08
2.621798e-08 7.224818e-08 -6.247910e-08 5.303030e-08 2.863703e-08 2.142495e-08
4.182906e-07 -2.626596e-07 9.017723e-08 -5.643532e-08 -3.576140e-08 7.660259e-08
8.792003e-08 -9.778329e-08 3.164723e-07 -4.131795e-08 1.045285e-07 -1.004829e-07
4.661135e-07 -7.868838e-08 1.020129e-07 -5.444572e-08 -3.896690e-08 1.282446e-07
4.634066e-08 1.701185e-08 -2.596263e-08 1.783526e-08 6.516123e-09 7.803832e-09
4.567767e-08 1.676887e-08 -2.113202e-08 1.121754e-08 1.241587e-09 2.786623e-09
4.999732e-08 1.753035e-08 -2.418077e-08 1.486498e-08 2.339459e-09 4.412359e-09
4.441676e-08 1.952401e-08 -2.627208e-08 1.905401e-08 5.955413e-09 6.486311e-09
4.781797e-08 1.908612e-08 -2.828795e-08 1.837923e-08 4.550893e-09 5.652277e-09
5.080912e-08 1.655148e-08 -2.764841e-08 1.517993e-08 5.009334e-09 5.419656e-09
4.191218e-08 1.936418e-08 -2.408594e-08 1.173938e-08 2.858177e-09 3.604640e-09
4.484913e-08 2.269473e-08 -2.663354e-08 1.527877e-08 6.249727e-09 4.879109e-09
2.211449e-07 -6.128940e-08 -9.236402e-08 -1.193644e-08 -5.767116e-09 7.443003e-08
1.624123e-07 -4.283008e-08 -6.932761e-08 -2.235427e-08 -9.698301e-09 8.454660e-08
1.658688e-07 -5.169180e-08 -7.690038e-08 -2.266803e-08 -7.131926e-09 5.381721e-08
1.505207e-07 -4.864779e-08 -7.568542e-08 -3.492950e-08 -9.075634e-09 6.294795e-08
2.013873e-07 -8.138366e-08 -7.650369e-08 -3.280292e-08 -1.665592e-08 1.202170e-07
1.401212e-08 7.890394e-08 -5.446974e-08 5.054368e-08 2.796478e-08 1.607866e-08
1.832587e-07 -6.238106e-08 -7.507166e-08 -2.206904e-08 -2.360642e-08 1.111084e-07
1.934393e-07 -5.294779e-08 -8.413782e-08 -3.757911e-08 -1.438332e-08 7.929881e-08
-4.255135e-08 7.751641e-08 -4.993883e-08 2.113753e-09 7.840598e-08 -3.752311e-08
-2.146942e-08 5.875762e-08 -4.070931e-08 -1.383064e-08 8.148683e-08 -3.098089e-08
-7.356811e-09 1.425772e-07 -8.563959e-08 -7.129934e-08 5.815243e-08 -2.611926e-08
-1.904962e-08 1.003718e-07 -6.750683e-08 -2.786199e-08 5.154667e-08 -2.157468e-08
-5.794834e-09 1.045931e-07 -7.066912e-08 -5.708786e-08 9.412108e-08 -4.131577e-08
-2.389202e-08 9.677974e-08 -7.224848e-08 -3.721165e-08 1.050276e-07 -4.801336e-08
9.933251e-08 -6.326398e-09 -5.047231e-08 -4.751644e-08 -2.386121e-08 5.002781e-08
6.793175e-08 -2.016743e-08 -3.777237e-08 -2.138927e-08 -1.923517e-08 4.337574e-08
1.267286e-07 -1.362541e-08 -7.614848e-08 -5.802818e-08 -2.521506e-08 6.623383e-08
1.159584e-08 3.319318e-08 -3.116594e-08 1.994876e-08 2.446131e-08 1.905162e-08
5.515923e-08 1.041286e-08 -2.162188e-08 1.757232e-08 5.567136e-09 8.408328e-09
8.192596e-08 -1.427682e-08 -5.067092e-08 -3.353351e-08 -2.259606e-08 4.766322e-08
-4.250489e-08 1.108568e-07 -6.490214e-08 -4.308700e-08 1.334453e-07 -4.922812e-08
-1.717803e-08 8.015332e-08 -6.937228e-08 -9.045414e-08 1.292639e-07 -6.024577e-08
-4.398513e-08 2.304420e-07 -7.794936e-08 -1.158261e-07 1.403171e-07 -5.645913e-08
-6.260902e-08 1.068154e-07 5.088229e-08 -7.160635e-08 2.522718e-07 -1.074131e-07
-3.615984e-08 1.314224e-07 -7.042735e-08 -7.851233e-08 1.108487e-07 -6.641691e-08
-3.355104e-08 9.359575e-08 -2.652035e-08 -5.470627e-08 1.753307e-07 -8.191071e-08
-3.387814e-08 -5.203650e-08 9.562288e-09 -5.624935e-08 1.608289e-07 -8.007933e-08
8.997730e-08 3.042833e-08 -8.202071e-08 -8.082010e-08 -3.607942e-08 5.234131e-08
9.623405e-08 1.152958e-08 -6.666606e-08 -7.529356e-08 -5.441777e-08 7.216179e-08
5.767991e-08 3.696259e-10 -6.297034e-08 -7.329699e-08 -6.419696e-08 8.056038e-08
2.289956e-08 6.137538e-08 -4.227941e-08 -6.772168e-08 -5.093836e-08 7.241073e-08
9.289874e-08 -2.907869e-08 -2.593877e-08 1.533663e-08 4.414865e-09 3.198416e-08
9.952555e-08 -3.183306e-08 -3.192258e-08 8.716076e-09 1.418942e-10 3.457192e-08
1.111658e-07 -3.013065e-08 -4.833066e-08 1.524819e-08 3.205578e-09 2.822206e-08
1.000329e-07 -2.640298e-08 -4.687002e-08 9.482146e-09 2.441406e-09 2.886111e-08
1.092123e-07 -2.618081e-08 -4.638633e-08 1.431632e-08 2.673817e-09 4.008944e-08
1.060282e-07 -3.221102e-08 -4.591458e-08 9.185182e-09 3.677948e-09 4.181290e-08
1.165675e-07 -3.199044e-08 -4.630538e-08 5.810789e-09 1.654364e-09 2.443046e-08
8.298032e-08 -2.589688e-08 -3.123990e-08 5.347050e-09 3.213864e-09 2.877488e-08
3.812199e-07 -1.734853e-06 5.167467e-06 -4.154689e-07 9.132563e-07 -2.986214e-06
1.557149e-07 -3.018981e-08 -7.815426e-08 -7.507050e-08 -3.385214e-08 7.014635e-08
5.830694e-07 -1.810800e-06 4.437360e-06 -5.184187e-07 1.159937e-06 -2.495999e-06
-1.410658e-06 -8.553698e-07 4.494066e-06 -6.026061e-07 1.565483e-06 -1.468570e-06
-1.414870e-06 1.912947e-07 4.271472e-06 -5.382006e-07 1.974202e-06 -1.499319e-06
-3.410467e-07 -8.390908e-07 2.887913e-06 -1.206105e-06 1.115660e-06 -9.573681e-07
2.432504e-07 -8.856761e-08 -1.002746e-07 -3.648197e-08 8.314866e-09 8.273330e-08
5.386559e-07 -6.708790e-07 3.671211e-06 -1.010564e-06 1.827329e-06 -2.475879e-06
9.267921e-08 1.445378e-09 -4.651210e-08 4.669861e-08 1.393255e-08 3.075370e-08
1.286798e-07 -1.243469e-08 -6.766613e-08 7.840794e-08 4.159531e-08 8.593473e-08
1.153390e-07 5.740164e-10 -7.109998e-08 7.997407e-08 4.775233e-08 9.594335e-08
8.801668e-08 -1.753146e-08 -4.287723e-08 4.802210e-08 3.524122e-08 6.108194e-08
9.857992e-08 9.397632e-09 -7.431061e-08 7.147643e-08 4.696670e-08 7.934078e-08
6.363874e-08 2.432163e-08 -7.712824e-08 6.433305e-08 4.689498e-08 5.499688e-08
4.159629e-08 -8.318212e-09 -3.462952e-08 2.913898e-08 2.411153e-08 5.228317e-08
1.018854e-07 -3.419799e-08 -3.967065e-08 -9.051061e-09 -3.407036e-09 4.643336e-08
1.056068e-07 -2.834663e-08 -4.852651e-08 5.037679e-09 1.327476e-09 3.510441e-08
8.495477e-08 -2.814178e-08 -2.870545e-08 -8.702821e-10 -2.026361e-10 2.484155e-08
2.467791e-07 -7.602624e-08 -9.087686e-08 3.761018e-08 2.208051e-09 9.538290e-08
1.134372e-07 -2.680499e-08 -3.737157e-08 -9.862273e-09 -5.961705e-10 3.606465e-08
1.070708e-07 -2.529172e-08 -4.415407e-08 -2.970807e-09 2.076817e-09 2.656667e-08
8.474725e-08 -2.520175e-08 -2.864515e-08 -1.397997e-09 4.663911e-10 2.488816e-08
1.062308e-07 -2.784772e-08 -3.840877e-08 -6.943613e-09 1.228155e-09 2.951765e-08
1.058527e-07 -2.381605e-08 -4.750157e-08 -6.189884e-09 1.029697e-09 3.165408e-08
-8.833681e-08 3.582009e-07 -1.094940e-07 -1.029368e-07 -1.663431e-07 3.625530e-08
-6.116091e-08 1.467474e-07 -5.381368e-08 -7.082748e-08 -1.376389e-07 4.212884e-08
-6.940211e-08 2.008632e-07 -5.028618e-08 -1.066644e-07 -1.653110e-07 7.888338e-08
-8.379739e-08 2.888852e-07 -7.576772e-08 -1.263708e-07 -1.947754e-07 9.950004e-08
-8.460887e-08 2.644863e-07 -6.867022e-08 -1.578006e-07 -2.066342e-07 6.163460e-08
2.352577e-07 1.029533e-07 -7.914618e-08 3.034565e-07 -1.294172e-07 -9.824837e-08
-6.313386e-08 2.659008e-07 -1.186736e-07 -1.691323e-07 -1.508463e-07 4.951170e-08
1.419000e-07 7.538730e-08 -2.683672e-08 -2.193961e-07 -8.849212e-08 7.617709e-08
1.577347e-08 4.768807e-08 1.019371e-07 -2.189229e-07 -1.131114e-07 8.196934e-08
-6.152672e-08 -3.922551e-08 3.576537e-08 -6.604148e-08 -1.379028e-07 1.544602e-07
-7.175005e-08 1.670482e-07 -7.561337e-08 -6.938878e-08 -2.180409e-07 3.905400e-08
3.939021e-07 -2.046269e-07 8.569382e-07 5.214128e-07 -2.548656e-07 -3.860545e-07
7.240890e-08 -7.958164e-09 -3.580907e-08 -1.781888e-07 9.258748e-08 -5.641379e-08
-6.059011e-08 1.590728e-07 -4.365447e-08 -1.215690e-07 -1.637931e-07 1.023022e-07
-1.424116e-08 8.960369e-08 -6.117651e-08 6.383353e-08 -1.178692e-07 -7.878645e-08
-3.019799e-08 4.685961e-08 3.410675e-08 -6.193998e-08 -2.374636e-07 1.091171e-07
3.168944e-07 -4.660031e-08 4.401741e-07 5.169336e-07 2.360107e-08 1.516284e-08
-1.078833e-06 8.223396e-07 1.319619e-06 -3.072606e-07 7.445569e-07 -4.670291e-07
-8.017170e-07 8.849035e-07 1.422970e-06 -4.015777e-07 1.022038e-06 -6.492476e-08
-3.261235e-06 -1.902508e-06 9.435328e-06 -3.892683e-07 -3.034802e-06 4.528675e-07
-3.983371e-06 -1.665282e-06 1.610815e-05 -4.104890e-07 -2.134380e-06 5.390784e-07
-9.152253e-07 -1.639866e-06 1.300501e-05 -6.943586e-07 -2.484048e-06 5.344793e-06
-1.267243e-06 -2.126377e-06 1.230506e-05 -6.432095e-07 -3.407312e-06 2.154048e-06
-2.644871e-06 -5.182896e-07 4.282687e-06 6.526068e-07 -2.904733e-06 -3.982119e-07
-2.629115e-06 -5.912748e-07 6.290898e-06 5.413020e-07 -3.210984e-06 -8.365607e-08
1.529209e-07 -3.770986e-08 -7.075769e-08 -7.446816e-08 -3.441871e-08 1.164994e-07
1.329462e-07 -4.096453e-08 -4.828668e-08 -8.843151e-08 -6.136092e-08 1.281958e-07
1.508899e-07 -2.132590e-08 -5.594812e-08 -8.134293e-08 -4.049661e-08 1.074446e-07
1.305586e-07 -4.391880e-08 -5.878823e-08 -6.262392e-08 -3.196177e-08 1.135447e-07
1.504970e-07 -3.949282e-08 -7.970210e-08 -1.018018e-07 -5.721633e-08 1.574567e-07
8.958229e-08 2.188309e-08 -6.822833e-08 1.091615e-07 6.494705e-08 8.530762e-08
1.348797e-07 2.530246e-09 -9.473088e-08 1.154021e-07 4.580604e-08 6.868165e-08
1.360659e-07 -1.891652e-08 -8.721566e-08 1.070784e-07 5.462088e-08 1.093507e-07
9.124211e-08 2.063094e-08 -8.208958e-08 9.146907e-08 3.605310e-08 5.358135e-08
9.656943e-08 2.670300e-08 -7.046631e-08 1.003639e-07 5.797530e-08 8.746063e-08
1.505280e-07 5.397002e-09 -9.429121e-08 1.362051e-07 5.147162e-08 9.321307e-08
-1.196307e-06 -2.239637e-06 4.647135e-06 1.156032e-06 2.430959e-06 4.248003e-06
-9.059480e-08 -2.126236e-06 7.163219e-06 -2.440629e-07 -1.512115e-06 3.685220e-06
1.076930e-07 -1.932918e-06 5.379460e-06 3.031354e-07 2.411349e-06 4.304916e-06
-1.140756e-06 -2.124320e-06 8.275550e-06 -2.790487e-07 -1.599056e-06 3.085456e-06
-2.701182e-06 -3.461589e-06 1.146639e-05 5.721660e-07 -4.855335e-08 3.509837e-06
3.873813e-07 -1.691838e-06 5.029773e-06 1.834384e-08 2.481621e-06 3.857648e-06
2.590979e-07 -8.031415e-08 1.530827e-07 2.959303e-07 1.274638e-08 1.241463e-07
1.829132e-07 -6.281515e-09 1.333761e-08 2.595495e-07 7.527234e-08 3.643080e-08
1.247437e-07 -6.838651e-08 5.739995e-08 1.343964e-07 7.337233e-08 1.251276e-07
2.000845e-07 4.205093e-08 -1.030627e-07 2.371911e-07 5.604085e-08 1.284716e-07
3.115093e-07 -7.659128e-08 5.761341e-08 2.554118e-07 2.677314e-08 2.115533e-07
1.957042e-07 -6.196282e-08 3.278156e-09 2.192304e-07 1.064752e-07 4.136727e-08
9.166422e-08 -1.751825e-08 -4.423862e-08 -2.161460e-08 -1.104984e-08 3.586996e-08
7.735102e-08 -1.836695e-08 -3.129190e-08 -1.568929e-08 -6.494079e-09 3.062392e-08
9.688433e-08 -1.773221e-08 -3.800627e-08 -2.009921e-08 -1.123070e-08 2.705823e-08
8.940096e-08 -1.373766e-08 -3.843749e-08 -2.859969e-08 -9.118228e-09 2.769309e-08
8.514379e-08 -1.162104e-08 -3.713841e-08 -1.928298e-08 -1.000233e-08 2.094431e-08
2.172624e-08 6.778889e-08 -5.143734e-08 5.522057e-08 5.025124e-08 4.119257e-08
1.587260e-08 4.161989e-08 -4.234422e-08 5.058812e-08 5.046274e-08 4.245025e-08
-3.375164e-08 3.210571e-09 -3.264443e-08 5.668526e-09 1.355553e-07 -4.121315e-08
1.571004e-08 4.098391e-08 -5.513560e-08 5.026416e-08 6.085863e-08 4.836836e-08
2.043349e-08 1.800974e-08 -3.499235e-08 2.878789e-08 3.580089e-08 3.392243e-08
1.997499e-08 4.088818e-08 -2.993284e-08 3.516130e-08 3.187707e-08 2.346834e-08
3.419394e-08 3.814628e-08 -3.564865e-08 4.852828e-08 5.060829e-08 4.588469e-08
1.894407e-09 2.909911e-08 -3.363102e-08 2.035521e-08 3.901363e-08 3.186550e-08
1.158731e-07 -1.348437e-08 -5.388542e-08 -3.481457e-08 -1.026029e-08 2.895997e-08
6.854431e-08 -3.763542e-09 -2.443882e-08 2.000741e-08 6.581638e-09 1.506494e-08
9.703047e-08 -2.146030e-09 -6.375411e-08 -4.158661e-08 -1.804823e-08 3.592592e-08
8.281647e-08 -7.783761e-09 -3.798569e-08 -3.203985e-08 -1.329409e-08 2.174147e-08
8.457151e-08 -3.093486e-09 -3.601930e-08 -2.866641e-08 -1.011171e-08 2.367055e-08
8.308708e-08 3.378894e-09 -4.694704e-08 -3.352971e-08 -1.077404e-08 2.277788e-08
3.503063e-07 -1.343426e-07 1.798906e-07 -4.674454e-07 4.478484e-08 -2.292916e-08
1.001202e-07 -1.026008e-09 -5.225241e-08 -4.374202e-08 -1.401929e-08 2.639336e-08
2.705602e-07 -6.644037e-08 1.929469e-07 4.362407e-07 6.252023e-08 8.885354e-08
-1.851204e-07 2.391666e-07 1.286546e-07 5.811627e-07 5.651557e-08 -2.220765e-08
8.540452e-09 -7.834667e-08 2.873236e-07 3.624332e-07 5.166307e-08 3.083874e-08
1.149930e-07 2.492108e-07 1.237599e-07 5.262549e-07 4.453790e-08 4.420732e-08
1.775276e-07 -5.814455e-08 4.115985e-07 6.788493e-07 -2.666482e-08 2.320462e-07
2.584211e-07 6.344280e-08 6.620795e-08 4.564381e-07 -6.533993e-08 1.310981e-07
5.155599e-08 9.578202e-09 -2.306569e-08 1.361003e-08 3.714173e-09 5.983652e-09
4.684530e-08 1.881211e-08 -2.728697e-08 1.930294e-08 8.423111e-09 1.087969e-08
5.009199e-08 1.617748e-08 -2.170536e-08 1.450085e-08 4.289349e-09 5.134427e-09
4.469546e-08 1.562232e-08 -2.521829e-08 1.620676e-08 5.197550e-09 7.828812e-09
-9.760480e-07 2.564173e-07 3.290694e-06 1.003267e-06 -2.625986e-06 -1.129737e-06
1.655101e-07 -3.303641e-08 -7.775993e-08 6.945497e-08 1.662067e-08 5.554375e-08
-4.235877e-07 1.356806e-07 2.086672e-06 8.440082e-07 -1.102343e-06 -4.775216e-07
-7.371509e-07 3.603754e-07 1.789941e-06 4.848986e-07 -6.126231e-07 -2.770216e-07
-2.116418e-07 3.806356e-07 7.638938e-07 6.114651e-07 -5.968595e-07 -4.164452e-07
-2.373910e-07 6.895828e-08 1.359258e-06 7.035704e-07 -3.786107e-07 -4.477848e-07
-7.017337e-07 1.409083e-07 1.770659e-06 5.390900e-07 -6.807516e-07 -2.506550e-07
3.549563e-07 -2.014868e-07 4.912351e-07 -2.823502e-07 2.885623e-09 8.085204e-08
7.259866e-08 -4.462318e-08 1.648833e-07 -2.611504e-07 6.386660e-08 -9.959496e-09
1.879643e-07 1.372016e-07 1.914411e-09 -2.478939e-07 1.531166e-07 -1.694627e-07
3.936006e-07 -4.223827e-08 9.612070e-08 -4.030526e-07 4.640998e-09 -3.777981e-08
-7.442544e-08 2.599800e-07 -1.187062e-07 1.214023e-07 -1.227487e-07 -4.915265e-08
2.840691e-07 -9.935173e-08 1.949689e-08 -2.203292e-07 5.491494e-08 5.710214e-08
1.601742e-07 -5.616862e-08 -7.465912e-08 -3.727481e-08 -2.579773e-08 1.211339e-07
1.423419e-07 -3.245307e-08 -7.583938e-08 -3.158263e-08 -9.593533e-09 6.161102e-08
-2.705828e-07 5.585673e-07 8.258384e-08 -1.645979e-07 -1.007126e-07 5.510596e-08
-2.023590e-07 2.875791e-07 1.727809e-07 -1.756138e-07 -5.995363e-08 -5.430053e-09
-2.874026e-07 3.919073e-07 7.715172e-08 -5.850772e-08 -6.888677e-08 -9.343905e-09
-2.592523e-07 2.864822e-07 -1.228723e-08 -6.875534e-08 -2.164999e-07 3.476499e-08
-4.358934e-07 5.058981e-07 3.707014e-07 -1.895446e-07 1.125390e-07 -4.305951e-08
7.592090e-08 2.157856e-09 -4.723792e-08 3.875882e-08 7.957173e-09 2.396235e-08
3.837296e-07 -3.188238e-07 5.529644e-07 1.358315e-07 -3.584615e-08 -1.437404e-07
9.028541e-09 -3.907782e-07 7.833813e-07 2.288764e-07 7.467582e-08 -6.145050e-07
4.510112e-07 4.511746e-08 3.333044e-07 2.126583e-07 -2.968849e-07 -4.169931e-07
5.048467e-07 -3.136361e-07 3.510973e-07 3.951846e-07 -1.454693e-07 -2.141229e-07
2.878444e-07 -2.251414e-07 3.756425e-07 3.645101e-07 -8.555698e-08 -2.952713e-07
3.687536e-07 -2.564920e-07 5.211874e-07 1.483854e-07 2.163394e-08 -9.363988e-08
1.390423e-07 3.102587e-08 -3.773826e-08 2.053255e-07 -1.361968e-07 -1.448315e-07
3.410535e-07 -2.350361e-07 6.187423e-07 2.147118e-07 -2.385146e-08 -1.357651e-07
1.229811e-08 1.626822e-07 5.551187e-07 3.596469e-07 6.402533e-08 -1.032489e-07
-7.406922e-09 1.364653e-07 9.648958e-08 2.361493e-07 -8.476237e-09 9.929742e-08
4.568243e-09 2.359258e-07 2.337194e-08 3.359348e-07 -8.337692e-08 -1.685002e-07
4.600923e-08 2.856938e-08 -4.134160e-08 -3.142173e-08 -2.322152e-08 2.829489e-08
3.736055e-08 2.929980e-08 -4.203979e-08 -3.291889e-08 -2.390316e-08 2.573799e-08
4.478157e-08 1.947777e-08 -2.876529e-08 -3.218700e-08 -1.940771e-08 2.059554e-08
2.700743e-08 1.399147e-08 -3.329183e-08 -2.217763e-08 -2.564678e-08 3.085957e-08
4.267807e-08 2.260066e-08 -3.158002e-08 -3.517104e-08 -3.181255e-08 3.335367e-08
4.935664e-08 3.478749e-08 -4.827108e-08 -5.172763e-08 -3.265228e-08 4.311876e-08
4.089569e-08 3.489751e-08 -4.234895e-08 -3.914822e-08 -2.619950e-08 3.035507e-08
3.775618e-07 -6.020317e-07 1.174384e-06 -5.058946e-07 -2.108055e-08 -4.140315e-07
3.894214e-07 -6.617264e-07 1.476173e-06 -4.065144e-07 1.283835e-07 -4.588356e-07
4.273000e-07 -2.513490e-07 1.267930e-06 -4.775204e-07 1.287659e-07 -6.792126e-07
3.491162e-07 -2.366147e-07 6.116460e-07 -4.022021e-07 1.052452e-07 -2.325429e-07
4.165903e-07 -1.017623e-07 3.650894e-07 -5.153287e-07 1.453875e-07 -1.820158e-07
1.168037e-07 -2.885727e-08 -6.166124e-08 4.410806e-08 2.941569e-08 9.687402e-08
1.120771e-07 -3.121380e-08 -6.257495e-08 2.520756e-08 1.700569e-08 7.224688e-08
1.038925e-07 -3.001593e-08 -3.667836e-08 3.385227e-08 1.686780e-08 6.021521e-08
1.155758e-07 -2.936163e-08 -4.625883e-08 4.216269e-08 2.760703e-08 7.817761e-08
7.314244e-08 -2.812865e-08 -3.885155e-08 3.096952e-08 1.959643e-08 7.071283e-08
6.156582e-08 6.547424e-08 -1.232037e-08 -2.779202e-07 -7.852900e-08 7.527366e-08
1.415620e-07 1.290668e-08 9.653761e-08 -2.265346e-07 -5.603914e-08 7.170157e-08
3.034967e-07 -1.077448e-08 -6.323550e-08 -2.489010e-07 -7.878025e-08 1.370497e-07
1.654832e-07 1.088538e-07 1.241044e-07 -3.337563e-07 -3.420390e-08 -3.043652e-09
2.731724e-07 -1.062648e-07 3.418871e-08 -1.531245e-07 -7.625171e-08 5.048852e-08
1.421361e-07 -7.415924e-08 9.646707e-08 -2.562575e-07 -5.989178e-08 6.935123e-08
7.383765e-08 -3.842713e-08 6.190674e-08 -1.097884e-07 -1.012545e-07 1.631177e-07
5.363548e-08 1.452967e-08 -6.964956e-08 -1.325272e-07 -1.191184e-07 1.700029e-07
1.208310e-07 -4.056413e-08 -6.000780e-08 -1.428467e-07 -9.609303e-08 2.126733e-07
1.288861e-07 6.219888e-08 -9.154954e-08 -2.048183e-07 -8.555394e-08 7.864404e-08
2.167049e-07 -3.936964e-09 -5.719997e-08 -1.105196e-07 -8.977136e-08 1.122380e-07
1.810306e-07 9.727012e-08 -6.854225e-08 2.925610e-07 1.015336e-07 1.321588e-07
3.622624e-07 -9.228191e-08 7.499521e-08 2.410710e-07 5.970546e-08 1.673286e-07
5.882047e-08 5.900750e-08 -7.543648e-08 1.993795e-07 -9.783529e-08 -1.090201e-07
2.096223e-07 -1.090505e-07 2.621275e-08 1.770228e-07 -7.574741e-09 5.298842e-08
2.680174e-07 -1.000774e-07 -5.707633e-09 2.133591e-07 6.313594e-08 1.591011e-07
2.262480e-07 -1.741796e-08 -2.751630e-08 2.400278e-07 6.904270e-08 8.244727e-08
1.902817e-07 -1.634715e-08 -5.161118e-08 2.103224e-07 1.148686e-08 9.174283e-08
4.177669e-07 -1.902756e-07 1.088681e-07 2.965648e-07 -6.164457e-08 9.343311e-08
-3.463446e-08 9.622264e-08 -4.412148e-08 6.899864e-08 1.274018e-07 8.464638e-08
-6.913467e-08 2.239912e-07 -6.404038e-08 1.620367e-07 1.521178e-07 6.316390e-08
-7.317683e-08 1.271401e-07 -1.961447e-08 8.212461e-08 1.859438e-07 5.406973e-08
-6.285930e-08 2.920161e-07 2.772017e-08 1.717483e-07 2.230658e-07 9.327829e-08
2.984081e-08 4.127114e-08 -3.379254e-08 -3.903203e-08 -4.490543e-08 3.899282e-08
-3.020116e-08 1.171175e-07 -4.239430e-08 7.742812e-08 1.290798e-07 4.592855e-08
-1.226533e-07 2.774827e-07 1.555734e-08 2.200583e-07 1.026348e-07 4.801590e-08
-3.496406e-08 9.347080e-08 -5.919352e-08 9.196568e-08 1.957847e-07 1.096757e-07
3.833794e-08 2.038471e-08 -3.988421e-08 -3.561844e-08 -3.737822e-08 3.575372e-08
5.230319e-08 1.758251e-08 -2.783522e-08 -3.076613e-08 -1.952799e-08 2.352330e-08
-5.264603e-08 1.327097e-07 -4.864474e-08 -1.211765e-08 1.134321e-07 -8.283882e-09
4.763875e-08 2.676670e-09 -3.104580e-08 -2.583369e-08 -2.192029e-08 2.727013e-08
5.475841e-08 1.056619e-08 -5.730247e-08 -4.279878e-08 -3.840495e-08 4.731308e-08
5.412747e-08 -5.131922e-09 -3.726783e-08 -3.230106e-08 -4.164168e-08 5.026485e-08
6.559120e-08 1.869453e-08 -5.605831e-08 -6.360510e-08 -3.022859e-08 4.926888e-08
6.774211e-08 1.177763e-08 -4.805273e-08 -4.857477e-08 -3.173418e-08 3.550833e-08
5.780915e-08 1.311278e-08 -3.356300e-08 -3.666561e-08 -2.808965e-08 3.847940e-08
2.051125e-08 7.588627e-07 4.223591e-07 9.604132e-07 8.546411e-07 8.088807e-07
3.253705e-07 -6.884495e-07 2.314445e-06 1.111827e-06 1.298657e-06 1.215474e-06
4.113164e-07 -6.495853e-07 1.787971e-06 1.169985e-06 1.672065e-06 1.841052e-06
1.776070e-07 5.019329e-08 -5.555123e-08 -2.869002e-07 1.136749e-07 -1.032040e-07
3.375788e-07 -1.719359e-07 9.051033e-07 5.842798e-07 4.115504e-07 7.278281e-07
1.004545e-06 -6.775828e-07 1.650538e-06 2.321711e-07 5.735917e-07 2.139084e-06
-1.686462e-07 -2.017044e-07 8.141868e-07 8.725096e-07 8.960146e-07 2.322720e-07
1.464235e-07 1.574435e-06 2.145190e-07 6.399491e-07 9.208051e-07 7.815541e-07
-3.203791e-07 2.319333e-07 1.011235e-06 -4.928246e-07 -2.862546e-08 -6.383160e-08
-5.109616e-07 6.654439e-07 6.459249e-07 -2.851195e-07 -3.414116e-07 1.356370e-07
-5.983773e-07 5.731438e-07 1.214965e-06 -3.929223e-07 -2.978450e-07 3.555645e-07
-3.185235e-07 4.447304e-07 6.701493e-07 -4.189415e-07 -4.329251e-08 1.953681e-07
-4.630534e-07 2.506722e-07 1.636016e-06 -2.398026e-07 -2.291640e-07 -2.604420e-07
-2.617281e-07 1.782963e-07 6.342528e-07 -2.632633e-07 -1.553800e-07 6.402331e-08
-5.071094e-07 6.634173e-07 3.945243e-07 -2.893796e-07 -5.946334e-07 2.373786e-07
-3.577605e-07 4.200652e-07 1.351645e-06 -4.557215e-07 -3.805426e-07 4.554400e-07
-3.137709e-07 3.460232e-07 4.221261e-07 -1.115275e-07 -5.931804e-07 2.998290e-07
1.449932e-07 1.100835e-08 -1.151640e-07 1.369301e-07 1.076974e-07 1.381537e-07
8.071550e-08 -2.211515e-10 -3.543490e-08 1.100028e-07 1.198572e-07 1.725169e-07
1.279073e-07 3.355201e-08 -6.557700e-08 1.644151e-07 7.399317e-08 1.034360e-07
1.861086e-07 -6.377308e-08 3.047233e-07 4.670933e-07 -2.683765e-08 -1.179579e-07
9.750073e-08 -4.702321e-08 1.293530e-08 1.747948e-07 9.546970e-08 9.513663e-08
7.447010e-08 -1.605591e-08 -1.063296e-08 1.846275e-07 6.363643e-08 1.974416e-07
1.915519e-07 -1.081538e-07 6.090267e-08 2.892280e-07 5.906261e-08 6.282420e-08
-2.310266e-07 -1.632838e-06 5.284070e-06 -9.512252e-07 -2.057558e-06 1.976818e-06
-1.164441e-06 6.931258e-08 5.834810e-06 -7.880780e-07 -1.072390e-05 1.655238e-06
-1.996122e-06 -6.592855e-07 4.026797e-06 -6.193005e-07 -1.429243e-06 8.036108e-07
-4.458375e-07 -1.163705e-06 3.500058e-06 -8.483606e-07 -9.637541e-07 1.202351e-06
2.031411e-08 2.286297e-08 -3.256968e-08 -2.037743e-08 -2.583816e-08 2.541867e-08
-7.651112e-08 2.223154e-07 -8.645004e-08 -1.282376e-08 1.321033e-07 -1.518640e-08
-1.005667e-07 2.154664e-07 -8.162087e-08 -2.518393e-08 1.320434e-07 -6.532628e-10
-6.080027e-08 2.201707e-07 -7.203259e-08 -4.079567e-08 1.062072e-07 -2.037667e-08
-5.381168e-08 1.335301e-07 -6.879417e-08 -1.179436e-08 1.190193e-07 -1.475715e-08
-4.303141e-08 1.695007e-07 -8.284224e-08 -1.836668e-08 7.181760e-08 -1.162794e-08
-5.724681e-08 1.757458e-07 -8.949667e-08 -4.352481e-08 8.377716e-08 -1.362002e-09
-1.907687e-06 3.589222e-07 4.158106e-06 1.388755e-07 2.299654e-06 2.503376e-07
-2.549300e-06 -5.426945e-07 1.033979e-05 9.754527e-08 5.174512e-06 7.356224e-07
-2.679276e-06 4.201461e-08 6.657796e-06 -1.181242e-06 4.702405e-06 -3.241280e-06
-1.125165e-06 6.376767e-07 2.879129e-06 -8.777719e-07 1.804148e-06 -1.545923e-06
-1.303897e-06 1.222312e-06 2.083686e-06 -5.162692e-07 2.840955e-06 5.386441e-08
-2.197360e-06 -8.064101e-07 8.853459e-06 2.875222e-07 3.667801e-06 3.744852e-07
2.960894e-07 -8.881370e-08 -6.451546e-08 -1.125685e-07 -7.943300e-08 1.866678e-07
9.976693e-08 6.133500e-08 1.941446e-08 -1.815342e-07 1.427977e-07 -1.064862e-07
2.600632e-07 -3.141143e-08 -7.961694e-08 -1.907107e-07 -4.681724e-08 7.306154e-08
-1.552552e-07 3.379605e-07 5.831701e-08 2.512790e-07 -8.290462e-08 -3.117126e-08
-1.753000e-07 3.970544e-07 -2.203979e-08 2.450226e-07 -9.928858e-08 -7.235745e-08
-2.503026e-07 4.346881e-07 3.902162e-07 2.151497e-07 -2.061150e-07 9.925647e-09
-1.164500e-07 4.674118e-07 -1.762101e-07 4.381216e-07 -1.236209e-07 7.559951e-08
-3.412854e-07 5.298962e-07 1.150691e-07 3.596544e-07 1.328187e-08 -1.492833e-07
-1.811381e-07 2.107800e-07 6.350026e-07 5.912795e-07 -2.580458e-07 -8.106834e-08
-9.294017e-08 1.632285e-07 4.152484e-07 3.846601e-07 4.452644e-08 -4.087123e-08
-2.604604e-08 1.374423e-07 1.638498e-07 3.949372e-07 -3.954100e-08 3.275559e-08
-2.438227e-07 4.038060e-07 3.273123e-07 4.716153e-07 5.188195e-08 -1.596463e-07
5.794839e-07 -2.679426e-07 9.348871e-08 -2.129090e-07 -4.111005e-08 6.261353e-08
2.272929e-07 1.046084e-08 1.582023e-08 -2.494694e-07 1.284013e-08 8.102364e-08
2.242145e-07 -5.992811e-08 -5.583039e-08 -1.158960e-07 -7.276964e-09 1.309138e-07
1.470565e-07 -5.668220e-08 -5.183852e-08 -1.333949e-07 -5.198474e-08 1.252520e-07
1.403290e-07 -4.523327e-08 -4.482736e-08 -5.893530e-08 -6.582875e-08 1.647494e-07
5.170962e-07 -2.062106e-07 3.294899e-08 -1.521855e-07 -2.376405e-08 1.296071e-07
2.891160e-08 6.592456e-08 -5.162649e-08 5.744391e-08 5.095427e-08 4.121859e-08
1.149864e-08 6.339537e-08 -3.852425e-08 3.725888e-08 4.414588e-08 2.793518e-08
2.001834e-08 4.594845e-08 -4.300823e-08 3.197430e-08 2.721826e-08 2.642309e-08
2.969924e-08 3.636463e-08 -3.017027e-08 3.510448e-08 3.464095e-08 2.725989e-08
3.557754e-08 5.143817e-08 -5.205900e-08 5.955300e-08 3.883061e-08 3.406450e-08
-1.959508e-06 -1.267720e-06 7.676975e-06 7.582597e-07 2.454247e-06 2.504444e-06
-1.262342e-06 -4.723590e-07 4.647444e-06 1.435963e-06 2.359056e-06 4.219621e-06
-1.163759e-06 3.447440e-07 5.692599e-06 1.746842e-06 5.824547e-06 5.791233e-06
-2.506958e-06 -2.123528e-06 1.624369e-05 9.593148e-07 4.755889e-06 4.772044e-06
-1.267468e-06 -5.974040e-07 6.177639e-06 1.503474e-06 2.937752e-06 3.544125e-06
-2.070193e-06 -4.841630e-07 5.962404e-06 6.056890e-07 4.172102e-06 1.163464e-06
-1.776455e-06 -3.023237e-07 5.992966e-06 2.867577e-07 4.486743e-06 9.810751e-07
-1.874002e-06 -5.536152e-07 7.588337e-06 -3.752816e-07 3.744613e-06 1.523077e-06
-4.269576e-08 1.857900e-08 -4.822982e-08 -2.410971e-08 -1.409221e-07 -5.093387e-08
2.083833e-07 -1.072750e-07 4.797955e-07 6.096364e-07 -2.759379e-07 -8.220433e-08
-2.458752e-07 -2.827580e-07 2.540438e-06 8.238117e-07 -1.253812e-06 -1.236127e-06
-2.098177e-07 3.711539e-08 1.665829e-06 8.151692e-07 -6.347823e-07 -8.166105e-07
2.015787e-07 -7.420574e-07 2.113532e-06 7.334215e-07 -6.122882e-07 6.210634e-09
-8.463989e-08 -7.537787e-07 2.878288e-06 8.195516e-07 -5.012206e-07 -1.603649e-06
4.987097e-08 -9.971993e-08 1.218382e-06 7.080024e-07 -3.215256e-07 -2.184021e-07
-1.787567e-07 6.975110e-08 7.325311e-07 8.474090e-07 -7.261671e-07 -9.374914e-07
-4.110778e-08 1.103053e-07 -7.135734e-08 -6.347030e-08 -1.716539e-07 6.648810e-08
-7.321064e-08 1.485596e-07 -8.450627e-08 -6.112233e-08 -1.809241e-07 7.882419e-08
-6.174355e-08 2.227529e-07 -7.098820e-08 -1.230669e-07 -7.981160e-08 6.062862e-08
-2.171958e-08 2.477134e-07 -1.202953e-07 -1.360803e-07 -8.953374e-08 5.874982e-08
-6.898897e-08 1.185769e-07 -7.828529e-08 -8.089967e-08 -1.112079e-07 5.379719e-08
-9.286951e-08 2.948115e-07 -8.188640e-08 -1.243062e-07 -1.288392e-07 3.736502e-08
-8.511440e-08 -7.342739e-07 3.407099e-06 8.226649e-07 -2.809907e-07 -1.524887e-06
7.511231e-07 -6.893495e-07 9.550687e-07 3.557974e-07 -1.827420e-07 -1.046840e-06
3.860901e-07 -1.371444e-06 2.994931e-06 8.024967e-07 -9.300926e-07 -1.888260e-06
3.980892e-07 -1.372914e-06 2.746680e-06 8.065171e-07 -1.053084e-06 -2.032427e-06
7.064138e-07 -1.366086e-06 2.332383e-06 2.264227e-07 1.874423e-07 -2.383444e-06
6.838456e-07 -1.366990e-06 4.050496e-06 2.327875e-07 1.844829e-07 -2.166470e-06
8.526957e-08 -5.345518e-09 -4.054200e-08 2.504802e-08 6.643997e-09 1.410747e-08
8.492736e-07 -7.083197e-07 2.364348e-06 2.955001e-07 -4.725429e-08 -2.442710e-06
-2.419204e-08 3.976565e-08 1.723279e-06 -4.647532e-07 -6.213312e-07 5.290823e-07
2.730583e-07 -1.057842e-08 8.167578e-08 -2.022964e-07 -1.073009e-08 2.015122e-08
8.368845e-08 8.596431e-08 1.097016e-07 -3.223463e-07 -1.901811e-07 1.651315e-07
9.460520e-08 8.173187e-08 1.253121e-07 -3.205018e-07 -1.121255e-07 5.202002e-10
6.469679e-08 1.025297e-08 -3.537374e-08 2.249416e-08 3.955625e-09 8.304720e-09
-1.338364e-07 7.296148e-08 6.726035e-07 -3.789724e-07 -5.284681e-08 2.496847e-07
-6.681675e-08 5.339625e-08 7.225466e-07 -5.527699e-07 7.270161e-08 7.410018e-08
8.847923e-08 -1.129047e-08 -3.645942e-08 1.811898e-08 5.151837e-09 1.421821e-08
8.555032e-08 -1.140215e-08 -3.516444e-08 1.747709e-08 7.497913e-09 2.283514e-08
-3.149842e-07 -8.625160e-07 3.757438e-06 -1.196885e-06 1.375665e-06 -1.393624e-06
-1.771635e-07 2.313538e-07 6.766018e-07 -3.708638e-07 -8.667899e-08 2.598358e-07
-1.200160e-08 2.690764e-07 2.114777e-07 -4.795911e-07 -2.533669e-07 1.649259e-07
-3.929176e-07 8.494649e-08 6.888276e-07 -8.283431e-07 -2.472875e-07 3.674092e-07
-1.695482e-07 6.669456e-08 6.673493e-07 -3.623497e-07 1.010221e-07 1.934976e-08
9.974447e-08 1.271043e-07 5.478227e-07 -5.796401e-07 -3.410510e-07 3.979092e-07
9.462084e-08 3.285332e-08 1.593788e-06 -6.810658e-07 -6.587253e-07 5.448246e-07
-3.114949e-07 -6.276960e-08 8.295331e-07 -7.425369e-07 -2.201172e-07 2.747157e-07
6.997966e-07 1.534133e-08 4.619871e-08 -8.598542e-07 -1.230075e-06 1.189871e-06
-2.256865e-07 1.254223e-07 9.009563e-07 -2.481138e-07 3.111823e-08 -1.826336e-07
-4.819253e-08 1.924786e-07 1.783094e-07 -2.590851e-07 -1.819732e-07 5.976520e-08
-3.664331e-07 1.418207e-07 4.851469e-07 -5.420301e-07 -4.028331e-07 2.983000e-07
4.756448e-08 1.517613e-08 1.737238e-07 -2.278881e-07 -1.462466e-07 3.721291e-08
-2.702990e-06 -3.688471e-06 1.089811e-05 6.060103e-07 -4.157531e-07 3.555428e-06
-8.992948e-07 -1.810385e-06 7.255693e-06 -7.793940e-07 -1.796540e-06 3.335402e-06
-3.166626e-07 3.354279e-07 1.790918e-06 -9.911030e-07 -1.128548e-06 9.364853e-07
-1.587717e-07 -1.704742e-06 3.960159e-06 -9.824226e-07 -1.675155e-06 1.895964e-06
-1.229619e-06 -2.028865e-06 6.150420e-06 -5.447474e-07 -2.583028e-06 2.085841e-06
-2.082935e-06 -6.044334e-07 7.366094e-06 -5.576330e-07 -2.603505e-06 1.328375e-06
-1.622243e-07 4.527585e-07 1.366795e-06 -8.208803e-07 -1.119174e-06 7.518206e-07
-3.630344e-06 -3.929711e-06 1.331917e-05 -1.039721e-07 -9.672348e-07 -1.361433e-07
-2.694934e-06 -2.004686e-06 9.121990e-06 -3.416795e-07 -2.854939e-06 3.251936e-07
7.514932e-07 4.977800e-07 -2.820174e-06 1.200447e-07 -1.115195e-05 1.030768e-06
-4.230159e-06 -2.832692e-06 1.326546e-05 -3.635070e-07 -2.576463e-06 -9.660017e-07
5.668362e-07 -2.159932e-07 4.668480e-07 -3.995332e-07 -8.635047e-08 5.576416e-07
5.272427e-07 -6.179687e-07 2.107453e-06 -4.993886e-07 -5.773113e-07 1.595698e-06
8.327634e-07 -1.168645e-06 7.623165e-07 -2.757618e-07 -8.175545e-07 1.688063e-06
2.421415e-07 -3.589360e-07 7.335893e-07 -2.452461e-07 -3.571731e-07 6.859305e-07
5.834829e-07 -5.213893e-07 5.638407e-07 -3.414201e-07 -2.295565e-07 5.174560e-07
5.761447e-08 2.203567e-08 -3.668528e-08 3.430051e-08 8.872934e-09 1.429005e-08
2.707119e-07 -7.429534e-07 3.286846e-06 -7.053793e-07 -9.625158e-07 1.568437e-06
-7.827404e-07 -2.419489e-08 1.941207e-06 -8.507097e-07 -6.677350e-07 6.675915e-07
4.392059e-07 -5.405322e-09 3.152133e-07 -4.311431e-07 -9.454672e-07 1.299011e-06
-3.377866e-07 -7.549769e-07 3.526352e-06 -1.130169e-06 -8.370542e-07 1.278742e-06
-5.756723e-08 1.279543e-07 5.042767e-08 1.662232e-07 9.495285e-08 6.303249e-08
-7.552040e-08 3.211402e-07 1.925361e-08 2.715054e-07 1.319567e-07 5.577071e-08
-8.363748e-08 -4.912175e-08 4.938831e-08 5.890431e-08 8.775787e-08 9.521888e-08
-5.686527e-09 3.507342e-08 5.857432e-08 1.328127e-07 1.099061e-07 1.163332e-07
3.182389e-08 2.156571e-07 1.732571e-07 3.424294e-07 -1.809889e-07 -2.360263e-09
2.967116e-08 2.925462e-08 1.048508e-07 4.030221e-07 -4.603583e-08 -2.417445e-08
8.959682e-08 -1.377062e-08 -5.347302e-08 -2.876677e-08 -1.068078e-08 2.761879e-08
-6.760397e-08 1.306396e-07 -7.386749e-09 1.184965e-07 1.977089e-07 1.101837e-07
6.242008e-08 1.509560e-07 2.279200e-07 3.429615e-07 -2.662264e-08 -1.982436e-08
4.375744e-08 -2.980377e-08 7.484150e-08 1.095324e-07 9.180042e-08 9.714658e-08
-1.707129e-08 6.410327e-08 2.663563e-07 -4.818747e-07 -6.644708e-07 4.725357e-07
4.026400e-08 6.458181e-08 2.669082e-07 -4.722650e-07 -1.316315e-07 9.978988e-09
-3.612864e-07 8.572989e-08 1.475109e-06 -5.456845e-07 -4.855814e-07 3.702914e-07
-4.323046e-07 1.822823e-07 2.000471e-06 -5.486979e-07 -8.220875e-07 5.134097e-07
2.449917e-07 -4.066715e-08 1.898460e-07 -2.572817e-07 -4.629480e-07 5.214923e-07
-6.302031e-07 -1.126644e-07 1.991678e-06 -2.761588e-07 -9.388497e-07 6.662324e-07
5.873375e-08 6.397379e-09 -2.542886e-08 -1.754290e-08 -8.143851e-09 8.479771e-09
6.143265e-08 2.531901e-09 -2.402576e-08 -1.428446e-08 -3.158767e-09 9.049095e-09
6.044227e-08 1.830797e-09 -3.335038e-08 -2.248858e-08 -1.290184e-08 1.982216e-08
5.518782e-08 8.718558e-09 -2.718640e-08 -1.604476e-08 -7.710770e-09 1.287342e-08
7.019969e-08 8.793622e-10 -3.384772e-08 -2.102940e-08 -1.208552e-08 1.700955e-08
6.170721e-08 2.832966e-09 -2.422378e-08 -1.524494e-08 -7.899178e-09 9.326431e-09
1.995199e-07 1.235170e-07 -6.809150e-08 3.294784e-07 -9.692141e-08 -1.097300e-07
1.267349e-07 -2.287988e-08 -5.536432e-08 2.690164e-08 9.542137e-09 2.887955e-08
9.111318e-08 -1.585388e-08 -3.869089e-08 1.541445e-08 4.704984e-09 1.978390e-08
1.067612e-07 -1.587736e-08 -4.561725e-08 3.311530e-08 1.567562e-08 4.236162e-08
1.024950e-07 -1.599092e-08 -5.410590e-08 2.947522e-08 9.671853e-09 2.883383e-08
9.294665e-08 -1.492227e-08 -3.515057e-08 2.274951e-08 7.567742e-09 2.321346e-08
5.325915e-08 1.090529e-08 -2.332734e-08 -1.250661e-08 -6.237145e-09 4.023718e-09
8.933627e-08 1.727362e-08 -9.306975e-08 1.074863e-07 5.307140e-08 7.954677e-08
6.467809e-08 -1.896872e-08 -3.465651e-08 1.918600e-08 1.377143e-08 5.156646e-08
2.145515e-07 -7.034006e-08 -8.555861e-08 3.266356e-08 5.692746e-09 6.627801e-08
4.477176e-08 5.072487e-08 -6.884575e-08 9.127023e-08 7.379927e-08 9.242304e-08
-7.743289e-08 -3.127813e-08 1.257136e-07 7.157993e-09 -2.176698e-07 -1.196996e-07
6.438421e-08 4.780895e-08 -6.941148e-08 9.769429e-08 7.151657e-08 9.103052e-08
4.825916e-08 3.228681e-08 -4.361464e-08 7.231029e-08 7.692951e-08 7.837603e-08
5.490970e-08 1.998763e-08 -6.689574e-08 8.093683e-08 6.033556e-08 8.637875e-08
5.652857e-08 1.063311e-08 -2.810499e-08 1.844631e-08 7.900241e-09 9.574613e-09
5.191473e-08 3.194822e-08 -6.335975e-08 7.361611e-08 6.364067e-08 6.358422e-08
5.205679e-08 4.472600e-08 -7.042603e-08 1.057388e-07 7.700978e-08 8.541501e-08
5.323682e-08 4.607177e-08 -9.237752e-08 1.071343e-07 6.300818e-08 6.420502e-08
6.473552e-08 -1.138661e-08 -6.890772e-08 6.957055e-08 7.054140e-08 8.955276e-08
4.358644e-08 1.620057e-08 -5.111706e-08 8.741091e-08 6.348296e-08 9.362231e-08
1.585021e-08 5.773828e-08 -5.027820e-08 7.386764e-08 8.379985e-08 1.041017e-07
7.381071e-08 -3.925984e-08 -3.870048e-08 4.076058e-08 5.991255e-08 6.742113e-08
4.395368e-08 2.891185e-08 -3.685914e-08 6.392281e-08 4.704384e-08 5.833941e-08
3.273971e-08 2.465287e-08 -5.894357e-08 8.843428e-08 1.023684e-07 9.742382e-08
2.956470e-07 -9.141857e-08 -9.146115e-08 -9.268221e-08 -2.183971e-08 1.042469e-07
3.317308e-07 -1.089734e-07 -6.647018e-08 -6.932619e-08 -1.786076e-08 9.559505e-08
3.439475e-07 -1.164923e-07 -3.714307e-08 -1.134481e-07 -2.620698e-08 1.361340e-07
-2.338569e-07 4.209267e-08 1.347067e-06 -6.657157e-07 4.887640e-07 2.559135e-08
-3.352296e-07 1.001317e-07 1.968447e-06 -7.612426e-07 9.266931e-07 -7.566842e-07
-4.595406e-07 4.661987e-07 1.411751e-06 -5.950524e-07 6.884261e-07 -2.990585e-07
-1.015742e-06 1.255055e-06 2.325358e-06 -4.149582e-07 2.740335e-06 -2.988146e-07
-2.177607e-06 1.053852e-06 2.348101e-06 1.494986e-07 2.345954e-06 2.283151e-07
-1.928897e-06 -7.132710e-07 7.720250e-06 -9.578763e-07 3.154434e-06 -9.187952e-07
-2.154321e-06 3.610383e-07 4.071925e-06 1.850622e-07 2.237270e-06 4.429800e-07
-1.126697e-06 -1.045045e-06 6.633003e-06 -1.167594e-06 3.052100e-06 -1.257973e-06
-2.082960e-06 -8.032178e-07 6.761258e-06 -2.681668e-07 3.804874e-06 -3.786772e-07
4.629629e-08 1.786784e-08 -4.621753e-08 -1.439194e-07 -1.091553e-07 1.189324e-07
8.120317e-08 5.776864e-08 -9.040007e-08 -1.243517e-07 -9.460341e-08 1.152404e-07
-7.588351e-08 1.794364e-07 -1.118312e-07 4.770083e-08 -1.383791e-07 -3.790265e-08
-1.029115e-07 2.398109e-07 -1.112882e-07 2.308641e-08 -1.123929e-07 -2.863710e-08
-6.246360e-08 1.405550e-07 -3.417096e-08 3.207793e-08 -1.928793e-07 -6.485021e-08
-1.142203e-07 2.827878e-07 -1.132906e-07 5.796174e-08 -1.420518e-07 -2.287137e-08
-1.006212e-07 1.638743e-07 -9.242687e-08 1.793264e-08 -2.021008e-07 -1.623644e-08
-5.730021e-08 1.879437e-08 -3.059582e-08 4.204207e-09 1.422959e-07 2.553644e-08
-7.374282e-08 2.306384e-07 -8.502087e-08 2.324200e-08 1.343228e-07 1.375479e-08
-6.021395e-08 1.375314e-07 -5.131112e-08 7.981924e-09 1.582009e-07 1.630401e-08
-5.433599e-08 2.051310e-07 -8.221987e-08 4.329914e-08 1.325601e-07 2.295045e-08
-5.558892e-08 1.297761e-07 -4.419099e-08 2.656595e-08 1.339800e-07 3.016415e-08
-9.835476e-08 2.194824e-07 -8.446821e-08 4.023831e-08 1.354855e-07 1.105372e-08
-7.954026e-08 1.307301e-07 -5.242121e-08 1.966643e-08 1.635604e-07 8.621870e-09
4.802541e-08 3.060759e-08 -4.375441e-08 3.361507e-08 1.470290e-08 1.764132e-08
4.919046e-08 2.208860e-08 -3.498448e-08 3.224892e-08 1.890776e-08 1.832036e-08
4.820159e-08 1.614348e-08 -2.911793e-08 2.590709e-08 9.316622e-09 1.202247e-08
4.190483e-08 1.996579e-08 -3.339070e-08 2.620437e-08 1.491962e-08 1.646121e-08
-7.235919e-08 -5.776791e-08 1.316518e-07 -1.872586e-07 6.865168e-08 -1.036276e-07
-4.368440e-07 5.402492e-07 4.694656e-07 -3.199519e-07 -1.943615e-07 -1.053424e-07
-3.173078e-07 -7.403633e-08 7.241848e-07 1.706833e-08 5.644810e-08 -4.899934e-08
-2.219835e-07 3.247067e-07 2.131799e-07 -1.864414e-07 -6.907775e-08 1.190336e-07
-1.761265e-07 1.940671e-07 1.431780e-07 -2.344392e-07 2.924235e-08 -1.706904e-08
-7.278494e-08 1.071903e-07 3.173710e-07 -2.131705e-07 2.524477e-07 -1.912874e-07
6.968962e-08 -5.165118e-08 1.132685e-07 -1.511963e-07 7.237182e-08 -1.182458e-07
-7.628214e-08 1.879434e-07 7.395615e-08 -1.640206e-07 7.813405e-08 -4.248977e-08
-8.347649e-08 1.853395e-07 9.773289e-08 -1.587804e-07 -2.825679e-09 2.815794e-08
-9.076596e-09 6.500343e-08 -5.264139e-08 3.547748e-08 -1.100572e-07 -5.541968e-08
-2.668470e-08 1.011551e-07 -6.107057e-08 5.549967e-08 -1.195330e-07 -7.836437e-08
-2.122379e-08 1.521254e-07 -1.091909e-07 9.771911e-08 -8.555666e-08 -4.999670e-08
-1.364200e-08 7.860718e-08 -5.109436e-08 6.321697e-08 -1.691961e-07 -9.424257e-08
-2.857063e-09 1.046550e-07 -6.582310e-08 4.559117e-08 -1.558009e-07 -9.833827e-08
-8.667065e-08 2.700824e-07 -4.194194e-08 2.308009e-07 -1.643124e-07 -6.771663e-08
2.020251e-08 1.498806e-07 -1.102819e-07 9.521641e-08 -8.740248e-08 -4.771097e-08
-3.452848e-08 -2.184992e-08 -4.640499e-08 1.073438e-08 -1.083089e-07 -8.685114e-08
-4.107840e-09 9.379835e-08 -6.400661e-08 7.050501e-08 -1.093536e-07 -8.451196e-08
1.387372e-07 -5.634107e-08 -9.619746e-10 1.318413e-07 4.313620e-08 1.242312e-07
-4.422530e-08 -1.117906e-07 1.196809e-07 8.525319e-08 5.432368e-08 9.454514e-08
2.041289e-07 -1.052624e-07 -2.958715e-08 1.124187e-07 1.607677e-08 1.100806e-07
2.489478e-07 -3.372916e-08 -3.356788e-08 4.958277e-08 5.518310e-08 1.662949e-07
2.155737e-07 -2.097026e-08 2.324112e-08 6.428705e-08 4.023652e-08 2.096031e-07
1.768824e-07 -6.787277e-08 -2.590353e-08 1.040994e-07 2.781674e-08 1.071924e-07
-1.237862e-08 1.645766e-07 -1.007181e-07 -9.667469e-08 1.244310e-07 -5.931399e-08
-4.625274e-09 1.409788e-07 -8.932531e-08 -9.284395e-08 1.280831e-07 -6.035241e-08
3.865224e-10 1.599619e-07 -1.157605e-07 -1.030589e-07 9.138729e-08 -4.535468e-08
-2.244574e-08 9.609259e-08 -4.094971e-08 -3.882819e-08 1.256549e-07 -5.595419e-08
-2.559862e-08 1.309670e-07 -9.041694e-08 -5.668957e-08 6.662164e-08 -3.632975e-08
-2.669520e-08 1.456068e-07 -7.161180e-08 -6.830893e-08 1.008290e-07 -3.618265e-08
-2.549708e-08 1.332368e-07 -7.576620e-08 -5.327853e-08 7.240151e-08 -3.765185e-08
-2.914467e-07 5.230784e-07 4.295538e-07 -5.620872e-08 1.088036e-07 9.922486e-08
-5.830979e-07 3.460394e-07 6.849386e-07 -1.117420e-07 -5.891815e-07 -1.973051e-07
-2.349637e-07 2.060386e-07 3.493626e-07 -4.146776e-07 -2.878043e-07 -6.953080e-08
-2.691982e-07 2.940615e-07 3.311021e-07 -1.331862e-07 -1.368052e-07 -5.098117e-08
-4.723980e-07 -6.951524e-08 1.062083e-06 -1.228407e-07 -4.696808e-07 -1.802179e-07
3.696595e-07 -5.282658e-07 1.338664e-06 -5.458085e-07 2.208380e-07 -4.087028e-07
-2.413552e-08 3.281300e-07 5.762079e-07 7.056058e-08 -1.409829e-07 3.017195e-07
6.209289e-08 4.683769e-08 -4.438204e-08 -1.229969e-07 1.954954e-07 -1.188693e-07
8.144674e-09 2.115593e-07 -8.534253e-08 -1.644305e-07 1.543998e-07 -9.183149e-08
-4.006080e-08 1.053240e-07 -5.203656e-08 -9.283297e-08 1.083522e-07 -5.920086e-08
2.074645e-08 1.100464e-07 -1.132797e-07 1.240251e-07 -9.907129e-08 -8.774771e-08
1.687227e-08 8.246183e-08 -6.411275e-08 -1.353924e-07 2.027815e-07 -8.271753e-08
4.439439e-08 2.087978e-07 -1.012076e-07 -2.384928e-07 1.142148e-07 -1.061681e-07
4.668279e-09 2.081504e-07 8.157017e-09 -1.884693e-07 1.870848e-07 -9.795666e-08
-6.526334e-08 -5.874715e-08 8.305300e-08 4.686403e-08 1.767824e-07 -1.676993e-07
-3.562234e-09 8.076856e-08 -6.563595e-08 -7.526577e-08 1.262023e-07 -7.136783e-08
9.087700e-07 -3.814062e-07 4.952729e-07 1.276910e-07 -2.116401e-08 6.090898e-07
7.228348e-07 -9.261256e-07 1.419230e-06 -1.431070e-07 -6.228571e-08 7.492409e-07
5.850451e-07 -1.193079e-06 2.813194e-06 3.256152e-07 5.570443e-07 1.483844e-06
6.160889e-07 -3.951337e-07 1.309503e-06 4.911318e-08 -5.556580e-08 7.882899e-07
9.790505e-07 -7.981698e-07 1.262019e-06 3.591836e-08 -2.784489e-07 1.765663e-06
9.467291e-07 -6.837489e-07 1.845361e-06 7.502082e-07 6.640661e-07 2.365787e-06
4.987649e-08 -6.511290e-07 2.207866e-06 9.005921e-07 6.406485e-07 9.833238e-07
4.826856e-07 -4.286444e-07 1.593195e-06 6.423180e-07 6.451246e-07 1.137037e-06
-2.510104e-07 -7.057757e-07 2.422387e-06 7.683423e-07 5.381157e-07 8.129387e-07
8.519050e-07 -6.763805e-07 7.864673e-07 1.190017e-07 -4.012829e-07 -1.205823e-06
8.471708e-07 -6.721925e-07 1.151216e-06 1.106761e-07 -8.315798e-08 -1.126488e-06
-5.659177e-08 -1.462427e-06 3.334700e-06 -4.010329e-07 1.242949e-07 -1.684183e-06
6.231011e-07 -1.086781e-06 1.812054e-06 -4.805658e-07 7.403143e-07 -1.232195e-06
7.397669e-07 -8.286529e-07 1.823008e-06 -1.813900e-07 1.121598e-07 -1.136770e-06
9.181173e-07 -1.410012e-06 2.645860e-06 -6.194068e-07 3.711788e-07 -2.679936e-06
7.740236e-07 -1.271226e-06 3.509581e-06 6.368932e-08 1.860810e-07 -2.505058e-06
5.958238e-07 -7.725453e-07 9.902138e-07 -3.720630e-07 2.416993e-07 -1.366154e-06
4.040955e-08 2.417477e-08 -2.992283e-08 2.615478e-08 1.158777e-08 1.016294e-08
5.824401e-08 1.353178e-08 -4.473099e-08 3.442470e-08 1.140841e-08 1.794764e-08
4.747219e-08 2.244844e-08 -3.547224e-08 2.563107e-08 7.331459e-09 1.048214e-08
3.186699e-08 1.942914e-08 -2.578157e-08 2.385376e-08 1.487186e-08 1.982888e-08
1.099745e-07 -1.319186e-08 -4.689897e-08 3.040479e-08 7.335763e-09 2.168784e-08
3.437075e-08 2.734500e-08 -3.308273e-08 3.289267e-08 1.668595e-08 2.187282e-08
3.434702e-08 1.861787e-08 -2.850062e-08 2.262492e-08 2.003411e-08 1.740183e-08
4.792109e-08 3.069382e-08 -3.459849e-08 3.346321e-08 1.568407e-08 1.677744e-08
7.738987e-07 -8.724592e-07 2.120253e-06 -9.027811e-08 -3.315281e-07 1.584598e-06
2.322637e-08 -1.297939e-06 3.718954e-06 6.491947e-07 3.927308e-07 2.126495e-06
-1.882340e-06 -2.304133e-06 8.686736e-06 -6.476386e-07 -1.446644e-06 3.484758e-06
-1.096055e-06 -1.595114e-06 1.227577e-05 -9.547581e-07 -3.378437e-06 4.746248e-06
2.958375e-08 -1.394104e-06 4.904304e-06 -6.109193e-07 -2.621494e-07 2.770795e-06
1.038870e-08 -1.378117e-06 3.297804e-06 -4.635940e-07 -2.418886e-07 1.458425e-06
7.280989e-07 -1.325820e-06 2.960432e-06 2.365380e-07 1.917647e-07 1.950305e-06
1.579182e-07 -7.259997e-08 -6.152432e-08 -5.175395e-08 -3.091724e-08 1.067492e-07
1.620007e-07 -5.611805e-08 -7.513525e-08 -4.200412e-08 -2.577833e-08 1.047261e-07
9.734674e-08 -7.267599e-08 -2.982519e-08 1.024350e-08 -3.985646e-08 1.529560e-07
1.201081e-07 -5.470898e-08 -3.540759e-08 2.421998e-08 -1.654973e-08 1.080252e-07
1.402348e-07 -6.327952e-08 -7.038724e-08 -1.468873e-08 -4.566645e-09 1.304117e-07
7.598930e-08 2.008583e-09 -4.914166e-08 4.513181e-08 1.643192e-08 4.079508e-08
3.356423e-08 1.729288e-08 -3.666094e-08 5.247711e-08 5.033746e-08 4.712886e-08
8.340524e-08 -2.386250e-09 -4.686101e-08 4.729711e-08 3.084492e-08 5.634887e-08
6.880539e-08 1.658452e-08 -6.779923e-08 6.066217e-08 2.703465e-08 4.118993e-08
6.155571e-08 4.311335e-08 -7.709186e-08 8.872964e-08 4.044881e-08 4.960202e-08
7.133384e-08 4.321064e-08 -7.884674e-08 7.514007e-08 3.891997e-08 4.251060e-08
4.958939e-08 3.013755e-08 -6.513671e-08 6.880344e-08 6.489619e-08 6.347326e-08
3.165440e-08 2.810061e-08 -4.807686e-08 5.209644e-08 3.845499e-08 4.068584e-08
-1.279135e-06 6.874126e-07 1.766607e-06 -1.142532e-07 1.157454e-06 4.302524e-08
-1.015555e-06 5.640048e-07 1.814337e-06 -2.543751e-07 1.068919e-06 -2.743472e-07
-1.113688e-06 1.806509e-07 3.956464e-06 7.463975e-07 2.066819e-06 7.574671e-07
-1.035141e-06 1.215753e-06 8.430425e-07 6.423850e-07 2.418819e-06 1.253106e-06
-1.185001e-06 1.962963e-07 4.974532e-06 7.243634e-07 2.197627e-06 4.852824e-07
-2.058072e-06 4.558864e-07 3.965960e-06 4.407050e-07 2.418737e-06 1.118618e-06
4.341489e-07 -2.099303e-07 1.549660e-07 2.041971e-07 8.897304e-08 1.348226e-08
4.757343e-08 1.678382e-08 -2.508635e-08 1.671642e-08 3.205302e-09 2.727451e-09
4.274624e-07 -2.093779e-07 9.474183e-08 2.570216e-07 2.180661e-08 8.991146e-08
3.716716e-07 -3.509574e-07 1.547847e-07 1.099959e-07 1.149196e-07 2.938267e-08
4.856368e-07 -3.635316e-07 4.486274e-07 1.148576e-07 3.064444e-10 -3.200825e-07
4.313334e-07 -4.294742e-07 1.004241e-06 2.335729e-07 -4.692807e-08 -6.702361e-07
7.265123e-07 -6.774595e-07 1.217017e-06 3.639108e-07 -4.728188e-08 -7.578656e-07
6.851428e-07 -6.613429e-07 1.085974e-06 1.408228e-07 -2.127594e-07 -4.542707e-07
4.771016e-07 -2.863734e-07 4.022739e-07 2.796618e-07 -3.197227e-08 -1.472504e-07
-1.685289e-07 9.361223e-08 5.700819e-07 -1.705632e-07 3.283459e-08 1.406999e-07
3.042227e-07 5.237583e-08 -1.282011e-08 -4.167624e-07 4.116470e-08 8.388593e-08
1.579739e-07 -8.787569e-08 3.883237e-07 -2.420863e-07 2.651516e-08 -6.731245e-08
7.661413e-08 4.290027e-08 1.587830e-07 -2.344383e-07 8.245718e-08 2.162076e-09
2.940141e-07 -5.984323e-08 4.207408e-08 -2.043186e-07 9.882664e-08 -2.373089e-07
1.612564e-07 4.890916e-08 1.096087e-08 -3.248874e-07 6.921885e-08 -8.772469e-08
9.019101e-10 3.040502e-08 2.341487e-07 -2.340800e-07 1.128161e-07 3.240144e-09
8.646097e-08 -1.388929e-08 -4.683890e-08 3.847729e-08 1.571478e-08 4.872674e-08
1.129535e-07 -3.774197e-09 -6.028225e-08 5.232247e-08 2.002791e-08 5.506401e-08
1.328963e-07 -1.656056e-08 -6.537790e-08 4.374760e-08 1.436998e-08 3.754575e-08
9.478009e-08 -1.236610e-08 -4.412718e-08 3.294335e-08 1.151774e-08 3.887683e-08
9.478756e-08 -8.527424e-09 -4.184048e-08 3.247274e-08 1.579348e-08 3.870530e-08
9.496485e-08 -7.858979e-09 -4.639634e-08 4.199346e-08 1.483993e-08 3.218867e-08
7.414584e-08 -2.498483e-09 -3.178030e-08 -3.543993e-08 -2.077028e-08 3.834711e-08
9.162698e-08 8.624187e-09 -5.595034e-08 -5.605129e-08 -3.437062e-08 4.678135e-08
6.779092e-08 5.812160e-09 -3.227234e-08 -3.950290e-08 -2.416796e-08 4.110605e-08
9.169210e-08 1.381015e-09 -5.934942e-08 -5.757698e-08 -2.929480e-08 4.760346e-08
5.638584e-08 9.696901e-09 -3.831607e-08 -6.166689e-08 -3.830352e-08 5.540098e-08
6.593207e-08 5.557564e-09 -3.475284e-08 -4.159677e-08 -2.602283e-08 3.886990e-08
9.162480e-08 1.581615e-08 -5.550614e-08 -5.853446e-08 -3.166086e-08 4.514165e-08
5.682279e-08 1.314407e-08 -6.155764e-08 -5.634064e-08 -3.616633e-08 5.624621e-08
-4.722236e-09 5.803449e-08 -6.104498e-08 -9.755067e-08 -8.224592e-08 9.245812e-08
4.615652e-08 3.008409e-08 -4.846446e-08 -6.834463e-08 -6.594926e-08 7.697392e-08
-7.741159e-07 1.337201e-07 5.264778e-06 6.810015e-07 -1.546437e-06 -1.770122e-06
-7.708190e-07 5.740005e-07 9.981716e-07 7.418655e-07 -1.837888e-06 -1.659353e-06
1.166043e-07 -1.081862e-07 9.502150e-07 5.746810e-07 -6.381026e-07 -1.536406e-06
-3.541424e-08 3.344866e-07 3.328439e-07 2.530936e-07 -6.671067e-07 -4.916741e-07
-5.680432e-07 -1.822964e-07 2.328090e-06 8.228494e-07 -1.298220e-06 -1.289671e-06
-9.922341e-07 -1.184470e-07 2.458177e-06 7.960753e-07 -1.152132e-06 -1.649086e-06
2.337400e-07 -5.199044e-08 5.874971e-08 -2.816766e-07 6.535836e-08 -1.110699e-08
-3.376544e-08 -5.717877e-08 2.625616e-08 2.588523e-08 2.293198e-07 -3.282035e-08
1.517939e-07 -2.796911e-07 3.936988e-06 -1.031317e-07 -3.135203e-07 4.161339e-06
1.168409e-07 -1.171282e-07 7.431112e-08 -1.936171e-07 -1.112199e-07 1.950231e-07
2.363872e-07 3.021511e-08 2.335216e-07 -4.270898e-07 1.226960e-07 -2.707942e-08
1.609073e-07 3.898334e-08 1.393079e-07 -3.586278e-07 -3.697434e-08 -1.212329e-08
1.285915e-07 -1.525629e-08 -9.855785e-09 -1.203413e-07 -1.063160e-07 1.397556e-07
1.324405e-07 -3.155085e-08 1.335452e-07 -2.983922e-07 -1.094118e-07 8.944519e-08
1.655626e-07 -3.080327e-08 -8.372819e-08 -1.804270e-07 -5.675736e-08 2.284481e-07
-1.073103e-07 2.679046e-07 -1.159412e-07 -5.846355e-09 -1.255611e-07 -1.199850e-08
3.514274e-07 -3.017383e-07 1.817064e-07 1.044150e-07 9.227070e-09 2.205149e-08
2.293847e-07 -9.985084e-08 1.344111e-09 7.727214e-08 1.126899e-08 1.046273e-07
2.999030e-08 -1.542960e-07 7.078275e-08 4.349664e-08 -9.734289e-09 5.137588e-08
3.166178e-07 -1.544151e-07 1.674537e-08 6.795423e-08 2.460530e-08 2.299899e-07
3.551747e-07 -2.217386e-07 3.117395e-08 1.295809e-08 2.816127e-09 1.114115e-07
2.148736e-07 -3.039247e-08 2.095008e-08 -2.978814e-07 -3.890427e-08 5.288816e-08
3.128230e-07 -1.197250e-07 -1.978728e-08 -2.282018e-07 -4.631281e-08 1.414322e-07
1.448547e-07 -4.121354e-08 -4.136147e-08 -9.938418e-08 -5.799048e-08 1.548458e-07
1.908248e-07 -9.868802e-08 -1.061311e-08 -1.545025e-07 -1.105249e-07 1.851977e-07
5.061920e-08 1.511852e-08 -2.095360e-08 1.461491e-08 4.200355e-09 5.784013e-09
7.412563e-08 -2.865185e-08 1.283666e-08 -1.060355e-07 -6.928515e-08 2.025459e-07
1.211119e-07 -2.866040e-08 1.453592e-08 -1.374805e-07 -1.271177e-07 1.950127e-07
1.244330e-08 -1.198577e-08 -3.735484e-08 -3.864298e-08 -7.275846e-08 9.388682e-08
5.735613e-08 1.336165e-08 -4.716734e-08 -3.804329e-08 -2.765226e-08 3.481598e-08
9.090481e-08 -5.798814e-10 -5.062266e-08 -5.137602e-08 -2.427342e-08 5.171276e-08
1.247939e-07 1.242930e-09 -7.353473e-08 -6.127471e-08 -2.630102e-08 4.267406e-08
6.140679e-08 9.308313e-09 -4.620490e-08 -3.525662e-08 -2.345478e-08 4.501422e-08
-1.201379e-08 8.246318e-08 -5.245441e-08 3.436932e-08 -1.065383e-07 -4.224911e-08
-3.952700e-08 -1.254228e-08 -3.480953e-08 -3.459415e-08 -1.447738e-07 -6.060728e-08
-1.451447e-08 1.181597e-07 -6.247604e-08 5.506180e-08 -1.741954e-07 -5.720031e-08
-7.340430e-08 1.378351e-07 -5.644687e-08 -2.818500e-08 -1.778515e-07 2.517872e-08
-7.266819e-09 7.224217e-08 -5.199114e-08 5.202353e-08 -1.318210e-07 -3.880604e-08
-3.636045e-08 9.340355e-08 -4.651961e-08 3.154281e-08 -9.813249e-08 -4.079728e-08
-6.220160e-08 1.464556e-07 -7.460012e-08 4.934159e-08 -1.266788e-07 -5.939826e-08
1.918406e-07 -5.422397e-08 -7.244799e-08 -8.182879e-08 -5.804921e-08 1.362348e-07
1.309629e-07 -6.253451e-08 -5.924006e-08 -6.238733e-08 -3.582501e-08 1.139713e-07
2.110169e-07 -2.405394e-08 -8.939498e-08 -1.320340e-07 -3.363317e-08 8.875294e-08
7.425697e-08 -6.387136e-09 -4.863295e-08 -7.152389e-08 -4.820720e-08 1.157008e-07
1.267739e-07 -3.846306e-08 -4.807222e-08 -5.604629e-08 -4.015259e-08 9.936587e-08
7.411954e-08 -2.451494e-08 -3.842475e-08 -7.698054e-08 -3.854244e-08 1.115134e-07
1.347793e-07 -3.989124e-08 -4.822400e-08 -2.668540e-08 -3.602881e-08 9.846708e-08
1.102058e-07 -3.573219e-08 -4.623571e-08 -4.756910e-08 -3.313611e-08 8.219337e-08
3.955935e-07 -2.958510e-07 1.515236e-07 -2.125910e-07 -2.078272e-08 7.600392e-08
2.648218e-07 -1.272473e-07 1.265752e-07 -2.472190e-07 -5.293240e-08 1.212797e-07
2.291498e-07 -8.728395e-08 -3.220055e-08 -9.985448e-08 -5.039706e-08 1.199543e-07
-9.226069e-08 3.044853e-07 -1.147861e-07 -5.232544e-09 -1.081318e-07 -2.022564e-10
1.979721e-07 -1.786102e-07 1.068283e-07 9.974354e-09 2.053137e-09 1.349629e-07
3.892427e-07 -1.442678e-07 1.457609e-07 -2.184236e-07 -5.582471e-08 6.780472e-08
2.975199e-07 -1.763968e-07 1.516992e-07 -9.629760e-08 -3.249739e-08 6.676974e-08
1.192424e-07 -1.102330e-07 2.986458e-08 5.162404e-09 -8.527908e-09 1.548940e-07
2.177372e-07 -1.191003e-07 1.134583e-07 -1.591596e-07 2.386841e-08 4.785915e-08
9.370476e-08 1.460954e-07 -1.116396e-07 -2.148844e-07 1.203307e-07 -8.587529e-08
-1.888521e-08 2.348657e-07 4.288455e-08 -2.636394e-07 1.126627e-07 -4.694926e-08
5.735482e-08 1.327939e-07 -4.499965e-08 -1.965925e-07 1.348579e-07 -1.085295e-07
1.131007e-07 1.130051e-07 -6.675910e-08 -2.994789e-07 1.013898e-07 -7.492554e-08
7.477637e-08 -8.013420e-10 -3.800134e-08 2.589689e-08 1.189115e-08 2.027646e-08
7.405656e-08 -2.163543e-09 -2.966321e-08 2.477571e-08 1.242179e-08 2.735057e-08
5.181897e-08 5.537637e-09 -2.670479e-08 1.975455e-08 6.904703e-09 1.682655e-08
7.325211e-08 -2.076091e-09 -2.771222e-08 2.523806e-08 1.429785e-08 2.611498e-08
4.987785e-07 -5.738791e-07 1.819200e-06 -2.747163e-07 -5.312930e-07 8.872297e-07
8.188989e-07 -8.960492e-07 2.799344e-06 -7.552324e-09 1.468337e-07 1.886774e-06
5.279195e-07 -1.374693e-06 2.949440e-06 -3.807547e-07 -2.870101e-07 1.550780e-06
4.878906e-07 -4.461613e-07 5.123203e-07 -3.548077e-07 -5.012521e-07 5.850205e-07
6.692154e-07 -9.174244e-07 1.792126e-06 -1.281213e-07 -2.489567e-09 1.045415e-06
6.316538e-07 -8.958683e-07 1.280356e-06 -5.908371e-08 -4.822432e-08 6.823575e-07
6.499679e-07 -4.356726e-07 5.884275e-07 -2.118893e-07 -1.169978e-07 5.619115e-07
7.726336e-07 7.731042e-08 4.329000e-07 1.682641e-08 -2.940495e-08 1.149514e-06
4.865488e-07 -1.199884e-06 2.674763e-06 -3.387479e-07 -2.177074e-07 1.442732e-06
4.943924e-07 -5.668082e-07 1.257326e-06 2.100558e-07 2.999823e-07 5.962765e-07
-2.314057e-07 4.353598e-07 8.184652e-08 3.708791e-07 -4.916831e-08 -3.462087e-08
4.526897e-07 -6.639768e-07 1.211791e-06 -4.881603e-07 -1.268977e-07 7.673276e-07
9.072376e-07 -3.350348e-07 -3.502785e-07 -6.952243e-07 -1.632965e-07 1.589791e-06
7.681712e-07 -1.157635e-06 2.734965e-06 -2.896709e-07 -1.046271e-06 2.454844e-06
6.166459e-07 -4.324553e-07 3.316501e-07 -1.813369e-07 -1.172692e-07 7.610290e-07
6.958446e-07 -2.994360e-07 6.321260e-07 -5.701037e-07 -6.771399e-07 1.830695e-06
5.608232e-07 -3.415830e-07 5.282582e-07 3.379920e-07 7.493715e-08 2.991632e-07
6.597990e-07 -3.425154e-07 1.067302e-06 3.766869e-07 5.400829e-08 5.790660e-07
4.241941e-07 -4.206378e-07 3.265450e-07 5.179505e-07 1.124969e-07 1.346989e-07
4.423590e-07 -4.780873e-07 1.110632e-06 5.733184e-07 1.607807e-07 5.171184e-07
4.285253e-07 -1.389843e-07 3.437622e-07 4.502076e-07 4.016207e-08 1.561304e-07
4.121250e-07 -1.026254e-07 1.010694e-07 5.035418e-07 4.309061e-08 -9.381622e-09
1.334157e-07 -4.866231e-08 -4.057514e-08 -7.421911e-09 -4.413820e-09 7.566899e-08
2.060711e-07 -5.375747e-08 -8.144030e-08 -3.501698e-08 -1.537816e-08 7.343045e-08
1.710518e-07 -4.526750e-08 -7.623601e-08 -1.624884e-08 -4.010812e-09 5.795997e-08
1.144630e-07 -3.919323e-08 -4.120275e-08 -1.836360e-08 -3.307561e-09 5.081556e-08
1.202810e-07 -4.331613e-08 -5.371253e-08 -1.429590e-08 -1.049770e-08 5.844792e-08
4.631829e-08 1.324307e-08 -3.730370e-08 -2.745117e-08 -1.808347e-08 2.236940e-08
4.061703e-08 1.515708e-08 -2.647871e-08 -1.640117e-08 -9.878388e-09 1.198229e-08
4.720501e-08 1.916903e-08 -2.564584e-08 -2.210085e-08 -1.217418e-08 1.488839e-08
2.303336e-08 6.331663e-09 -3.683708e-08 2.655519e-08 4.476022e-08 4.933792e-08
5.651615e-08 1.951243e-08 -3.127758e-08 -2.584649e-08 -1.169089e-08 1.545834e-08
-3.401509e-07 4.025702e-07 3.926784e-07 2.013002e-08 4.683976e-08 -9.952612e-09
-2.274356e-07 3.058512e-07 1.160832e-07 -1.006009e-07 5.804534e-09 3.706578e-08
-2.908867e-07 4.772722e-07 1.666432e-07 -3.149810e-08 9.954815e-08 8.228494e-08
5.225632e-08 1.196125e-07 -1.009611e-07 -1.623122e-07 6.873065e-08 -4.212070e-08
-1.719125e-07 4.998040e-07 5.706910e-08 -5.186918e-09 2.133230e-07 1.589262e-08
-9.141858e-07 7.748890e-07 1.108648e-06 2.878661e-08 -8.171984e-07 2.147728e-07
-6.898800e-07 6.406109e-07 1.104974e-06 -1.274129e-07 -5.991213e-07 -5.274611e-08
-5.286515e-07 3.155727e-07 8.218190e-07 2.337377e-07 -6.709925e-08 -1.395596e-07
-5.630195e-07 6.297706e-07 8.139588e-07 -1.490303e-08 -7.896127e-08 1.997121e-07
-5.304362e-07 6.824949e-07 7.253058e-07 2.420345e-07 -5.459190e-07 -1.126668e-07
-1.164364e-06 4.446740e-07 2.296208e-06 1.817344e-07 -9.808176e-07 -7.055137e-08
3.783184e-07 -1.929326e-07 5.317203e-07 -3.526587e-07 2.410733e-07 -2.116400e-07
4.392716e-07 -2.295985e-07 4.690563e-07 -4.424228e-07 1.353275e-07 -2.097182e-07
4.150021e-07 -2.174873e-07 2.036600e-07 -4.020035e-07 9.985507e-08 4.117986e-08
4.580249e-07 -2.746547e-07 2.186835e-07 -2.112005e-07 -5.370571e-08 1.594152e-08
5.122491e-07 -4.296090e-07 7.043025e-07 -1.716113e-07 6.209146e-09 -2.774810e-07
7.296871e-07 -6.516094e-07 7.055886e-07 -2.350425e-07 3.114719e-07 -5.491245e-07
6.099677e-07 -5.565226e-07 6.699879e-07 -2.648392e-07 -1.790940e-08 -5.623516e-08
8.474752e-07 -9.123348e-07 6.710798e-07 -2.135767e-07 6.500140e-07 1.987651e-06
5.012953e-07 -5.269118e-07 7.942114e-07 -3.727965e-10 -2.017425e-09 3.901112e-07
9.024765e-07 -5.706180e-07 4.580700e-07 8.801708e-08 -1.237913e-07 5.936858e-07
7.856221e-07 -6.494180e-07 1.445242e-06 5.427659e-09 1.165641e-07 1.268918e-06
2.553297e-07 -6.361164e-07 1.678576e-06 1.088532e-07 2.105968e-07 1.241312e-06
6.792924e-07 -7.676581e-07 2.258321e-06 5.501691e-07 6.140452e-07 1.630800e-06
7.467173e-07 -3.504549e-08 1.061749e-07 -9.233348e-08 2.661445e-08 6.970584e-07
7.234381e-07 -3.787755e-07 3.760768e-07 -1.700160e-09 7.573890e-08 6.971948e-07
-3.071805e-07 4.244741e-07 1.568822e-07 7.132839e-08 -1.360936e-07 -4.239445e-08
-6.658040e-08 3.108104e-07 6.349437e-08 8.034435e-08 1.302079e-07 5.508354e-08
-2.912303e-07 4.301642e-07 7.801176e-07 5.870302e-08 -3.705936e-08 -1.469187e-07
-4.418025e-07 5.436874e-07 3.159915e-07 -6.856964e-08 -1.858813e-07 -3.966956e-08
-6.897459e-07 6.451602e-07 1.236922e-06 -1.283128e-07 -1.767276e-07 -1.777149e-07
-6.162665e-08 2.968583e-07 -2.672942e-08 2.098897e-07 -1.619052e-07 -1.222232e-07
-4.643400e-08 1.578586e-07 -2.591501e-08 8.563398e-08 -1.466003e-07 -6.852770e-08
-8.701031e-08 3.289326e-07 1.885986e-08 3.504635e-07 -4.941895e-08 -1.267428e-07
-1.323803e-07 3.755647e-07 -2.553713e-08 2.212005e-07 -8.579723e-08 -3.883475e-08
-1.054800e-08 1.500522e-07 -1.799559e-08 3.129999e-07 -1.512332e-07 -1.640604e-07
-1.001969e-07 2.665487e-07 6.186610e-08 2.513084e-07 -9.980641e-08 -5.155202e-08
-1.065559e-07 2.672532e-07 9.382504e-08 2.474031e-07 -1.831091e-07 -1.141592e-07
-6.165393e-08 1.414249e-07 7.701651e-08 1.233804e-07 -2.603317e-07 -1.933221e-07
-4.648862e-08 1.630071e-07 -1.144639e-08 8.520709e-08 -1.909070e-07 -5.910749e-08
-1.072986e-08 7.177084e-08 -4.014673e-08 6.406640e-08 1.257168e-07 7.698639e-08
-2.774052e-08 9.238115e-08 -6.604509e-08 6.025635e-08 9.047155e-08 3.509750e-08
-1.325052e-08 -2.372244e-09 -3.241685e-08 3.177875e-08 1.044216e-07 5.507227e-08
-2.299826e-08 1.798285e-07 -1.011351e-07 1.182715e-07 8.860709e-08 5.160722e-08
-5.153572e-09 6.813915e-08 -3.619941e-08 5.700869e-08 8.584599e-08 4.558407e-08
-2.714113e-08 7.271127e-08 -6.993236e-08 6.882304e-08 9.907773e-08 7.109043e-08
9.149141e-09 1.273641e-07 -9.656968e-08 1.120778e-07 6.703306e-08 4.955649e-08
1.060152e-07 -4.463414e-08 -4.087421e-08 1.218643e-08 -4.623641e-09 6.847642e-08
1.248153e-07 -3.144472e-08 -5.416554e-08 -2.149024e-08 -8.551489e-09 5.746223e-08
9.566570e-08 -3.103700e-08 -4.038725e-08 -3.177544e-08 -6.596358e-09 6.079081e-08
1.146480e-07 -2.804326e-08 -5.272324e-08 -3.325576e-08 -1.211536e-08 4.790997e-08
9.040151e-08 -2.609041e-08 -3.917953e-08 -1.138085e-08 -9.084100e-10 4.387421e-08
1.088770e-07 -2.861794e-08 -4.546007e-08 -1.937053e-08 -4.756736e-09 4.086137e-08
1.161665e-07 -3.065539e-08 -4.699820e-08 -2.050842e-08 -1.523508e-08 7.123566e-08
7.220973e-08 2.322014e-08 -8.836326e-08 -9.227062e-08 -5.652459e-08 6.722406e-08
6.592581e-08 5.524159e-09 -4.708838e-08 -4.188684e-08 -2.532367e-08 4.253825e-08
7.365253e-08 9.110474e-09 -3.577913e-08 -5.038233e-08 -3.823674e-08 6.386377e-08
3.418098e-08 1.943129e-08 -5.078496e-08 -4.472941e-08 -6.066032e-08 6.173796e-08
1.499486e-08 6.764345e-09 -3.109891e-08 -2.714681e-08 -4.727680e-08 5.644853e-08
8.259886e-08 1.016677e-07 -9.930101e-08 1.533216e-07 6.630913e-08 5.892933e-08
-2.486069e-06 -3.686512e-07 1.651828e-05 -1.617020e-07 4.735662e-06 1.658632e-06
-2.609115e-06 -2.039001e-06 9.191728e-06 -1.168050e-06 2.228412e-06 -4.669069e-06
-8.219960e-07 4.708478e-08 5.438577e-06 -4.137814e-07 4.246282e-06 -2.785386e-06
-2.409039e-06 3.598896e-08 1.647318e-05 -4.313777e-07 7.737334e-06 1.171868e-06
-2.790545e-06 -1.787143e-06 1.041112e-05 6.536888e-07 4.777252e-06 8.751373e-07
-8.730870e-08 2.915120e-07 -9.766429e-08 1.297091e-07 -1.270209e-07 -6.012022e-08
-1.108147e-07 -1.391761e-07 9.322146e-08 2.219893e-08 -1.714842e-07 -4.612921e-08
-1.195040e-07 3.508071e-07 -1.008570e-07 5.504967e-08 -2.386888e-07 -2.126060e-08
-7.064350e-08 1.443697e-07 -1.380033e-08 1.508761e-08 -2.086301e-07 -8.529776e-09
1.143607e-07 -1.536064e-08 -6.557012e-08 4.666999e-08 2.294379e-08 6.064595e-08
4.526683e-08 -1.415364e-08 -3.784162e-08 3.210329e-08 2.150431e-08 6.266486e-08
9.326183e-08 -1.583157e-08 -4.081434e-08 4.255422e-08 2.928207e-08 7.538452e-08
8.052305e-08 -6.980155e-09 -3.111627e-08 3.289394e-08 2.148718e-08 4.512156e-08
8.139958e-08 -7.852907e-09 -3.493522e-08 3.250965e-08 1.897367e-08 4.590593e-08
1.015452e-07 7.168204e-10 -6.476587e-08 4.951239e-08 1.957758e-08 3.137738e-08
7.358516e-08 -6.054311e-09 -5.180122e-08 3.735719e-08 2.110481e-08 4.579856e-08
7.541642e-08 -1.050807e-08 -3.925602e-08 2.613293e-08 1.149318e-08 2.825553e-08
7.585193e-08 -2.213872e-09 -3.187386e-08 2.518407e-08 1.000672e-08 2.284727e-08
5.300107e-08 -1.785847e-09 -3.432062e-08 2.658425e-08 1.636049e-08 3.135648e-08
6.689226e-08 2.838075e-09 -3.840532e-08 2.965122e-08 1.174186e-08 2.231826e-08
5.884668e-08 -1.039742e-08 -3.443182e-08 2.395717e-08 1.412450e-08 3.737573e-08
6.613641e-08 1.254482e-09 -2.428223e-08 1.766900e-08 3.435737e-09 8.742917e-09
1.456550e-07 -7.206461e-08 -3.092062e-08 -8.015094e-08 -5.403724e-08 1.946128e-07
1.393677e-07 -5.496824e-08 -6.946854e-08 -8.538497e-08 -2.785786e-08 1.059543e-07
1.505143e-07 -3.094175e-08 -5.413041e-08 -6.973605e-08 -4.552133e-08 1.057262e-07
2.568677e-07 -4.780789e-08 -8.945214e-08 -1.037980e-07 -2.686658e-08 1.195908e-07
2.447286e-08 -7.340141e-08 -5.985892e-09 -2.914299e-08 -4.090690e-08 1.159578e-07
2.206783e-07 -8.280185e-08 -7.629745e-08 -1.047015e-07 -4.637156e-08 1.389871e-07
-6.439382e-08 1.150750e-07 -4.468918e-08 1.160449e-07 1.399233e-07 5.827190e-08
6.165872e-09 1.314975e-07 -7.973820e-08 1.202250e-07 1.158412e-07 7.271915e-08
-7.172653e-08 3.384045e-07 -9.543284e-08 1.656109e-07 1.312290e-07 5.275531e-08
-3.441910e-08 2.590578e-07 -1.047896e-07 1.782591e-07 1.042913e-07 6.138374e-08
-4.174141e-08 3.846172e-07 -7.193394e-08 3.031295e-07 -1.018433e-07 -3.518155e-08
4.294001e-08 1.601050e-07 -1.097931e-07 -2.179633e-07 1.014824e-07 -6.036045e-08
1.420176e-07 -3.034640e-08 -5.863622e-08 -1.198669e-08 -4.275349e-09 3.433419e-08
-1.774355e-08 7.780416e-08 -5.966156e-08 -8.918319e-08 1.746884e-07 -7.440876e-08
8.571624e-08 -2.169774e-08 -2.864550e-08 -6.909907e-09 -3.266266e-09 2.181992e-08
-4.557792e-08 -2.878486e-08 1.346537e-08 -3.093228e-08 1.538372e-07 -8.058643e-08
-2.332438e-07 1.793897e-07 1.294499e-06 5.272346e-07 4.123192e-07 2.571356e-07
5.873849e-08 4.787507e-09 -2.351892e-08 -1.247679e-08 -4.250038e-09 7.803917e-09
1.016141e-07 -3.739584e-08 -5.302711e-08 1.715710e-08 7.724367e-09 5.780649e-08
1.700663e-07 -3.869818e-08 -6.960805e-08 1.908010e-08 4.316834e-09 4.682249e-08
1.047073e-07 7.151699e-09 -7.535219e-08 -8.160907e-08 -2.745684e-08 4.011213e-08
1.270018e-07 -4.958328e-08 -3.779619e-08 -4.145103e-09 -3.773153e-09 6.927689e-08
1.170368e-07 -2.452339e-08 -4.100547e-08 8.327627e-09 1.288780e-09 1.830189e-08
-8.755855e-08 2.226202e-07 4.297661e-07 7.110703e-07 4.751371e-07 1.973384e-07
-2.129133e-07 2.326553e-07 8.413499e-07 5.586935e-07 2.379353e-07 6.820936e-08
-7.799533e-07 4.943477e-07 2.478791e-06 7.032124e-07 8.978396e-07 6.857958e-07
-3.265449e-07 4.907305e-07 3.472561e-07 3.609349e-07 1.807753e-07 -3.635061e-08
-2.034302e-07 3.510562e-07 4.916250e-07 5.194416e-07 2.567369e-07 9.675514e-08
8.665420e-08 -1.971067e-07 2.302500e-06 1.041052e-06 1.015395e-06 1.519067e-06
-5.681197e-07 1.143870e-07 3.178219e-06 1.031891e-06 1.834460e-06 1.343686e-06
3.752056e-08 1.782258e-08 -4.927639e-08 1.176687e-07 1.167309e-07 1.019255e-07
-7.523317e-07 -2.758227e-07 2.381408e-06 7.610709e-07 9.752673e-07 6.101523e-07
-1.226473e-06 6.118276e-08 2.105490e-06 4.863670e-07 9.834830e-07 3.003397e-07
-1.199204e-06 1.763452e-07 3.683703e-06 8.253536e-07 2.102247e-06 2.676571e-07
-5.401376e-07 6.511594e-07 7.944786e-07 2.459325e-07 3.377385e-07 2.370925e-07
-6.327752e-07 7.914918e-07 1.380418e-06 4.081265e-07 1.025584e-06 1.487850e-07
-6.313388e-08 2.774594e-07 -9.480927e-08 -1.709411e-07 -1.242977e-07 4.859843e-08
-1.091352e-07 4.606527e-07 -4.058800e-09 -3.117007e-07 -1.574005e-07 1.276991e-07
-1.309450e-07 3.228039e-07 -1.182983e-08 -2.641197e-07 -1.977072e-07 9.180007e-08
-1.126087e-07 2.141023e-07 -4.506553e-08 -3.812060e-08 -2.648425e-07 3.959189e-08
3.542485e-08 -4.267497e-08 -3.227043e-08 4.331356e-08 2.635743e-08 1.263186e-07
3.749096e-08 6.139932e-09 -3.274390e-08 -2.471314e-08 -2.572216e-08 3.389580e-08
-1.140400e-07 4.639172e-07 2.742956e-08 -3.073984e-07 -1.873183e-07 3.760708e-08
-1.488147e-07 1.180005e-07 1.274727e-07 -1.953279e-07 -6.451463e-08 1.266505e-08
-1.525530e-07 3.846016e-07 -7.037414e-08 -1.976178e-07 -1.796774e-07 8.186934e-08
-1.439595e-06 4.318098e-07 1.959745e-06 -2.550034e-07 -2.702309e-06 -4.355601e-07
-3.500511e-08 -4.085375e-08 6.352096e-08 7.643567e-09 2.335904e-07 -2.923876e-09
-6.888540e-08 1.456626e-07 2.525333e-08 -1.556791e-07 -2.068636e-07 1.513883e-07
3.105345e-09 1.662734e-07 1.100794e-08 -9.831189e-08 -2.416104e-07 1.202250e-07
4.458951e-08 1.136181e-07 -1.013026e-07 1.576202e-07 7.759891e-08 5.737153e-08
-9.127318e-08 1.962926e-07 4.459099e-08 -1.189298e-07 -2.671704e-07 7.275648e-08
2.102054e-07 -9.429133e-08 -3.228186e-08 -4.120891e-08 -3.843835e-08 1.792367e-07
1.205967e-07 -6.287762e-08 5.288120e-07 -6.639130e-07 -2.795311e-07 1.637584e-07
-3.637710e-08 -1.739455e-08 -1.122465e-08 -4.132497e-10 2.041446e-07 -3.058294e-10
3.663050e-07 -2.038315e-07 1.710944e-08 -1.039468e-07 4.096069e-09 7.306545e-08
2.622561e-07 -1.108594e-07 -6.788467e-08 -1.150415e-07 -2.214067e-08 1.151615e-07
8.322675e-08 -9.896059e-08 -3.594462e-09 2.635955e-09 -2.782405e-08 1.863579e-07
1.308114e-07 -1.555133e-08 -3.747646e-08 -1.196023e-07 -3.121633e-08 1.580552e-07
1.519238e-08 2.144893e-09 -4.287799e-08 2.786897e-08 7.975174e-08 9.051913e-08
2.487598e-07 -8.313986e-08 -8.109091e-08 -1.097374e-07 -1.814645e-08 1.017839e-07
1.206334e-07 4.886629e-08 4.481056e-08 -1.954344e-07 2.731491e-08 -6.891139e-08
1.079400e-07 4.278758e-08 2.443845e-07 -3.633434e-07 6.352377e-08 1.158115e-08
1.619375e-07 1.136216e-07 -5.761073e-08 -2.830260e-07 1.318671e-07 -1.128517e-07
-3.730171e-08 3.762234e-08 -3.074496e-08 3.259071e-08 1.397004e-07 6.733630e-08
3.064247e-08 1.582028e-07 2.323031e-07 -3.767161e-07 5.393421e-08 4.455768e-08
1.327840e-07 -1.578435e-08 -6.243732e-08 5.042183e-08 2.484612e-08 6.294055e-08
4.410562e-08 2.345158e-08 -2.800403e-08 1.556602e-08 4.343304e-09 6.449527e-09
9.017221e-08 1.608084e-07 1.165141e-08 -3.353706e-07 5.497847e-08 -7.739962e-08
1.573660e-07 1.291600e-07 -3.253356e-08 -2.827291e-07 1.049057e-07 -1.233341e-07
3.907739e-08 1.229529e-07 3.695115e-08 -2.690026e-07 1.435325e-07 -5.772976e-08
-3.478269e-07 6.449702e-07 1.278628e-07 3.216519e-07 -3.687583e-07 -1.987195e-07
-4.066931e-07 -3.056503e-08 1.213397e-06 7.908681e-08 -8.427650e-07 -3.372454e-07
1.318495e-08 1.012689e-07 -8.029923e-08 7.913053e-08 4.662983e-08 3.318373e-08
-1.972337e-07 1.721234e-07 4.875643e-07 1.449056e-07 5.266730e-08 5.982413e-08
2.274032e-07 -6.860699e-08 4.406466e-07 -5.446093e-07 3.611136e-07 -3.250881e-07
4.315254e-08 -7.114148e-09 1.687945e-07 -6.248854e-08 8.362679e-09 -1.022689e-07
-5.554054e-07 3.978045e-07 9.239073e-07 -4.004397e-07 -7.277120e-07 -9.701331e-08
-3.049096e-08 -7.575282e-08 -1.516861e-07 3.120189e-08 2.397173e-08 -2.521638e-08
-2.697665e-08 -6.475474e-08 -4.980692e-08 5.702558e-09 3.529065e-08 -1.190849e-08
-8.943003e-08 1.940146e-07 1.552304e-06 1.407425e-07 -2.570485e-07 3.514582e-07
-4.717351e-07 3.279486e-07 1.436570e-06 -4.793336e-09 -8.292755e-08 -7.331627e-08
1.852519e-07 -1.114846e-07 -3.124005e-08 5.213981e-08 3.621851e-08 1.832945e-07
2.839980e-07 -1.441017e-07 -2.086510e-09 8.687917e-08 -1.076992e-09 1.081956e-07
-4.450938e-08 -1.766800e-08 1.395296e-07 1.691722e-08 -4.704635e-08 -9.229125e-08
-2.704115e-07 -1.293023e-06 7.438186e-06 -4.022107e-07 1.955509e-06 -4.533259e-06
2.015554e-07 -1.098583e-07 -1.035142e-08 1.077440e-07 5.782695e-08 1.820295e-07
2.567978e-08 -1.093215e-07 2.573763e-08 4.158774e-08 1.849710e-08 1.333026e-07
4.825939e-08 2.435414e-08 -3.475309e-08 2.389289e-08 8.743070e-09 8.684129e-09
6.113736e-08 1.659406e-08 -3.507437e-08 2.945452e-08 1.038119e-08 1.684596e-08
-2.213210e-07 1.945785e-07 5.887440e-08 -1.035097e-07 -2.797755e-07 1.556914e-07
3.553920e-08 -1.313543e-08 -3.564559e-08 -3.233047e-08 -4.877806e-08 8.478806e-08
4.866525e-08 1.610841e-08 -2.741040e-08 1.811407e-08 5.164063e-09 6.641871e-09
5.387486e-08 2.015622e-08 -2.955356e-08 2.333065e-08 4.604027e-09 7.753243e-09
4.681294e-08 2.356265e-08 -3.095342e-08 2.282178e-08 6.686479e-09 5.733196e-09
2.166870e-07 -1.652163e-07 5.576550e-07 -5.310032e-07 -2.082542e-08 4.253720e-08
5.334007e-08 1.770895e-08 -2.655281e-08 2.214224e-08 6.967492e-09 9.113000e-09
2.642409e-07 -9.149678e-08 -6.276044e-08 2.134963e-07 3.303075e-08 1.338264e-07
1.284415e-07 -2.994372e-08 -3.059356e-09 1.378897e-07 -8.444594e-08 -1.275474e-07
2.547058e-07 -8.188968e-08 -8.612913e-08 1.404263e-07 2.599332e-08 1.310305e-07
-4.927759e-08 1.855393e-08 3.183233e-07 -1.575875e-08 -9.339019e-08 1.034253e-07
-3.697016e-08 -3.292105e-09 -1.911688e-08 1.479740e-08 1.272407e-07 -5.849838e-08
2.168633e-07 -5.440038e-08 -7.230247e-08 1.080161e-07 5.083000e-08 1.273423e-07
2.283535e-07 -4.700279e-08 -7.646806e-08 9.544956e-08 5.456776e-08 1.132678e-07
-7.616936e-08 2.073997e-07 2.614348e-08 -2.512869e-07 2.110355e-07 -1.057555e-07
-4.114159e-08 2.088601e-07 -3.102024e-08 -3.008641e-07 7.817775e-08 -5.620984e-08
-6.647934e-08 1.635901e-07 2.220824e-07 -2.576504e-07 1.092829e-07 3.336265e-08
-5.312704e-08 3.199062e-07 5.751579e-08 -3.025000e-07 5.412017e-09 -2.179902e-08
-1.153369e-07 3.248833e-07 2.675724e-07 -3.564668e-07 7.769890e-08 6.128832e-08
-3.938434e-08 2.184115e-07 -1.026763e-07 -8.818935e-08 -8.567144e-08 3.735455e-08
-8.883793e-08 1.592404e-07 3.136972e-07 -3.789364e-07 3.647974e-08 1.488128e-08
-8.285157e-08 3.419939e-07 -1.230330e-07 1.292347e-07 -1.563072e-07 -3.176237e-08
-8.583329e-08 1.574003e-07 3.554545e-07 -3.796954e-07 1.631693e-07 -1.033843e-07
-3.615103e-08 -8.120045e-10 -3.499197e-08 1.221950e-08 1.136562e-07 -2.288805e-08
2.036384e-08 3.954440e-08 -3.961467e-08 4.892937e-08 5.011055e-08 3.814072e-08
-2.960283e-07 3.126349e-07 5.104389e-07 -1.163651e-07 -7.854230e-08 -1.022368e-08
-1.542243e-07 2.934375e-07 2.487286e-07 -1.800540e-07 1.250945e-07 8.329995e-09
-1.248428e-07 1.771088e-07 1.777969e-07 -2.470382e-08 1.958635e-07 -3.728845e-09
-6.159412e-08 2.182249e-07 -8.165367e-08 1.722376e-08 1.438249e-07 5.699846e-09
-3.231101e-08 -5.273503e-08 -4.848515e-09 5.956469e-09 -1.875489e-07 1.699201e-08
-2.025865e-07 5.251741e-07 -2.965649e-08 -1.418739e-08 -1.625775e-07 9.692416e-09
-3.148790e-08 -4.119566e-08 -2.901153e-08 -3.576969e-08 -6.663865e-08 -9.559659e-09
-7.202873e-08 2.512705e-07 -1.081067e-07 -1.075251e-07 -1.246200e-07 3.310661e-08
-8.888136e-08 2.291751e-07 1.169289e-08 -2.405005e-08 2.072563e-07 -5.650061e-08
-1.372210e-07 1.414612e-07 1.096107e-07 -7.996026e-08 3.003901e-07 -1.232458e-07
-1.455441e-07 1.513212e-07 3.976337e-08 8.712808e-08 2.438157e-07 -2.357047e-08
-1.104430e-07 1.581225e-07 7.898897e-08 6.967587e-08 1.985703e-07 1.458494e-09
-8.618805e-08 2.809473e-07 -3.053406e-08 1.264439e-08 -6.891729e-08 -8.991032e-08
-1.126837e-07 3.057980e-07 -5.621874e-08 1.331046e-07 1.573219e-07 5.288061e-08
-7.025102e-08 1.602924e-07 4.284160e-08 8.266795e-08 1.325710e-07 7.092568e-08
1.146511e-07 -4.495961e-08 -5.260538e-08 1.067368e-09 2.652237e-09 5.645881e-08
7.338422e-08 1.307442e-08 2.759187e-07 4.148949e-07 -6.735303e-08 -4.220462e-09
7.416502e-08 5.373307e-08 2.318670e-07 3.976540e-07 1.179441e-09 -1.001278e-09
-4.063131e-08 2.372977e-07 9.692649e-08 2.755336e-07 4.283502e-08 9.651192e-08
4.602677e-08 1.526213e-07 1.247002e-07 3.354610e-07 -3.441708e-08 -6.844152e-08
2.079603e-09 1.009857e-07 9.865092e-08 1.905752e-07 1.047965e-07 8.165793e-08
7.529421e-08 -1.024669e-08 -2.946378e-08 2.600139e-08 1.317796e-08 2.785606e-08
9.699129e-08 -2.229290e-08 -4.376827e-08 1.435050e-08 5.399388e-09 2.477703e-08
-1.146044e-07 8.747475e-09 2.586848e-07 6.707262e-08 1.782110e-08 -4.315791e-08
-5.001275e-09 1.094742e-07 -7.374458e-08 7.159099e-08 6.285805e-08 2.441628e-08
-3.139829e-09 1.175201e-07 9.891433e-08 1.826021e-07 2.056661e-07 2.023340e-07
-2.096745e-07 2.176502e-07 4.819470e-07 2.991714e-07 -2.020180e-08 -5.144754e-08
1.189673e-07 -3.249777e-08 -5.398742e-08 -2.864442e-08 -9.804624e-09 4.616779e-08
-6.064142e-08 3.044599e-07 3.393727e-08 3.366196e-07 6.967299e-08 4.097974e-08
-2.096583e-08 3.480001e-07 1.404489e-08 3.778783e-07 8.782341e-08 6.183920e-08
-1.105486e-07 1.503081e-07 7.255129e-08 1.779612e-07 4.772319e-08 -2.954273e-08
9.650816e-09 5.362456e-10 -4.341990e-08 2.487767e-08 7.274444e-08 7.669917e-08
5.441023e-08 -1.834775e-08 -3.612593e-08 2.520756e-08 2.075636e-08 5.528119e-08
-2.915763e-08 1.719519e-07 5.140524e-07 5.077585e-07 -3.386020e-07 -1.305957e-07
-5.094273e-08 2.031698e-07 3.067679e-07 4.814544e-07 -5.409339e-08 -1.951519e-08
-2.233450e-06 -2.254926e-06 1.407210e-05 3.382358e-07 -2.514352e-06 -3.002221e-06
1.534472e-07 -1.861547e-08 -7.336777e-08 6.301780e-08 1.884679e-08 4.749650e-08
-2.740152e-07 5.176595e-07 2.669907e-07 -2.167374e-07 7.472073e-08 4.769805e-08
6.954945e-08 -2.739091e-09 -2.153829e-08 -1.021447e-07 -8.597180e-08 1.505467e-07
2.257930e-07 -7.193287e-08 -1.031126e-07 -8.982785e-08 -2.056269e-08 9.528913e-08
-2.281679e-06 -2.606890e-07 4.395373e-06 1.443290e-07 -2.588984e-06 -1.440146e-06
9.877469e-08 -2.541716e-08 -2.891489e-08 -1.222417e-08 -3.501661e-09 2.752085e-08
1.816516e-07 1.478573e-07 -1.879737e-08 -3.683244e-07 -8.470647e-08 9.661356e-08
-2.260423e-06 -1.401661e-06 7.481888e-06 2.654955e-07 -3.291792e-06 -1.419601e-06
-2.536700e-06 -3.613662e-06 1.644515e-05 7.590203e-07 -1.133807e-06 2.530946e-06
-1.248634e-06 -6.027902e-07 5.930274e-06 -5.169940e-07 -2.590914e-06 2.151305e-06
-1.469140e-06 -2.655379e-06 9.322768e-06 1.624711e-07 7.205770e-07 1.814616e-06
-3.629327e-06 -2.862728e-06 1.370370e-05 4.985529e-08 -2.072358e-06 -4.222901e-07
4.469164e-08 -4.842377e-08 -2.613677e-08 -6.331073e-09 -3.890180e-08 1.213239e-07
-2.284909e-06 -2.600974e-06 7.200121e-06 5.339871e-07 -1.988749e-06 -1.912298e-06
-4.156646e-07 -4.591577e-08 1.040308e-06 -7.957806e-07 3.220732e-07 -2.304132e-07
-5.056135e-08 -4.556625e-08 2.108332e-08 3.538107e-08 -1.882105e-07 2.723000e-08
-3.667401e-08 -4.557007e-09 -2.322186e-08 1.107916e-08 1.341872e-07 -7.052372e-08
2.579632e-07 -9.580587e-08 -9.250253e-08 -6.856042e-08 -1.210684e-08 8.268277e-08
2.064579e-07 -7.390726e-08 -6.846460e-08 -2.453282e-09 -4.438175e-09 1.181833e-07
1.750223e-07 -7.324740e-08 -6.195574e-08 4.693213e-09 -6.534714e-09 9.954920e-08
1.369544e-07 -4.633608e-08 -4.308741e-08 -1.815773e-08 -1.579661e-08 6.508256e-08
1.258723e-07 -3.992542e-08 -5.335469e-08 -3.944367e-08 -2.760430e-08 6.910485e-08
1.609750e-07 -6.759702e-08 -6.614902e-08 -3.703551e-09 -2.022504e-09 1.072246e-07
4.340247e-08 1.066296e-07 -9.477446e-08 1.236653e-07 6.863998e-08 4.658766e-08
2.626878e-07 -1.199729e-07 -8.183656e-08 -1.300928e-08 -9.820729e-09 1.478744e-07
3.026913e-07 -1.105402e-07 -8.911667e-08 -7.074362e-08 -1.094646e-08 1.065623e-07
1.226311e-07 -2.818113e-08 -4.306175e-08 -1.673383e-08 -6.010386e-09 3.490441e-08
1.018453e-07 -2.937556e-08 -4.559406e-08 -1.040326e-08 -3.491790e-09 2.751147e-08
1.291381e-07 -3.303592e-08 -4.000900e-08 -6.886055e-09 -3.537695e-09 4.997284e-08
-8.338925e-09 1.791696e-08 -4.348433e-08 -1.719227e-08 -8.839179e-08 7.153332e-08
1.964452e-08 2.483902e-08 -3.763564e-08 -2.192673e-08 -3.718053e-08 3.792600e-08
1.015645e-07 -3.254054e-08 -4.539946e-08 -1.226122e-08 -4.644087e-09 4.223432e-08
1.152016e-07 -2.376046e-08 -4.131921e-08 -6.559137e-09 -2.387155e-09 1.921156e-08
9.621920e-08 -2.372519e-08 -2.867331e-08 -1.588414e-08 -2.686880e-09 2.701497e-08
1.391978e-07 -2.662418e-08 -7.492005e-08 -9.539550e-08 -4.249244e-08 8.523862e-08
5.088445e-08 1.572233e-08 -2.962440e-08 -3.248637e-08 -1.753974e-08 2.512153e-08
1.288762e-07 -4.648015e-08 -6.028213e-08 -8.610334e-09 -3.172653e-09 4.374704e-08
8.429475e-08 -2.659781e-08 -2.928259e-08 -4.270033e-09 -4.011667e-09 3.212838e-08
-7.560937e-07 -1.334886e-06 5.180617e-06 9.496262e-07 -1.500884e-06 -1.525368e-06
-7.960852e-08 8.358671e-08 4.733501e-07 -5.131337e-08 8.737009e-08 -2.035199e-07
-4.049163e-08 -1.645645e-08 1.930501e-08 -3.203874e-09 -1.562753e-07 1.551682e-07
-6.019066e-08 -7.501529e-07 3.556973e-06 7.995142e-07 -7.861323e-07 -1.397771e-06
3.194475e-08 -1.050984e-06 4.301301e-06 -5.396044e-08 -6.422471e-07 -4.046180e-06
5.643180e-07 -1.058126e-06 1.388458e-06 6.119223e-07 -9.663967e-07 -1.005252e-06
-1.168228e-06 -5.582750e-07 4.605371e-06 5.169967e-07 -3.235530e-06 -3.085309e-06
-1.917322e-08 1.527836e-07 -7.991845e-08 -1.223990e-07 -1.238242e-07 7.093045e-08
1.185277e-08 2.027840e-07 -1.285203e-07 1.551499e-07 -1.288708e-07 -5.661077e-08
5.384968e-08 1.521192e-08 -6.778517e-08 7.272454e-08 5.881779e-08 8.141402e-08
-2.489106e-07 3.529195e-07 1.382645e-07 -1.372321e-07 -6.692866e-08 -3.740974e-08
-8.361596e-09 8.559689e-08 -4.404017e-08 -4.210902e-08 -7.364331e-08 6.021578e-08
6.041676e-08 4.352046e-08 -4.532460e-08 8.946640e-08 1.070010e-07 1.361696e-07
3.337302e-08 -1.602406e-08 -2.625790e-08 3.349901e-08 9.003305e-08 1.041167e-07
2.587403e-08 1.407467e-07 -5.057518e-08 -1.701718e-07 -1.813047e-07 1.348138e-07
5.778058e-08 7.336872e-08 -8.762682e-08 1.211863e-07 5.040699e-08 5.605473e-08
3.358132e-08 3.498148e-10 -5.158111e-08 5.280888e-08 6.858351e-08 1.135400e-07
-6.352167e-08 2.074656e-07 -5.613120e-08 -5.930954e-08 -1.732485e-07 1.184869e-07
8.538333e-08 1.095877e-07 -9.610269e-08 -2.037356e-07 -8.500462e-08 9.156300e-08
-4.047008e-08 2.711721e-08 -3.084003e-08 -2.903569e-08 -1.542719e-07 5.113513e-08
6.789626e-08 1.101921e-08 -3.785194e-08 1.149482e-07 8.027026e-08 1.089818e-07
9.599167e-08 6.554540e-08 -8.761213e-08 1.179093e-07 5.020594e-08 5.508399e-08
-2.609208e-07 4.496490e-07 8.158398e-07 -6.079896e-07 -4.949709e-07 2.246146e-07
-1.547797e-08 2.017421e-07 -1.348106e-07 1.838956e-07 -1.247541e-07 -8.278964e-08
-3.174330e-09 1.355161e-08 2.344853e-07 -2.153791e-07 1.906395e-07 -1.605600e-07
1.202257e-07 6.146351e-08 -3.029317e-08 -2.369140e-07 -6.528938e-08 1.089559e-07
5.583623e-09 8.729424e-08 1.002913e-07 -3.149985e-07 9.818113e-09 -7.201089e-08
-3.653888e-08 -1.084158e-07 7.105581e-08 9.299884e-09 -2.611914e-07 4.786267e-08
-1.325348e-07 4.276228e-07 -1.090478e-07 1.725256e-07 -1.052001e-07 -4.028369e-08
2.044877e-08 2.697946e-07 -1.216527e-07 2.340262e-07 -8.953872e-08 -5.910092e-08
-2.396518e-08 -8.472425e-08 1.871628e-08 -1.778999e-09 -1.828773e-07 1.690429e-08
1.169301e-07 3.260593e-08 2.186843e-07 -3.624560e-07 1.430927e-07 -6.887481e-08
4.593847e-08 1.058173e-07 -6.024075e-09 -1.916284e-07 -2.901379e-08 5.233562e-08
4.525711e-08 5.974981e-07 1.160614e-06 9.453000e-07 1.530133e-06 1.177580e-06
1.044419e-07 5.459838e-08 -7.479306e-08 -1.998318e-07 6.010759e-09 9.795343e-09
6.439013e-08 1.244251e-08 -3.240892e-08 -2.639860e-08 -1.081157e-08 1.637629e-08
-1.430490e-07 3.623410e-07 -1.075279e-07 -3.135873e-08 -1.356138e-07 -8.718149e-10
6.439149e-08 1.272219e-08 -4.328122e-08 -2.636833e-08 -1.114877e-08 1.648696e-08
-1.964983e-08 -9.520461e-08 6.874731e-08 -9.387187e-09 -2.627527e-07 5.494878e-08
5.393090e-07 -4.767120e-07 6.643299e-07 -1.289904e-07 -1.958222e-08 -1.005395e-07
5.233540e-07 -3.285130e-07 2.399743e-07 5.099716e-08 -1.475098e-07 -1.944061e-07
8.256809e-07 -6.802406e-07 2.060986e-06 7.181789e-07 3.230821e-07 1.789168e-06
1.388602e-07 5.314237e-08 -1.186530e-08 -2.777078e-07 -5.392794e-08 1.028588e-07
8.303571e-08 3.463486e-09 -3.692671e-08 -3.361845e-08 -9.782769e-09 2.125793e-08
6.949136e-08 6.965724e-09 -4.099891e-08 -3.669937e-08 -9.922994e-09 2.952274e-08
7.508160e-08 2.172558e-09 -5.211202e-08 -3.721404e-08 -1.427084e-08 2.599286e-08
6.946195e-08 3.516518e-09 -4.032150e-08 -2.581910e-08 -1.097809e-08 1.212630e-08
-1.775332e-07 3.458267e-07 -6.336630e-08 -1.051656e-07 -9.051013e-08 4.108290e-08
7.487689e-08 1.196909e-08 -5.294940e-08 -3.734804e-08 -1.481431e-08 2.642360e-08
6.866497e-08 -1.055344e-07 -1.606429e-08 -3.456705e-08 -7.860758e-08 1.290902e-07
4.660356e-08 2.143957e-08 -3.256134e-08 -4.475238e-08 -3.250931e-08 3.712896e-08
-3.582143e-08 1.057103e-07 -7.793259e-08 -1.144920e-07 -1.096382e-07 6.600559e-08
9.267239e-08 3.909490e-08 -7.601009e-08 8.547614e-08 3.559035e-08 4.429962e-08
4.533305e-08 3.023731e-08 -4.871260e-08 -3.595010e-08 -1.697201e-08 2.107562e-08
1.640899e-07 -4.432181e-08 -7.118203e-08 -1.822558e-08 -1.238163e-08 1.525025e-07
9.519886e-08 2.201429e-08 -7.652133e-08 9.380881e-08 3.219318e-08 4.699796e-08
1.545337e-07 -4.884073e-08 -4.972467e-08 1.958823e-08 6.198686e-09 1.197033e-07
5.954570e-08 -8.401109e-09 -3.705980e-08 -2.662983e-08 -1.521722e-08 4.424508e-08
1.332206e-07 -4.982311e-08 -5.927445e-08 -4.092821e-09 8.940011e-10 8.904490e-08
1.110106e-07 -4.524330e-08 -3.790864e-08 2.661922e-08 -1.832664e-09 9.817839e-08
9.896702e-10 3.456191e-09 -3.253930e-08 -1.965052e-08 -7.747149e-08 6.653530e-08
-6.341550e-07 6.270446e-07 1.093797e-06 1.458496e-08 -7.838464e-08 -6.993967e-08
8.231722e-08 -1.421276e-08 -4.072284e-08 -3.258950e-08 -3.630643e-08 6.994267e-08
1.318404e-08 9.144793e-08 -7.816812e-08 6.146372e-08 4.547974e-08 2.262923e-08
-4.847586e-08 1.632782e-07 -7.173156e-08 -5.368999e-08 1.005417e-07 -3.847348e-08
-2.880997e-08 1.067003e-07 -6.630527e-08 -4.028905e-08 9.107343e-08 -2.357676e-08
-2.215691e-07 4.983303e-07 1.337089e-07 -1.876072e-07 1.308868e-07 -6.546764e-08
-3.945296e-08 2.602219e-08 -3.052917e-08 -4.158966e-09 1.071276e-07 -4.529013e-08
-3.883623e-08 1.048901e-07 -4.679855e-08 -2.244166e-08 1.451031e-07 -4.689754e-08
-1.284819e-08 -7.033965e-09 -1.116560e-08 -1.819658e-08 -8.890004e-08 1.112018e-07
-3.169538e-08 1.168150e-07 -4.790702e-08 -1.125151e-08 1.396810e-07 -4.852039e-08
1.068462e-07 -2.504071e-08 -6.396267e-08 5.155478e-08 3.001964e-08 8.569220e-08
1.468704e-07 -3.059568e-08 -6.212188e-08 6.468115e-08 1.987093e-08 6.256791e-08
1.180180e-07 -1.863588e-08 -6.877855e-08 5.381194e-08 1.266681e-08 3.898042e-08
-7.176015e-08 -2.704171e-08 1.040545e-07 3.095173e-08 -1.811765e-07 9.382203e-08
-4.299673e-08 -1.524968e-08 1.479601e-08 -4.189586e-09 -1.286660e-07 8.672642e-08
6.969382e-08 -6.440696e-09 -2.643556e-08 -2.096291e-08 -6.292690e-09 1.736257e-08
6.296778e-08 8.512909e-09 -3.063637e-08 -2.745809e-08 -8.076418e-09 1.528380e-08
6.651571e-08 4.012559e-09 -2.813245e-08 -2.727906e-08 -1.175118e-08 1.965128e-08
8.057613e-08 -6.950325e-09 -2.720063e-08 -2.484543e-08 -1.351311e-08 2.697638e-08
7.396888e-08 -8.442156e-09 -4.616144e-08 -2.961298e-08 -1.561657e-08 3.026171e-08
-4.560295e-08 1.689132e-07 5.015674e-07 -6.090158e-07 -6.972149e-08 -1.361856e-07
-8.163558e-08 -1.075138e-07 7.939137e-07 -5.028062e-07 3.582156e-07 -2.330819e-07
-1.700657e-07 3.513302e-07 4.001480e-07 -4.570702e-07 2.205794e-07 -2.108663e-07
-2.013211e-07 3.476056e-07 6.053356e-07 -4.490829e-07 1.865374e-07 -1.294889e-08
-1.357938e-07 5.175931e-07 5.419460e-08 -3.223668e-07 -1.121393e-07 6.176599e-08
-7.381814e-08 1.410320e-07 1.648242e-07 -3.437778e-07 -6.629742e-08 -4.621250e-08
4.960097e-08 1.594280e-07 -7.861002e-08 -2.192257e-07 -1.168697e-07 8.075361e-08
-2.232407e-07 2.954096e-07 6.819338e-07 -5.115867e-07 1.885087e-07 -7.429146e-08
3.942892e-07 -1.954745e-06 5.433839e-06 -2.564431e-07 -1.635347e-08 -3.047035e-06
3.626223e-07 -9.917993e-08 5.958384e-09 3.582994e-07 -6.835639e-08 -5.394353e-08
5.191040e-07 -3.608803e-07 5.539392e-07 8.634761e-08 -8.907319e-08 -2.501129e-07
1.627338e-07 -4.043192e-08 1.955560e-06 -7.669600e-07 7.080715e-07 -1.259496e-06
-1.685591e-08 -8.715572e-09 9.376183e-08 -2.878633e-08 3.158132e-08 -1.418145e-07
-2.677434e-07 5.651807e-07 2.464178e-08 2.334639e-07 -7.572199e-08 -5.097744e-08
4.608593e-07 -5.553884e-07 1.050802e-06 -5.540575e-07 4.038297e-07 -6.509054e-07
-1.283785e-07 -1.062602e-06 5.810585e-06 8.881802e-07 -1.071161e-06 -4.920968e-06
-5.117505e-07 -7.315457e-07 4.175693e-06 -1.299170e-06 2.009867e-06 -2.973933e-06
-2.160615e-07 4.358449e-07 6.155439e-08 5.826014e-08 -6.476392e-08 1.422700e-08
-7.947988e-08 2.626455e-07 -1.162502e-07 6.620991e-08 -1.280957e-07 -1.259322e-08
3.753816e-07 -2.823842e-07 1.059951e-06 -4.416077e-07 -4.006237e-07 5.575744e-07
4.085341e-07 -6.237186e-08 2.776779e-07 -2.059046e-07 -1.668476e-07 1.689470e-07
3.517434e-07 -1.913836e-07 2.211188e-07 -2.618470e-07 -3.896702e-08 3.448264e-08
3.343089e-07 -4.576264e-08 5.455323e-07 -4.194116e-07 3.527277e-08 2.135316e-07
5.811694e-07 -4.205235e-07 1.760358e-06 -1.396080e-07 1.779316e-08 1.098599e-06
4.600491e-08 -5.504559e-08 1.489439e-07 -6.465938e-08 -4.622994e-08 -7.902549e-08
-3.125941e-08 -9.222307e-10 -2.300869e-08 1.333616e-08 1.118687e-07 1.045261e-07
2.194881e-07 -2.859767e-07 5.114635e-07 -3.897937e-07 -4.361302e-08 1.441549e-08
4.475952e-07 -2.633026e-07 5.899808e-07 -4.799893e-07 -8.679191e-08 9.393343e-08
5.595764e-07 -1.292526e-07 3.244036e-07 -5.204466e-07 -2.983968e-07 2.662966e-07
1.655010e-07 -4.119220e-07 1.449056e-06 -6.964626e-07 -2.671015e-07 6.779190e-07
-4.398293e-08 -2.443907e-07 1.446868e-06 -5.603444e-07 -2.216234e-07 7.229992e-07
9.767445e-08 -2.376837e-08 -2.946259e-08 -7.048616e-09 -1.952880e-09 2.224536e-08
9.233813e-08 -2.247230e-08 -4.563934e-08 2.206860e-08 7.860481e-09 3.267918e-08
-6.569314e-07 7.082688e-07 2.006117e-06 7.738344e-07 1.555071e-06 4.349352e-07
-1.336261e-06 3.293523e-07 2.295372e-06 -8.767312e-08 8.084235e-07 -3.383699e-07
1.792805e-07 -3.341983e-08 -7.772575e-08 5.729574e-08 1.682644e-08 5.446962e-08
-1.851219e-07 3.035871e-07 1.028711e-07 -1.077243e-07 2.338056e-07 -3.654100e-08
7.450552e-08 -8.190675e-09 -2.541820e-08 1.900401e-08 5.094191e-09 1.721719e-08
3.910701e-08 2.612775e-08 -2.442081e-08 1.847089e-08 7.820587e-09 8.003398e-09
-6.026460e-07 3.765268e-07 9.058420e-07 5.874434e-07 -3.752640e-07 -2.728686e-07
-5.700620e-07 3.631231e-07 1.192142e-06 5.278964e-07 -4.840222e-07 -9.394257e-08
-6.109521e-08 1.439137e-07 -9.113108e-08 -3.286040e-08 9.138718e-08 -1.708978e-08
-5.308684e-07 6.162779e-07 5.718789e-07 2.263231e-07 -2.642778e-07 -1.045305e-07
-5.771602e-07 6.731861e-07 1.016862e-06 2.189741e-07 -8.284984e-07 -5.089339e-07
-9.993861e-07 3.703505e-07 1.502428e-06 8.148290e-07 -1.350686e-06 -9.137195e-07
-7.338710e-07 3.970182e-07 1.357636e-06 6.486461e-07 -1.267463e-06 -8.742103e-07
1.397216e-08 8.631258e-08 -6.921901e-08 6.580809e-08 4.739937e-08 1.443674e-08
-5.836451e-07 8.380814e-07 6.572576e-07 4.355189e-07 -2.727306e-06 1.215492e-07
-3.716102e-08 -2.954614e-08 2.685410e-09 1.493306e-08 1.708564e-07 -9.367813e-08
-6.955370e-08 2.566379e-07 -1.018444e-07 -4.166440e-08 9.825198e-08 -1.564545e-08
3.431275e-07 -2.673002e-07 4.592588e-07 3.908380e-07 -2.754711e-08 5.978105e-08
8.026504e-08 -6.899493e-08 -3.531206e-08 1.971268e-07 4.146777e-08 2.285832e-07
2.225092e-07 -2.021877e-07 1.522562e-07 2.884903e-07 1.606119e-07 1.111934e-07
1.055845e-07 -5.144953e-08 1.800096e-07 2.685514e-07 4.964346e-08 -2.042923e-08
2.185935e-08 5.877469e-08 -8.956699e-08 1.363614e-07 -1.067682e-07 -7.582159e-08
-5.058355e-08 -3.310752e-08 3.208322e-08 9.759917e-09 2.161624e-07 -1.786667e-08
-1.787103e-07 3.057876e-07 2.995174e-07 5.378651e-07 -2.204540e-08 -5.424659e-08
-7.086260e-09 8.182349e-08 -2.455440e-08 1.339824e-07 -1.650899e-07 -9.945936e-08
1.400039e-07 -4.907395e-08 -5.810797e-08 3.733847e-09 8.720534e-09 6.495373e-08
1.734190e-08 2.431815e-07 -8.248466e-08 2.508633e-07 -2.455601e-08 -3.780088e-08
-2.164324e-08 1.865295e-07 -9.716081e-08 1.941540e-07 -1.641845e-07 -9.524654e-08
4.841338e-08 1.781018e-07 -9.611186e-08 2.366502e-07 -1.066896e-07 -8.700216e-08
7.864664e-08 -1.665061e-08 -2.695395e-08 -1.376713e-08 -7.191602e-09 2.246712e-08
-3.242369e-08 1.977350e-08 5.628487e-08 -6.027445e-10 2.139953e-07 1.459818e-07
1.028642e-07 1.322995e-07 -2.718821e-08 3.597820e-07 -7.224910e-08 -1.104061e-07
4.055331e-07 -1.973903e-07 -8.555154e-08 -1.380035e-07 -3.839475e-09 1.283236e-07
3.661728e-08 2.706264e-08 -2.321430e-08 1.846722e-08 8.934866e-09 7.448827e-09
3.783619e-08 -1.309082e-08 -3.449639e-08 2.521680e-08 3.768802e-08 8.880946e-08
1.147416e-07 -3.943745e-08 -5.388630e-08 8.873609e-09 2.253208e-09 5.968085e-08
-1.968372e-08 8.970173e-08 -7.056941e-08 3.861475e-08 5.715954e-08 2.491779e-08
-1.458231e-08 4.158318e-08 -3.976473e-08 1.683839e-08 6.422117e-08 3.288858e-08
-1.329576e-08 5.577192e-08 -4.429876e-08 3.923142e-08 9.537361e-08 3.262976e-08
5.007482e-09 7.600279e-08 -3.792829e-08 5.058210e-08 6.846779e-08 2.682331e-08
-1.741735e-07 4.735925e-07 -5.901146e-08 -1.944047e-08 1.407614e-07 -3.589490e-09
-2.129907e-08 4.099504e-08 -3.931072e-08 1.224765e-08 8.286607e-08 3.415560e-08
-1.952609e-09 -4.189070e-08 4.021765e-08 -2.606482e-08 6.088197e-08 3.901338e-08
-1.999806e-08 1.467342e-07 -1.148857e-07 9.375173e-08 -9.281291e-08 -5.122821e-08
-4.295803e-11 1.001366e-07 -6.095728e-08 6.284558e-08 -1.192734e-07 -7.645673e-08
-2.624542e-08 1.253160e-07 -4.569692e-08 3.076492e-08 -7.020625e-08 -3.813275e-08
2.493978e-08 4.516196e-08 -4.569692e-08 4.672288e-08 -7.059402e-08 -3.773620e-08
-6.394523e-08 -2.768348e-08 1.247210e-07 -3.025825e-10 1.503767e-07 -1.096232e-07
-3.746505e-08 1.864993e-08 -4.622323e-08 7.316058e-09 -9.479498e-08 -6.281714e-08
-2.761510e-08 1.130894e-07 -8.440803e-08 5.966282e-08 -1.364443e-07 -7.364752e-08
-8.490143e-07 1.882174e-07 1.827442e-06 7.356751e-07 5.289245e-07 3.102819e-07
-1.867196e-08 8.995173e-08 -9.884880e-08 4.602271e-08 -8.559158e-08 -5.009794e-08
-6.234819e-08 5.103866e-08 -4.566584e-08 -1.225885e-08 -9.784571e-08 -4.677573e-08
3.700195e-10 9.828374e-08 -9.728942e-08 -8.911905e-08 -7.485527e-08 4.542909e-08
4.534535e-09 7.305449e-08 -4.691343e-08 -5.433528e-08 -8.334031e-08 6.147474e-08
2.601242e-08 7.303257e-08 -5.643169e-08 5.239061e-08 3.163979e-08 1.698573e-08
6.635145e-07 -5.499884e-08 9.858579e-08 -9.279583e-08 -4.434666e-08 2.226307e-07
-8.245524e-08 3.255042e-07 -7.168082e-08 1.800961e-07 1.326742e-07 6.263876e-08
1.797003e-08 2.514884e-07 -1.095160e-07 -2.158469e-07 7.574887e-08 -4.775163e-08
-2.381221e-08 7.751904e-08 -4.616225e-08 -2.977132e-08 -1.061020e-07 6.124254e-08
-3.202026e-08 2.745834e-08 -4.612816e-08 1.102547e-09 1.216491e-07 -4.855053e-09
-1.446853e-08 6.505713e-08 -3.436498e-08 -6.473528e-08 -1.378546e-07 9.670889e-08
-4.307747e-08 1.119867e-07 -4.452237e-08 -1.929309e-08 9.895876e-08 -2.315237e-08
1.426092e-08 -4.230505e-08 -3.880268e-08 -4.010907e-08 -1.068296e-07 7.711628e-08
-3.058158e-08 -2.828319e-08 -2.020641e-08 1.257070e-08 1.933150e-07 -2.494422e-08
-3.430594e-08 -4.350180e-08 1.981045e-07 3.213357e-08 2.180663e-07 -6.788096e-08
-9.693354e-09 3.585872e-08 -6.651650e-08 -6.604192e-08 -9.628249e-08 6.804478e-08
-3.378692e-08 -1.096442e-08 -1.687420e-08 2.699561e-08 2.027804e-07 -1.176725e-08
-8.530492e-09 7.536809e-08 -4.807670e-08 -5.606953e-08 -8.355400e-08 5.751256e-08
-4.622353e-08 -7.746958e-08 4.777349e-07 -3.755539e-08 1.154120e-08 -1.400058e-07
5.032695e-08 -3.922940e-10 4.391257e-07 -4.614028e-07 -5.309492e-09 -5.492109e-08
-2.441027e-08 -2.552012e-08 1.388277e-08 -3.843449e-09 -4.352905e-08 6.197628e-08
1.238902e-07 -7.953413e-08 3.958950e-07 -3.495778e-07 -5.565318e-09 5.344639e-08
-2.473352e-07 1.893266e-07 2.767807e-07 -1.261963e-07 2.581080e-07 -6.185803e-08
-4.908190e-07 3.547305e-07 1.169399e-06 -3.847384e-07 2.392073e-07 -2.406529e-07
1.803722e-07 2.354575e-07 6.339234e-08 -3.955072e-07 2.212948e-08 -3.109466e-08
9.056963e-08 1.498866e-07 4.249793e-07 -6.065191e-07 -2.245332e-09 -9.004152e-08
-8.375838e-07 3.932777e-07 5.946709e-06 8.060419e-07 3.877836e-06 1.042470e-07
-4.785824e-08 2.496831e-07 -1.042044e-07 -1.098660e-07 1.236311e-07 -4.609635e-08
3.785151e-07 -1.343440e-07 1.917507e-07 -3.657694e-07 3.745303e-08 -1.061766e-07
3.566687e-07 6.088599e-08 6.949217e-07 -7.840497e-07 5.043050e-07 -3.928772e-07
7.312892e-08 1.447435e-07 6.618754e-07 -7.201821e-07 4.948227e-07 -2.936398e-07
-1.596468e-07 2.829242e-07 -7.918301e-08 3.125487e-08 1.664220e-07 -7.341464e-09
-7.962380e-08 2.748049e-07 -7.522245e-08 4.940230e-08 1.643131e-07 2.068797e-08
-9.811257e-08 2.945534e-07 -6.247062e-08 5.707226e-08 1.095988e-07 2.124809e-08
-5.066240e-08 1.288995e-07 -4.843410e-08 -1.448053e-08 1.206246e-07 -1.071940e-08
-4.925732e-08 1.274622e-07 -4.695182e-08 1.710719e-08 1.156714e-07 1.412464e-08
1.040118e-07 -2.454477e-07 1.052276e-07 2.872587e-09 -4.803563e-08 -6.199935e-08
-3.631688e-08 -2.960705e-08 4.539186e-09 1.860212e-08 1.230686e-07 -7.625019e-08
9.410811e-08 -5.344960e-09 -4.074995e-08 3.071001e-08 6.370231e-09 1.604314e-08
1.052633e-07 -3.034640e-08 -4.625948e-08 -1.035138e-08 -2.213081e-09 2.631052e-08
-4.114637e-08 -1.399197e-08 -3.014260e-08 8.945144e-09 1.350907e-07 6.136047e-08
1.709349e-07 -2.956488e-08 -7.195745e-08 7.082495e-08 3.940743e-08 8.667870e-08
7.239019e-08 1.457374e-07 -8.007546e-08 3.116520e-07 8.380093e-08 9.440981e-08
3.294356e-07 -2.019312e-07 1.598645e-07 -2.267442e-07 6.812951e-09 -2.318521e-07
7.605814e-07 -5.043256e-07 4.511773e-07 -1.746857e-07 -1.916665e-08 2.664151e-07
7.059617e-08 1.364564e-09 -3.332936e-08 2.182908e-08 4.699161e-09 1.575981e-08
6.737574e-08 2.828262e-08 -4.696933e-08 4.578464e-08 1.543559e-08 1.923933e-08
8.371436e-07 -5.203427e-07 9.486607e-07 -2.525844e-07 -4.915039e-08 8.706536e-07
2.256501e-07 -2.055514e-08 7.644533e-08 -2.329625e-07 9.359053e-08 -1.208391e-07
-3.850065e-09 6.661423e-08 -5.997237e-08 3.459435e-08 3.646292e-08 2.607781e-08
5.104641e-08 -8.962631e-09 -4.461509e-08 3.585589e-08 3.790663e-08 5.808682e-08
2.879677e-08 3.342696e-08 -3.917185e-08 5.051720e-08 4.994262e-08 6.362312e-08
-6.677561e-08 1.397470e-07 -1.364384e-08 9.387141e-08 1.483459e-07 6.644328e-08
1.355120e-07 5.540188e-08 -7.260212e-08 -2.169815e-07 -1.066061e-07 1.555397e-07
5.373489e-08 6.714779e-09 -4.279494e-08 3.959380e-08 2.943395e-08 3.779369e-08
7.896357e-08 4.436692e-08 -7.700616e-08 9.401447e-08 4.908892e-08 6.008372e-08
7.733462e-08 -4.582165e-09 -3.469738e-08 -1.921861e-08 -9.991026e-09 1.619635e-08
2.883495e-07 -1.003469e-07 2.905714e-08 -2.187469e-07 9.093684e-08 -9.464799e-08
1.061086e-07 4.601104e-08 -9.709186e-08 -1.614623e-07 -5.547937e-08 7.053096e-08
7.706901e-08 -7.528821e-09 -3.625478e-08 -2.158454e-08 -7.816779e-09 1.821897e-08
9.654159e-08 -3.761284e-09 -4.161209e-08 -3.061554e-08 -8.720572e-09 1.840396e-08
8.222562e-08 1.822835e-09 -4.277588e-08 -3.219370e-08 -8.326288e-09 1.916264e-08
-7.929328e-08 2.879992e-07 -8.693653e-08 -1.401665e-09 1.696639e-07 3.359122e-10
-4.128238e-09 2.154783e-07 -1.011551e-07 -1.338793e-07 7.241420e-08 -2.892258e-08
-4.376719e-08 1.892163e-07 -7.437844e-08 6.806785e-08 1.079575e-07 3.770996e-08
-3.791302e-08 1.017648e-07 -6.978855e-08 -2.276760e-08 1.082964e-07 -3.091408e-08
6.933410e-07 -3.241583e-07 6.696517e-08 1.323703e-07 -4.861345e-09 3.639671e-08
-2.298924e-07 -4.425292e-07 4.455528e-06 1.462073e-07 -3.439410e-06 -2.788524e-06
-8.245255e-08 2.178560e-07 -6.755680e-08 1.278563e-07 1.090963e-07 3.585105e-08
-4.917427e-08 1.005807e-07 -6.571677e-08 5.838383e-08 1.492115e-07 4.102035e-08
-4.829571e-08 1.640799e-07 -7.532940e-08 8.891092e-08 1.128872e-07 3.317245e-08
-4.335018e-08 2.004681e-07 -8.853471e-08 1.160592e-07 1.140778e-07 4.993082e-08
2.678864e-07 -1.122863e-07 -9.114162e-08 2.902722e-08 7.617354e-09 1.002053e-07
9.170550e-08 -1.452443e-08 -3.656285e-08 1.893696e-08 8.213176e-09 2.666712e-08
7.745803e-08 -2.415241e-08 -3.613766e-08 -2.380947e-08 -1.059429e-08 5.536285e-08
-4.167908e-08 2.343360e-07 -9.343605e-08 9.203679e-08 1.401948e-07 4.399880e-08
2.151821e-07 -8.137629e-08 -6.195660e-08 -2.052565e-07 -8.311811e-08 1.191137e-07
2.396741e-07 -6.698175e-08 3.791507e-07 -3.068344e-07 6.141310e-10 5.022004e-08
6.496338e-08 1.289557e-07 3.379776e-07 -3.793188e-07 3.131300e-08 -9.630836e-08
2.418851e-07 -1.841895e-09 -1.752194e-08 -2.623704e-07 -5.477791e-08 6.163103e-08
2.312960e-07 -3.418052e-08 1.481902e-07 -4.072092e-07 -2.165550e-08 3.327598e-08
2.164181e-07 -2.069713e-08 3.729550e-07 -5.100247e-07 5.677925e-08 2.641166e-08
1.395814e-08 1.329565e-07 -1.177723e-07 -1.106731e-07 9.925149e-08 -4.419020e-08
-2.765901e-08 7.751236e-08 -5.726368e-08 -4.953440e-08 9.808985e-08 -5.724856e-08
8.982715e-08 -1.455469e-08 -4.510652e-08 1.853413e-08 1.013739e-08 3.236894e-08
1.197093e-07 -2.608058e-08 -4.039984e-08 1.355606e-09 -1.539049e-10 1.886686e-08
-1.290360e-09 7.880335e-08 -8.194203e-08 -4.987134e-08 1.107999e-07 -5.945419e-08
8.452303e-08 -5.242022e-09 -3.397397e-08 -2.034468e-08 -3.638679e-09 1.113474e-08
6.749384e-08 -2.205029e-08 -3.186837e-08 -1.491177e-08 -1.369342e-08 4.602319e-08
8.230016e-08 -2.253756e-08 -2.692242e-08 -1.012291e-08 -5.743403e-09 2.689057e-08
-2.757631e-08 1.118807e-07 -9.294920e-08 -6.636618e-08 7.502499e-08 -3.391837e-08
1.315318e-07 -3.331979e-08 -6.288224e-08 -1.616415e-08 -3.068771e-09 4.159694e-08
3.767348e-08 1.644425e-07 -1.248114e-07 -1.535337e-07 1.058213e-07 -6.564186e-08
4.295520e-08 1.374433e-07 -1.103492e-07 -1.255010e-07 1.075675e-07 -5.961586e-08
4.250194e-08 1.719969e-07 -1.204021e-07 -1.470760e-07 9.977082e-08 -7.026441e-08
-4.110347e-08 -4.299742e-08 4.826269e-07 -3.399028e-08 4.452519e-07 -3.037905e-07
2.323758e-08 -2.314691e-08 -3.513990e-08 4.399982e-08 3.220838e-08 1.063446e-07
1.249592e-07 -2.184860e-08 -5.052371e-08 2.561280e-08 6.848139e-09 2.951880e-08
-2.404164e-07 6.561868e-07 3.338997e-07 -1.843826e-07 3.424049e-07 8.815363e-08
1.116976e-07 -2.764657e-08 -4.468513e-08 1.395305e-08 2.392921e-09 2.117684e-08
7.926509e-08 -3.850204e-08 -3.601666e-08 5.390591e-09 2.210446e-09 7.819784e-08
-1.885795e-07 4.870109e-07 1.435514e-07 -1.211188e-07 -2.427063e-07 -7.015247e-08
-8.550268e-08 3.643225e-07 1.008061e-08 -3.228873e-07 -1.694022e-07 7.973105e-08
9.440917e-08 -1.426558e-08 -4.545992e-08 2.378046e-08 5.941802e-09 2.215618e-08
-3.977305e-07 3.721373e-07 4.577604e-07 -1.155136e-07 1.107958e-08 3.161789e-08
9.772185e-08 -2.220664e-08 -2.838838e-08 7.077414e-09 2.150530e-09 2.111179e-08
-5.349338e-09 -1.675162e-08 -3.957552e-08 4.191910e-08 -2.971252e-07 1.687741e-07
-4.363732e-07 6.532559e-07 4.335817e-07 -2.508388e-07 2.672627e-07 1.410775e-08
1.238918e-07 -4.823913e-08 -6.071008e-08 8.928388e-09 8.492111e-09 7.489280e-08
-1.387142e-08 1.674052e-07 -9.624914e-08 -9.622072e-08 -7.232466e-08 3.600962e-08
-1.501117e-07 3.317746e-07 -6.693768e-08 -1.184372e-07 -1.000892e-07 2.116341e-08
9.118963e-08 -4.380310e-08 -3.598491e-08 -3.196569e-08 -7.077920e-09 8.882605e-08
1.676358e-07 -5.864396e-08 -5.925136e-08 1.400750e-08 1.470330e-09 7.542442e-08
9.255239e-08 -3.792843e-08 -3.518912e-08 1.553775e-08 8.394249e-10 7.706197e-08
1.546231e-07 -4.954969e-08 -6.124032e-08 -6.701811e-09 8.660144e-10 8.668974e-08
-8.962491e-09 9.761602e-08 -5.213756e-08 -8.746223e-08 -1.572110e-07 3.377439e-08
4.726133e-08 8.645230e-09 -2.590043e-08 -2.218998e-08 -1.534055e-08 1.466197e-08
5.455253e-08 5.636220e-09 -2.748936e-08 -2.926118e-08 -1.282461e-08 1.998325e-08
5.152900e-08 1.907028e-08 -2.813635e-08 -3.188581e-08 -1.348879e-08 2.166352e-08
5.275722e-08 1.544064e-08 -4.649881e-08 -3.296864e-08 -2.508933e-08 3.456718e-08
5.763431e-08 1.315565e-08 -3.321142e-08 -3.772654e-08 -2.765032e-08 3.808096e-08
4.719837e-08 4.305713e-09 -3.003171e-08 -2.606220e-08 -1.932452e-08 3.238109e-08
1.281066e-09 1.361777e-07 -1.082973e-07 7.343974e-08 -1.003241e-07 -3.884251e-08
1.118454e-08 1.569859e-07 -1.047384e-07 9.280353e-08 -8.740127e-08 -3.283781e-08
-4.586172e-08 2.635026e-07 -1.169736e-07 1.741564e-07 -9.324987e-08 -7.912947e-08
1.730172e-08 1.706220e-07 -1.159482e-07 9.600852e-08 -8.822708e-08 -4.871118e-08
-3.625787e-08 1.756318e-07 -1.058053e-07 6.151276e-08 -8.589532e-08 -3.954362e-08
-6.661415e-08 1.691235e-07 -5.040380e-08 4.266730e-08 -1.486522e-07 -5.706914e-08
-2.672035e-08 1.241080e-07 -8.184493e-08 -5.747641e-08 -1.398074e-07 7.706755e-08
-5.321922e-08 1.625992e-07 -1.068378e-07 6.695318e-08 -1.122789e-07 -4.246296e-08
-2.774344e-08 5.285738e-09 -4.742637e-08 1.072675e-09 -1.267579e-07 2.451336e-08
-2.013731e-08 1.226989e-07 -7.870971e-08 7.346546e-08 -1.467804e-07 -6.683058e-08
-4.034629e-08 2.109016e-07 -1.102779e-07 1.006263e-07 -1.027285e-07 -3.384704e-08
-3.282089e-07 -2.045586e-07 1.708199e-06 8.428301e-07 2.980304e-07 4.161944e-07
-1.775706e-07 5.109749e-07 -5.798017e-08 -1.209342e-07 -1.670742e-07 5.520958e-08
-3.170436e-08 2.406742e-09 -4.054199e-08 -1.579656e-08 -1.996576e-07 -4.808103e-08
-2.867891e-06 -1.373147e-06 9.534543e-06 3.960049e-07 2.991942e-06 9.674904e-07
-4.842716e-08 2.355153e-07 -1.107373e-07 7.986346e-08 -9.214795e-08 -3.145092e-08
-1.295550e-07 4.144974e-07 -1.148614e-07 1.847929e-08 -1.113060e-07 -2.881759e-09
1.421133e-07 -6.558185e-08 -4.407394e-08 -3.437600e-09 9.397971e-09 1.131244e-07
-2.134582e-06 -1.046295e-06 4.722467e-06 8.450262e-07 1.440660e-06 1.169677e-06
-5.597838e-08 9.335195e-08 -4.507369e-08 9.937589e-09 -1.233405e-07 -2.307895e-08
-8.915171e-08 1.500938e-07 -5.092850e-08 -8.123341e-09 -1.981182e-07 -8.095848e-09
-2.322416e-06 -1.054337e-06 5.852927e-06 6.688963e-07 1.603514e-06 7.052179e-07
2.831651e-07 -1.273021e-06 3.592828e-06 -2.149300e-07 2.355836e-07 -8.624582e-07
-6.085798e-07 -9.871781e-07 3.075976e-06 1.301554e-06 1.465301e-06 1.410633e-06
-7.760888e-07 -2.930563e-07 4.262897e-06 7.393510e-07 8.471889e-07 5.499675e-07
-5.998316e-07 -1.005844e-06 4.029386e-06 1.319113e-06 1.666640e-06 1.502231e-06
-1.254011e-06 -1.245007e-06 4.918908e-06 9.222128e-07 1.435327e-06 1.189084e-06
-3.332259e-07 6.319707e-07 2.827178e-07 -1.335881e-07 1.305730e-07 -2.354741e-08
-1.719958e-07 2.523248e-07 6.825862e-08 3.820766e-08 -2.202250e-07 -1.889445e-08
-3.274290e-07 -4.568803e-08 6.618122e-07 -2.304130e-08 1.221134e-07 -5.127778e-08
-2.957049e-06 -3.434852e-06 1.352174e-05 2.985760e-07 2.043338e-07 1.936172e-06
-3.657439e-07 5.456558e-07 2.422890e-07 7.125865e-08 1.136187e-07 1.408734e-07
-4.189154e-07 5.382074e-07 3.497889e-07 -4.262115e-08 1.119739e-07 -1.897374e-08
-3.326864e-07 6.215628e-07 1.784145e-07 1.224758e-07 -1.203352e-07 -3.103939e-08
1.694333e-07 -8.167582e-08 1.983239e-08 3.212753e-08 -6.286065e-08 1.225970e-07
2.602426e-07 -1.254579e-07 1.268161e-07 -2.725389e-07 -3.887226e-08 3.384933e-08
2.221593e-07 -1.577555e-07 1.914494e-07 -1.678504e-07 2.489168e-08 7.039280e-08
1.094290e-07 1.146838e-08 7.456193e-08 -1.606422e-07 -1.633654e-08 1.228443e-07
5.867930e-09 1.375991e-07 -8.576743e-08 9.583382e-08 -1.414016e-07 -8.781912e-08
2.367486e-07 -3.704220e-08 1.199433e-08 -2.667322e-07 -7.214599e-08 -2.347557e-08
-3.238249e-08 6.297700e-09 -6.417088e-08 1.488874e-09 -2.254714e-07 1.400738e-08
-6.692962e-08 1.064959e-07 -4.562779e-08 2.369406e-08 -1.413723e-07 1.046803e-08
1.593049e-07 -8.652738e-08 -4.627647e-08 -3.432448e-08 -1.521768e-08 1.572538e-07
-9.170350e-08 2.213443e-07 -7.533871e-08 -4.294841e-08 -2.139973e-07 2.022063e-08
-3.650109e-08 1.417856e-07 -4.800477e-08 2.600697e-09 -2.342277e-07 3.399875e-08
2.528441e-07 -3.642746e-08 -9.582564e-08 1.912770e-07 6.931757e-08 1.279342e-07
1.761312e-07 -2.395360e-08 -8.484013e-08 1.525047e-07 4.032508e-08 1.125817e-07
1.463401e-07 -7.197346e-09 -4.377013e-08 1.058679e-07 5.533584e-08 8.474786e-08
-3.294782e-08 2.183150e-09 -2.575828e-08 2.729560e-09 1.495403e-07 1.632282e-08
1.259485e-07 -4.130207e-08 -6.944103e-08 6.740151e-08 4.517051e-08 1.143954e-07
8.212778e-09 -3.897162e-08 -1.622271e-08 5.317142e-08 4.255617e-08 1.472386e-07
1.070282e-07 -5.634912e-08 -3.023775e-08 1.004743e-07 4.254483e-08 1.608015e-07
-3.202235e-08 -6.965927e-09 -2.744437e-08 2.667967e-09 1.578578e-07 -1.167994e-09
-6.868692e-08 1.594914e-07 -2.933821e-08 8.020398e-08 1.728669e-07 6.118117e-08
1.318857e-07 -4.566028e-08 -3.524119e-08 7.951776e-08 5.963780e-08 1.547639e-07
-4.866810e-08 1.905578e-07 -8.296071e-08 -3.162079e-08 6.637419e-08 -1.313208e-08
6.440700e-08 3.447030e-08 -4.575643e-08 1.121989e-07 6.869383e-08 1.073962e-07
7.424321e-08 1.063593e-07 -5.791061e-08 2.091940e-07 1.246665e-07 1.407389e-07
-2.003171e-08 1.599559e-07 -1.072185e-07 -1.037261e-07 9.119231e-08 -3.875216e-08
-4.085305e-08 1.538099e-07 -8.186287e-08 5.650668e-08 8.624541e-08 9.524242e-09
2.645401e-08 4.816299e-08 -6.561042e-08 1.044425e-07 1.066136e-07 8.812257e-08
-3.294468e-08 1.060725e-07 -4.642845e-08 1.239199e-08 1.148118e-07 7.716291e-09
2.208883e-08 7.399903e-08 -6.053799e-08 9.665529e-08 1.358919e-07 1.151181e-07
-2.532151e-08 -5.862976e-08 9.344123e-08 -1.316888e-08 1.635477e-07 3.889798e-09
1.074002e-07 -3.148996e-08 -4.626129e-08 -3.980866e-09 -2.119594e-09 2.528075e-08
1.421721e-07 -3.602993e-08 -5.648871e-08 6.184384e-09 1.413051e-09 3.498243e-08
1.194294e-07 -3.199044e-08 -4.794307e-08 8.476522e-09 1.332701e-09 3.104386e-08
1.035331e-07 -2.825573e-08 -3.057386e-08 4.831665e-09 2.604945e-09 3.216762e-08
2.199309e-08 4.409588e-08 -2.868057e-08 3.061846e-08 3.043785e-08 2.141715e-08
1.416268e-07 -3.184260e-08 -5.941475e-08 -1.121847e-08 -5.393046e-09 3.492228e-08
-3.086736e-08 9.889449e-08 -4.524136e-08 2.271247e-08 8.781222e-08 3.067461e-08
-1.353235e-08 8.920404e-08 -7.108397e-08 4.770372e-08 8.931876e-08 4.614511e-08
1.107724e-07 -2.919740e-08 -4.836354e-08 -1.792902e-09 -1.978124e-09 2.783197e-08
-3.085847e-08 1.688283e-08 -3.410343e-08 8.257384e-09 1.146104e-07 4.252987e-08
1.111432e-07 -3.575751e-08 -4.774170e-08 6.121099e-09 8.012665e-10 3.734516e-08
-3.068382e-08 1.122034e-08 -2.974755e-08 5.005030e-09 1.406206e-07 3.141830e-08
4.553022e-07 -6.136254e-07 2.258177e-06 -5.277089e-07 7.087384e-07 -1.404292e-06
-2.261492e-07 5.363560e-07 1.127181e-08 1.548629e-07 8.100378e-08 4.050816e-08
1.177562e-07 -3.599560e-08 -4.672711e-08 5.861097e-09 1.997179e-09 3.169216e-08
-4.625975e-08 -2.547094e-08 2.344073e-07 -2.807748e-09 3.281799e-08 2.273943e-08
-7.281546e-08 2.950969e-07 -1.041491e-07 9.723228e-08 1.172899e-07 3.403267e-08
8.089805e-08 -2.813339e-08 -3.603679e-08 -7.840377e-10 8.196853e-10 4.718744e-08
-1.343009e-08 7.930328e-08 -7.156244e-08 4.130806e-08 5.173800e-08 2.513843e-08
-6.806379e-08 2.090003e-07 -7.935301e-08 7.490221e-08 1.437859e-07 4.042656e-08
-7.324162e-08 2.365167e-07 -8.821483e-08 8.945558e-08 1.368187e-07 4.843818e-08
-5.281564e-08 1.921299e-07 -7.939974e-08 2.579902e-08 6.868822e-08 9.307242e-09
-6.071659e-08 5.212514e-09 -2.590819e-08 -2.420695e-09 1.506597e-07 9.883145e-09
-1.528073e-07 2.676889e-07 1.316636e-08 1.915644e-07 8.729773e-08 3.458087e-08
-1.380611e-07 2.713159e-07 -6.905074e-08 1.711378e-07 1.544592e-07 6.869080e-08
-1.295404e-07 2.726273e-07 -5.349341e-09 1.804063e-07 9.039169e-08 3.389627e-08
-7.062063e-08 1.193838e-07 -3.519923e-08 6.600937e-08 1.666802e-07 5.558761e-08
1.141575e-07 -2.958551e-08 -3.822402e-08 -3.467930e-08 -1.348708e-08 6.158005e-08
8.993889e-08 -1.853307e-08 -2.701923e-08 -1.797447e-08 -4.778152e-09 2.339947e-08
1.018030e-07 -2.293271e-08 -4.705204e-08 -1.887684e-08 -4.002778e-09 2.315945e-08
-1.107553e-07 3.113120e-07 9.145119e-10 1.367460e-07 1.071440e-07 3.353835e-08
7.642512e-08 3.026125e-08 -7.710528e-08 -8.725353e-08 -3.272429e-08 3.807043e-08
-3.754402e-07 2.362526e-07 7.392262e-07 6.569594e-07 2.003628e-08 1.230758e-07
1.152941e-07 -2.018831e-08 -3.994578e-08 -1.202979e-08 -3.791034e-09 1.847492e-08
3.051460e-07 -1.896202e-07 8.099624e-07 5.266335e-07 9.902221e-08 6.277341e-07
1.176666e-07 -2.514398e-08 -4.064041e-08 -1.973048e-10 -2.026429e-10 2.000717e-08
1.549657e-07 -1.280715e-08 -7.385161e-08 -6.303342e-08 -2.324010e-08 5.172901e-08
9.161009e-08 -1.205896e-08 -4.371359e-08 -3.087539e-08 -1.061167e-08 3.212288e-08
4.619688e-07 -1.526665e-07 -8.798975e-08 -7.466834e-08 -2.248731e-08 1.203455e-07
3.380310e-08 -1.903932e-08 -4.245291e-08 -2.802278e-08 -4.933775e-08 1.012987e-07
1.723266e-08 1.971508e-07 2.634767e-07 2.833758e-07 -4.970746e-09 2.480500e-08
-1.224508e-07 3.604063e-07 9.298959e-07 6.764359e-07 3.893738e-07 3.051413e-07
1.864740e-08 4.492030e-08 -3.975439e-08 3.986222e-08 5.051272e-08 3.576292e-08
3.192883e-08 2.195700e-08 -2.505263e-08 2.022720e-08 1.626634e-08 1.828356e-08
2.910014e-08 6.517368e-08 -7.286518e-08 5.814411e-08 3.876705e-08 3.106642e-08
4.313791e-08 5.243893e-08 -6.378869e-08 6.381730e-08 3.267957e-08 2.492229e-08
3.074245e-08 3.739255e-08 -3.141294e-08 3.390356e-08 3.471230e-08 2.784655e-08
2.196075e-08 4.506291e-08 -3.943092e-08 3.136894e-08 2.617632e-08 2.234663e-08
3.634630e-08 5.578273e-08 -5.059182e-08 5.032135e-08 1.982709e-08 2.285488e-08
3.455469e-08 1.693597e-08 -3.423088e-08 2.598309e-08 2.811612e-08 3.410100e-08
-7.709928e-09 8.045493e-08 -3.522945e-08 3.797853e-08 4.695927e-08 2.166191e-08
6.529134e-08 5.093397e-09 -3.516553e-08 2.935128e-08 7.586870e-09 2.017934e-08
1.935633e-08 3.191926e-08 -2.717206e-08 1.902708e-08 1.646685e-08 1.332085e-08
3.815673e-08 2.646011e-08 -3.134438e-08 1.930190e-08 8.717461e-09 8.067801e-09
2.235841e-08 5.012947e-08 -4.412385e-08 3.383663e-08 1.976029e-08 1.601101e-08
3.188193e-08 1.414386e-08 -2.938658e-08 2.300254e-08 1.950264e-08 2.083693e-08
7.774475e-08 3.843994e-09 -4.397364e-08 3.000595e-08 7.368932e-09 1.569896e-08
1.978689e-08 4.597748e-08 -3.008484e-08 3.032892e-08 3.035009e-08 2.321107e-08
-5.018079e-08 2.358929e-07 -1.163418e-07 8.782723e-08 -1.172621e-07 -2.880625e-08
-3.837146e-08 1.827417e-07 -9.125493e-08 9.706141e-08 -1.254690e-07 -8.540867e-08
-2.428667e-08 1.701191e-07 -1.025539e-07 1.169431e-07 -1.371659e-07 -5.749429e-08
5.233970e-08 2.873221e-08 -5.099571e-08 4.883259e-08 1.832383e-08 1.889747e-08
6.059811e-08 1.502589e-09 -2.286157e-08 1.678999e-08 8.571852e-09 1.475530e-08
-3.783874e-08 1.290308e-07 -7.344790e-08 4.338682e-08 -1.322549e-07 -7.010846e-08
-3.417901e-08 1.981569e-07 -6.890845e-08 3.134355e-09 -1.866234e-07 -7.582803e-08
2.385625e-07 1.078800e-08 -8.408029e-08 3.264109e-07 -9.742465e-08 -9.875475e-08
1.309088e-07 -4.147218e-08 -6.463343e-08 1.432480e-08 4.053471e-09 4.160185e-08
-4.451322e-08 2.607983e-07 -1.264015e-07 1.315114e-07 -1.045756e-07 -6.160029e-08
-1.156833e-07 1.396793e-07 6.081412e-10 3.242761e-08 -2.204130e-07 6.064859e-09
-6.689670e-08 3.340008e-07 -1.270897e-07 1.888967e-07 -1.394444e-07 -5.893023e-08
-8.213235e-08 2.453430e-07 -1.028827e-07 8.934632e-08 -1.051644e-07 -3.444926e-08
-3.902518e-08 1.964147e-07 -1.112899e-07 9.079158e-08 -1.096175e-07 -4.277897e-08
-4.477898e-08 1.340331e-07 -8.390874e-08 3.328479e-08 -1.600022e-07 -6.004041e-08
-8.230471e-08 2.505285e-07 -1.082111e-07 8.358132e-08 -1.301533e-07 -3.543644e-08
-4.369783e-08 1.339570e-07 -3.939870e-08 5.712179e-08 -1.799189e-07 -7.885474e-08
-5.056664e-08 1.433106e-07 -5.105485e-08 2.403598e-08 -1.628791e-07 -5.277506e-08
-1.133990e-07 3.810189e-07 -1.130393e-07 2.191783e-07 -1.122180e-07 -3.075458e-08
-1.798479e-08 1.166429e-07 -9.169756e-08 5.148396e-08 -1.477791e-07 -6.546549e-08
-2.925648e-08 8.969664e-08 -5.299684e-08 3.599929e-08 -1.050296e-07 -5.003667e-08
4.147984e-08 2.146773e-08 -3.492454e-08 2.993725e-08 2.031348e-08 2.184934e-08
4.000703e-08 2.062650e-08 -2.730628e-08 2.089298e-08 8.015362e-09 1.089062e-08
2.117768e-08 2.392033e-08 -3.005767e-08 2.248893e-08 2.567914e-08 2.108155e-08
3.092942e-08 3.806467e-08 -4.023452e-08 3.426359e-08 2.971205e-08 2.464769e-08
2.858860e-08 3.023926e-08 -4.911189e-08 3.894163e-08 3.755276e-08 3.834823e-08
3.744579e-08 1.171521e-08 -3.279993e-08 -2.140076e-08 -2.597661e-08 3.337560e-08
7.641374e-08 4.666491e-08 -7.637760e-08 -7.519384e-08 -3.630844e-08 3.473380e-08
6.033066e-08 3.553965e-08 -8.861561e-08 -1.001519e-07 -5.775771e-08 6.543801e-08
8.772005e-08 9.296719e-08 -8.366221e-08 -2.178487e-07 -8.843394e-08 1.023729e-07
2.926465e-08 3.002811e-08 -3.303138e-08 3.909036e-08 3.074123e-08 2.957693e-08
-1.625724e-07 4.658011e-07 -8.673611e-08 6.992613e-08 1.298056e-07 1.887956e-08
4.932820e-08 -6.632046e-09 -3.374840e-08 -2.417174e-08 -3.264286e-08 5.289843e-08
9.872104e-08 -8.210537e-09 -4.254018e-08 -2.993189e-08 -6.139792e-09 1.686740e-08
4.844874e-08 1.048750e-08 -2.634368e-08 -2.040925e-08 -1.075190e-08 1.301070e-08
9.974780e-08 -1.626359e-08 -5.680161e-08 -4.812220e-08 -1.462282e-08 5.160179e-08
6.507572e-08 1.971865e-09 -2.524630e-08 -1.936027e-08 -4.644252e-09 7.205578e-09
1.158371e-07 -2.928907e-08 -5.848738e-08 -3.510119e-08 -9.777055e-09 3.514655e-08
1.162984e-07 -3.046880e-08 -5.033429e-08 -3.306727e-08 -1.197278e-08 4.590096e-08
8.856303e-08 -1.965268e-08 -3.595280e-08 -2.470243e-08 -1.797989e-08 3.436809e-08
1.234955e-07 -3.470984e-08 -5.256988e-08 -3.300009e-08 -1.169779e-08 4.915494e-08
9.893904e-08 -2.757155e-08 -3.769833e-08 -2.764404e-08 -1.646538e-08 6.359990e-08
7.163180e-08 1.982878e-08 -4.572613e-08 -3.852973e-08 -1.177556e-08 1.584607e-08
9.850227e-08 -2.770145e-08 -5.671611e-08 -2.818532e-08 -1.815704e-08 5.889153e-08
1.679271e-07 -5.085019e-08 -7.733904e-08 -2.642300e-08 -1.654727e-08 6.908499e-08
4.844864e-08 1.345168e-08 -2.647434e-08 -1.884621e-08 -5.550439e-09 1.324567e-08
1.188161e-07 -2.644528e-08 -5.198435e-08 -2.721237e-08 -1.353584e-08 4.566651e-08
5.943034e-08 2.015463e-08 -4.395902e-08 -4.162417e-08 -1.240060e-08 1.459961e-08
9.830103e-08 -1.466346e-08 -5.649352e-08 -3.740678e-08 -1.988330e-08 5.991209e-08
1.413576e-07 -2.484614e-08 -7.915160e-08 -4.600085e-08 -1.378624e-08 5.042312e-08
-1.429555e-07 2.059800e-07 2.724554e-07 2.669703e-07 9.907293e-09 -5.823212e-08
-2.028958e-07 5.138783e-07 4.696575e-08 3.158762e-07 -1.504782e-07 -4.386870e-09
3.997811e-08 3.766466e-08 -3.848453e-08 3.256362e-08 1.760667e-08 1.457528e-08
2.518105e-08 5.208264e-08 -4.690805e-08 4.681944e-08 4.061876e-08 2.684103e-08
-1.355395e-07 3.889808e-07 -8.707826e-08 2.867115e-07 -1.056036e-07 -7.451362e-08
2.619751e-08 5.241921e-08 -4.499323e-08 4.739288e-08 2.643062e-08 3.124953e-08
3.416920e-08 4.199822e-08 -3.627259e-08 3.181440e-08 1.651083e-08 1.525089e-08
3.455930e-08 2.941845e-08 -3.307325e-08 2.593409e-08 1.768648e-08 1.682743e-08
-7.054732e-08 -4.239346e-08 -5.041723e-09 -7.498175e-09 -1.512758e-07 -2.576162e-09
2.784608e-08 4.020244e-08 -3.992816e-08 2.844448e-08 1.942027e-08 2.068105e-08
2.251999e-08 3.792693e-08 -2.804891e-08 2.768144e-08 2.050488e-08 1.315785e-08
1.917449e-07 9.787580e-08 9.309986e-09 2.726480e-07 -5.087672e-08 -5.404513e-08
2.621563e-08 3.246240e-08 -2.687025e-08 2.447921e-08 1.860084e-08 1.631359e-08
4.931651e-08 4.240452e-08 -6.720099e-08 6.327313e-08 2.605466e-08 2.808437e-08
2.961279e-09 1.106662e-07 -7.030023e-08 6.629912e-08 5.894976e-08 2.970382e-08
2.785913e-08 3.461301e-08 -3.719323e-08 2.486192e-08 1.368145e-08 1.278323e-08
2.328637e-08 -1.723729e-08 -3.326540e-08 3.527297e-08 8.311503e-08 8.850827e-08
-2.098217e-08 7.405883e-08 -4.376193e-08 4.107473e-08 8.874227e-08 1.155530e-08
3.507749e-08 3.560187e-08 -3.375977e-08 2.772646e-08 9.725331e-09 7.476878e-09
2.663679e-08 3.819458e-08 -2.616760e-08 2.661808e-08 1.970141e-08 1.611079e-08
-6.301261e-08 2.511044e-07 -1.006260e-07 5.768332e-08 9.388649e-08 1.950265e-08
-1.001672e-08 1.236490e-07 -6.843283e-08 5.646130e-08 4.710951e-08 2.037215e-08
-7.605541e-08 -8.574887e-09 -1.939559e-08 8.036711e-09 1.986969e-07 -2.064635e-08
9.350670e-08 4.654896e-08 -7.820295e-08 1.065663e-07 4.669801e-08 5.960987e-08
3.555841e-08 3.178739e-08 -3.299285e-08 3.582490e-08 2.123292e-08 2.672151e-08
-4.998917e-08 1.337091e-07 -2.413926e-08 8.389354e-08 1.638721e-07 1.353518e-07
-2.448749e-08 1.412316e-07 -7.648900e-08 9.263282e-08 1.118888e-07 5.202704e-08
-2.773817e-08 1.961622e-07 -9.423953e-08 1.291549e-07 1.430071e-07 5.464328e-08
-1.988918e-08 1.368758e-08 -3.987257e-08 1.941627e-08 1.100741e-07 6.307373e-08
7.596350e-08 1.888893e-08 -4.121559e-08 5.425229e-08 3.068349e-08 4.422526e-08
-7.587106e-08 2.054736e-07 -9.508170e-08 7.323204e-08 1.017292e-07 2.303545e-08
5.858867e-08 1.836288e-08 -4.613121e-08 7.674211e-08 7.337578e-08 9.579356e-08
4.644113e-08 2.443615e-08 -4.595581e-08 4.093892e-08 3.437979e-08 2.991778e-08
3.954683e-08 2.307785e-08 -2.680501e-08 2.251294e-08 9.164426e-09 1.132184e-08
5.221440e-08 2.253948e-08 -3.867488e-08 3.322507e-08 1.499277e-08 2.416736e-08
4.369265e-08 2.006553e-08 -2.357372e-08 1.977678e-08 8.511392e-09 1.034283e-08
-5.004845e-07 5.465660e-07 1.470859e-06 -6.762218e-07 8.358197e-07 -4.841688e-07
1.187919e-07 -2.187383e-08 -5.094281e-08 -2.756859e-08 -1.116418e-08 4.558085e-08
-6.101725e-07 3.649660e-07 7.605145e-07 -7.981254e-08 6.485825e-07 -2.723492e-07
6.887101e-08 -1.223727e-08 -2.715994e-08 1.644069e-08 7.905276e-09 2.433213e-08
2.880883e-07 -1.008221e-07 -9.613878e-08 1.253776e-07 2.542811e-08 1.029052e-07
2.124630e-07 -7.605072e-08 -8.620347e-08 -2.380787e-08 -8.423828e-09 6.989648e-08
5.832243e-08 1.474717e-07 -1.028470e-07 2.051478e-07 8.572825e-08 8.239644e-08
6.960246e-08 -3.483561e-08 -3.552146e-08 -9.001642e-09 -9.428089e-09 7.930660e-08
-8.703921e-07 8.281135e-07 1.846874e-06 -6.581161e-07 1.185848e-06 -3.135077e-07
-4.155164e-09 2.252310e-08 2.678400e-07 -8.417500e-08 3.399533e-08 1.147836e-07
-4.099344e-07 4.358158e-07 7.414583e-07 -3.584552e-07 1.103688e-07 -5.415093e-08
-5.842139e-07 5.762254e-07 1.637613e-06 -3.858409e-07 9.251669e-07 1.713021e-07
-8.336449e-09 2.568146e-08 -3.470720e-08 -1.446709e-08 -5.501263e-08 3.771808e-08
-5.785929e-07 6.309806e-07 5.991709e-07 -1.769365e-07 5.085087e-07 -2.514141e-07
3.808415e-08 1.459030e-07 -1.062247e-07 -1.527192e-07 -6.665339e-08 5.126746e-08
-8.230401e-08 -1.053864e-07 5.608190e-08 -3.000226e-08 2.067703e-07 -3.334657e-08
-2.625498e-07 3.686533e-07 1.885451e-07 -1.570346e-07 -4.615052e-09 -6.258535e-08
-2.922981e-08 1.950846e-07 -2.568372e-08 -2.108195e-07 1.791421e-07 -7.535744e-08
-3.464798e-08 -4.937360e-08 -2.580383e-09 6.443655e-09 -2.030418e-07 4.678967e-08
-9.474384e-08 1.845188e-07 -1.104400e-07 -1.560502e-08 -1.561711e-07 1.104545e-08
-2.070287e-07 3.695663e-07 1.283736e-07 -2.129622e-07 1.309370e-08 4.326163e-09
-4.044496e-07 6.935706e-07 2.793096e-07 1.605494e-07 -6.823930e-08 5.691512e-08
7.108946e-09 1.262194e-07 -8.551364e-08 -9.171334e-08 -5.584535e-08 3.445175e-08
6.537746e-08 1.933799e-08 -5.331680e-08 -3.761422e-08 -1.649632e-08 2.283397e-08
3.637219e-08 4.634865e-08 -5.668363e-08 -6.778763e-08 -5.810757e-08 4.878121e-08
-5.422127e-08 7.393250e-09 -2.331406e-08 -1.183703e-09 1.311644e-07 -7.250285e-08
-2.771632e-07 8.727585e-07 4.610094e-07 -3.056157e-07 5.562280e-07 -2.397814e-07
3.981002e-09 1.868461e-07 -2.318268e-08 -3.429929e-07 1.243784e-08 8.244619e-08
1.254860e-07 7.833570e-08 -1.056751e-07 -3.074074e-07 -9.026817e-08 8.260569e-08
5.516694e-08 2.214369e-07 -8.311996e-08 -3.304855e-07 -9.520358e-08 5.852937e-08
-1.388174e-08 2.685140e-07 -5.421608e-08 -3.080382e-07 -1.037568e-07 6.636139e-08
1.038223e-07 -3.742025e-08 1.095949e-07 -3.329876e-07 -9.720179e-08 1.310185e-07
5.520176e-08 1.520350e-07 -1.620740e-08 -4.002667e-07 -7.781455e-08 1.092668e-07
-8.863796e-08 2.120091e-07 -8.187150e-08 -1.605049e-07 1.531161e-07 -1.080516e-07
-4.070725e-07 3.237917e-07 1.474907e-06 -5.069171e-07 6.711216e-07 -1.918484e-07
4.487315e-07 -4.129374e-07 7.254838e-07 2.505601e-07 1.296133e-07 -4.782837e-07
-2.743059e-08 2.334780e-07 -1.236146e-07 -1.503431e-07 -9.939477e-08 5.435855e-08
6.799093e-07 -3.283347e-07 3.517466e-07 1.593388e-07 -1.086251e-07 -3.188478e-07
-1.974104e-07 5.201208e-07 -7.553476e-08 7.362668e-08 -1.166605e-07 -1.098761e-08
3.839299e-09 1.470638e-07 -1.131615e-07 -1.093271e-07 -8.627133e-08 4.205559e-08
5.768366e-07 -1.403479e-07 1.015088e-07 -2.783134e-08 -7.034760e-08 -2.780193e-07
-7.415185e-08 2.697929e-07 -1.056340e-07 2.950540e-08 1.014466e-07 8.645465e-09
-7.859087e-08 1.546869e-07 -4.618692e-08 2.693491e-08 1.707422e-07 3.297692e-08
1.300804e-08 2.025583e-07 -1.087290e-07 2.587033e-07 8.548564e-08 8.022356e-08
7.038755e-07 -1.683725e-07 3.328931e-07 2.522811e-08 -1.618649e-07 -7.511161e-07
2.796336e-07 -1.067082e-07 -6.193390e-08 -2.556598e-08 -7.937097e-09 1.680221e-07
4.323116e-07 -1.708079e-07 1.877100e-08 -4.539828e-08 -2.613270e-08 5.082525e-08
9.966374e-08 -2.308458e-08 -4.043649e-08 6.087904e-09 3.794166e-10 2.342343e-08
3.384657e-07 -3.236259e-07 2.599545e-07 -5.070904e-08 1.897480e-08 6.192928e-08
-2.808585e-07 4.832471e-07 7.487861e-07 5.028989e-07 6.885660e-08 9.225610e-08
-1.377770e-07 -3.260860e-07 1.339351e-05 -2.311151e-07 -6.942397e-07 -9.900208e-06
4.549308e-07 -1.191297e-07 -1.494321e-08 -1.302162e-07 -2.782144e-09 1.341946e-07
1.987248e-07 -2.599675e-07 1.024706e-07 3.889102e-09 -5.535760e-08 7.086215e-08
-4.492246e-08 2.042023e-08 1.562209e-06 1.637839e-08 -1.355971e-07 1.227180e-06
1.945098e-07 -3.862371e-08 4.560024e-07 -4.201976e-08 3.534628e-08 3.342317e-07
2.785076e-07 -1.431333e-07 -5.815422e-08 4.888204e-08 1.465054e-08 1.197891e-07
1.377783e-07 -1.860236e-07 1.584609e-06 7.372386e-07 6.288018e-07 1.080092e-06
3.151949e-07 -1.712950e-07 -3.507504e-08 3.273163e-08 2.658671e-08 1.625918e-07
1.662944e-07 -1.876857e-07 1.471543e-07 -1.038485e-07 3.020496e-08 5.220671e-08
-6.193566e-08 2.805767e-07 -9.507994e-08 2.142652e-07 1.072420e-07 5.007615e-08
-6.578014e-08 1.248588e-07 -4.588151e-08 -4.566933e-08 1.097278e-07 -5.557108e-08
2.707730e-07 -1.165614e-07 -5.723803e-08 5.209357e-08 1.489946e-08 1.139394e-07
-1.349361e-06 -2.322834e-06 5.431180e-06 2.837481e-07 -1.083928e-06 -1.832850e-06
-1.219209e-07 2.593346e-07 -6.878992e-08 -4.913248e-08 1.704717e-07 -1.710250e-08
4.045150e-07 -1.834510e-07 1.431694e-07 4.492909e-09 -5.320195e-09 6.987944e-08
-9.552815e-07 1.836258e-07 3.398666e-06 4.311453e-07 -1.033507e-06 -6.610148e-07
1.072146e-07 3.727806e-07 6.962405e-07 3.833437e-07 9.432295e-07 8.730338e-07
-9.440942e-07 9.816428e-08 2.389860e-06 6.229880e-07 1.086049e-06 6.837109e-07
4.080791e-07 -2.283858e-07 1.906278e-07 1.048516e-07 3.867847e-09 -2.640285e-09
5.453573e-07 -2.438174e-07 4.261305e-07 2.307387e-07 3.772379e-07 1.089170e-06
-4.999125e-08 1.835016e-08 4.182935e-07 1.153612e-07 2.163913e-08 1.709207e-07
2.607547e-07 -1.490335e-07 1.509690e-07 -2.566790e-07 -2.162822e-08 1.331934e-07
2.191028e-07 -2.058293e-07 1.668457e-07 -1.458492e-07 -3.033469e-08 7.916417e-08
4.105745e-07 -2.596909e-07 2.731009e-08 -1.718114e-07 -4.409441e-09 1.317888e-07
8.886520e-08 -1.929984e-07 3.880826e-07 -9.879358e-08 9.973495e-09 5.655626e-09
5.088074e-07 -4.144648e-07 1.054186e-06 -1.918205e-07 6.833820e-08 -3.515075e-07
2.202835e-07 -1.424466e-07 -8.256770e-09 9.805535e-08 3.452604e-08 9.148569e-08
-5.676376e-08 -3.555432e-08 1.684625e-07 -1.271852e-08 -1.457855e-07 3.554648e-08
-1.377383e-07 2.886535e-07 -7.744116e-09 1.615644e-07 -1.834661e-07 -3.850220e-08
-3.101331e-06 -2.633679e-06 1.298210e-05 2.048922e-07 3.266283e-06 1.995813e-07
-6.867074e-09 3.908402e-08 6.673100e-07 -1.968513e-08 2.753617e-07 -2.210453e-07
1.524655e-07 -5.643642e-08 7.101212e-07 3.524408e-09 -1.050835e-08 4.442955e-07
-1.581481e-06 6.444112e-08 2.623806e-06 4.675005e-07 9.273176e-07 1.685683e-07
-1.857223e-06 -4.039499e-07 5.930552e-06 5.910402e-08 2.029336e-06 4.523719e-07
4.009280e-07 -1.489026e-07 -1.178950e-08 1.373276e-07 4.778670e-08 1.564435e-07
3.215244e-07 -2.041261e-07 1.237200e-07 -6.168714e-08 2.174284e-08 1.111375e-07
2.778408e-07 -2.513838e-07 3.137630e-07 -2.662573e-07 9.570530e-08 6.577613e-08
-1.374480e-06 -3.127795e-08 4.468046e-06 -4.803658e-07 -1.285825e-06 1.717966e-07
8.633834e-08 -1.418062e-08 -3.649546e-08 -2.321379e-08 -9.978826e-09 2.313697e-08
6.669164e-08 -3.408306e-09 -2.622127e-08 -1.555130e-08 -7.536314e-09 1.340428e-08
-1.362649e-08 -4.985823e-08 2.285222e-07 1.048227e-08 2.061266e-07 -8.260072e-08
9.162341e-08 -9.744443e-09 -3.638965e-08 -3.064090e-08 -1.483054e-08 3.163364e-08
-2.801475e-07 4.822203e-07 6.133118e-07 -6.093919e-07 -6.722568e-07 3.823060e-07
8.554760e-08 -1.950055e-08 -2.981225e-08 -8.581755e-09 -7.962216e-09 1.899941e-08
-3.500320e-08 -1.459628e-08 -9.948371e-09 1.734225e-09 2.038770e-07 1.051446e-08
-4.183862e-08 -7.893123e-08 7.100121e-08 2.393684e-08 2.574773e-07 -8.210590e-08
8.497226e-08 -1.330299e-08 -3.961154e-08 -1.840683e-08 -7.825608e-09 2.012342e-08
-3.460007e-08 -7.984803e-08 3.640119e-08 2.756016e-08 1.291562e-07 -4.847981e-08
-3.317488e-08 1.099584e-07 -4.456579e-08 -1.066217e-08 9.944653e-08 -2.631008e-08
9.970663e-08 -1.735589e-08 -4.474888e-08 -2.430493e-08 -4.806491e-09 2.344341e-08
9.630372e-08 -2.250420e-08 -4.012152e-08 -2.312140e-08 -7.354625e-09 3.068671e-08
7.790857e-08 -7.420189e-09 -3.973820e-08 -2.189380e-08 -7.441871e-09 1.759332e-08
5.918722e-07 -3.464134e-07 1.359529e-07 -1.767258e-07 2.098262e-08 -4.815031e-10
6.785715e-08 5.757738e-09 -5.148730e-08 4.249287e-08 1.546717e-08 2.640416e-08
8.186466e-08 -8.804261e-09 -3.547254e-08 -1.705644e-08 -7.011889e-09 2.055063e-08
1.732822e-07 -7.135896e-08 -5.166381e-08 3.048910e-08 2.329935e-08 1.445239e-07
-2.515846e-06 -1.360717e-06 1.381695e-05 6.409649e-07 -5.670659e-06 -1.987196e-06
1.509224e-07 -6.582536e-08 -5.358039e-08 4.695047e-08 2.104442e-08 1.520375e-07
2.082602e-07 -5.461207e-08 -7.457155e-08 5.812371e-08 3.414091e-08 1.022107e-07
1.456091e-07 -5.091856e-08 -6.237751e-08 5.200191e-08 4.419086e-08 1.187649e-07
3.880364e-08 1.787646e-08 -2.539819e-08 2.014960e-08 1.156582e-08 1.332495e-08
3.862364e-07 -1.001084e-07 -6.823363e-08 1.612752e-07 5.349517e-08 1.388158e-07
3.985770e-08 3.110642e-08 -5.102639e-08 3.856959e-08 2.203705e-08 2.101119e-08
1.261270e-07 -1.864357e-08 -6.389827e-08 5.035847e-08 1.456451e-08 3.231469e-08
1.995101e-08 -2.368382e-08 -2.955432e-08 3.211472e-08 8.618733e-08 1.900349e-07
3.984968e-08 3.072471e-08 -4.401041e-08 3.840583e-08 2.155267e-08 2.011422e-08
5.232398e-08 2.608864e-08 -4.912795e-08 3.926004e-08 2.101480e-08 1.600764e-08
7.490846e-08 3.838617e-09 -3.546955e-08 2.542520e-08 4.965001e-09 1.005948e-08
3.605042e-07 -1.831051e-07 1.257345e-07 2.702687e-07 1.922278e-08 -4.900562e-09
6.298549e-07 -1.486642e-06 3.308710e-06 4.063172e-07 -3.239571e-07 -2.397245e-06
4.154227e-07 -1.467124e-07 3.891274e-07 -6.048894e-07 1.526440e-07 -2.344085e-07
4.730650e-08 2.160170e-08 -4.402830e-08 3.629761e-08 1.300443e-08 1.808624e-08
4.668873e-08 2.927865e-08 -3.976267e-08 3.228217e-08 1.060046e-08 1.358518e-08
3.584567e-08 2.501535e-08 -2.610674e-08 2.414633e-08 1.389136e-08 1.167674e-08
-3.124238e-07 3.478940e-07 4.033583e-07 1.358170e-07 1.229341e-07 1.422283e-08
-2.043283e-07 4.047317e-07 1.478706e-07 1.936196e-07 3.488733e-08 6.127238e-09
5.459425e-08 -8.003142e-07 1.273475e-06 8.259634e-07 -1.043369e-07 -8.091174e-07
-1.747150e-06 1.089798e-07 2.441806e-06 -3.886499e-07 9.426217e-07 -1.613820e-07
-1.779529e-07 3.989174e-07 -2.606213e-08 1.988477e-07 1.033147e-07 8.467322e-08
-8.556892e-07 5.130195e-07 1.061422e-06 2.104410e-07 -1.457141e-07 1.658976e-08
-1.633683e-07 5.053650e-07 6.858510e-08 2.512648e-07 -5.644657e-08 1.893798e-08
-1.724154e-07 1.298746e-08 3.555925e-07 4.438667e-08 -9.288548e-08 -4.222419e-08
-2.987196e-08 1.413476e-08 3.778817e-09 2.913702e-08 -1.023712e-07 -7.701358e-08
3.701923e-07 -1.508223e-07 -1.157557e-08 1.108244e-07 5.948622e-08 1.631445e-07
-3.032714e-08 1.180638e-07 -4.927681e-08 7.748836e-08 1.337820e-07 4.820934e-08
2.411532e-07 -2.789687e-07 4.266397e-07 -3.333065e-07 -7.205462e-08 5.975780e-08
-3.877502e-07 -2.046923e-06 5.920481e-06 4.694052e-08 -3.230509e-08 -1.959999e-06
1.256931e-07 -3.938011e-08 4.405118e-08 2.690460e-07 1.853793e-07 1.318391e-07
-2.287107e-09 4.804715e-08 -4.186168e-08 -5.322861e-08 -9.874617e-08 1.061391e-07
-9.778553e-08 2.301730e-07 1.981273e-08 3.902122e-07 1.120396e-07 1.432016e-08
-9.641936e-08 1.303281e-07 -3.639946e-08 9.798836e-08 1.022818e-07 3.969630e-08
6.950220e-08 2.090965e-07 -5.383388e-08 2.801175e-07 1.371170e-07 7.536786e-08
8.511078e-09 1.366799e-07 -8.239739e-08 1.519530e-07 1.068285e-07 7.685516e-08
2.897435e-09 -1.784111e-08 -3.844359e-09 -2.382379e-08 -9.248417e-08 1.212700e-07
-3.289453e-08 6.924431e-08 -1.400396e-08 1.519113e-07 1.805013e-07 1.115960e-07
5.454748e-07 -3.808777e-07 4.288106e-07 -3.544825e-07 -2.474965e-08 1.884164e-07
1.470327e-07 7.604229e-09 -1.015112e-07 -1.245874e-07 -7.749317e-08 1.004763e-07
1.533425e-07 7.935050e-09 -9.841916e-08 -1.645325e-07 -5.186787e-08 1.008872e-07
5.062762e-07 -2.070627e-07 3.917948e-08 -1.854650e-07 2.119258e-08 1.662645e-07
1.655674e-07 -2.136217e-09 -9.015889e-08 -1.604526e-07 -5.100699e-08 8.978422e-08
9.310861e-08 3.115514e-08 -7.584791e-08 -8.236132e-08 -3.164612e-08 4.463050e-08
2.875843e-08 -5.595815e-08 2.005967e-07 -1.962231e-08 -6.510726e-08 -6.323899e-08
5.099798e-08 -2.330624e-08 -3.997287e-08 -3.192342e-08 -3.877084e-08 7.514598e-08
8.362893e-08 1.745433e-08 -4.541088e-08 -7.963199e-08 -6.447480e-08 9.970938e-08
1.073763e-07 4.285228e-08 -9.486069e-08 -1.202092e-07 -7.972417e-08 9.426594e-08
7.083445e-08 -9.276268e-09 -2.627779e-08 1.422313e-08 5.617083e-09 1.572637e-08
-1.135136e-07 1.489738e-08 1.447570e-07 -5.210159e-08 2.170339e-07 -3.582170e-08
6.029233e-08 -4.658048e-08 7.231495e-08 -5.013409e-08 3.468745e-08 1.512855e-07
-3.116759e-07 5.351772e-07 1.027998e-07 9.161638e-08 9.116241e-08 6.931137e-08
-1.852352e-07 3.207341e-07 9.835895e-09 -1.104437e-07 1.351194e-07 -3.986270e-08
-1.821944e-07 3.894397e-07 2.906251e-08 -1.484712e-07 2.389103e-08 -3.211633e-08
-1.239766e-07 1.730726e-07 4.748987e-08 -2.617985e-08 2.368355e-07 -2.942787e-08
-1.358756e-08 9.067931e-08 -4.078870e-08 4.118278e-08 7.287048e-08 3.414849e-08
6.284280e-07 -1.254371e-06 2.677707e-06 6.002176e-08 -1.833459e-07 -1.294043e-06
6.253032e-07 -1.044456e-06 2.440563e-06 5.714856e-07 -7.959439e-07 -1.760301e-06
1.412163e-08 -2.703476e-07 9.843893e-07 2.766232e-07 -9.485303e-08 -8.755622e-07
6.129531e-07 -2.289743e-07 7.830147e-07 6.785838e-07 -7.808125e-07 -1.442383e-06
5.532865e-07 -7.226133e-07 1.343849e-06 5.273125e-07 -6.398238e-07 -9.194322e-07
5.036794e-07 -7.642181e-07 1.552443e-06 5.793467e-07 -5.668803e-07 -9.385101e-07
-3.498709e-08 -3.079173e-09 -1.806634e-08 1.299579e-08 1.265988e-07 -4.964225e-08
7.579437e-07 -8.288115e-07 1.273259e-06 -1.838484e-07 1.027504e-07 -1.304821e-06
-1.144628e-07 1.374772e-07 -3.362245e-08 3.173271e-08 -2.485869e-07 -2.449907e-08
-6.485517e-08 3.263915e-07 -1.517714e-07 7.799544e-08 -1.792065e-07 -6.740594e-08
-1.264302e-07 3.608380e-07 -1.292811e-07 1.127179e-07 -2.178685e-07 -6.144730e-08
-2.159982e-07 3.567657e-07 -6.579370e-08 3.775755e-08 -2.579846e-07 -2.868428e-08
-1.691676e-07 3.113805e-07 -1.147132e-08 1.705138e-07 -1.571435e-07 -6.333600e-08
3.552504e-07 -1.152629e-07 -9.694402e-08 5.150424e-08 8.417425e-09 1.277276e-07
-1.091530e-08 7.948565e-08 -4.534118e-08 -4.510374e-08 9.305801e-08 -4.837862e-08
-1.575633e-08 -2.320054e-08 -3.468092e-08 -5.300963e-09 1.200268e-07 -8.753027e-08
2.469705e-09 1.057115e-07 -5.214509e-08 -1.622341e-07 1.209979e-07 -8.440359e-08
3.371596e-07 -1.175109e-07 -6.735802e-08 -4.513033e-09 4.414113e-09 1.146733e-07
4.590340e-07 -1.781525e-07 -7.219520e-08 3.835513e-08 -2.192986e-09 1.531250e-07
2.627816e-07 -1.175415e-07 -7.713475e-08 -1.230585e-08 5.817901e-09 1.491558e-07
2.821934e-07 -7.930085e-08 -8.823693e-08 1.449268e-08 5.745481e-09 9.096249e-08
1.924280e-07 -1.176747e-07 -5.154378e-08 3.049712e-08 1.447687e-08 1.503969e-07
8.244289e-09 7.583884e-08 -4.883231e-08 -7.269052e-08 1.118534e-07 -7.900811e-08
2.226766e-07 -8.369856e-08 -7.700951e-08 -1.422034e-08 8.674977e-09 1.511536e-07
2.131997e-07 -6.108332e-08 -6.749254e-08 -1.244193e-08 -8.619488e-09 7.405452e-08
-2.856873e-08 3.340816e-08 -3.818427e-08 4.191150e-09 8.101872e-08 9.112229e-09
2.702723e-07 -7.794246e-08 -6.396911e-08 4.532464e-08 7.012511e-10 1.119377e-07
3.973546e-07 -1.700261e-07 -2.095077e-08 -4.426510e-08 -1.299988e-08 1.674723e-07
2.468195e-07 -1.048692e-07 -3.397780e-08 -4.392554e-08 -5.992437e-09 1.271536e-07
4.079274e-08 6.039849e-08 -7.356099e-08 7.907011e-08 3.679418e-08 3.771052e-08
-3.294810e-08 3.220826e-08 -4.387160e-08 1.891494e-09 1.176810e-07 6.130686e-09
-3.331107e-08 1.302508e-08 -2.991001e-08 4.147951e-09 1.416661e-07 2.939513e-08
1.218871e-07 -2.186959e-08 -5.833505e-08 -2.824251e-08 -1.132986e-08 3.393501e-08
1.103178e-07 -7.366916e-09 -5.847979e-08 -4.868699e-08 -1.412715e-08 3.438900e-08
8.548137e-09 4.592829e-08 -5.592763e-08 4.897961e-08 6.028796e-08 4.598080e-08
5.164558e-08 3.026801e-08 -3.384049e-08 4.972664e-08 3.371323e-08 3.761209e-08
8.961334e-08 -1.538386e-08 -2.944520e-08 -2.255164e-08 -1.262498e-08 3.698247e-08
9.881241e-08 -2.271951e-08 -3.267542e-08 -2.267181e-08 -2.219009e-08 6.074031e-08
-2.019830e-08 1.771867e-07 -9.767319e-08 8.818923e-08 7.839070e-08 3.483863e-08
-2.809121e-08 3.154532e-08 -3.462684e-08 1.490404e-08 7.650232e-08 1.564740e-08
-6.301260e-08 1.782171e-07 -9.274488e-08 4.103632e-08 8.701469e-08 1.223862e-08
9.494782e-08 -2.250638e-08 -4.477463e-08 -2.301970e-08 -8.396989e-09 3.841138e-08
5.889956e-07 -3.262745e-07 2.261155e-07 3.713872e-07 -7.488209e-08 2.534198e-07
5.073610e-07 -3.144595e-07 3.043282e-07 3.034765e-07 -1.422232e-08 2.365330e-07
4.693829e-07 -3.849706e-07 7.351115e-07 1.016753e-08 1.377658e-08 3.466775e-07
5.114386e-07 -5.160340e-07 4.691320e-07 2.442200e-07 1.831308e-07 5.969042e-07
8.786486e-07 -5.105706e-07 6.154356e-07 3.077823e-07 2.344862e-07 1.293230e-06
4.876717e-07 -7.637765e-08 2.061366e-07 2.154749e-07 4.653004e-08 2.911277e-07
5.899210e-07 -2.586317e-07 4.687547e-07 1.592528e-07 -4.556050e-09 2.102483e-07
2.736282e-08 2.736018e-08 -2.489842e-08 1.761315e-08 1.180101e-08 9.617542e-09
6.603675e-07 -3.316438e-07 3.387257e-07 3.394151e-07 8.655294e-08 1.433331e-07
6.599168e-07 -7.504006e-07 1.055927e-06 3.147035e-07 1.221485e-07 5.891428e-07
6.718826e-07 -7.582246e-07 1.534177e-06 3.243802e-07 3.126465e-07 7.034745e-07
-2.042804e-08 1.163468e-07 -6.274512e-08 -7.675858e-08 -1.140012e-07 9.170978e-08
-8.815442e-09 1.275912e-07 -9.033594e-08 -7.050310e-08 -6.995931e-08 4.325991e-08
1.568745e-08 1.464332e-07 -9.332276e-08 -1.198907e-07 -8.491041e-08 6.807829e-08
-5.310367e-10 1.271634e-07 -9.826421e-08 -1.575153e-07 -1.042909e-07 5.909798e-08
-8.269567e-09 9.645280e-08 -7.285584e-08 -6.095431e-08 -1.086932e-07 7.024143e-08
-6.804022e-09 1.184847e-07 -9.294355e-08 -8.092429e-08 -6.346630e-08 4.538178e-08
4.483854e-07 -1.694064e-07 -8.007269e-08 -5.804162e-08 -2.321466e-08 1.258946e-07
3.849604e-07 -1.998657e-07 -5.280250e-09 -1.206599e-07 -9.385105e-09 7.044704e-08
2.532932e-07 -7.819796e-08 -6.835490e-08 -1.172246e-07 -3.312264e-08 1.095625e-07
3.263476e-07 -1.482589e-07 -2.523800e-08 -1.741429e-07 -1.147162e-08 9.301120e-08
1.829361e-07 -8.335176e-08 -5.130366e-08 -1.199162e-08 -1.254012e-08 1.326674e-07
3.970578e-08 4.027748e-08 -4.936143e-08 4.270850e-08 1.586396e-08 1.538454e-08
4.414027e-08 2.894407e-08 -4.081167e-08 3.331420e-08 1.119302e-08 1.177431e-08
2.438740e-08 2.350948e-08 -2.827969e-08 2.196627e-08 2.535034e-08 2.347549e-08
2.777037e-07 -8.099180e-08 -1.064348e-07 -3.918310e-08 -1.293544e-08 1.048883e-07
7.137967e-09 3.524517e-08 -3.222875e-08 1.860321e-08 3.668259e-08 2.877700e-08
4.014138e-08 1.132170e-08 -2.902825e-08 -2.184519e-08 -1.660053e-08 1.966283e-08
3.354780e-08 9.285451e-08 -7.871810e-08 1.023009e-07 4.437495e-08 3.305931e-08
-6.611032e-07 3.527939e-09 2.192620e-06 -1.229519e-07 -1.596622e-06 -4.897041e-07
-2.046710e-07 3.047494e-07 3.588203e-07 3.127326e-07 -2.164086e-08 4.490950e-08
-5.930879e-07 4.308957e-07 4.536455e-06 3.620871e-07 -2.502368e-06 3.877530e-08
-3.223659e-07 4.612818e-07 2.950758e-07 1.467789e-07 9.566816e-08 3.586052e-08
8.422093e-08 -7.304019e-11 -4.350286e-08 -4.778839e-08 -1.916471e-08 3.285440e-08
-3.913458e-07 5.040409e-07 3.871832e-07 2.296976e-07 -7.005816e-08 3.501810e-08
-5.463530e-07 5.212317e-07 1.597458e-06 2.931825e-07 -7.287921e-07 -3.649227e-08
6.614208e-08 4.030590e-09 -3.377622e-08 -2.719649e-08 -1.383883e-08 2.372746e-08
5.794390e-08 8.169972e-09 -2.276309e-08 -1.664889e-08 -5.496105e-09 8.550426e-09
-2.234725e-07 3.615089e-07 1.648741e-07 3.342854e-07 2.115355e-08 -1.697144e-08
-1.015795e-07 9.311054e-08 1.681239e-07 1.831535e-07 -1.543004e-07 2.292374e-08
-1.699813e-07 3.320346e-07 4.370013e-07 2.446948e-07 -3.324403e-07 -2.378399e-08
7.894043e-08 -8.562186e-10 -4.250678e-08 -2.423563e-08 -5.170742e-09 1.326939e-08
7.075360e-08 -2.542172e-09 -3.389638e-08 -1.679557e-08 -7.415882e-09 1.095188e-08
6.735367e-08 1.182009e-08 -3.343469e-08 -2.721670e-08 -7.670519e-09 1.040660e-08
5.423987e-08 7.186840e-09 -2.401591e-08 -1.463605e-08 -4.368283e-09 6.110602e-09
4.464798e-08 1.387603e-07 -1.063813e-07 1.792405e-07 -1.087070e-07 -7.868908e-08
5.980811e-08 7.108948e-09 -3.111365e-08 -2.080726e-08 -5.143264e-09 9.046257e-09
9.217909e-08 -1.404378e-09 -5.995039e-08 -4.662072e-08 -2.768743e-08 2.534542e-08
6.927359e-08 6.578215e-09 -3.463523e-08 -2.175610e-08 -3.802364e-09 8.684716e-09
5.767767e-07 -2.350213e-07 9.544221e-11 9.178389e-08 1.373190e-08 3.515613e-08
-2.464751e-06 -1.608982e-06 9.002257e-06 2.601316e-08 -1.874715e-06 -6.828491e-07
5.871555e-08 6.199523e-09 -3.022527e-08 -1.965260e-08 -6.291795e-09 1.143912e-08
7.799696e-08 -1.119582e-08 -2.650316e-08 1.569381e-08 3.032732e-09 1.647924e-08
4.025170e-08 -1.918623e-07 2.465375e-07 1.515607e-07 -4.575919e-08 -7.398484e-08
6.982629e-08 4.804205e-09 -3.155349e-08 -2.164235e-08 -3.053800e-09 1.001608e-08
4.992679e-08 3.666898e-09 -2.860884e-08 -2.318139e-08 -1.660748e-08 2.415196e-08
8.732069e-08 -4.836897e-09 -3.680419e-08 -2.748409e-08 -8.799476e-09 2.193201e-08
1.113572e-07 4.777268e-09 -7.653678e-08 1.061834e-07 4.921408e-08 7.639053e-08
9.675542e-08 -1.312676e-08 -6.093868e-08 6.377170e-08 4.720712e-08 9.287431e-08
1.227677e-07 -4.578839e-08 -6.373878e-08 4.517130e-08 2.182796e-08 9.452594e-08
1.636694e-07 -3.209726e-08 -8.500297e-08 7.984762e-08 3.480956e-08 8.652650e-08
1.616110e-07 -4.082197e-08 -4.899593e-08 3.469506e-08 3.489668e-08 1.232781e-07
1.015237e-07 -3.018628e-08 -6.087106e-08 5.931218e-08 2.827681e-08 9.316353e-08
6.910089e-08 6.484987e-09 -3.424649e-08 -2.645696e-08 -5.223158e-09 9.298620e-09
5.878328e-08 1.316852e-08 -3.465013e-08 -2.918219e-08 -7.344673e-09 1.116175e-08
5.601568e-08 1.322820e-08 -2.897685e-08 -2.510836e-08 -1.571591e-08 2.392275e-08
6.044136e-08 8.902810e-10 -2.612246e-08 -1.693352e-08 -5.978504e-09 1.098914e-08
5.308447e-08 -5.449052e-09 -4.953741e-08 5.211347e-08 5.203014e-08 1.125968e-07
1.688609e-07 -2.838794e-08 -6.813756e-08 1.653959e-07 3.890572e-08 9.394309e-08
-2.736685e-08 2.273969e-07 1.931109e-07 5.097536e-07 1.263554e-08 1.115308e-07
1.064960e-07 1.145789e-07 -8.637971e-08 1.792478e-07 6.841297e-08 1.480509e-07
1.439394e-07 -3.191508e-08 -7.461955e-08 -6.449396e-08 -2.999812e-08 7.190474e-08
-1.575671e-08 -1.219565e-07 9.810362e-08 3.024604e-08 3.362564e-08 9.411349e-08
5.063984e-08 3.653532e-08 -2.523327e-08 1.555848e-07 8.637484e-08 1.420376e-07
1.265081e-07 9.409352e-08 8.132593e-08 3.798323e-07 6.311475e-08 1.128804e-07
-1.637047e-09 1.475073e-07 1.799233e-08 2.148499e-07 1.430386e-07 2.155306e-07
4.278522e-08 2.478934e-09 -3.117679e-08 -2.698720e-08 -4.151768e-08 4.686992e-08
2.045234e-07 1.188135e-07 -8.062425e-08 2.699161e-07 9.657257e-08 1.393980e-07
1.246270e-07 3.447389e-08 5.150701e-08 3.506806e-07 2.909769e-08 -5.586302e-10
2.824859e-07 -3.055223e-08 2.657688e-07 4.103783e-07 -5.778051e-08 -5.962619e-08
7.853919e-08 1.716782e-07 -7.366264e-08 3.011434e-07 1.050447e-07 8.075043e-08
-1.128793e-07 1.473779e-07 1.632215e-08 1.530404e-07 -1.881529e-07 -7.692358e-08
6.674063e-08 2.721549e-08 -6.373156e-08 -5.322818e-08 -2.821874e-08 3.447340e-08
-8.884352e-09 4.903129e-08 -3.945140e-08 -3.436208e-08 -7.826911e-08 4.012323e-08
-3.203982e-08 4.891044e-09 -4.463347e-08 8.917912e-10 -1.224022e-07 3.606269e-08
-7.340435e-08 2.916107e-07 -1.146155e-07 1.467226e-07 -1.603157e-07 -5.129559e-08
-4.610072e-08 1.792753e-07 -5.515479e-08 1.860911e-08 -1.853535e-07 -7.362361e-08
-2.387560e-08 1.863654e-08 -3.588670e-08 -3.264633e-09 -8.846520e-08 3.971419e-08
-6.835990e-08 4.474926e-08 -4.641692e-08 2.450028e-08 -1.437583e-07 3.297562e-08
-3.418983e-08 7.978512e-08 -4.398698e-08 -4.388998e-08 -1.072587e-07 3.590437e-08
-5.395207e-09 7.602050e-08 -8.900912e-08 4.558270e-08 -7.034912e-08 -3.101928e-08
-2.153432e-08 1.725417e-07 -4.913951e-08 1.051614e-07 -2.088223e-07 -1.337544e-07
-6.760356e-08 1.289439e-07 -5.532662e-08 4.305821e-08 -2.096090e-07 -7.385047e-08
-6.237596e-08 -1.794113e-08 -1.506283e-08 -3.990721e-08 -1.348870e-07 -8.133554e-08
-4.538405e-08 1.037117e-07 -4.630705e-08 2.557723e-08 -1.123674e-07 -3.559266e-08
-6.526659e-08 1.229384e-07 -5.297145e-08 5.179562e-08 -1.837259e-07 -7.519114e-08
4.038224e-08 1.258570e-07 -7.535038e-08 2.555567e-07 -1.138901e-07 -8.265987e-08
8.185755e-09 1.980169e-07 -1.089389e-07 1.642869e-07 -1.516953e-07 -9.289477e-08
-3.374113e-08 2.572026e-07 2.158627e-08 3.079146e-07 -1.007440e-07 -5.153612e-08
2.576394e-08 6.543976e-08 -8.786502e-08 1.312341e-07 -1.033621e-07 -7.848090e-08
-3.194420e-08 -3.715423e-09 -4.399386e-08 -1.028648e-08 -1.171909e-07 -2.996046e-08
7.755038e-10 -1.014929e-07 8.314285e-08 3.442672e-09 -2.014227e-07 -5.404872e-08
1.628873e-08 -7.961472e-09 -6.560049e-09 7.222921e-08 -1.943197e-07 -1.103320e-07
-5.411073e-08 1.309682e-07 -1.848662e-08 1.112707e-07 -1.380470e-07 -1.120887e-07
2.134568e-07 -6.134611e-08 -9.464964e-08 -1.264652e-08 -5.405607e-09 7.880567e-08
-2.624542e-08 4.516196e-08 -4.636397e-08 5.738767e-09 -1.050647e-07 -5.965802e-08
-5.826021e-08 1.215602e-07 -8.718640e-08 6.328279e-08 -1.488276e-07 -1.048665e-07
-3.038710e-08 -5.449467e-08 -1.143908e-08 -6.878458e-09 -1.626838e-07 -1.522547e-08
1.712045e-07 -4.520190e-08 -7.236852e-08 -1.596717e-08 -4.709237e-09 5.301941e-08
1.758033e-07 -4.512645e-08 -7.253874e-08 -2.136607e-10 5.079555e-10 5.388195e-08
-1.154406e-07 1.705508e-07 -5.049707e-08 8.189360e-09 -2.341650e-07 -1.813430e-08
-1.781074e-06 -3.912983e-07 5.425242e-06 -2.580733e-07 1.843414e-06 -6.137349e-07
1.573600e-07 -6.132430e-08 -7.072596e-08 -5.635904e-08 -3.844015e-09 9.204048e-08
-4.892784e-08 -4.003822e-08 1.072189e-07 -3.662035e-08 -2.482884e-07 -2.207210e-07
5.776018e-07 -6.005591e-07 2.473967e-06 -3.991158e-07 -3.210113e-07 1.806796e-06
1.727399e-07 -4.473323e-08 -7.810256e-08 -8.786501e-10 -1.589753e-10 6.030497e-08
-5.847842e-08 1.649988e-07 -1.015743e-07 -5.755519e-08 -9.429920e-08 2.680833e-08
-7.354994e-08 1.006021e-08 2.545545e-07 -2.265350e-07 -1.461736e-07 1.459859e-07
-1.114197e-08 -5.717340e-09 -1.278772e-08 -1.631244e-08 -9.192576e-08 1.039580e-07
1.834021e-07 -6.256072e-08 -6.688762e-08 1.836450e-08 -9.394007e-09 1.150899e-07
2.013342e-07 -3.474292e-08 -9.499898e-08 -1.352964e-07 -5.508590e-08 1.015843e-07
1.080837e-08 -1.926170e-08 2.688346e-08 -3.674006e-08 -5.257564e-08 2.309061e-07
-7.183106e-07 2.140097e-07 2.002987e-06 7.552854e-07 -1.101494e-06 -2.966110e-07
6.767671e-08 -8.210529e-08 8.670617e-07 2.993526e-07 -5.029982e-07 -4.329961e-07
-2.355905e-06 -2.574938e-06 1.122959e-05 6.019217e-07 9.669660e-07 -4.048286e-06
-3.840637e-08 -1.911297e-08 8.980156e-08 -1.260447e-08 -1.110688e-07 1.581205e-07
2.543848e-07 -5.963449e-08 -1.011333e-07 -6.169818e-08 -2.241872e-08 9.423815e-08
-1.613072e-08 4.767635e-09 5.881958e-08 -1.831257e-07 -1.538396e-07 1.124395e-07
5.810855e-08 2.017084e-07 5.067227e-08 -3.870819e-07 6.427961e-09 4.851750e-08
-1.298282e-06 -1.830687e-06 3.891883e-06 -1.016694e-06 -4.358344e-06 9.536354e-07
-2.283616e-06 -3.211038e-07 8.106279e-06 1.283489e-07 -2.461901e-06 -1.501974e-06
-1.926243e-06 -2.036043e-07 3.958591e-06 3.421091e-07 -2.014888e-06 -2.594760e-07
-5.917729e-08 1.501113e-07 -1.053245e-07 5.481495e-08 -1.261644e-07 -4.600930e-08
-7.957633e-07 -2.415940e-06 5.739524e-06 6.972108e-07 -6.038447e-07 -1.385561e-06
-3.229329e-07 -1.739214e-06 5.153908e-06 1.478879e-06 -1.120998e-06 -2.632378e-06
1.051417e-07 -1.777189e-08 -5.392892e-08 3.613823e-08 1.070098e-08 3.576466e-08
-2.615926e-08 3.848841e-08 -3.689849e-08 8.232271e-09 7.803359e-08 1.759468e-08
7.686873e-08 -8.435888e-09 -2.905795e-08 2.429217e-08 1.202281e-08 2.905977e-08
-5.027485e-08 7.709278e-08 -4.238666e-08 -2.818075e-08 9.703683e-08 1.869949e-08
-4.409665e-08 1.656364e-07 -7.879749e-08 5.664830e-08 6.895253e-08 1.427445e-08
8.144770e-08 -8.481605e-09 -4.692277e-08 3.271999e-08 1.583737e-08 4.761360e-08
-4.948242e-08 1.390065e-07 -8.607748e-08 4.409300e-08 8.458083e-08 1.800612e-08
1.241553e-07 -1.837910e-09 -6.476426e-08 5.970509e-08 1.984228e-08 3.167688e-08
6.766264e-08 1.801784e-08 -5.165360e-08 4.147915e-08 1.583686e-08 2.615135e-08
5.852842e-08 2.995271e-08 -4.801678e-08 4.608011e-08 1.641522e-08 2.321210e-08
-3.331092e-08 -8.710180e-09 -9.772181e-09 5.790488e-09 1.683110e-07 5.653128e-08
-1.936736e-08 4.081389e-08 -3.389110e-08 1.185969e-08 6.984717e-08 1.851124e-08
6.493128e-08 1.509477e-08 -5.297310e-08 4.524882e-08 1.890581e-08 2.420670e-08
2.618259e-08 3.884053e-08 -2.667396e-08 2.637921e-08 1.967365e-08 1.664581e-08
-4.994845e-08 6.895555e-09 -4.195819e-08 -2.233194e-08 -1.229271e-07 -7.738015e-08
4.921598e-08 3.589669e-08 -6.187149e-08 4.901815e-08 3.066141e-08 2.182365e-08
4.264862e-08 2.327475e-08 -2.790942e-08 1.676733e-08 4.372105e-09 5.437999e-09
3.970514e-08 4.165090e-08 -4.316069e-08 4.144128e-08 1.292369e-08 1.842889e-08
2.433655e-08 3.623920e-08 -3.120767e-08 3.371727e-08 2.478966e-08 2.863060e-08
4.011662e-08 2.831205e-08 -4.206212e-08 2.992231e-08 2.370854e-08 1.689586e-08
-9.921003e-08 2.157715e-07 -8.296663e-08 -2.616527e-08 1.399446e-07 -6.813766e-09
4.162934e-07 -2.633022e-07 5.212086e-07 -4.898476e-07 -9.132176e-08 1.192744e-08
-1.623604e-07 3.062673e-07 -6.261873e-08 4.650558e-08 1.136761e-07 6.816890e-09
1.771495e-08 1.304261e-07 7.104169e-07 2.069988e-07 5.185321e-07 6.350714e-07
-2.737739e-07 2.580131e-07 2.894943e-06 1.706456e-07 2.538419e-06 4.396655e-06
-1.012574e-07 3.673635e-07 -1.011534e-07 -3.849806e-08 1.352189e-07 -6.965550e-09
-1.649563e-07 4.285392e-07 -1.556650e-08 -5.895913e-08 1.658389e-07 -3.178167e-08
6.106768e-08 -8.776854e-08 5.981721e-07 3.552612e-07 -3.661683e-08 3.732877e-09
-2.930481e-07 4.875968e-07 1.047021e-06 8.008651e-07 6.786446e-07 5.008219e-07
-1.311879e-07 2.914948e-07 -4.261108e-08 -1.921712e-08 1.889324e-07 -1.229819e-08
-1.594999e-07 1.589271e-07 -1.197877e-08 1.050963e-08 1.787247e-07 1.045024e-08
-4.321317e-07 8.026227e-07 1.394669e-06 1.223084e-07 -2.478051e-06 -3.720848e-07
-1.436623e-06 -2.452665e-06 6.527096e-06 -2.321599e-07 5.698892e-07 -2.131355e-06
-1.118824e-06 6.625525e-07 1.804506e-06 -1.424512e-07 -1.723761e-06 -4.950076e-07
-2.418468e-07 1.779880e-07 9.980689e-07 6.193215e-07 -4.510516e-07 -2.435838e-07
-1.267850e-07 2.310574e-07 9.247162e-07 4.256867e-07 2.849728e-07 2.551041e-07
-4.200646e-07 2.896933e-07 1.450581e-06 1.613373e-07 -5.516114e-07 -2.932755e-07
4.618236e-07 -2.969940e-07 1.501250e-07 -2.487207e-07 -1.265087e-07 5.860885e-08
7.143220e-07 -3.452422e-07 6.877563e-08 1.450967e-07 -5.915234e-09 4.434057e-08
-1.277923e-06 6.630602e-07 2.224093e-06 2.079570e-07 -1.387895e-06 1.919768e-07
6.030880e-08 -3.317415e-07 1.917676e-06 4.252325e-07 -6.138933e-08 -3.350872e-07
2.352570e-07 -5.755859e-07 1.512024e-06 4.647465e-07 -4.582877e-08 -2.952039e-07
2.640815e-07 -1.517019e-07 1.200564e-07 9.107508e-08 4.941391e-10 1.084573e-07
6.341685e-07 -7.280517e-07 2.130064e-06 6.246929e-07 -4.818554e-07 -1.714632e-06
6.187198e-07 -7.504005e-07 5.274496e-07 2.722792e-07 8.922754e-08 2.326432e-07
-1.522178e-07 2.157586e-08 6.420867e-07 4.673445e-07 -3.678545e-07 2.861927e-08
-9.952349e-07 1.331940e-07 2.578862e-06 6.670035e-07 -1.441944e-06 -6.434386e-07
-1.679049e-07 -3.237980e-07 1.839931e-06 8.568365e-07 -3.898873e-07 -8.212474e-07
1.561911e-07 -9.048579e-08 7.173686e-07 5.771616e-07 -1.384915e-07 -2.325208e-07
5.062549e-08 -5.306430e-08 3.757544e-07 -2.792214e-08 -2.533317e-07 1.441855e-07
-1.135627e-07 1.184192e-07 6.482104e-07 4.400012e-07 -1.239169e-07 1.043951e-07
1.144482e-08 8.866430e-10 5.273086e-07 -5.249350e-08 1.337829e-07 1.610660e-07
-1.026030e-07 1.310118e-07 6.147140e-07 4.673881e-07 -1.972068e-07 -2.045281e-07
-6.101921e-09 -6.728195e-07 3.485358e-06 8.712549e-07 1.164117e-06 2.042351e-06
-1.314556e-07 2.566972e-07 5.407356e-07 2.069653e-07 -3.197413e-07 -1.971586e-07
-1.920397e-08 -2.297392e-08 6.636923e-07 7.130682e-08 -3.284984e-07 -3.776482e-07
1.264369e-08 7.079748e-08 -4.930545e-08 -7.743907e-08 1.422895e-07 -9.108425e-08
-3.482264e-08 7.665632e-09 3.614770e-07 2.091625e-07 9.525312e-08 7.263778e-08
-2.000573e-08 1.724563e-07 -1.108571e-07 -1.601874e-07 1.063539e-07 -6.571998e-08
1.645790e-08 2.507133e-08 5.898094e-07 4.157865e-07 -5.307316e-08 -1.157719e-07
-5.153288e-09 7.552446e-08 -1.059331e-07 -6.857479e-08 9.711633e-08 -4.625002e-08
-3.314381e-08 2.502075e-07 -5.879374e-08 -1.730111e-07 1.136041e-07 -4.267336e-08
-5.851486e-08 1.280990e-07 -5.670301e-08 -7.532925e-09 1.637869e-07 -3.423895e-09
1.181097e-07 -3.865704e-08 -4.959794e-08 6.868902e-09 1.018397e-08 4.912944e-08
1.219238e-07 -4.851713e-08 -3.772829e-08 9.687396e-09 6.031872e-09 7.945035e-08
9.643425e-08 -4.276187e-08 -4.050483e-08 -1.313045e-08 -1.909520e-09 6.675081e-08
1.432535e-07 -6.703225e-08 -5.987431e-08 -1.330394e-08 4.355044e-09 8.969753e-08
1.296661e-07 -3.064270e-08 -4.615165e-08 1.754225e-08 4.502824e-09 4.280605e-08
1.113143e-07 -3.217082e-08 -4.422919e-08 9.961559e-09 3.951782e-09 4.842110e-08
5.330046e-08 4.471874e-09 -2.392511e-08 1.873401e-08 8.705723e-09 1.476729e-08
1.047112e-07 -3.173710e-08 -3.431457e-08 5.738215e-09 3.189680e-09 5.599281e-08
6.814860e-08 1.854491e-08 -4.092701e-08 4.215673e-08 2.175781e-08 2.912795e-08
4.584724e-07 -2.055311e-07 1.888594e-08 -1.206428e-07 -1.200475e-08 1.225586e-07
6.230025e-08 1.615234e-08 -3.425523e-08 2.857135e-08 6.846560e-09 1.019828e-08
2.902725e-07 -1.256133e-07 -6.421066e-08 -1.005841e-07 -1.589875e-08 9.272392e-08
5.383580e-08 2.496464e-08 -5.203029e-08 4.099286e-08 2.156839e-08 2.766176e-08
5.684722e-07 -3.331620e-07 5.440834e-08 -9.703082e-08 -2.687315e-08 -2.430653e-07
4.347340e-08 2.064696e-08 -2.756428e-08 1.952617e-08 7.904136e-09 9.615902e-09
5.869315e-08 7.647446e-09 -2.946652e-08 1.665008e-08 5.500157e-09 9.488153e-09
4.970637e-07 -4.408527e-07 1.710055e-07 -1.849754e-07 1.350444e-07 -9.867690e-08
1.365022e-07 -1.000954e-08 -4.409039e-08 -1.608890e-07 -1.010699e-07 1.258642e-07
7.231040e-08 1.280383e-09 -3.012242e-08 2.171066e-08 5.212084e-09 1.303031e-08
4.561069e-07 -3.327686e-07 1.807858e-07 -1.020246e-07 4.907047e-08 6.918494e-08
-2.628739e-08 3.817455e-09 -4.204139e-08 -3.965217e-09 -1.221633e-07 -7.817364e-08
-2.444241e-08 9.826529e-09 -4.545852e-08 7.763359e-09 9.579281e-08 -5.598329e-08
-3.848415e-08 1.680807e-08 -4.210130e-08 -3.442045e-09 9.786909e-08 -5.224447e-08
1.895391e-08 1.329565e-07 -1.018729e-07 -9.610092e-08 8.022498e-08 -5.354022e-08
-2.556988e-06 -5.532420e-07 7.825832e-06 5.067786e-07 -4.049543e-06 -9.954894e-07
1.963443e-09 -1.848143e-06 3.658678e-06 -3.653157e-07 6.986124e-07 -1.958360e-06
-4.067086e-08 8.168643e-09 -3.268063e-08 -1.596746e-09 1.155623e-07 -3.268876e-08
-3.898837e-08 3.977498e-08 -3.251469e-08 -2.686915e-09 7.672881e-08 -1.704482e-08
-1.125877e-06 -2.052693e-06 6.320428e-06 1.449494e-07 -2.253889e-07 -2.598134e-06
-2.209475e-06 -2.378822e-06 7.545582e-06 2.945220e-07 -1.598693e-06 -2.581765e-06
-2.205853e-06 -2.322720e-06 8.970770e-06 2.801102e-07 -1.063625e-06 -2.736469e-06
-8.141466e-08 2.688904e-07 -1.111313e-07 7.156606e-08 -1.143879e-07 -3.976215e-08
4.852697e-08 1.608775e-08 -2.743405e-08 1.797262e-08 5.199050e-09 7.053362e-09
3.570776e-08 3.265608e-08 -2.652154e-08 2.320549e-08 1.302684e-08 1.142252e-08
6.456102e-08 8.335109e-09 -3.396809e-08 2.703650e-08 1.250620e-08 2.008148e-08
-1.006184e-07 2.067412e-07 -1.129744e-07 2.032876e-08 -1.501862e-07 -1.664199e-08
-1.381829e-07 1.781345e-07 -3.628452e-08 -1.240018e-08 -1.740616e-07 1.197234e-08
5.387023e-08 1.238655e-08 -3.543265e-08 2.248188e-08 6.552890e-09 9.895261e-09
-6.345584e-08 1.647618e-07 -9.315486e-08 7.201966e-09 -2.017693e-07 -1.136385e-08
4.720099e-08 9.980095e-09 -2.624408e-08 2.234774e-08 1.426328e-08 1.876945e-08
-3.740023e-08 -3.294063e-09 -8.898588e-09 -1.532494e-11 1.410873e-07 9.224723e-08
-6.197534e-08 3.128188e-07 -6.841016e-08 2.685622e-07 1.072172e-07 7.664333e-08
-3.587531e-08 3.981979e-08 -5.242754e-08 -2.717318e-08 -1.776936e-07 1.287847e-08
-3.630722e-09 1.542391e-07 -3.790261e-08 9.181898e-08 2.118615e-07 1.110800e-07
-1.266667e-07 3.080172e-07 -9.828206e-08 -3.534242e-08 -1.172602e-07 1.585688e-08
1.297152e-08 2.070556e-07 -1.039028e-07 2.111783e-07 1.024710e-07 5.448305e-08
-7.356584e-08 1.497122e-07 -8.448903e-08 -9.209001e-09 -1.944923e-07 6.311288e-09
-7.000553e-08 1.421217e-07 -4.920181e-08 -1.434394e-08 -1.871989e-07 2.849357e-08
-6.844984e-08 1.516436e-07 -5.605743e-08 4.592589e-08 1.562694e-07 5.588406e-08
-3.319481e-08 -2.018598e-08 -1.414977e-08 5.822704e-09 2.110152e-07 8.482330e-08
-3.175318e-08 -1.135439e-08 -7.541422e-09 5.281368e-09 1.510413e-07 7.454409e-08
7.426686e-08 1.592425e-07 -1.085569e-07 2.025185e-07 -1.130366e-07 -7.474440e-08
-1.266629e-07 2.871888e-07 -1.019002e-07 -3.028207e-08 -1.542941e-07 1.609408e-08
1.623913e-08 -4.306181e-08 6.470714e-09 2.366281e-08 5.005360e-08 1.670036e-07
1.055176e-07 -2.777055e-08 -7.064749e-08 5.938432e-08 5.474697e-08 1.229004e-07
-9.981698e-08 2.606588e-07 -1.170782e-07 3.590726e-08 -1.279983e-07 4.005912e-09
9.327828e-08 4.509857e-09 -2.050570e-08 1.491023e-07 7.582928e-08 7.852695e-08
1.053756e-07 -3.600495e-08 -6.204678e-08 3.331209e-08 1.650931e-08 7.107117e-08
-3.134857e-08 -1.173735e-08 -2.486919e-08 -6.147490e-09 -2.014052e-07 -2.292613e-09
-1.275316e-07 3.884821e-07 -1.336439e-07 8.689283e-08 -2.230040e-07 -4.506841e-08
5.678457e-07 -3.381247e-07 6.180346e-07 4.126681e-07 1.221210e-08 -1.194428e-08
-6.612063e-08 1.567221e-07 -8.062647e-08 1.463944e-08 -2.088636e-07 -3.386510e-08
-1.394131e-07 4.160376e-07 -6.738398e-08 6.864152e-09 -9.904090e-08 -2.780006e-09
8.553684e-08 2.047277e-07 -5.099832e-08 3.677899e-07 9.435125e-08 4.393060e-08
3.464315e-08 2.828299e-08 -4.171667e-08 5.319187e-08 7.410251e-08 6.491708e-08
-7.170178e-09 -4.270877e-08 -1.365748e-08 4.327651e-08 1.354506e-07 1.197535e-07
-4.074455e-08 7.414609e-08 -3.927393e-08 6.892859e-08 -1.616226e-07 -1.714742e-08
-1.255211e-08 3.108663e-09 7.741461e-08 -2.296556e-08 -7.615114e-08 7.691799e-08
-7.539296e-09 1.559846e-07 -7.321255e-08 8.988272e-08 1.107978e-07 4.384269e-08
-2.019830e-08 1.437976e-07 -7.944811e-08 7.678706e-08 7.441534e-08 2.494834e-08
-3.265665e-08 2.914901e-08 -3.766390e-08 1.166074e-08 8.356202e-08 3.471597e-08
-4.421090e-08 1.887364e-07 -9.337705e-08 6.743273e-08 9.577326e-08 3.231879e-08
-2.894691e-08 1.048863e-07 -6.545742e-08 3.150016e-08 1.071430e-07 3.801904e-08
-4.906657e-08 1.214616e-07 -6.651881e-08 4.041483e-08 1.124822e-07 3.256644e-08
-2.584099e-08 1.024693e-07 -6.585232e-08 3.919501e-08 1.091351e-07 3.754389e-08
1.470723e-07 -3.342459e-08 -6.685667e-08 4.612840e-08 1.007174e-08 4.331645e-08
-5.556463e-08 1.303830e-07 -5.767573e-08 2.670085e-08 1.470555e-07 3.436773e-08
-6.304563e-08 2.127288e-07 -9.132624e-08 4.837487e-08 1.061678e-07 2.382709e-08
-3.319779e-08 7.283976e-08 -4.169493e-08 3.765319e-08 9.564406e-08 4.345273e-09
1.155661e-07 -2.314396e-08 -4.106295e-08 -1.261902e-08 -1.961224e-09 1.891776e-08
9.238895e-08 -2.108191e-08 -2.839198e-08 -1.422501e-08 -8.883337e-09 2.297828e-08
-4.246074e-08 1.160999e-07 -7.953026e-08 1.051483e-08 7.408960e-08 7.000288e-09
-6.177011e-08 1.199731e-07 -6.914480e-08 3.359367e-08 1.182100e-07 1.950285e-08
-2.418657e-07 4.911671e-07 1.305214e-07 -1.851057e-07 -1.033131e-07 -1.196097e-08
-2.678725e-07 2.691617e-07 2.670814e-07 -9.257465e-08 8.392149e-08 8.388598e-08
1.171466e-07 -1.734999e-08 -5.172763e-08 -2.891072e-08 -8.660628e-09 2.659226e-08
-2.802504e-07 -1.163595e-07 6.836494e-07 -2.223995e-07 1.786564e-07 -2.459036e-07
-2.804895e-07 2.506521e-07 6.054980e-07 -3.360830e-07 6.431549e-08 -8.635881e-09
9.968788e-08 -1.781397e-08 -4.583606e-08 -2.107998e-08 -6.647642e-09 2.361854e-08
-8.611936e-08 1.851948e-07 2.823968e-07 -3.375377e-07 3.244390e-08 5.163204e-09
8.535800e-08 -5.943177e-10 -4.128938e-08 -3.017175e-08 -7.906832e-09 1.606921e-08
6.773313e-08 -4.229667e-09 -4.519436e-08 -3.162994e-08 -1.776170e-08 3.223873e-08
6.069835e-09 1.332445e-07 1.247481e-07 -2.469692e-07 -5.335455e-08 -1.293287e-09
1.232519e-07 -1.342540e-08 -5.396758e-08 -4.488496e-08 -1.228238e-08 2.949750e-08
4.839842e-08 4.425315e-07 4.518152e-07 -6.912049e-07 5.814687e-07 -7.265097e-07
3.219943e-08 4.425077e-07 -1.842000e-08 -1.526417e-07 -1.130142e-07 -2.208794e-08
-1.061378e-06 4.223510e-07 3.034389e-06 -3.436055e-07 -2.881217e-06 2.095105e-07
-1.058059e-06 -9.824638e-08 3.185335e-06 6.023085e-07 -5.977539e-07 -9.025252e-07
-4.230760e-08 7.335170e-08 -5.159959e-08 -4.844031e-09 -1.383026e-07 -5.473770e-08
-1.259039e-06 -2.438693e-07 2.777222e-06 8.268770e-07 -8.880264e-07 -6.122994e-07
-4.279733e-08 -5.136734e-09 -1.396878e-08 -2.919853e-08 -1.593549e-07 -7.875887e-08
-8.621744e-08 1.964522e-07 -1.064019e-07 3.461621e-08 -1.064378e-07 -3.617894e-08
-3.746786e-07 5.450176e-07 3.193212e-07 1.064962e-08 -1.219882e-07 -1.045371e-08
-8.132500e-08 3.276374e-07 -1.171562e-07 1.171424e-07 -1.479484e-07 -6.660188e-08
-5.566261e-07 2.332518e-07 5.332522e-07 2.736140e-07 -2.103410e-07 -4.831540e-07
-7.113765e-08 -9.305343e-08 3.939546e-08 6.927713e-10 -1.954621e-07 -9.201136e-08
-8.043618e-07 -5.442401e-08 3.505585e-06 3.289275e-07 -3.260049e-06 -5.573694e-07
-1.020273e-06 3.918938e-07 4.267886e-06 1.051652e-06 -2.467034e-06 -1.266762e-06
4.626426e-07 -4.547850e-07 4.202486e-07 -1.569275e-07 1.088236e-07 -1.270204e-07
2.336353e-07 -2.116625e-07 1.761838e-07 -1.336746e-07 -5.897653e-08 2.163408e-07
4.218383e-08 2.044781e-08 -3.911139e-08 -2.476636e-08 -1.499716e-08 1.918188e-08
4.411940e-07 -2.875720e-07 3.074085e-07 -3.391137e-07 -6.356269e-08 -1.094669e-07
1.964380e-08 1.398644e-08 -2.729495e-08 -2.308039e-08 -4.968073e-08 5.093252e-08
4.440138e-07 -1.370632e-07 -3.853482e-08 -2.445910e-07 -4.067978e-08 1.060900e-07
4.020906e-08 7.412507e-08 -4.831407e-08 -1.409890e-07 -1.170522e-07 1.140490e-07
3.157883e-08 5.805903e-09 3.859334e-08 -1.579194e-07 -1.568533e-07 1.671341e-07
5.562823e-08 2.882279e-08 -4.272352e-08 -3.638878e-08 -1.411560e-08 1.494046e-08
1.679733e-08 3.451289e-08 -6.369984e-08 -8.147389e-08 -8.563075e-08 8.424270e-08
5.382945e-08 9.534558e-09 -2.268132e-08 -1.255085e-08 -2.255229e-09 6.854511e-09
5.057828e-08 1.479430e-08 -2.289411e-08 -1.678652e-08 -8.220296e-09 1.048440e-08
3.722928e-08 3.243640e-08 -4.759581e-08 -3.387148e-08 -1.898809e-08 2.188390e-08
-2.574448e-08 6.380204e-08 -6.633447e-08 -1.062273e-07 -9.755712e-08 7.592835e-08
6.231179e-08 1.773471e-07 -7.661737e-08 -2.109016e-07 -1.152129e-07 9.721152e-08
4.970658e-08 2.144785e-08 -3.958056e-08 -2.748707e-08 -1.098200e-08 1.395241e-08
-2.793832e-08 9.638647e-09 1.690338e-07 -2.600580e-07 -8.545267e-08 1.037351e-07
5.124073e-08 2.155808e-08 -3.526506e-08 -2.800786e-08 -8.477965e-09 9.100179e-09
7.530344e-08 6.940472e-08 -8.794571e-08 -9.854916e-08 -4.754845e-08 4.769591e-08
1.010284e-07 2.095229e-08 -4.576446e-08 -1.719669e-07 -8.214848e-08 9.078369e-08
3.541389e-08 6.473056e-08 -6.070848e-08 -6.199557e-08 -2.915166e-08 2.430527e-08
4.953262e-09 8.520869e-09 -3.702934e-08 -2.586081e-08 -6.342089e-08 3.825836e-08
1.816819e-07 4.565068e-08 -1.885636e-08 -3.708703e-07 -8.110774e-08 9.662351e-08
-1.105682e-06 8.856844e-07 1.414321e-06 2.586799e-07 1.041123e-06 6.289738e-07
1.633791e-07 1.043385e-08 2.483591e-07 2.549629e-07 6.913139e-08 -1.119649e-07
3.212229e-07 -7.790458e-08 1.496982e-07 1.836197e-07 3.486056e-08 -8.003899e-08
2.528505e-07 -2.910343e-08 -7.344913e-08 2.591531e-07 -1.907649e-07 -1.422363e-07
3.473561e-09 9.349128e-08 -8.511220e-08 8.733593e-08 -1.470257e-07 -8.823973e-08
-2.231739e-07 2.342461e-07 4.926045e-07 5.680374e-07 1.240993e-07 1.434649e-07
3.142371e-07 -8.665230e-08 -1.650052e-08 -3.267181e-07 -4.212394e-08 9.000820e-08
-4.190733e-08 3.613428e-07 3.313184e-07 4.553301e-07 -6.440907e-08 -4.609185e-08
1.509299e-07 -4.795506e-09 3.673878e-08 3.245706e-07 -7.781076e-08 -1.777709e-07
1.778745e-07 -6.175274e-08 -3.112627e-08 6.212032e-08 3.936224e-08 1.830327e-07
1.481584e-07 -6.787502e-09 1.293004e-07 3.503600e-07 -4.946819e-08 -1.433895e-08
3.340427e-07 -1.134160e-07 -5.550685e-08 6.319960e-08 -8.312300e-10 9.071681e-08
-2.800708e-08 2.351963e-07 4.619509e-07 6.116422e-07 1.362070e-07 1.211927e-07
1.055464e-07 -1.622725e-09 -6.999688e-08 5.226013e-08 1.570179e-08 3.299677e-08
6.587061e-08 1.026977e-08 -3.455481e-08 2.692160e-08 5.507812e-09 9.679574e-09
7.634227e-08 9.305401e-09 -4.326249e-08 3.933290e-08 1.104918e-08 1.971802e-08
6.255770e-08 1.678969e-08 -3.653118e-08 3.396365e-08 7.697770e-09 1.277511e-08
2.975990e-07 -1.029305e-07 -5.160332e-08 7.509688e-08 2.989791e-08 1.823363e-07
4.382860e-08 1.841453e-08 -2.225264e-08 1.129783e-08 3.347949e-09 1.728629e-09
8.974574e-08 -1.365091e-08 -2.846773e-08 2.012015e-08 6.251610e-09 2.510877e-08
1.156678e-07 -1.537815e-08 -6.241988e-08 4.464318e-08 2.500921e-08 5.843587e-08
7.208000e-07 -3.951739e-07 1.289405e-06 -1.537253e-07 -1.742227e-07 -5.951889e-07
5.607680e-08 -2.612073e-08 -3.524782e-08 1.975892e-08 1.688263e-08 8.360455e-08
5.313991e-07 -4.656275e-07 6.429462e-07 3.052145e-09 -1.179583e-07 -8.329675e-08
1.768827e-07 -1.847639e-08 -8.999648e-08 1.101435e-07 2.765467e-08 6.562017e-08
6.804508e-07 -8.355298e-07 1.248796e-06 -1.067771e-07 5.283936e-08 -2.036974e-07
9.559111e-08 -1.760222e-08 -4.110098e-08 1.312904e-08 7.308742e-09 1.987746e-08
3.715907e-07 -4.406095e-07 8.036488e-07 -3.900513e-07 4.627940e-07 -8.005653e-09
7.258908e-07 -4.637660e-07 6.079585e-07 4.986116e-08 -1.253032e-07 -5.186934e-07
5.854170e-07 -2.029621e-07 -7.317463e-08 -4.095607e-08 1.093004e-08 -2.583815e-07
3.065378e-08 2.638186e-08 -2.575237e-08 1.754975e-08 1.088124e-08 9.746248e-09
5.678377e-07 -4.533029e-07 1.319363e-06 -2.136649e-07 -3.751581e-08 -6.097576e-07
5.764655e-08 3.632086e-09 -2.384815e-08 1.469359e-08 4.453693e-09 9.449528e-09
1.381871e-07 2.226426e-08 -9.014709e-08 -1.041032e-07 -4.039906e-08 6.133349e-08
1.102452e-08 8.329558e-09 -2.816633e-08 -2.684364e-08 -4.946374e-08 5.532085e-08
-3.469158e-08 3.940973e-09 -6.917116e-09 -1.301799e-09 -1.558579e-07 1.148496e-07
6.684554e-08 2.488496e-08 -6.242548e-08 -1.203782e-07 -1.348471e-07 1.405827e-07
-9.292255e-09 8.789416e-08 -3.318630e-08 -8.290923e-08 -1.339014e-07 1.263945e-07
3.709586e-08 2.300096e-08 -2.947440e-08 -2.880906e-08 -2.114872e-08 1.817192e-08
4.264408e-08 8.469751e-08 -1.293764e-08 -1.016367e-07 -1.314733e-07 1.121152e-07
5.677984e-08 3.123831e-07 2.577850e-08 -4.306097e-07 -7.313395e-08 1.333241e-07
-2.013178e-07 2.158350e-07 2.498541e-07 -1.686010e-07 4.491731e-08 4.139297e-08
8.241575e-08 3.922516e-08 -8.175369e-08 -2.497719e-07 -9.492502e-08 8.407817e-08
1.108521e-08 1.337781e-08 -2.798911e-08 -2.011773e-08 -5.050126e-08 5.337237e-08
4.029143e-08 1.583030e-08 4.446660e-07 -4.642599e-07 5.261676e-09 -5.301346e-08
-1.788170e-08 5.659182e-08 -5.764411e-08 -1.042367e-07 -1.239093e-07 1.129248e-07
-2.114740e-08 1.735490e-07 1.830767e-08 -2.622065e-07 -1.202149e-07 9.113658e-08
-2.027814e-08 7.065343e-08 -5.516914e-08 -1.152092e-07 -1.448579e-07 8.528181e-08
5.819371e-08 1.117408e-07 -8.555607e-08 -1.348932e-07 -1.190706e-07 1.014204e-07
9.209224e-09 1.083945e-07 -9.320472e-08 -1.355909e-07 -9.192503e-08 6.513149e-08
4.403704e-08 1.350372e-07 -1.029816e-07 -1.775674e-07 -8.992020e-08 7.960275e-08
-3.475217e-08 1.595202e-07 -7.887960e-08 -1.969791e-07 -1.201862e-07 8.792755e-08
-1.120702e-08 5.729995e-08 -6.336612e-08 -6.515491e-08 -8.805220e-08 6.850236e-08
-3.481861e-08 6.278811e-11 -3.666876e-08 6.535576e-09 -1.190830e-07 6.429992e-08
-2.309575e-08 6.873962e-08 -4.436587e-08 -3.750417e-08 -1.085996e-07 8.742018e-08
6.209650e-08 5.688511e-08 -6.614760e-08 -1.183758e-07 -9.718352e-08 7.183000e-08
6.148520e-08 1.109651e-07 -1.055905e-07 -1.359472e-07 -7.280462e-08 5.870180e-08
2.276789e-08 9.366132e-08 -7.284079e-08 -7.681398e-08 -3.997224e-08 3.178721e-08
-7.390031e-09 7.724313e-08 -4.758733e-08 -5.756592e-08 -8.031845e-08 5.440718e-08
1.325422e-08 2.704870e-08 -3.612776e-08 -2.178437e-08 -3.766815e-08 3.263162e-08
2.263042e-08 5.668844e-08 -6.381241e-08 -6.516686e-08 -8.858286e-08 6.918549e-08
-1.375685e-08 1.146061e-08 -4.052688e-08 -2.450558e-08 -8.446530e-08 7.206686e-08
3.019212e-08 3.100330e-08 -4.485569e-08 -6.112854e-08 -9.603250e-08 8.653064e-08
-1.028091e-07 2.392475e-07 -9.975089e-08 -8.435541e-08 -1.069048e-07 3.268835e-08
6.147000e-08 1.219900e-08 -4.104702e-08 3.755403e-08 1.442288e-08 2.829879e-08
6.133641e-08 1.017524e-08 -4.038743e-08 2.908847e-08 1.465913e-08 2.436338e-08
7.869225e-08 6.120092e-09 -4.525705e-08 -3.402199e-08 -8.924451e-09 1.609210e-08
6.152615e-08 6.062213e-09 -2.777121e-08 -1.596364e-08 -2.849763e-09 5.861024e-09
7.451001e-08 2.199743e-09 -4.594339e-08 -3.726721e-08 -1.478929e-08 2.859179e-08
6.090896e-08 -3.363547e-09 -2.856707e-08 -1.714790e-08 -9.959701e-09 2.179864e-08
5.190841e-08 1.208333e-08 -2.858281e-08 3.156621e-08 1.672550e-08 2.474745e-08
7.595512e-08 5.684714e-10 -3.912658e-08 3.424969e-08 1.583309e-08 2.508761e-08
5.691961e-08 8.417457e-09 -2.997683e-08 3.725152e-08 2.466454e-08 4.449708e-08
1.007342e-07 -1.735821e-08 -4.294400e-08 -2.249349e-08 -5.160928e-09 1.876696e-08
7.080111e-08 3.751958e-09 -3.075034e-08 3.660478e-08 2.183930e-08 4.048664e-08
5.240395e-08 1.439277e-08 -2.427934e-08 1.453169e-08 1.599355e-09 3.902913e-09
7.607158e-08 -5.434904e-09 -2.637746e-08 -1.781770e-08 -6.703093e-09 1.546426e-08
8.885941e-08 -7.887856e-09 -3.868327e-08 -2.417835e-08 -2.189984e-09 1.760511e-08
8.458241e-08 -8.881917e-09 -3.724085e-08 -1.936476e-08 -8.144408e-09 1.321192e-08
1.305782e-07 -1.161638e-08 -8.989550e-08 8.038885e-08 3.879124e-08 6.954307e-08
5.823336e-08 -9.975815e-09 -3.189442e-08 2.399490e-08 1.620485e-08 3.537887e-08
8.910901e-08 1.112278e-08 -6.519243e-08 5.661636e-08 2.748300e-08 3.558256e-08
9.952856e-08 -6.704459e-10 -7.471928e-08 5.590706e-08 2.594843e-08 5.117290e-08
7.892035e-08 -1.709894e-09 -3.745179e-08 -2.448790e-08 -1.131129e-09 1.561043e-08
6.058891e-08 6.194473e-09 -4.953040e-08 4.629553e-08 3.279852e-08 6.457175e-08
-7.570086e-09 2.684208e-08 -3.806869e-08 -1.863779e-08 -5.341846e-08 4.036258e-08
6.098823e-08 2.155734e-09 -2.827714e-08 3.221645e-08 1.139476e-08 2.414718e-08
2.569904e-08 5.576080e-08 -5.056953e-08 -4.984876e-08 -5.749849e-08 4.709773e-08
6.586272e-10 -1.632297e-09 -3.339881e-08 -2.326973e-08 -1.042396e-07 1.232573e-07
5.169156e-08 1.932147e-08 -5.049782e-08 -4.168278e-08 -1.652748e-08 2.244321e-08
1.581406e-07 -3.472938e-08 -6.437748e-08 4.700908e-08 1.971798e-08 7.420408e-08
2.181146e-07 -5.252564e-08 -7.883311e-08 1.100602e-07 4.190456e-08 1.106880e-07
2.659251e-08 1.151102e-07 -1.065401e-07 -1.221155e-07 -7.030444e-08 5.638719e-08
1.454060e-07 -5.037804e-08 -3.965288e-08 5.157940e-08 3.508740e-08 1.342271e-07
2.527841e-07 -8.292465e-08 -8.780667e-08 1.386169e-07 1.807955e-08 1.086467e-07
5.468068e-08 5.668354e-08 -6.543521e-08 -6.374636e-08 -3.220960e-08 3.103179e-08
-6.146765e-09 1.684798e-08 -4.126997e-08 -1.754454e-08 -7.899051e-08 7.618615e-08
5.500899e-08 7.825268e-09 -2.342570e-08 1.596599e-08 7.077996e-09 9.317477e-09
2.299631e-07 -1.048038e-07 -2.806788e-08 4.454457e-08 3.630866e-08 1.650958e-07
1.735061e-07 -6.445972e-08 -6.132926e-08 5.657960e-08 1.847787e-08 1.100729e-07
3.327911e-08 2.631756e-08 -2.539782e-08 1.686524e-08 1.077335e-08 1.090179e-08
1.820228e-08 -6.584050e-08 -3.765361e-09 3.548367e-08 2.933517e-08 1.445655e-07
2.214751e-07 -4.621168e-08 -4.121832e-08 2.688255e-08 3.770686e-08 1.674803e-07
6.507330e-08 8.814446e-09 -3.583533e-08 2.456635e-08 7.770959e-09 1.460514e-08
1.656188e-07 -3.086290e-08 -5.214288e-08 5.322150e-08 5.906235e-08 1.409549e-07
-6.365436e-08 -5.214723e-08 2.824048e-07 -9.117749e-09 4.239153e-08 8.029743e-08
-1.550853e-09 7.680533e-08 -6.661687e-08 -4.911201e-08 1.007679e-07 -5.428314e-08
5.964234e-08 7.674002e-09 -2.810126e-08 1.699623e-08 4.528915e-09 7.859656e-09
-1.498172e-08 7.547234e-08 -6.115979e-08 -2.791670e-08 7.379366e-08 -2.915813e-08
-3.133955e-08 -5.528277e-08 -1.443890e-08 -5.885972e-09 -1.401910e-07 -1.649353e-09
-3.538097e-08 -4.271612e-08 -2.364226e-08 -3.052836e-08 -1.576528e-07 -3.141045e-08
-3.077977e-08 -1.160946e-07 7.468921e-08 -2.124141e-08 -1.874210e-07 -2.326627e-08
-2.643906e-08 3.029960e-08 -2.816587e-08 2.929754e-09 7.139989e-08 -3.302579e-08
-1.975105e-07 3.922125e-07 -8.874946e-08 5.742531e-08 -1.801260e-07 -1.305355e-08
-3.870895e-08 -8.296868e-08 4.320898e-08 -5.509733e-08 -1.772683e-07 3.422888e-09
-8.972013e-08 2.048222e-07 -9.859145e-08 -6.429456e-08 1.049950e-07 -4.755421e-08
-3.629675e-09 1.630626e-07 -1.031905e-07 -9.198390e-08 9.450361e-08 -3.108784e-08
-1.029249e-08 8.167954e-08 -4.259504e-08 -3.449422e-08 1.307224e-07 -5.883231e-08
-9.732019e-08 1.789850e-07 -5.202208e-08 -4.601165e-08 -1.428842e-07 6.051661e-08
1.397316e-07 -3.591708e-08 -4.710833e-08 6.207216e-09 7.256698e-10 4.176341e-08
1.345703e-07 -4.526150e-08 -4.699517e-08 -2.120209e-09 3.058880e-09 4.258881e-08
1.131518e-07 -3.531715e-08 -3.691310e-08 -8.413304e-10 -2.320797e-09 3.515503e-08
3.917614e-08 -1.826680e-08 -3.466199e-08 2.472670e-08 3.866410e-08 8.906189e-08
4.470827e-08 1.848860e-08 -2.225264e-08 1.081545e-08 1.308874e-09 3.740238e-09
6.300901e-08 -1.504561e-08 -3.496970e-08 2.043640e-08 1.221257e-08 3.875840e-08
3.249964e-08 9.504855e-08 -9.183291e-08 1.115132e-07 7.444440e-08 4.938966e-08
1.298120e-07 -3.061925e-08 -6.361427e-08 1.745162e-08 4.595653e-09 4.053834e-08
1.309032e-07 -3.869818e-08 -6.350564e-08 1.539752e-08 2.225465e-09 4.107467e-08
9.595227e-08 -1.319193e-08 -3.687736e-08 2.422810e-08 4.254640e-09 1.671846e-08
1.613691e-07 -3.194369e-08 -6.694794e-08 3.299810e-08 9.099240e-09 4.330538e-08
-1.409797e-06 -2.840482e-07 6.349172e-06 -9.748502e-07 5.563419e-07 -3.566688e-06
2.795025e-07 -1.817661e-08 -7.109039e-08 2.728475e-07 6.420637e-08 1.171446e-07
6.698880e-08 -9.943417e-09 -2.783227e-08 1.720399e-08 7.247154e-09 2.275682e-08
1.314125e-07 -2.989020e-08 -5.545178e-08 -2.028795e-08 -9.607129e-09 5.140565e-08
1.453575e-07 -3.015400e-08 -8.404632e-08 1.329743e-07 5.914471e-08 9.802365e-08
1.619382e-07 -4.811783e-08 -6.967551e-08 2.895566e-08 5.139089e-09 4.586239e-08
9.849417e-08 -2.306511e-08 -2.920330e-08 6.052114e-09 8.811292e-10 2.105203e-08
-1.125922e-09 -2.314795e-08 -2.748058e-08 2.904686e-08 9.431401e-08 1.382476e-07
7.675504e-09 -7.621565e-08 6.828672e-10 3.639620e-08 7.234908e-08 1.221632e-07
1.290942e-07 -3.194369e-08 -5.709848e-08 2.645083e-08 5.512972e-09 2.904741e-08
-3.059979e-08 2.184011e-07 -1.103738e-07 1.504300e-07 1.064963e-07 4.195684e-08
-7.000995e-08 2.211243e-07 -9.721579e-08 1.164181e-07 1.004731e-07 2.800506e-08
1.116403e-07 4.142864e-08 -3.957444e-08 1.269752e-07 9.916969e-08 1.642821e-07
-1.019644e-07 1.513061e-07 -4.210845e-08 3.820278e-08 1.831144e-07 1.819726e-08
-1.530113e-07 4.127075e-07 6.814098e-09 2.375917e-07 1.111679e-07 5.449768e-08
1.347461e-07 -1.077263e-08 -8.256411e-08 1.138919e-07 4.580369e-08 9.611213e-08
9.475881e-08 -3.293204e-08 -3.567296e-08 5.210333e-08 6.985160e-08 1.465253e-07
2.837083e-07 2.348412e-08 -1.036370e-07 2.974871e-07 7.650451e-08 1.050522e-07
7.215710e-09 6.179462e-08 -4.733483e-08 1.139359e-07 7.372580e-08 1.213352e-07
1.173122e-08 4.925599e-08 -3.748973e-08 1.622136e-07 9.503223e-08 1.038881e-07
-7.248236e-09 -4.897048e-08 -3.595685e-09 6.930593e-08 7.522957e-08 1.770915e-07
2.385155e-08 4.600562e-08 -6.581002e-08 6.179552e-08 8.366370e-08 7.701138e-08
1.190851e-07 -2.584125e-08 -4.341354e-08 3.942068e-08 4.130945e-08 9.600752e-08
3.419099e-07 -2.330962e-07 5.079224e-07 -4.765103e-07 -1.326333e-07 2.154825e-07
2.379345e-07 -5.968716e-08 -9.029235e-08 -8.296512e-08 -3.468717e-08 1.420143e-07
9.378300e-09 1.044361e-07 -7.150477e-08 1.040586e-07 8.889310e-08 6.333733e-08
2.642204e-07 -6.548579e-08 -9.839424e-08 -8.688635e-08 -9.645836e-09 8.661342e-08
1.631055e-07 -5.596474e-08 -3.839248e-08 -4.104892e-08 -2.853686e-08 7.963354e-08
-1.961505e-08 -5.545263e-09 -1.826652e-08 1.394739e-08 1.149190e-07 9.185343e-08
2.212196e-07 -8.102549e-08 -8.447928e-08 -1.057118e-07 -3.192049e-08 1.328152e-07
-4.932353e-07 6.329514e-07 1.018622e-07 -2.824062e-08 -1.329740e-07 -1.211555e-08
-8.597821e-08 2.690084e-07 -6.628070e-08 -1.570455e-07 -1.073053e-07 2.113135e-08
3.103563e-07 -1.292834e-07 2.699476e-07 -7.222891e-08 -4.718637e-08 8.880247e-08
-2.052645e-08 1.055598e-07 -4.628412e-08 -7.340267e-08 -1.688765e-07 9.206212e-08
-5.835647e-08 -5.329336e-08 3.578313e-08 -4.005654e-08 -1.460056e-07 9.346943e-08
-6.054525e-08 2.610102e-09 -1.606243e-08 5.096446e-09 -1.426219e-07 1.410599e-07
-6.030509e-08 3.281246e-07 1.430831e-08 -3.479784e-07 -1.585365e-07 6.940307e-08
4.962479e-08 -1.576276e-07 4.300538e-08 8.728126e-09 -5.275250e-08 2.016423e-07
-6.419556e-08 2.353347e-07 -8.627693e-08 -3.943279e-08 -2.098564e-07 5.830254e-08
-3.709090e-08 -3.188689e-08 9.089564e-09 2.183784e-08 -2.173274e-07 3.429915e-08
1.355425e-07 -4.499780e-08 -6.487088e-08 -8.487459e-10 1.507333e-09 4.691024e-08
8.274487e-08 -3.351133e-08 -3.969967e-08 -1.912200e-09 -3.295241e-09 4.587305e-08
7.541199e-08 -3.495980e-08 -3.990962e-08 -9.681586e-09 -8.664032e-09 8.521540e-08
7.497158e-08 -2.823558e-08 -3.926579e-08 -1.083102e-08 -9.348423e-09 5.696295e-08
-1.099413e-07 1.956604e-07 -3.366343e-08 5.487198e-08 1.772686e-07 7.039856e-08
-2.356866e-07 3.270375e-07 4.156436e-07 -4.066968e-07 1.046556e-07 -7.286576e-08
-2.653241e-07 3.108165e-07 3.552626e-07 8.754946e-08 1.241970e-07 -4.161084e-08
1.147214e-07 -3.914738e-08 -3.596188e-08 8.907199e-09 -7.375218e-10 5.989314e-08
-7.357632e-08 1.961584e-07 -8.595989e-08 6.595846e-08 1.298081e-07 2.512124e-08
1.387489e-07 -4.255833e-08 -6.441904e-08 3.651258e-09 1.402481e-10 4.312308e-08
-2.246326e-07 4.238988e-07 -8.277293e-08 1.244918e-07 1.313762e-07 1.081923e-08
9.199747e-08 -2.731485e-08 -4.385780e-08 1.716028e-08 5.949710e-09 4.089622e-08
1.230927e-07 -2.694694e-08 -4.552192e-08 2.073762e-08 6.113473e-09 4.501968e-08
1.004192e-07 -2.080779e-08 -3.799750e-08 1.090389e-08 3.126822e-09 2.620518e-08
-2.991257e-07 4.408314e-07 1.110043e-07 -1.168264e-08 8.634719e-08 4.804385e-08
-2.342768e-07 -1.276470e-08 2.132534e-06 -3.493292e-08 -1.559916e-06 -8.308447e-07
1.029121e-07 -3.007817e-08 -5.177981e-08 2.434593e-08 1.201592e-08 5.473502e-08
-1.652908e-07 2.331474e-07 1.641655e-07 1.544959e-07 9.075742e-08 -4.161839e-09
-3.837210e-07 5.366452e-07 2.446005e-07 1.097773e-07 1.320949e-07 3.110657e-08
9.251375e-08 -2.669281e-08 -5.163808e-08 2.840508e-08 1.165166e-08 5.268089e-08
1.168450e-07 -2.392599e-08 -4.714449e-08 2.126319e-08 1.045205e-08 4.452699e-08
9.241314e-08 -2.329028e-08 -3.004406e-08 2.166731e-08 9.230571e-09 4.027096e-08
-6.201670e-08 -7.092580e-09 5.270441e-08 -1.990549e-08 -1.762248e-07 9.307646e-08
-1.660370e-07 4.268522e-07 -1.825995e-10 -4.627918e-08 -1.912724e-07 1.767824e-08
-3.850196e-07 4.969815e-07 1.648185e-07 1.432560e-07 1.291323e-08 8.910283e-08
-2.231807e-07 3.838458e-07 1.243138e-07 -4.719634e-07 2.564106e-08 -2.408544e-08
-8.836104e-08 1.916784e-07 2.153591e-07 -2.925330e-07 2.273213e-08 -2.746123e-08
-3.888914e-07 5.445047e-07 2.852301e-07 2.884923e-07 2.631083e-08 -7.905689e-09
-6.661429e-08 -1.806777e-08 5.513501e-08 -1.221190e-08 -1.154759e-07 1.237871e-07
5.271720e-07 -3.975088e-07 3.031379e-07 1.717561e-09 -3.151668e-08 1.074169e-07
-4.757084e-07 5.912852e-07 5.194052e-07 1.408038e-07 6.263761e-08 1.092254e-07
-2.338690e-07 1.638948e-07 2.449299e-07 -1.015450e-08 -3.327742e-07 7.913337e-08
-2.857261e-07 4.571057e-07 3.213961e-07 9.920104e-08 8.144996e-08 6.121541e-08
2.883398e-07 -1.720959e-07 2.223677e-08 2.802059e-08 6.396847e-09 6.584715e-08
2.169756e-07 -8.235767e-08 -9.527164e-08 4.910832e-09 -1.677259e-09 7.221016e-08
2.612763e-07 -9.616976e-08 -1.019907e-07 -5.801393e-08 -1.628193e-08 9.474152e-08
-4.909699e-07 7.316934e-07 6.672223e-07 -1.508993e-08 -1.867556e-08 -5.699569e-08
3.633212e-07 -1.136516e-07 -9.655309e-08 -1.780110e-08 -5.125215e-09 6.514466e-08
1.092325e-07 -2.835025e-08 -4.851196e-08 8.235063e-09 1.328858e-09 2.735303e-08
-4.640607e-07 5.755219e-07 4.325416e-07 3.495629e-07 9.560378e-08 -1.882469e-08
2.610079e-08 2.440283e-08 -3.397645e-08 -3.783432e-08 -3.942100e-08 4.634584e-08
5.404681e-08 1.206264e-08 -3.163133e-08 -4.347952e-08 -3.068981e-08 4.000797e-08
3.864621e-08 2.025164e-08 -5.518063e-08 -4.446480e-08 -4.234096e-08 5.031687e-08
4.243631e-08 2.201730e-08 -3.347933e-08 -3.572380e-08 -3.075519e-08 3.442521e-08
2.863630e-08 1.760389e-08 -5.246484e-08 -4.819817e-08 -5.886367e-08 6.544825e-08
3.364055e-07 -1.509110e-07 -9.919575e-08 7.827942e-08 2.342843e-08 1.141832e-07
2.770744e-07 -1.136732e-07 -1.094314e-07 -1.349770e-08 -6.900861e-09 9.855124e-08
1.381776e-07 -6.092273e-08 -3.566417e-08 -1.284773e-08 -1.528412e-08 1.150409e-07
1.398916e-07 -4.758716e-08 -5.106699e-08 2.807473e-08 2.270001e-08 1.025756e-07
4.605253e-08 3.458162e-08 -6.061035e-08 -5.359357e-08 -3.034800e-08 3.363039e-08
4.383363e-08 4.721292e-08 -5.474602e-08 -6.404533e-08 -5.675519e-08 5.588659e-08
4.522079e-07 -1.508445e-07 -6.451572e-08 9.536120e-08 2.724794e-08 1.428614e-07
3.516965e-07 -1.684219e-07 -9.063751e-08 7.928217e-09 1.464790e-08 1.179221e-07
6.213525e-08 4.440812e-08 -5.704633e-08 -7.139372e-08 -5.297063e-08 5.562970e-08
6.175408e-08 3.618539e-08 -5.587470e-08 -6.839872e-08 -5.319179e-08 5.662444e-08
3.686350e-07 -1.122860e-07 -9.114111e-08 3.877256e-08 1.377787e-08 1.173752e-07
-2.136665e-09 3.974345e-09 -3.336364e-08 2.565964e-08 8.871922e-08 9.282542e-08
-3.097857e-08 3.785273e-09 1.445443e-09 1.841339e-08 1.825079e-07 1.830812e-07
-5.143868e-08 1.408295e-08 3.530295e-08 1.495130e-08 4.690212e-08 3.403723e-08
4.676211e-08 2.925965e-08 -6.356776e-08 -8.874573e-08 -8.476704e-08 8.212588e-08
7.488031e-08 4.508165e-08 -7.008962e-08 -7.705520e-08 -3.748346e-08 3.118699e-08
1.080919e-07 6.742887e-08 2.562594e-07 5.277558e-07 9.630969e-09 -4.658837e-09
-3.066272e-07 4.031032e-07 1.659100e-07 1.584909e-07 2.290776e-08 1.150689e-08
-1.760457e-07 2.162546e-07 8.716584e-08 2.282782e-08 1.386098e-07 -7.294371e-09
4.937593e-08 8.888713e-08 -5.029626e-08 1.169490e-07 1.165028e-07 1.332412e-07
1.103128e-07 6.869459e-08 4.449614e-07 4.733034e-07 -1.796671e-07 -1.590377e-07
1.170450e-07 1.134310e-07 -1.015664e-07 2.190416e-07 7.296889e-08 6.784502e-08
-1.773855e-07 3.015018e-07 3.194633e-07 -2.916586e-07 1.668893e-07 -9.186991e-08
-3.125980e-07 -2.567987e-08 3.307433e-07 -1.073870e-08 2.854311e-08 -5.964522e-08
-1.077944e-07 2.663882e-07 2.313115e-08 8.297412e-08 1.818712e-07 4.462376e-08
-2.086886e-06 3.814747e-07 4.269438e-06 -7.267451e-08 -2.705662e-06 -5.977544e-07
1.874735e-07 -4.137125e-08 -6.998470e-08 1.249223e-07 6.942907e-08 7.186336e-08
-1.067544e-07 3.371752e-07 -3.724245e-08 9.661945e-08 9.460955e-09 -1.624852e-08
1.022193e-07 -4.959279e-08 9.185667e-08 1.387280e-07 7.116118e-08 1.842703e-07
2.294662e-07 6.532067e-08 1.223577e-07 4.075926e-07 7.602065e-08 8.630660e-08
-4.792622e-07 4.485799e-07 6.851583e-07 3.514903e-07 -1.754551e-07 -3.262787e-08
-3.086890e-07 1.979326e-07 1.187729e-06 6.002697e-07 -8.670889e-07 -8.195573e-07
-3.596868e-08 -5.634388e-09 6.861931e-08 2.825231e-08 5.467559e-08 1.197155e-07
-1.789528e-07 3.047329e-07 1.336447e-07 1.994836e-08 1.339483e-07 4.780003e-08
-1.001821e-08 3.637482e-08 5.471123e-07 -4.167983e-07 -2.822934e-08 1.849957e-07
-2.262383e-07 3.251575e-07 5.320091e-07 -1.910628e-07 2.026632e-09 1.401665e-07
-2.853347e-07 -1.361831e-06 3.644781e-06 3.660821e-07 -7.100084e-07 -1.254525e-06
-3.625639e-09 2.750809e-07 7.386528e-09 1.142569e-07 1.877609e-07 5.293720e-08
-4.828696e-08 1.344098e-07 -8.900912e-08 3.669848e-08 -5.935945e-08 -4.225769e-08
-1.824982e-08 1.001700e-07 -9.439847e-08 4.006402e-08 -7.882664e-08 -3.994858e-08
-4.291112e-07 5.459048e-07 3.586041e-07 7.269175e-08 8.616722e-09 4.524970e-08
-3.345568e-08 1.325228e-07 -4.706376e-08 5.046572e-09 1.504598e-07 8.553494e-10
-7.850828e-08 -1.041566e-09 -9.536215e-09 2.215805e-09 1.870607e-07 2.317023e-08
-1.030772e-07 -4.541884e-08 5.337575e-08 1.985881e-08 2.018774e-07 1.232207e-08
-9.789342e-08 2.929544e-07 -8.169012e-08 5.730576e-08 1.544618e-07 3.241416e-08
2.097562e-08 3.288628e-08 -4.183091e-08 -8.129619e-08 -9.844753e-08 1.083523e-07
4.304751e-08 1.946493e-08 -5.967671e-08 -8.598105e-08 -6.831934e-08 8.520176e-08
6.512605e-08 1.928431e-07 -1.071414e-07 2.125599e-07 -1.055385e-07 -7.427247e-08
3.975759e-08 3.580031e-08 -4.028788e-08 -4.733811e-08 -6.804147e-08 6.120546e-08
-5.084127e-08 5.351012e-08 -3.491846e-08 1.317304e-07 -1.937376e-07 -1.116885e-07
5.654531e-08 5.212179e-08 -8.980435e-08 -1.083367e-07 -5.025376e-08 5.574457e-08
5.341032e-08 3.214828e-08 -6.587643e-08 -9.373383e-08 -8.645085e-08 8.249066e-08
-1.118559e-08 -2.867943e-08 -1.163834e-09 3.014941e-08 -8.630214e-08 -5.730757e-08
5.299501e-08 6.841554e-08 -6.717989e-08 -8.822052e-08 -8.400039e-08 8.150621e-08
7.093401e-08 4.195608e-08 -8.790140e-08 -8.704325e-08 -5.352382e-08 6.828767e-08
3.726344e-07 -3.038837e-07 2.001310e-07 2.671064e-07 2.326169e-08 -1.405406e-07
2.850957e-08 2.476871e-08 -3.962569e-08 -4.661613e-08 -6.867688e-08 6.381649e-08
-4.337250e-08 7.780935e-08 -4.138290e-08 -3.536141e-08 1.011238e-07 7.659210e-09
5.402387e-07 -3.414769e-07 1.058926e-06 3.402403e-07 8.591194e-08 7.347181e-07
2.185256e-08 6.746410e-08 -6.776228e-08 -9.397907e-08 -8.305510e-08 8.607689e-08
4.993986e-09 -6.002174e-08 6.305729e-07 3.524842e-08 -2.455030e-08 -2.113219e-07
-3.610718e-08 9.054354e-09 -2.819902e-08 1.035769e-08 1.533114e-07 -4.109027e-08
4.225813e-09 1.126672e-07 -8.823813e-08 -6.054508e-08 6.291491e-08 -3.568103e-08
-3.605978e-08 -1.819600e-08 -1.881694e-08 1.882798e-08 1.381013e-07 -4.468463e-08
-3.085835e-08 4.019661e-08 -3.150472e-08 8.057394e-09 7.099084e-08 1.822457e-08
5.145727e-08 6.930905e-08 -8.691556e-08 9.485368e-08 5.866362e-08 4.694699e-08
-3.824539e-08 1.758648e-07 -7.831282e-08 4.590873e-08 6.430406e-08 1.618346e-08
3.559169e-08 4.678932e-08 -6.322351e-08 4.737237e-08 3.057185e-08 2.616924e-08
1.767758e-08 4.298674e-08 -6.535547e-08 6.965170e-08 8.647526e-08 7.631694e-08
4.026429e-08 5.409909e-08 -7.809885e-08 7.627698e-08 4.216126e-08 4.024764e-08
-6.319922e-08 1.763331e-07 -8.595816e-08 -1.491027e-08 7.428758e-08 -1.975173e-08
6.492240e-08 4.323136e-08 -6.988692e-08 7.459341e-08 3.941908e-08 3.732971e-08
5.484926e-08 6.811721e-08 -9.096979e-08 1.156937e-07 5.499235e-08 5.948715e-08
-6.954614e-08 1.950930e-07 -9.733744e-08 -2.975631e-08 9.299396e-08 -1.124332e-08
-8.547081e-08 1.632217e-07 -1.961423e-08 -1.440829e-07 -1.439831e-07 6.250146e-08
-5.335936e-08 1.769346e-07 -8.519316e-08 -4.507493e-08 7.359486e-08 -9.703442e-09
-5.807985e-08 1.424877e-07 -1.243163e-08 -2.634843e-08 -2.445536e-07 8.314242e-08
-6.284191e-08 1.272345e-07 -7.328982e-08 -2.697540e-08 1.206712e-07 -2.264354e-08
-1.214803e-07 2.755961e-07 -6.198491e-08 -1.556311e-07 -9.469629e-08 5.049055e-08
-7.956390e-08 3.135317e-07 -6.182849e-08 -2.138820e-07 -1.296147e-07 7.070304e-08
-5.975118e-08 1.452786e-07 -7.734091e-08 -5.638613e-08 -1.954298e-07 1.001352e-07
-7.644201e-08 2.700513e-07 2.756023e-09 -2.224485e-07 -2.094516e-07 1.398547e-07
-7.928877e-08 2.595595e-07 -1.682463e-09 -2.169826e-07 -7.112156e-08 6.658038e-08
-2.181531e-07 3.575626e-07 8.186917e-08 -1.228622e-07 -4.591562e-08 7.320716e-08
-3.159602e-08 1.896064e-07 -5.112411e-09 -1.957896e-07 -1.428989e-07 9.039148e-08
-4.330712e-07 2.895828e-07 5.121013e-07 -1.801247e-07 -8.653070e-08 -1.998534e-09
-2.817066e-07 4.249593e-07 9.043535e-08 -2.655267e-08 -8.280791e-08 5.354051e-08
-3.112274e-08 9.629069e-08 -7.568697e-08 -3.152753e-08 7.209737e-08 -3.670673e-08
-4.846008e-08 5.477216e-07 2.774906e-07 -1.066478e-07 3.300249e-09 4.579375e-08
-2.984587e-07 6.182837e-07 2.919419e-07 -6.092601e-08 1.371327e-07 1.374566e-08
6.732396e-08 -3.812328e-08 -3.910117e-08 -1.183575e-08 -1.768283e-08 1.327286e-07
-1.254647e-07 2.196041e-07 1.749555e-08 -3.129666e-08 -1.940561e-07 -7.084570e-09
-1.459923e-07 4.014199e-07 6.302098e-09 -1.914500e-08 -3.755527e-08 5.917436e-08
2.673372e-07 -7.033968e-08 -9.140658e-08 4.034695e-08 1.351852e-08 9.981116e-08
-8.076465e-08 7.704799e-08 1.284473e-07 3.194232e-08 -2.262537e-07 -2.208123e-08
2.867082e-07 -8.235686e-08 -9.004233e-08 3.873542e-09 -1.287396e-09 5.210950e-08
1.028357e-07 -3.827662e-08 -3.242582e-08 1.740032e-08 5.147902e-09 5.249597e-08
-4.157247e-07 8.297668e-09 1.861559e-06 -1.173648e-06 -1.137876e-06 9.171851e-07
7.511182e-07 -7.213947e-07 1.429952e-06 3.677152e-07 -2.167621e-07 -8.901989e-07
3.266098e-07 -8.809465e-08 -9.880587e-08 8.741543e-08 2.959904e-08 1.135296e-07
1.684875e-07 -4.890970e-08 -6.818569e-08 1.800154e-08 4.985061e-09 7.970052e-08
8.886989e-08 -3.653968e-07 1.389959e-06 4.167314e-07 -3.562583e-07 -6.608240e-07
-4.578612e-07 -6.472543e-07 2.222432e-06 -7.399595e-07 5.812184e-07 -9.438704e-07
1.737903e-07 1.998418e-07 2.668855e-07 6.315242e-07 1.471016e-07 1.431562e-07
-8.896237e-07 -4.532962e-08 3.597955e-06 -8.797159e-07 -1.640198e-06 9.150169e-07
1.018535e-07 -2.378870e-07 7.754813e-07 1.043894e-06 5.873119e-07 1.024093e-06
-5.873359e-07 6.944683e-07 8.595894e-07 -2.826102e-07 -1.934869e-06 8.756221e-07
-7.442730e-07 6.125045e-07 1.661229e-06 -5.387097e-07 -1.218953e-06 4.923409e-07
-9.391576e-07 -1.158239e-07 4.693873e-06 -2.843867e-07 -3.165868e-06 1.967415e-06
6.023917e-08 -7.161168e-08 1.242157e-07 1.229716e-07 -6.459472e-08 2.555167e-08
1.844752e-07 1.321247e-07 1.685640e-07 -2.835094e-07 -5.376477e-07 4.874312e-07
-9.456763e-07 4.590297e-07 1.639234e-06 -7.983625e-07 -1.160542e-06 5.836690e-07
1.341300e-07 -2.051699e-07 1.060501e-06 -4.536534e-07 -2.636630e-07 3.887092e-07
-5.549672e-07 5.400026e-08 1.767506e-06 -6.967734e-07 5.745656e-07 -4.802363e-07
-4.940610e-07 7.538293e-07 4.906822e-07 -3.369185e-08 -4.413877e-08 2.648138e-08
-2.013736e-07 3.909356e-07 7.703282e-09 -1.853303e-07 -1.579657e-08 1.653011e-07
8.469732e-10 -1.394777e-07 8.703216e-08 -4.200542e-09 -9.776655e-08 9.387543e-08
-4.382061e-07 5.810672e-07 3.848225e-07 1.883647e-07 -1.247545e-07 -5.173746e-09
3.589415e-08 1.185298e-08 -2.203946e-08 -7.822998e-08 -9.652124e-08 1.241703e-07
4.214116e-08 4.787496e-08 -7.584661e-08 -7.015045e-08 -3.957062e-08 4.521584e-08
1.963705e-08 3.269129e-08 -3.811112e-08 -3.396951e-08 -4.240859e-08 3.739416e-08
7.653262e-10 1.175580e-08 -3.204218e-08 -2.445476e-08 -5.312743e-08 4.584642e-08
9.024782e-08 -2.670689e-08 -3.026907e-08 8.760109e-10 -3.564029e-09 2.555485e-08
1.839861e-07 2.607323e-09 -9.066574e-08 2.071942e-07 6.299397e-08 1.181630e-07
2.113877e-07 -5.167345e-08 -8.502624e-08 -2.969292e-08 -1.378092e-08 7.119818e-08
5.466514e-08 9.335967e-09 -4.920496e-08 -4.154761e-08 -2.478117e-08 3.725519e-08
1.683538e-07 -6.134998e-08 -7.565999e-08 -9.401301e-09 -3.838464e-09 5.824110e-08
2.872664e-07 -8.010861e-08 3.465898e-07 3.828681e-07 -6.597914e-08 -2.089609e-08
6.170363e-08 2.455282e-08 2.897879e-07 -9.716850e-08 7.273499e-08 -2.446876e-07
2.306224e-07 -9.767846e-08 1.298763e-07 4.442321e-07 8.871736e-08 7.451361e-08
8.900227e-08 9.877880e-08 2.163972e-08 3.281583e-07 8.966611e-09 4.616381e-08
1.405746e-07 3.190276e-09 -6.700280e-08 2.234044e-07 1.031609e-07 6.957560e-08
-6.987249e-08 1.874296e-07 2.736445e-07 -3.014370e-07 6.767101e-09 5.366589e-09
3.852993e-07 -8.457653e-07 1.227086e-06 -4.746422e-07 2.459198e-08 -4.467110e-07
-1.209696e-06 -2.046790e-06 5.843906e-06 7.782957e-08 -3.005476e-08 -2.394628e-06
1.159101e-07 9.426912e-08 -8.918466e-08 2.384659e-07 9.794537e-08 1.495172e-07
-3.068427e-08 3.472462e-08 -4.575813e-08 3.629888e-09 1.116090e-07 1.620357e-08
-5.380940e-08 -5.415244e-08 9.091403e-08 2.822847e-08 -1.311112e-07 4.762959e-08
4.427547e-08 1.205367e-07 -3.353360e-08 2.132994e-07 1.818064e-07 1.120754e-07
6.770418e-08 1.302870e-07 -2.500701e-08 2.965992e-07 8.398599e-08 7.114717e-08
9.054427e-08 1.396705e-07 4.222230e-07 -5.968534e-07 -1.147320e-08 -8.844364e-08
7.000704e-08 -2.926152e-08 -3.677421e-08 -1.539516e-08 -1.265843e-08 5.763780e-08
-1.300293e-07 1.521655e-07 -5.351497e-08 5.258503e-08 -2.062291e-07 -2.842324e-08
1.844116e-07 -6.261560e-08 -8.553173e-08 9.337828e-08 2.155972e-08 8.613053e-08
-2.620749e-07 4.579641e-07 4.522363e-08 1.540707e-07 -1.835173e-07 -3.962612e-08
2.094287e-07 -3.250801e-08 -9.047055e-08 8.454389e-08 3.030832e-08 7.194548e-08
-1.041381e-07 -6.924971e-08 3.960624e-08 1.171834e-08 -2.017108e-07 1.414395e-08
-3.314600e-08 4.906618e-09 -4.569575e-08 -1.403396e-08 -1.074754e-07 -3.916444e-08
-3.619215e-08 -2.181971e-09 -3.770086e-08 -1.009298e-08 -2.094836e-07 -3.225063e-08
-6.946360e-08 1.453106e-07 -7.291541e-08 1.243383e-08 -2.462040e-07 -1.716354e-09
1.005770e-07 -2.870876e-08 -4.317328e-08 2.902918e-08 2.596911e-08 9.422117e-08
1.474963e-07 -3.061440e-08 -8.457003e-08 6.472020e-08 2.095740e-08 6.566128e-08
2.028119e-07 -5.369247e-08 -8.715998e-08 6.652941e-08 2.134836e-08 9.686064e-08
-3.416642e-08 -6.504160e-08 3.131913e-08 -3.882122e-08 -2.249347e-07 -7.752111e-08
1.019404e-07 -2.919585e-08 -6.232026e-08 3.498183e-08 1.914980e-08 7.395211e-08
4.520830e-08 1.135472e-07 -6.607872e-08 1.578871e-07 7.699851e-08 6.772100e-08
-8.664424e-08 3.085201e-07 -1.217437e-07 1.355341e-07 -1.640150e-07 -6.164844e-08
-1.295623e-07 2.959810e-07 -1.143799e-07 1.281338e-08 -1.484473e-07 -2.870081e-09
3.840062e-09 1.674268e-07 -1.154297e-07 -1.432089e-07 -8.328178e-08 4.943483e-08
4.701711e-08 3.716391e-08 -4.219443e-08 -7.704514e-08 -5.836081e-08 7.136789e-08
-4.963906e-09 8.349070e-08 -7.618679e-08 -8.250842e-08 -1.101430e-07 9.640338e-08
1.233613e-08 4.295773e-08 -4.914358e-08 7.731219e-08 1.016615e-07 6.537477e-08
6.893418e-08 9.056836e-08 -8.100993e-08 1.193711e-07 9.390799e-08 8.750610e-08
4.888418e-08 2.295359e-08 -6.443728e-08 8.255968e-08 6.822366e-08 6.174247e-08
-6.796008e-08 -3.423514e-08 1.147256e-07 3.403602e-08 -1.636137e-07 1.028541e-07
2.596365e-08 4.606668e-08 -4.611065e-08 1.030606e-07 9.009028e-08 6.929525e-08
-4.000796e-08 -4.139840e-10 -5.403088e-08 -6.635028e-09 -9.672991e-08 6.542683e-08
2.043710e-07 -7.747497e-08 -8.733601e-08 -6.942408e-08 -9.253108e-09 1.192012e-07
-4.253633e-08 1.118161e-07 -4.886103e-08 4.522579e-08 1.213284e-07 4.625889e-08
9.646149e-08 -1.348913e-08 -6.263069e-08 -4.361326e-08 -1.424412e-08 4.614597e-08
1.905291e-07 -1.762306e-08 6.377652e-08 2.451645e-07 8.344507e-08 4.184726e-08
2.917866e-08 4.011303e-08 -7.430634e-08 9.151190e-08 9.862029e-08 6.920785e-08
3.987997e-09 3.436672e-08 -3.753336e-08 5.654316e-08 9.704953e-08 7.850817e-08
2.398781e-08 4.619106e-08 -3.734151e-08 6.195588e-08 6.506429e-08 5.882471e-08
3.457634e-08 -2.712520e-08 -3.832852e-08 -2.938069e-08 -5.415025e-08 9.784523e-08
3.421469e-07 -1.945976e-07 8.074760e-09 1.694496e-07 1.908648e-08 4.421320e-08
6.166864e-08 -6.107251e-08 -2.035464e-08 -7.173818e-09 -1.269944e-08 1.081977e-07
1.032033e-07 -1.873672e-08 -4.057169e-08 2.020965e-08 1.813341e-09 2.007035e-08
1.217648e-07 -2.287807e-08 -4.571589e-08 2.667071e-08 9.176162e-09 3.624912e-08
9.216903e-08 -2.197449e-08 -4.461756e-08 1.812533e-08 7.358061e-09 4.109418e-08
7.828433e-08 -1.173123e-08 -2.838377e-08 2.389037e-08 6.746832e-09 2.699040e-08
1.109681e-07 -3.211798e-08 -3.415514e-08 9.620451e-09 3.221685e-09 5.294088e-08
1.401933e-07 -1.181254e-08 -8.989368e-08 -1.083423e-07 -4.245001e-08 6.205546e-08
2.436506e-08 1.834442e-08 -3.359285e-08 2.714116e-08 3.291250e-08 3.339989e-08
-1.207164e-08 1.275679e-07 -7.669446e-08 6.779492e-08 6.497275e-08 2.021087e-08
-7.639481e-09 1.240986e-07 -8.427077e-08 6.630648e-08 7.094750e-08 2.648356e-08
7.485247e-08 -1.707360e-08 -3.396633e-08 2.504545e-08 1.208315e-08 4.380419e-08
2.706940e-09 6.286175e-08 -3.481734e-08 3.617238e-08 3.713611e-08 2.087283e-08
-4.157359e-08 5.648098e-08 -3.837856e-08 4.341306e-09 7.385338e-08 2.851704e-08
4.649770e-08 3.527340e-09 -2.757508e-08 -2.492547e-08 -1.693314e-08 2.582190e-08
5.275058e-08 -1.519512e-08 -4.115714e-08 -2.634896e-08 -3.697149e-08 7.456844e-08
6.821346e-08 -4.847176e-09 -2.794372e-08 -3.105124e-08 -1.488022e-08 2.393554e-08
5.461810e-08 -5.855951e-09 -3.280307e-08 -2.695990e-08 -1.834994e-08 3.340230e-08
-1.307459e-08 1.920415e-08 -3.390057e-08 2.105222e-08 9.673876e-08 6.095900e-08
3.065625e-07 -1.699115e-07 -6.114064e-08 -3.821063e-08 -2.914686e-09 1.749536e-07
1.657744e-08 2.590677e-08 -4.103674e-08 4.511591e-08 6.904506e-08 7.698514e-08
2.527576e-07 -1.101246e-07 -8.451380e-08 -5.851370e-08 -1.664821e-08 9.003865e-08
2.588162e-07 -6.679570e-08 -6.571876e-08 -1.978667e-07 -1.871870e-08 8.143686e-08
4.554420e-07 -3.109442e-07 1.208356e-07 -1.049558e-07 1.083055e-08 8.591341e-08
3.456290e-08 3.221241e-08 -2.537418e-08 2.392592e-08 1.352893e-08 1.081433e-08
2.309257e-08 4.317825e-08 -3.821005e-08 3.994417e-08 5.016979e-08 3.310115e-08
4.924385e-08 4.896410e-08 -4.918827e-08 5.298916e-08 1.770642e-08 1.832154e-08
1.073675e-08 3.454062e-08 -2.971757e-08 1.900265e-08 2.589745e-08 1.768912e-08
3.316443e-07 -1.055764e-07 -8.801236e-08 -7.187684e-08 -2.887485e-08 1.145703e-07
-4.409665e-08 1.536514e-07 -8.640594e-08 5.451517e-08 7.852427e-08 1.609488e-08
5.271779e-07 -3.009301e-07 1.874049e-07 -3.015654e-08 3.217432e-08 4.567383e-08
-6.211431e-08 1.054071e-07 -4.739179e-08 4.631905e-09 1.140063e-07 -8.264868e-10
-7.577094e-08 1.976889e-07 -8.667670e-08 -5.284266e-09 1.082018e-07 -3.997289e-09
-4.236810e-08 1.162326e-07 -3.903895e-08 1.018115e-08 7.894331e-08 4.909186e-09
-7.907399e-08 1.340977e-07 -5.472146e-08 -5.861853e-11 1.591731e-07 -2.330670e-09
-6.925721e-08 1.191350e-07 -5.144873e-08 6.607256e-08 1.611815e-07 4.493486e-08
-4.467900e-08 1.296720e-07 -5.792145e-08 2.695736e-08 1.034284e-07 3.001011e-08
-8.245293e-08 2.695674e-07 -1.072949e-07 1.352941e-07 1.138874e-07 2.998257e-08
-4.787633e-08 1.139894e-07 -7.200152e-08 7.761132e-08 1.346154e-07 4.422672e-08
-7.587125e-08 2.314239e-07 -1.005913e-07 7.879598e-08 9.429007e-08 1.842082e-08
1.228948e-07 -9.564300e-08 3.121955e-07 1.130990e-07 -7.230883e-07 -6.478325e-07
-9.840506e-08 2.173097e-07 -8.949385e-08 3.989166e-08 1.124064e-07 8.467170e-09
-1.004356e-07 1.939639e-07 -3.922033e-08 4.624936e-08 1.715307e-07 1.405792e-08
4.279035e-07 -2.159821e-07 2.849722e-07 -1.201496e-07 4.302267e-08 -1.376961e-07
-1.069093e-07 2.178796e-07 -8.042822e-08 2.056411e-09 1.453327e-07 2.295238e-09
4.423690e-07 -1.982602e-07 1.303000e-07 -2.483909e-07 -3.916819e-08 1.336668e-07
5.955160e-07 -5.309617e-07 3.892989e-07 -1.210070e-07 -1.965977e-08 -4.808990e-08
-8.937636e-08 7.302419e-08 7.360944e-07 5.856195e-08 -4.940223e-07 -5.797022e-07
-1.070571e-07 1.353118e-07 -5.032956e-08 -3.157569e-09 1.568404e-07 5.420257e-09
-6.784039e-08 2.079039e-07 -7.349294e-08 -8.996580e-09 1.317870e-07 -2.414556e-08
-4.382668e-08 1.166311e-07 -8.252831e-08 -2.928425e-10 7.146594e-08 -2.622206e-09
-7.499256e-08 1.363524e-07 -6.602737e-08 -6.955584e-09 1.218703e-07 -8.043336e-09
5.496126e-08 2.136607e-08 -3.957209e-08 3.606473e-08 1.054097e-08 1.148599e-08
-6.133137e-08 1.589521e-07 -8.287136e-08 2.670808e-08 8.728707e-08 -7.270525e-09
1.472797e-07 -7.297551e-08 -2.901461e-08 8.671211e-08 4.226145e-08 1.898767e-07
1.476227e-07 -5.603067e-08 -9.118371e-09 1.338194e-07 6.139238e-08 1.771257e-07
2.932541e-07 -1.416691e-07 -2.770697e-08 8.816877e-08 3.079583e-08 1.832901e-07
3.872865e-08 1.785251e-08 -2.412126e-08 1.646086e-08 6.858206e-09 7.921158e-09
3.826637e-08 2.298537e-08 -2.182239e-08 1.398051e-08 5.344381e-09 3.895049e-09
1.851930e-07 -6.395154e-08 -1.020662e-08 1.102525e-07 6.473454e-08 1.862489e-07
4.019473e-08 1.407589e-08 -2.562537e-08 2.114562e-08 1.124854e-08 1.395751e-08
5.396746e-08 2.747712e-08 -3.954331e-08 3.168780e-08 9.980199e-09 1.158164e-08
3.232855e-07 -1.552839e-07 7.703576e-09 1.899152e-07 4.747526e-08 1.183261e-07
4.469581e-07 -1.382253e-07 -8.545141e-08 9.640872e-08 1.299592e-08 1.557365e-07
4.322115e-08 1.798188e-08 -2.075283e-08 9.491832e-09 2.921427e-09 3.571647e-09
7.658117e-09 6.949357e-08 -4.638597e-08 7.251934e-08 9.193969e-08 6.924210e-08
3.722965e-07 -1.390208e-07 -8.575410e-09 1.214298e-07 5.112986e-09 7.140849e-08
3.492709e-08 5.192387e-08 -5.669302e-08 5.422477e-08 2.494374e-08 1.899370e-08
2.439044e-07 -1.149888e-07 2.004881e-08 4.689769e-08 3.612685e-08 2.215276e-07
2.128426e-07 -1.040704e-07 3.092065e-08 1.447910e-07 2.907144e-08 8.680905e-08
-5.394419e-09 -7.824406e-08 3.907575e-08 5.580117e-08 4.712397e-08 1.537507e-07
2.201882e-07 -1.217074e-07 -4.091513e-08 7.979781e-09 -6.590055e-09 1.831575e-07
1.705769e-07 -5.592826e-08 -7.812262e-08 -5.929580e-09 -3.478071e-09 5.847332e-08
4.061660e-08 8.915598e-09 -2.385277e-08 2.383610e-08 2.088195e-08 2.785471e-08
1.268285e-07 -2.531650e-08 -7.146845e-08 4.795800e-08 1.516713e-08 4.432638e-08
1.676725e-07 -4.540573e-08 -6.243936e-08 4.733611e-09 4.999549e-10 8.090578e-08
1.083258e-07 8.705837e-09 -8.620802e-08 9.663855e-08 3.227353e-08 6.548629e-08
-2.481529e-07 1.657401e-07 7.495970e-07 5.060843e-07 -2.311214e-07 -1.410564e-07
1.466396e-07 -1.793452e-08 -7.965006e-08 9.655872e-08 2.440268e-08 8.342881e-08
4.059798e-08 -2.153043e-08 -3.768628e-08 2.460930e-08 3.203188e-08 8.496230e-08
2.946301e-08 5.814452e-09 -3.709476e-08 2.536546e-08 4.424640e-08 4.967814e-08
3.681878e-07 -8.237890e-08 -8.593386e-08 1.719301e-07 4.481576e-08 1.567665e-07
5.748781e-08 -1.996842e-08 -3.791162e-08 2.294563e-08 2.254803e-08 6.607673e-08
1.145818e-07 -4.244466e-08 -3.782475e-08 4.153800e-10 -4.260663e-09 5.724789e-08
1.089966e-08 -7.229875e-09 -4.074738e-08 3.411190e-08 9.042221e-08 1.222168e-07
-1.002208e-08 -5.235700e-08 8.357520e-08 3.343367e-08 5.617333e-08 1.128570e-07
1.136507e-07 -1.776560e-08 -4.581657e-08 -5.849096e-08 -3.033206e-08 8.024575e-08
5.338200e-08 1.471247e-07 -1.009250e-07 1.831071e-07 8.182318e-08 5.822966e-08
-1.001346e-07 -8.577428e-08 1.998221e-08 8.284397e-10 -1.252832e-07 -6.820103e-08
-2.174619e-08 1.858151e-07 -5.573869e-08 1.938820e-07 -1.434639e-07 -8.674271e-08
1.500584e-07 -5.519157e-08 4.986442e-08 1.730709e-07 -1.459759e-07 -1.638796e-07
4.952084e-07 -3.338751e-07 2.277562e-07 3.193162e-07 -9.404810e-09 2.911028e-08
1.709585e-07 -5.230273e-08 -8.721320e-08 5.158972e-08 1.407416e-08 7.221177e-08
1.452986e-08 -1.560526e-08 -2.078000e-08 1.879370e-08 4.820284e-08 1.462670e-07
1.192131e-07 6.696105e-08 -1.057445e-07 2.505594e-07 7.731818e-08 1.039040e-07
1.544978e-08 1.174947e-07 2.163831e-07 2.926537e-07 -2.437480e-07 -1.657157e-07
-1.097913e-08 1.462778e-07 5.184454e-08 3.086542e-07 -1.149168e-07 -7.846228e-08
1.050227e-07 -2.706170e-08 -4.092502e-08 5.887016e-08 4.160596e-08 1.188076e-07
3.178530e-07 -8.595659e-08 -9.407380e-08 2.168468e-07 5.229976e-08 1.249347e-07
2.656371e-07 -5.168075e-08 -9.621802e-08 1.164096e-07 4.120967e-08 1.073239e-07
-1.897093e-07 1.198539e-07 1.877819e-07 9.558007e-08 -1.195823e-07 -7.847217e-08
6.370325e-09 2.153951e-07 8.440132e-07 5.864669e-07 2.481239e-07 3.954064e-09
2.904553e-08 4.551439e-08 4.468493e-07 4.484684e-07 1.525808e-07 3.545743e-08
6.965559e-08 2.286670e-08 1.519788e-07 2.751038e-07 -1.879845e-08 4.040100e-08
5.491134e-07 -3.134341e-07 5.727457e-08 4.466784e-08 -7.541559e-08 8.511951e-08
1.563861e-08 1.623952e-07 -1.042426e-07 1.450485e-07 8.135793e-08 4.481607e-08
1.903460e-07 6.171776e-08 -1.058111e-07 2.356660e-07 8.251913e-08 9.464272e-08
4.675702e-07 -2.186200e-07 -4.409517e-09 1.770594e-07 1.487119e-08 9.140933e-08
1.459532e-07 -6.542845e-08 -3.772168e-08 4.511164e-08 2.436476e-08 1.239767e-07
1.883000e-07 -8.231405e-08 -7.485336e-08 2.634469e-08 1.271280e-08 1.609960e-07
2.106292e-07 -9.722646e-08 -5.784349e-08 7.564232e-08 1.664307e-08 1.242938e-07
3.208819e-07 -1.508738e-07 -6.307753e-08 8.775156e-08 1.936689e-08 7.435758e-08
5.324400e-08 9.554133e-09 -2.762793e-08 -1.319385e-08 -3.096850e-09 4.619705e-09
5.842772e-08 5.872947e-09 -2.745184e-08 -1.828481e-08 -1.167881e-08 1.488360e-08
-7.454943e-08 -6.154518e-08 3.922231e-08 3.514748e-08 2.112433e-07 5.319616e-08
-7.542532e-08 1.584477e-07 -5.981896e-08 -4.882861e-09 1.677377e-07 -2.238030e-08
5.404056e-08 1.020211e-08 -2.428670e-08 -1.272501e-08 -2.216332e-09 3.527507e-09
-1.067631e-07 2.954370e-07 -7.732953e-08 4.256595e-09 1.594597e-07 4.387110e-09
-9.745980e-08 1.271172e-07 -4.753826e-08 -2.657246e-08 1.480738e-07 -1.473759e-08
-6.617057e-08 1.296325e-08 -1.758782e-08 1.575530e-08 1.704717e-07 4.018424e-08
-7.812612e-08 1.538139e-07 -5.972453e-09 2.655835e-08 1.774239e-07 4.342792e-08
-6.560067e-08 1.190054e-07 -5.883986e-08 3.886208e-08 1.532676e-07 2.515878e-08
8.521275e-08 -2.295632e-08 -2.838112e-08 -2.424883e-09 -3.969857e-10 2.526628e-08
7.917292e-08 -3.849924e-08 -3.653553e-08 5.033469e-09 2.206464e-09 8.359598e-08
-7.370029e-08 1.223380e-07 -6.945057e-08 1.696469e-08 1.303158e-07 1.099514e-08
2.708621e-07 -7.203217e-08 -9.262132e-08 3.768544e-08 1.200071e-08 9.848688e-08
-3.560047e-08 1.128438e-07 -3.970996e-08 2.140392e-08 7.350846e-08 1.238914e-08
1.683994e-07 -7.034021e-08 -8.325653e-08 2.961182e-08 8.045155e-09 8.257669e-08
2.012022e-07 -5.427170e-08 -7.486661e-08 6.551502e-08 3.426318e-08 1.124028e-07
1.665149e-07 -5.533135e-08 -8.159422e-08 5.808275e-08 1.491163e-08 7.786241e-08
1.791088e-07 -4.845228e-08 -8.197798e-08 3.995192e-08 1.429353e-08 8.342344e-08
-1.243306e-07 2.225714e-07 4.114775e-11 -1.157700e-07 1.408485e-07 -6.112831e-08
-6.183903e-08 6.796230e-08 -4.068644e-08 -6.602161e-08 -1.579742e-07 -1.978051e-08
-1.924483e-07 3.785149e-07 -3.437113e-08 -9.269861e-08 1.282378e-07 -1.809811e-08
6.677422e-08 1.148944e-09 -4.684917e-08 3.999077e-08 2.367113e-08 3.320544e-08
1.911058e-07 -4.369494e-08 -7.464597e-08 1.429204e-07 3.548254e-08 9.528410e-08
2.630270e-07 -1.008147e-07 -6.431377e-08 1.256224e-07 2.493619e-08 9.095338e-08
1.197916e-07 -5.538390e-08 -6.131104e-08 7.678732e-08 3.826380e-08 1.200662e-07
3.222086e-07 -8.808017e-08 -1.021137e-07 9.134154e-08 2.697785e-08 1.174753e-07
5.368393e-08 1.139535e-08 -1.946533e-08 -1.185958e-08 -4.812531e-09 6.251057e-09
2.416438e-08 -2.368288e-08 -3.706282e-08 3.185755e-08 4.411108e-08 1.280717e-07
4.005163e-08 1.693612e-08 -2.870952e-08 -1.809877e-08 -1.505771e-08 2.017028e-08
4.244092e-08 1.797790e-08 -2.661697e-08 -2.236450e-08 -1.387271e-08 1.228132e-08
-5.789081e-08 1.684808e-07 -8.600824e-08 3.344965e-09 8.255310e-08 1.750224e-08
3.306756e-08 2.787672e-08 -3.145199e-08 1.966520e-08 9.210855e-09 9.397739e-09
3.114422e-07 -1.489062e-07 2.351382e-08 1.744156e-07 2.858081e-08 1.696135e-07
-2.563469e-08 -8.511143e-08 9.387800e-08 6.147020e-08 7.449193e-08 1.692998e-07
3.912762e-08 2.759078e-08 -3.043499e-08 2.159359e-08 6.427027e-09 6.955054e-09
4.389220e-08 3.303098e-08 -4.107582e-08 2.761438e-08 1.171386e-08 9.401879e-09
3.326911e-08 2.698955e-08 -2.521852e-08 2.179019e-08 1.169174e-08 1.140020e-08
3.461352e-08 3.312614e-08 -3.556140e-08 3.481628e-08 1.530559e-08 2.035726e-08
1.412353e-07 1.419774e-08 -6.748127e-08 2.294704e-07 1.489709e-07 1.174618e-07
3.912762e-08 2.668980e-08 -2.855610e-08 1.979328e-08 6.750035e-09 4.921750e-09
1.433299e-07 -7.322283e-08 -3.293043e-08 8.422165e-08 3.978265e-08 1.438882e-07
2.149205e-07 -4.724417e-08 4.321974e-09 1.583286e-07 1.811881e-08 4.181089e-08
1.974522e-07 -7.435734e-08 -6.829301e-08 6.970115e-08 3.240662e-08 1.284390e-07
-4.372359e-08 6.869620e-08 -4.116171e-08 3.414413e-08 9.751475e-08 -5.494026e-09
2.331688e-07 -8.811940e-08 -8.264613e-08 6.792178e-08 1.381863e-08 8.559762e-08
1.481714e-07 -6.889011e-08 -6.032011e-08 3.448532e-08 1.575057e-08 9.996061e-08
2.817003e-07 -1.122863e-07 -8.360647e-08 3.101367e-08 7.086644e-09 8.425283e-08
8.866289e-09 6.837909e-08 -7.008388e-08 7.253184e-08 1.030397e-07 7.936207e-08
8.227805e-08 7.065414e-08 -9.461000e-08 1.469544e-07 7.386604e-08 6.301920e-08
-4.201300e-08 -4.341502e-08 3.362424e-08 3.721431e-08 2.103658e-08 -2.328847e-08
4.566748e-08 1.235487e-07 -1.223513e-07 -1.575863e-07 9.634988e-08 -6.032976e-08
7.796674e-08 2.643515e-08 -7.475400e-08 1.147025e-07 8.158744e-08 8.822122e-08
3.984614e-08 2.810631e-08 -5.646799e-08 5.238489e-08 3.841068e-08 4.592835e-08
2.195821e-08 7.286388e-08 -8.690101e-08 9.183847e-08 5.835992e-08 4.660012e-08
-3.378059e-08 -2.468516e-08 9.517638e-09 4.640367e-09 2.091968e-07 -8.006867e-08
-9.579966e-08 1.425976e-07 4.029423e-09 -8.998994e-08 1.239927e-07 -3.354014e-08
-2.590189e-08 7.500708e-08 -5.930857e-08 -3.048939e-08 7.250575e-08 -3.204826e-08
2.103760e-08 7.204152e-08 -7.247407e-08 9.091050e-08 8.004329e-08 6.245605e-08
1.417212e-07 3.594298e-08 -8.250733e-08 -1.953105e-07 8.767147e-08 -5.851792e-08
5.678253e-08 2.030026e-08 -4.017067e-08 -2.632694e-08 -1.181038e-08 1.504427e-08
6.206572e-08 9.576965e-09 -2.732825e-08 -1.458507e-08 -4.112613e-09 5.369204e-09
6.440481e-08 5.549142e-09 -3.023581e-08 -1.787276e-08 -5.344766e-09 6.401305e-09
9.248071e-08 -1.420035e-08 -2.769921e-08 -1.532600e-08 -4.282699e-09 1.517041e-08
9.751786e-08 -1.566881e-08 -4.567565e-08 -2.675013e-08 -1.115097e-08 1.919414e-08
7.184078e-08 -1.130339e-08 -2.955612e-08 -2.054793e-08 -5.677229e-09 2.566897e-08
5.959350e-08 9.239899e-09 -2.797617e-08 -2.054792e-08 -9.412338e-09 1.250665e-08
7.130079e-08 -5.729987e-09 -3.705026e-08 -2.203441e-08 -8.268436e-09 1.997162e-08
-5.241197e-08 1.152036e-07 -6.645442e-08 5.835084e-09 1.420315e-07 9.097739e-10
-1.241079e-10 5.078140e-08 -6.750142e-08 5.508600e-08 8.833341e-08 5.875255e-08
2.428856e-08 9.905526e-08 -6.306535e-08 8.438328e-08 6.360060e-08 4.117415e-08
1.435409e-08 6.667983e-08 -6.982934e-08 5.758596e-08 3.662868e-08 3.190533e-08
5.977608e-08 1.254920e-08 -2.775427e-08 -1.676632e-08 -2.923158e-09 2.622995e-09
4.755045e-08 1.684483e-08 -3.349993e-08 -1.890551e-08 -7.042630e-09 1.012225e-08
2.041691e-08 8.756497e-08 -8.633974e-08 9.390732e-08 5.083436e-08 4.308531e-08
5.726552e-08 7.385565e-08 -8.299837e-08 1.009047e-07 5.394043e-08 4.215136e-08
-5.027117e-08 1.004618e-07 -4.901528e-08 5.621756e-08 1.280224e-07 3.645884e-08
5.265804e-08 1.756401e-08 -2.941400e-08 -2.083492e-08 -5.019535e-09 5.026501e-09
6.832465e-08 1.149023e-09 -3.023627e-08 -1.915134e-08 -7.511759e-09 1.199812e-08
4.846836e-08 8.106984e-09 -2.718479e-08 -1.828083e-08 -1.250699e-08 1.551306e-08
5.844751e-08 1.349398e-08 -2.497597e-08 -1.777102e-08 -6.329826e-09 8.365129e-09
4.124448e-08 5.426657e-08 -6.426619e-08 7.679442e-08 5.777902e-08 5.863029e-08
-3.323088e-08 1.578768e-07 -1.008156e-07 -8.230542e-08 -7.910348e-08 4.541286e-08
-6.081981e-08 8.937994e-08 -3.428740e-08 -2.386666e-08 -2.269106e-07 -5.606174e-08
2.999857e-08 1.599694e-07 -8.690517e-08 -1.714474e-07 -1.322076e-07 1.013187e-07
-2.387206e-08 9.223124e-09 -3.599056e-08 -4.736996e-09 -1.293849e-07 8.262598e-08
-1.615255e-08 2.399293e-07 4.276906e-08 -2.408216e-07 -7.907006e-08 1.057964e-07
-1.138742e-07 1.752361e-07 -2.626194e-08 1.140324e-08 -2.116750e-07 -1.001669e-08
-2.743620e-08 1.656031e-07 -9.992832e-08 -6.907182e-08 -8.545367e-08 4.308531e-08
-8.385772e-08 1.448130e-07 -5.483892e-08 9.461505e-09 -2.489787e-07 -2.890932e-08
-5.668544e-08 1.544529e-07 -8.151941e-08 1.417884e-08 -2.048250e-07 -4.079019e-08
-2.027515e-07 4.007123e-07 -5.280588e-08 -2.772065e-08 -9.511726e-08 2.121420e-08
-1.381336e-07 2.389527e-07 1.055462e-07 6.470999e-08 -1.721145e-07 -8.123013e-10
-2.606397e-08 1.273108e-07 -2.495424e-08 1.704327e-08 -2.667635e-07 1.266628e-09
6.827955e-08 1.919717e-09 -3.496840e-08 -1.953000e-08 -6.777545e-09 1.275787e-08
-1.079904e-07 2.522306e-07 -3.761003e-08 3.286177e-09 -2.529937e-07 3.414013e-08
-1.377670e-07 3.891618e-07 -6.929780e-08 -2.333403e-09 -2.294345e-07 7.582774e-09
5.429047e-09 6.964438e-08 -9.735661e-08 -6.636109e-08 8.813614e-08 -5.882137e-08
1.685930e-07 -7.186359e-08 -6.947054e-08 2.425622e-08 1.047603e-08 7.843215e-08
1.694193e-07 -7.295285e-08 -8.442648e-08 2.449626e-08 6.251661e-09 7.824303e-08
1.505030e-07 -4.811791e-08 -7.856782e-08 2.721905e-08 6.433104e-09 5.608974e-08
-3.660337e-09 9.665602e-08 -6.433759e-08 6.858156e-08 6.624986e-08 4.740472e-08
-3.341954e-09 8.274167e-08 -5.413522e-08 -7.373422e-08 1.119769e-07 -7.073595e-08
-2.422468e-08 2.913481e-08 -3.224306e-08 2.745864e-09 1.096015e-07 -3.923010e-08
2.084195e-07 -4.851671e-08 -7.845631e-08 4.040883e-08 1.360920e-08 6.953529e-08
1.624577e-07 -5.778122e-08 -7.899505e-08 1.288396e-08 3.449162e-09 5.716681e-08
-2.582726e-08 -4.955897e-08 -2.728067e-08 3.747281e-08 -2.637198e-08 4.036393e-08
1.610169e-07 -5.587551e-08 -7.910682e-08 1.285327e-08 2.582002e-09 5.803506e-08
1.582868e-07 -4.241157e-08 -7.873271e-08 1.723323e-08 6.300456e-09 5.759773e-08
-2.069921e-08 -1.770677e-07 2.205783e-07 -8.444381e-08 -1.209189e-07 1.061343e-07
6.506935e-08 1.867250e-08 -6.490686e-08 -6.346102e-08 -2.450569e-08 3.676643e-08
9.230607e-08 1.820314e-07 -1.171633e-07 2.042570e-07 -9.416768e-08 -7.360211e-08
-5.070858e-08 1.465445e-07 -8.490814e-08 2.362935e-08 -1.608395e-07 -5.563619e-08
6.668274e-08 1.760856e-08 -3.882468e-08 -3.865971e-08 -2.085333e-08 2.422904e-08
7.830869e-08 2.150663e-08 -5.567824e-08 -5.565661e-08 -1.706257e-08 2.796680e-08
7.071150e-08 3.041523e-08 -5.445875e-08 -5.694074e-08 -2.209029e-08 2.645178e-08
6.924239e-08 1.062275e-08 -4.544226e-08 -4.589721e-08 -2.231108e-08 2.925604e-08
3.677919e-08 6.583211e-09 -3.527791e-08 -2.483002e-08 -3.159572e-08 4.456809e-08
1.812041e-08 2.478560e-07 -3.293832e-08 2.527730e-07 -1.047312e-07 -7.204026e-08
4.282989e-07 -2.506307e-07 3.361369e-07 5.307778e-07 -1.201549e-08 7.434432e-08
1.730524e-07 1.396235e-07 -9.736738e-08 2.995290e-07 -4.409261e-08 -6.650836e-08
8.404887e-08 1.235935e-07 1.059831e-07 3.790488e-07 -1.310554e-07 -9.267245e-08
-9.099379e-08 2.572365e-07 5.814691e-08 3.835951e-07 -1.276613e-07 -9.278281e-08
6.670334e-08 2.730365e-08 -4.660189e-08 -5.325559e-08 -2.698565e-08 3.401689e-08
1.626134e-07 4.125573e-08 1.509340e-07 1.803156e-07 -5.807772e-09 3.703309e-08
2.549448e-08 3.687824e-08 -5.468521e-08 -5.012082e-08 -6.120285e-08 6.279226e-08
2.468738e-07 -1.230057e-07 4.666970e-07 -2.575742e-07 8.550736e-08 8.902448e-08
-7.325748e-08 1.981500e-07 -5.654451e-08 1.229460e-07 -7.250704e-08 -1.011192e-07
-8.634547e-08 2.888629e-07 -3.612963e-08 2.272863e-07 -1.839149e-07 -1.002619e-07
2.631463e-07 -2.933750e-07 1.393490e-07 4.692749e-08 -1.191401e-07 1.362523e-08
1.320967e-08 5.375613e-08 2.180553e-08 -1.492312e-07 1.440394e-07 -8.613230e-08
-8.663326e-08 3.012868e-07 -1.111899e-08 1.328052e-07 -1.564994e-07 -7.030503e-08
-6.260933e-08 -5.798788e-08 1.750913e-06 -2.237703e-08 -1.072250e-06 6.349261e-07
4.129460e-08 3.582508e-08 -3.397136e-08 -3.774618e-08 -3.044512e-08 2.895202e-08
-1.168749e-07 1.459834e-07 -3.936682e-08 6.135598e-08 -1.830931e-07 -7.221491e-08
1.658208e-07 -8.552544e-08 4.160696e-07 -4.383540e-07 7.878939e-08 -1.207467e-07
5.684821e-08 -5.511467e-08 4.960164e-07 -2.346947e-08 8.296892e-09 2.501426e-07
7.960029e-07 -4.951759e-07 1.014306e-06 -3.161797e-07 -2.748621e-07 8.122511e-07
-9.324703e-08 2.224990e-07 2.165698e-07 1.550362e-07 -4.094254e-08 2.939480e-08
-7.233596e-07 -3.073675e-08 2.003597e-06 -5.882266e-07 -1.002872e-06 4.600239e-07
3.146092e-07 -5.756043e-07 1.244560e-06 -6.351935e-07 -3.350782e-07 4.032400e-07
-4.490636e-09 -8.262224e-08 9.389268e-08 6.124128e-08 -2.027138e-07 -1.287832e-07
-1.684290e-07 2.408501e-07 -3.838192e-08 1.146250e-07 -3.666148e-08 -6.840795e-08
-5.423570e-08 1.379295e-07 -4.641397e-08 -3.378896e-08 1.372039e-07 -3.879739e-08
3.386032e-08 -3.522368e-08 -1.221245e-08 1.833148e-08 7.196480e-08 1.519258e-07
3.560092e-08 -1.969068e-08 -4.579824e-08 2.642364e-08 9.738041e-08 1.788069e-07
-7.497432e-08 2.406695e-07 -6.530595e-08 -7.236677e-08 1.183119e-07 -3.870557e-08
1.407372e-07 -4.255833e-08 -5.592671e-08 3.073004e-09 4.518787e-10 3.470813e-08
-1.427115e-07 4.413919e-07 -6.680588e-08 -3.633845e-08 1.562769e-07 1.106984e-09
4.009331e-08 1.914101e-09 -3.068995e-08 2.579034e-08 1.978127e-08 3.273500e-08
-1.226440e-07 1.736307e-07 2.059153e-08 -2.079867e-08 1.741440e-07 -3.610235e-08
2.668000e-07 -6.256359e-08 -9.356817e-08 1.183032e-07 3.714748e-08 1.055373e-07
2.052533e-07 -1.813795e-08 -9.924831e-08 1.337710e-07 4.271392e-08 8.102074e-08
1.166349e-07 -9.428613e-09 -6.373765e-08 4.455459e-08 1.323468e-08 3.251091e-08
-7.054670e-08 1.275475e-07 -4.168993e-08 -1.532949e-08 1.421381e-07 -1.864910e-08
1.564973e-07 -1.094802e-08 -7.903584e-08 8.775968e-08 3.316036e-08 5.244854e-08
1.874854e-07 9.174268e-09 -9.759261e-08 1.764430e-07 5.967584e-08 8.965526e-08
1.415292e-07 4.289709e-08 -9.719347e-08 1.826979e-07 6.602919e-08 9.696477e-08
1.120248e-07 5.329155e-08 -7.978625e-08 1.445324e-07 9.704191e-08 1.186475e-07
-3.052142e-08 1.283879e-07 -5.180894e-08 1.977162e-09 1.511769e-07 -1.678725e-08
2.327730e-07 6.092272e-10 -9.348967e-08 2.049350e-07 5.958474e-08 1.267044e-07
-7.518973e-08 2.351190e-07 -7.592021e-08 -6.057501e-08 1.681383e-07 -6.215497e-08
-2.384690e-08 3.269332e-07 5.067096e-08 -4.064201e-07 3.534784e-08 -1.538427e-08
-1.211193e-07 -7.166085e-08 6.579212e-08 -4.388159e-08 2.220500e-07 -2.158524e-08
-9.359551e-08 2.123462e-07 -7.365792e-08 -1.593255e-07 1.304713e-07 -7.004678e-08
-7.899831e-08 1.605623e-07 -1.240379e-08 -4.615790e-09 1.834052e-07 -4.663946e-09
-2.082212e-07 4.466481e-07 3.376287e-07 -4.656640e-07 -7.682268e-08 4.041634e-08
2.160071e-07 -2.632966e-07 4.807781e-07 -6.353906e-07 -3.163288e-08 2.888597e-07
3.795439e-08 -4.384866e-08 6.838912e-07 -5.960531e-07 -1.721640e-08 3.922856e-08
2.235076e-07 -5.592786e-08 -9.495408e-08 -8.327915e-09 -5.707032e-09 7.405697e-08
-2.601775e-07 -3.043179e-07 1.762988e-06 -7.194823e-07 -7.430863e-07 5.041857e-07
1.678401e-07 -4.227807e-08 -7.195983e-08 1.609416e-08 7.253480e-09 4.939487e-08
1.041416e-07 -2.705217e-08 -5.243400e-08 2.227283e-08 5.228238e-09 5.657681e-08
-5.655877e-08 -3.740090e-08 1.838801e-07 2.681657e-08 2.170855e-07 -8.779974e-08
1.194242e-07 -2.660757e-08 -4.793389e-08 9.056151e-09 1.856639e-09 3.115345e-08
1.294123e-07 -4.146630e-08 -5.731589e-08 1.430770e-08 5.182108e-09 5.630594e-08
-7.632407e-07 6.053295e-07 2.923961e-06 -4.617974e-07 -1.177296e-06 1.146678e-06
7.847559e-08 -3.169328e-08 -3.596861e-08 2.741686e-09 1.424598e-09 4.701592e-08
3.260209e-08 9.493776e-08 -6.790608e-08 1.114783e-07 6.979715e-08 5.290729e-08
-2.648357e-08 -5.860422e-08 1.352819e-07 4.069423e-08 2.325103e-07 -1.128097e-07
-7.202883e-08 3.036294e-07 -1.159429e-07 -1.380880e-07 -1.406916e-07 5.758132e-08
-1.323319e-07 2.929153e-07 -1.031998e-07 -4.904805e-08 -1.258899e-07 8.326849e-09
3.850409e-08 8.457317e-08 -8.033520e-08 1.339079e-07 9.774490e-08 8.208614e-08
-6.029293e-08 -5.139024e-08 6.055449e-09 -5.574689e-10 -1.919538e-07 2.384377e-08
7.997037e-08 7.606266e-08 -1.017874e-07 1.376954e-07 6.379681e-08 5.856063e-08
-6.162515e-08 1.369592e-07 -2.591511e-08 3.678972e-08 -2.587669e-07 -7.083998e-08
3.450980e-08 2.406868e-08 -5.159766e-08 8.806973e-08 9.689482e-08 1.048304e-07
-2.953584e-07 6.734359e-07 1.052003e-07 6.479074e-08 -1.206605e-07 1.363554e-08
8.609899e-08 6.091557e-08 -6.117060e-08 1.865970e-07 9.431169e-08 7.399911e-08
-9.382492e-08 2.688399e-07 -8.875505e-08 -7.803275e-09 -2.069041e-07 5.291004e-09
-1.230151e-07 2.929932e-07 1.537075e-07 -3.579656e-08 -4.394027e-08 -9.109339e-09
-8.065621e-08 4.207237e-08 6.999283e-07 -2.910029e-08 2.610004e-07 -1.144342e-07
1.979108e-08 6.973315e-08 -5.530836e-08 9.337627e-08 8.011299e-08 8.503364e-08
-1.190980e-07 2.422470e-07 -2.970496e-08 -1.907912e-08 -2.694157e-07 -3.954805e-08
8.821338e-08 8.590823e-08 -1.018580e-07 1.654850e-07 6.738894e-08 7.854580e-08
-2.375053e-08 -5.003603e-08 -4.630611e-09 1.148870e-09 -1.863144e-07 1.476032e-08
-1.000428e-07 2.978786e-07 -9.856575e-08 2.842961e-08 -1.666158e-07 -1.540321e-08
2.732123e-08 6.593821e-09 -3.992127e-08 4.794017e-08 5.365281e-08 8.676668e-08
8.812636e-08 3.783327e-08 -6.983441e-08 1.334084e-07 9.772264e-08 1.166244e-07
-1.810758e-09 -3.100868e-09 -3.486392e-08 3.787289e-08 9.214407e-08 8.875003e-08
-1.226098e-06 5.021413e-07 2.689815e-06 7.226449e-08 1.106015e-06 3.970320e-09
-3.033704e-07 4.938456e-07 2.813806e-08 -7.039725e-08 -2.018699e-07 2.320921e-08
1.221772e-07 -8.133513e-10 -1.512363e-08 1.354026e-07 1.016260e-07 1.811268e-07
-3.034472e-08 1.504906e-07 -7.225772e-08 -3.930400e-09 -2.429011e-07 -1.641850e-08
-1.359873e-07 3.068865e-07 -1.203670e-07 -1.754830e-08 -2.001222e-07 1.010842e-07
-1.051950e-07 3.472810e-08 1.075483e-07 3.340510e-08 -1.973679e-07 7.885145e-09
4.693114e-08 3.621642e-08 -4.256923e-08 1.346496e-07 1.090036e-07 9.282123e-08
1.087161e-07 9.025705e-08 -4.623644e-09 2.326887e-07 2.211558e-08 8.164665e-08
4.754191e-08 2.242779e-08 -4.432109e-08 7.854213e-08 9.535680e-08 1.203113e-07
2.154320e-07 3.932575e-08 -9.148538e-08 3.030334e-07 9.167153e-08 9.746329e-08
4.730396e-08 4.024179e-08 -2.093514e-08 1.573818e-07 1.122189e-07 1.817713e-07
7.177976e-08 1.782977e-07 -1.052489e-07 2.638251e-07 9.359239e-08 5.926551e-08
1.209115e-08 -4.168072e-08 1.443899e-08 6.880981e-08 1.366319e-07 1.573491e-07
-5.065186e-08 3.568104e-09 -8.613826e-09 2.250134e-08 9.127047e-08 1.168976e-07
-5.839910e-09 7.226462e-08 -4.364814e-08 8.863059e-08 1.358012e-07 8.307388e-08
-2.987719e-07 1.876388e-07 1.804054e-06 7.098399e-07 5.220848e-07 3.177855e-07
9.322999e-08 5.529025e-09 -1.751869e-08 1.505403e-07 9.176384e-08 1.236202e-07
-9.261180e-08 -2.045035e-07 7.799545e-07 8.599675e-07 2.767423e-07 6.237355e-07
-5.832767e-08 -5.394805e-08 4.749847e-08 5.415576e-08 2.230949e-07 -1.420434e-07
2.884896e-07 -4.542138e-08 2.597414e-07 3.923401e-07 -4.828463e-08 -4.912149e-08
6.676010e-08 8.139987e-08 -6.535670e-08 1.264182e-07 1.241913e-07 1.592049e-07
-6.826741e-08 1.902525e-07 -3.052426e-08 4.394220e-08 -2.769497e-07 -1.231176e-07
-6.646831e-08 1.332781e-07 -2.683840e-08 4.963828e-08 -1.648013e-07 -8.288782e-08
-1.725132e-08 2.644173e-07 -1.198386e-07 1.662732e-07 -1.040857e-07 -5.758446e-08
-4.265583e-07 5.230006e-07 3.998380e-07 -4.271394e-07 4.323212e-08 -4.628529e-08
-6.481505e-08 2.243383e-07 -1.130023e-07 9.627530e-08 -1.223350e-07 -6.135049e-08
1.925632e-07 -1.124984e-07 1.693965e-07 1.312004e-07 9.971919e-08 2.353131e-07
-5.569234e-07 7.103586e-07 1.977069e-06 2.032396e-07 8.032128e-07 7.402493e-07
2.656341e-08 -5.155212e-08 1.785336e-09 2.774324e-08 1.443913e-08 1.419562e-07
4.616034e-07 -2.071071e-07 1.499363e-07 2.727926e-07 5.973499e-09 -8.455897e-08
-8.903681e-07 -5.811905e-07 3.491857e-06 -7.963641e-07 1.138351e-06 -7.117143e-07
4.755185e-07 -3.632416e-07 2.424941e-07 1.399067e-07 3.437003e-08 5.650240e-08
-1.165528e-07 -1.096522e-07 1.012633e-07 -1.227851e-08 -2.725416e-07 4.942653e-08
-4.131426e-07 3.343242e-07 7.964709e-07 -6.667394e-07 1.524540e-07 -1.731464e-07
-1.144486e-07 3.354503e-07 -6.542859e-08 1.336047e-08 -2.518576e-07 -5.079411e-09
5.012431e-07 -2.461542e-07 3.238309e-08 1.489276e-08 1.084483e-08 1.378903e-07
2.839000e-07 -1.583325e-07 8.473602e-08 6.223940e-08 1.899829e-08 1.908846e-07
-4.267437e-07 3.998919e-07 5.995180e-07 -4.447815e-07 1.765146e-07 -5.557344e-08
-1.200161e-07 -9.829655e-08 1.868435e-06 -7.623532e-07 3.267159e-07 -4.434060e-07
1.227516e-07 -1.782961e-07 1.321869e-06 -7.600882e-07 5.365131e-07 -4.790093e-07
-1.196834e-07 -6.650076e-07 1.950651e-06 -8.054363e-07 3.018278e-07 -4.279610e-07
2.485973e-09 9.570452e-08 2.130088e-07 -1.112766e-07 2.308404e-07 -9.867599e-08
3.476689e-07 -4.458969e-07 7.405717e-07 2.185254e-07 -3.399892e-08 -1.069874e-07
5.177772e-07 -3.160075e-07 8.317176e-10 -1.225671e-07 3.875238e-08 1.182349e-07
1.902904e-07 -1.371085e-08 -7.335421e-08 2.385272e-07 9.301606e-08 1.299570e-07
6.504502e-07 -2.560085e-07 9.586271e-08 1.321564e-07 7.397646e-09 -8.709471e-08
1.549436e-07 -1.854640e-08 -9.445084e-08 1.051987e-07 3.165943e-08 7.732354e-08
4.458619e-08 -4.991273e-08 -3.296256e-08 -5.899875e-09 -3.845502e-08 2.238575e-07
2.851723e-07 -8.870866e-08 -7.870515e-08 9.695939e-08 3.153755e-08 1.040035e-07
2.961538e-07 -1.019664e-07 -7.255616e-08 -3.637136e-08 -2.075061e-08 1.614955e-07
3.367532e-07 7.905064e-09 3.766785e-08 -3.663187e-07 -7.803561e-08 1.259307e-07
6.680777e-07 -4.932388e-07 1.327536e-07 -1.414733e-07 7.592703e-08 2.466729e-08
4.139043e-07 -1.124952e-07 1.300498e-07 -3.720250e-07 -1.726231e-08 5.215326e-08
4.713789e-07 -3.373572e-07 5.919045e-07 -1.243958e-07 -5.321949e-08 -1.757000e-07
5.426538e-07 -1.919870e-07 7.605104e-09 -1.793041e-07 -3.460073e-08 1.206284e-07
4.577325e-07 -1.061136e-07 -3.342036e-08 -3.019199e-07 -2.353275e-08 5.418991e-08
4.475619e-07 -2.094895e-07 1.340027e-07 -1.272194e-07 -3.514954e-08 8.610745e-08
6.296943e-07 -4.561673e-07 3.597489e-07 6.261307e-08 7.526979e-09 -2.736250e-08
3.067350e-07 -6.790832e-09 -2.293215e-08 3.820220e-07 -2.154729e-08 -3.077999e-08
2.547399e-07 -1.692253e-07 1.022896e-07 3.276824e-07 -1.444315e-08 -2.004011e-07
2.935320e-07 -4.952775e-08 1.318167e-07 2.859899e-07 1.524123e-07 1.310747e-07
3.509856e-07 -1.062850e-07 -7.729713e-08 4.867080e-07 1.664811e-07 -3.077452e-08
4.304477e-07 -3.467644e-07 4.693752e-07 2.506621e-07 1.316206e-07 3.868395e-07
2.871913e-07 3.767845e-08 2.353297e-08 4.522234e-07 -3.565979e-08 -1.177362e-07
2.559223e-08 2.131625e-07 2.018149e-07 4.667948e-07 2.134452e-08 -2.245054e-08
-3.294481e-08 4.466051e-08 -3.256076e-08 3.347938e-09 7.870261e-08 -1.569762e-08
-3.394009e-08 3.500612e-08 -3.360229e-08 1.214801e-08 9.142933e-08 -8.465174e-09
-5.133441e-08 2.134351e-07 -1.018163e-07 -8.835563e-08 9.680025e-08 -3.017249e-08
1.858043e-07 2.866997e-08 2.183868e-07 -4.611767e-07 -1.526037e-07 8.902568e-08
-1.060913e-07 3.519587e-07 -1.038781e-07 1.488269e-08 1.314937e-07 8.576810e-11
-5.854463e-08 2.145590e-07 -8.040927e-08 -4.364802e-09 1.446551e-07 -2.106209e-09
-8.839352e-08 2.038272e-07 -9.656524e-08 -6.300502e-08 1.143722e-07 -2.727220e-08
-6.817623e-08 1.449031e-07 -4.396117e-08 -2.259738e-08 1.785337e-07 -5.872990e-08
-5.666179e-08 1.117334e-07 -5.148652e-08 9.318461e-09 1.226946e-07 -1.302379e-08
-7.513913e-08 1.497526e-07 -8.405683e-08 -7.292638e-08 1.273049e-07 -4.023518e-08
-8.861090e-08 3.068689e-07 -1.067369e-07 -7.742920e-08 1.176033e-07 -3.251781e-08
6.503133e-08 7.408944e-08 -8.518540e-08 -9.723800e-08 -5.129262e-08 4.821956e-08
3.970532e-08 4.832748e-08 -5.637924e-08 -5.281812e-08 -5.609273e-08 5.016588e-08
5.552675e-08 5.621871e-08 -6.215194e-08 -6.392245e-08 -3.369329e-08 2.776424e-08
4.932096e-08 3.299851e-08 -4.868281e-08 -5.314673e-08 -3.351220e-08 4.239476e-08
5.516521e-08 3.018423e-08 -6.301604e-08 -5.472592e-08 -2.642223e-08 3.142639e-08
-1.355998e-07 2.819443e-07 -7.912343e-08 1.573640e-07 -1.611954e-07 -2.804413e-08
-1.047404e-07 2.414973e-07 -1.036295e-07 1.002784e-07 -1.073144e-07 -2.637453e-08
2.167207e-09 3.573199e-08 -3.305087e-08 1.958301e-08 3.610978e-08 2.264281e-08
-1.527335e-08 4.303433e-08 -3.590854e-08 1.575428e-08 5.593574e-08 2.416763e-08
-5.360793e-08 2.968490e-07 -7.770976e-08 2.008944e-07 -1.432868e-07 -8.691847e-08
-1.112558e-07 3.224840e-07 -6.686541e-08 2.173307e-07 -1.184982e-07 -4.110837e-08
-5.532105e-08 2.055963e-07 -8.423986e-08 -1.641138e-08 6.772218e-08 -7.187426e-09
-2.193635e-07 3.864516e-07 -4.051135e-08 1.126194e-07 -9.748442e-08 -2.419245e-08
-1.225661e-07 3.521082e-07 -1.007044e-07 7.324891e-08 -1.575120e-07 -1.393411e-08
5.867157e-08 1.170291e-08 -3.346341e-08 -2.013712e-08 -8.774257e-09 9.035213e-09
-3.067575e-08 2.423448e-08 -3.504421e-08 3.565643e-09 8.615250e-08 -9.271280e-09
-5.885311e-08 2.055196e-07 -8.198927e-08 7.274072e-09 7.070946e-08 4.838800e-10
1.619953e-08 -7.210929e-07 2.112942e-06 4.010022e-07 -1.417694e-07 -1.738334e-06
5.904093e-08 1.976043e-08 -3.445610e-08 -2.705102e-08 -8.734110e-09 1.050607e-08
-5.924944e-08 2.477497e-07 -1.023270e-07 -4.690279e-08 1.053809e-07 -1.981703e-08
5.749850e-08 1.224292e-08 -3.165023e-08 -2.980807e-08 -1.335844e-08 1.472564e-08
5.214751e-08 -3.302363e-08 -4.325256e-08 -2.149480e-08 -2.798778e-08 9.568404e-08
1.942772e-07 -6.019620e-08 -7.818206e-08 -4.733654e-08 -1.301259e-08 7.098445e-08
1.538664e-07 -6.070940e-08 -6.908904e-08 -9.700422e-09 -9.089317e-09 8.378966e-08
6.063726e-08 3.470239e-09 -2.489822e-08 -2.116085e-08 -8.304511e-09 1.662501e-08
6.412911e-08 1.079452e-08 -5.317100e-08 -4.227112e-08 -1.537941e-08 2.335000e-08
5.679169e-08 -4.059185e-08 -2.469896e-08 -3.384454e-09 -4.449834e-09 1.031843e-07
6.452628e-08 9.352469e-09 -4.233523e-08 -4.202351e-08 -1.816915e-08 2.748313e-08
6.679246e-08 -4.052386e-08 -3.590543e-08 -4.526977e-09 -4.987854e-09 1.241515e-07
6.444500e-08 1.039604e-08 -5.353856e-08 -4.251452e-08 -1.494715e-08 2.339704e-08
1.873184e-07 -6.009407e-08 -7.977218e-08 -4.976524e-08 -1.217431e-08 7.446292e-08
8.323431e-08 -1.250909e-08 -2.659391e-08 -1.894361e-08 -5.778573e-09 2.022163e-08
5.953501e-08 1.280173e-08 -4.239317e-08 -2.912202e-08 -1.041388e-08 1.536156e-08
1.563509e-08 1.499529e-07 -9.837970e-08 1.371767e-07 8.153364e-08 5.032999e-08
2.453424e-08 9.821568e-08 -8.440613e-08 8.459602e-08 5.537395e-08 3.904492e-08
1.547325e-08 1.011788e-07 -8.727824e-08 9.656113e-08 6.076821e-08 3.384128e-08
8.055289e-09 5.968727e-08 -5.351618e-08 4.599617e-08 5.444636e-08 4.752731e-08
9.045053e-08 -2.018094e-08 -2.857743e-08 -1.148073e-08 -2.882506e-09 1.996013e-08
3.018739e-08 6.114501e-08 -6.736606e-08 7.485120e-08 8.247124e-08 5.241860e-08
1.161732e-07 6.926113e-08 -9.723943e-08 2.053139e-07 8.502822e-08 7.667877e-08
1.292175e-08 4.279127e-08 -7.268283e-08 7.751198e-08 1.121797e-07 7.575396e-08
5.095208e-08 6.940127e-08 -6.408435e-08 9.471055e-08 5.611084e-08 5.680827e-08
4.612402e-07 -2.576908e-07 5.069853e-07 4.361444e-07 -7.848004e-08 1.171533e-07
1.328214e-07 1.235134e-07 -1.058058e-08 3.270941e-07 -9.751280e-08 -1.788352e-08
-1.443372e-07 2.397662e-07 1.853279e-07 2.694713e-07 -2.055224e-08 -4.708738e-08
-4.188936e-07 7.109734e-07 3.237560e-07 2.629338e-07 8.872259e-08 1.900151e-08
-3.285717e-08 -5.093283e-08 2.192749e-07 1.439783e-08 3.980740e-07 5.597320e-08
1.481576e-07 -2.570518e-08 1.951497e-07 4.006792e-07 4.212048e-08 1.710327e-07
1.078194e-07 1.747064e-07 2.177907e-07 5.165461e-07 6.724362e-08 -6.681759e-10
-8.142679e-08 -4.715021e-08 3.370247e-07 2.568989e-08 -4.902202e-08 6.103825e-08
-3.965027e-07 5.581968e-07 1.511731e-07 -2.012912e-07 -1.419745e-07 1.353608e-08
-3.598054e-07 -8.842284e-07 5.727539e-06 5.776363e-07 1.732125e-06 4.236010e-06
-2.531710e-06 -8.342086e-07 7.741732e-06 -4.588160e-07 3.724020e-06 -1.804884e-06
-1.135007e-07 6.150419e-08 1.034315e-06 6.462228e-07 6.925459e-07 2.967672e-07
1.264583e-07 -1.311840e-07 5.563780e-07 4.899027e-07 -2.561025e-07 -2.023356e-07
1.767024e-07 -8.836084e-08 8.524944e-07 6.218167e-07 -4.042645e-07 -3.051350e-07
3.726459e-08 2.749505e-07 -7.564105e-08 2.260619e-07 -1.087463e-07 -8.572466e-08
-1.001962e-06 -9.526566e-07 7.942952e-06 -9.673266e-07 2.143096e-06 -3.000424e-06
3.230227e-07 -7.533319e-07 2.266896e-06 -6.636641e-07 7.371706e-07 -1.376023e-06
2.534556e-08 3.703841e-08 -3.982745e-08 -4.945897e-08 -6.880567e-08 6.296519e-08
1.037290e-07 6.251258e-08 5.372956e-07 5.222608e-07 -1.811965e-07 -3.349026e-07
3.810116e-08 1.465823e-07 -1.062612e-07 -1.861615e-07 -9.243316e-08 8.834320e-08
2.848128e-07 -2.308823e-07 4.741445e-07 4.436790e-07 -1.507454e-07 -3.518878e-07
-1.004064e-08 -9.880027e-08 2.242140e-07 1.046694e-07 2.266347e-08 7.473254e-08
-8.075242e-08 1.435424e-07 -4.194687e-08 -9.610453e-08 -1.415222e-07 6.608268e-08
-2.758479e-08 7.529614e-09 -4.092403e-08 -3.911240e-09 -9.756554e-08 4.073110e-08
2.543504e-07 -9.818175e-09 5.285335e-08 3.517702e-07 7.308587e-08 8.569398e-08
-3.206655e-08 -1.459020e-08 -2.790857e-08 5.212877e-09 -1.377339e-07 5.617228e-08
-1.443395e-08 1.304357e-07 -1.087397e-07 -9.502003e-08 -9.564059e-08 4.485052e-08
-7.117032e-07 4.786645e-07 1.490443e-06 -5.191562e-07 -7.021765e-07 1.484949e-07
-8.206230e-08 1.807936e-07 -1.867897e-08 -4.419084e-08 2.128811e-07 -3.953007e-08
-8.252799e-08 2.655483e-07 -1.092486e-07 6.933221e-08 -1.763455e-07 -6.027189e-08
-3.612818e-08 -5.998597e-08 4.313075e-09 -1.366367e-08 -1.710617e-07 -3.426142e-08
-3.173654e-08 -3.227906e-08 -1.452622e-08 -1.998984e-08 -1.697250e-07 -4.942368e-08
-5.838002e-08 3.263224e-07 -4.644906e-08 -3.038016e-07 -5.432495e-08 5.066714e-08
-1.290666e-07 2.713284e-07 -1.040230e-07 5.946879e-08 -1.874562e-07 -3.527547e-08
-1.319237e-07 3.573773e-07 -1.215892e-07 1.282668e-07 -1.652910e-07 -4.486590e-08
-8.019444e-08 -2.481159e-08 -2.066231e-08 -1.221336e-08 -1.721218e-07 -7.168170e-08
-2.919432e-08 -1.057098e-08 -4.361247e-08 -4.497130e-09 -1.231035e-07 -1.523678e-08
-2.579896e-07 3.106603e-07 3.240510e-07 -2.519446e-07 3.658227e-08 2.686537e-08
-2.730807e-08 6.130950e-08 -4.488696e-08 4.937617e-08 -1.446202e-07 -3.013775e-08
-7.278311e-08 1.492663e-07 -3.656043e-08 1.622454e-08 -1.949343e-07 -2.262423e-08
-2.025794e-07 4.011231e-07 -9.490281e-08 -1.401297e-08 -1.749089e-07 2.432620e-08
-9.669476e-08 1.325278e-07 1.688912e-07 -1.269809e-07 3.022031e-07 -1.263118e-07
-3.091238e-08 3.529396e-07 -7.088532e-08 -2.569186e-07 9.978964e-08 -4.429302e-08
3.827243e-08 -1.839924e-08 1.587662e-08 -4.224742e-08 -2.952511e-08 1.420994e-08
5.654591e-07 -2.658956e-07 1.391773e-07 -2.867876e-07 6.487302e-09 3.119964e-08
9.649424e-08 9.807519e-08 -1.153338e-07 -1.872225e-07 -6.901347e-08 7.881049e-08
-5.718760e-08 -4.864869e-08 3.212870e-08 -3.250235e-08 -1.414260e-07 1.546784e-07
2.413142e-07 -6.476825e-08 -8.381854e-08 5.586371e-08 2.536066e-08 1.212690e-07
-1.307546e-08 -3.344346e-08 -1.865448e-08 -3.192347e-08 -1.029659e-07 1.037533e-07
8.038192e-08 -2.588809e-08 -3.327295e-08 6.080560e-09 5.997865e-09 4.172832e-08
-3.587837e-06 -2.783201e-06 1.099175e-05 1.108871e-07 -3.567836e-07 -1.305627e-07
1.236476e-07 -3.476926e-08 -5.228863e-08 1.637911e-08 -8.047684e-10 5.589648e-08
-7.063517e-07 2.390806e-07 2.127500e-06 -7.126763e-07 -9.093238e-07 6.931548e-07
-7.479129e-07 -1.638269e-06 5.385718e-06 -8.659062e-07 -2.093120e-06 2.010653e-06
-3.068367e-06 -1.844024e-06 2.419598e-05 -1.183164e-06 -4.836788e-06 -5.289407e-06
-1.663028e-06 -6.338539e-07 1.148210e-05 -6.070154e-07 4.744369e-06 -2.189547e-06
5.007346e-07 -2.466804e-07 1.266018e-07 2.894419e-07 -1.950358e-08 1.061901e-08
1.375430e-07 -2.153987e-08 -6.632952e-08 4.100957e-08 1.197544e-08 3.733804e-08
1.160448e-07 -2.154055e-08 -5.122641e-08 3.345224e-08 7.920502e-09 2.640360e-08
4.386601e-07 -1.942568e-07 7.137792e-08 1.942244e-07 4.316878e-08 1.237443e-07
2.739843e-07 -2.136568e-07 5.058516e-07 2.406280e-07 -1.272969e-07 -1.537294e-08
-2.663399e-06 -2.448334e-06 1.097412e-05 -1.534306e-07 5.284644e-07 -1.166933e-06
2.276505e-07 -1.222878e-07 2.045309e-07 1.458890e-07 -2.281585e-09 3.614293e-08
6.575214e-07 -8.353587e-07 6.590791e-07 -1.095965e-07 5.463045e-08 -4.386738e-07
-8.038230e-08 -6.635314e-08 3.085101e-07 -4.658068e-08 1.639623e-07 -4.155797e-08
1.925153e-07 -8.043034e-08 1.062912e-07 2.323922e-07 1.051591e-08 6.677498e-08
2.789395e-07 -9.879518e-08 1.218423e-07 2.741375e-07 -6.784241e-08 9.340466e-08
8.996515e-08 1.571828e-09 -5.334506e-08 6.622688e-08 6.935858e-08 1.077278e-07
3.341249e-08 -6.421444e-08 -5.031637e-08 3.701902e-08 5.383648e-08 1.057972e-07
-4.304718e-08 1.315732e-07 -7.574401e-08 -1.690606e-08 1.262381e-07 -1.558057e-08
8.367558e-08 7.049840e-09 -4.681305e-08 6.511056e-08 4.094238e-08 7.306686e-08
1.829447e-07 -5.244521e-08 -7.272275e-08 9.123394e-08 2.995872e-08 9.580369e-08
1.886166e-07 -2.727763e-08 -8.791659e-08 1.179682e-07 4.159597e-08 9.015859e-08
4.119880e-08 -1.601059e-08 -3.603424e-08 4.079241e-08 4.483504e-08 8.782468e-08
-4.303070e-08 5.736178e-08 -3.437565e-08 -5.000542e-09 8.278951e-08 -1.140227e-08
1.401465e-07 -1.881947e-08 -6.804800e-08 1.061731e-07 5.167695e-08 1.193171e-07
1.108912e-07 1.359418e-08 -8.127850e-08 7.923886e-08 3.810296e-08 5.569365e-08
-5.241300e-08 1.433079e-07 -7.325101e-08 5.778718e-09 1.323288e-07 1.037031e-09
1.119487e-07 2.032260e-08 -7.644555e-08 8.615950e-08 3.239033e-08 5.014106e-08
1.465390e-07 -4.785783e-08 -5.704208e-08 3.167100e-08 1.263767e-08 5.512320e-08
-3.944124e-08 1.438273e-07 -8.122613e-08 -1.703247e-08 6.756504e-08 -2.513884e-08
2.867382e-07 -8.607196e-08 -8.696100e-08 9.904061e-08 5.060887e-08 1.224108e-07
1.358216e-07 -3.049895e-08 -5.746863e-08 1.658712e-08 5.568093e-09 3.296136e-08
3.719456e-07 -2.721839e-07 1.854715e-07 6.305911e-08 2.082672e-08 1.124382e-08
5.676990e-07 -5.715562e-07 6.571618e-07 1.473431e-07 -4.969993e-08 6.155665e-09
7.289274e-07 -3.993710e-07 2.036118e-07 -2.885619e-08 -4.584436e-08 -4.099648e-08
5.831308e-07 -3.768241e-07 1.201028e-06 3.428650e-07 -2.744271e-07 -4.012958e-07
4.380896e-07 -2.025391e-07 1.622380e-07 1.414813e-07 -1.407183e-08 1.893311e-08
3.766253e-07 -6.445567e-08 3.339390e-08 3.744455e-07 1.589453e-08 3.648562e-08
2.832021e-08 1.075557e-07 6.128929e-08 -1.875935e-07 3.698899e-08 -5.099041e-08
8.731440e-08 1.622398e-07 2.161181e-08 -3.346171e-07 -4.308513e-08 1.873749e-08
9.942869e-08 -7.630554e-08 2.792535e-07 5.739170e-08 1.113327e-07 2.590584e-07
-3.583135e-08 3.637722e-08 7.929086e-07 -5.678129e-07 -1.391049e-07 2.330682e-07
-6.117241e-08 -5.390128e-08 3.789708e-08 -2.248988e-08 1.440123e-07 -1.481637e-07
1.002808e-07 -8.431935e-08 2.757297e-07 5.593737e-08 -1.009910e-07 1.413172e-07
6.989310e-07 -1.883293e-07 -3.537975e-07 6.966337e-07 9.205445e-07 1.295936e-06
2.742570e-07 -6.800739e-09 1.628039e-07 4.762264e-07 -9.109660e-08 -8.584056e-08
-1.170802e-06 6.145585e-07 1.977537e-06 5.275659e-07 9.456062e-07 5.786333e-07
1.401657e-07 -4.625049e-08 5.089517e-08 -1.290879e-07 7.924703e-08 -7.983558e-08
1.137325e-07 -2.584255e-08 -4.554762e-08 3.269561e-08 8.667370e-09 3.624555e-08
-2.050257e-07 1.638835e-07 5.090450e-07 -4.234163e-08 -3.194126e-08 2.114594e-07
2.615988e-07 -5.755932e-07 1.398921e-06 -7.413696e-07 -3.640150e-07 6.793651e-07
4.350932e-08 5.202756e-08 -7.128824e-08 -5.681910e-08 -4.076057e-08 3.998785e-08
4.088075e-08 5.576796e-08 -6.720549e-08 -7.070354e-08 -9.577741e-08 7.537728e-08
1.021125e-08 4.094898e-08 -4.797446e-08 -5.116421e-08 -6.694729e-08 5.469272e-08
-1.212663e-06 -1.427204e-06 6.055283e-06 6.731070e-07 -1.164375e-06 -1.400904e-06
4.218395e-08 7.453344e-08 -8.332805e-08 -7.890842e-08 -5.433841e-08 4.157907e-08
5.197215e-07 6.740230e-08 7.001136e-07 3.953566e-07 -7.434665e-07 -1.299523e-06
-1.003136e-06 -6.593495e-07 3.761829e-06 -5.674989e-07 -1.460744e-06 7.248374e-07
-1.018331e-06 5.164780e-07 1.294489e-06 4.028884e-08 -6.225165e-07 -1.681671e-07
-2.930202e-07 -2.634421e-07 4.731153e-06 -6.406095e-08 1.036248e-06 -5.521875e-06
-1.131080e-07 -1.949357e-06 3.710105e-06 -1.931712e-07 -1.720328e-07 1.381740e-06
3.071029e-07 1.960734e-07 1.842162e-06 4.515844e-07 1.037889e-06 1.875704e-06
3.521283e-08 6.584137e-08 6.468471e-07 1.029536e-07 -4.180938e-07 -4.030584e-07
1.037951e-07 1.496853e-08 -8.717121e-08 -9.439310e-08 -4.897036e-08 5.302665e-08
-5.062956e-08 -5.963053e-08 1.317165e-07 1.700121e-08 1.351281e-07 -5.873300e-08
2.979316e-08 3.729151e-08 -5.502675e-08 -3.953644e-08 -2.912787e-08 2.872114e-08
2.552358e-08 4.084081e-08 -5.257014e-08 -4.623484e-08 -6.555753e-08 4.776663e-08
-3.966353e-08 1.097783e-07 -3.210047e-08 -4.592628e-08 1.758124e-07 -7.000834e-08
-1.434463e-07 2.351759e-07 -7.365070e-09 -1.768055e-08 7.936680e-08 1.947136e-08
-3.801993e-08 -6.107289e-08 1.109175e-07 6.221989e-09 1.646852e-07 3.966236e-08
2.753130e-08 7.212208e-08 -8.703908e-08 -9.925476e-08 -5.380799e-08 4.519372e-08
-2.916652e-07 3.042764e-07 1.841277e-07 -4.825017e-08 -1.281086e-07 1.069547e-07
-2.922698e-07 3.822457e-07 2.374923e-07 2.597037e-07 -8.587836e-09 -1.961215e-09
1.280545e-07 2.505982e-08 -8.765383e-08 1.508129e-07 6.333183e-08 7.593596e-08
2.720516e-07 -7.716480e-08 5.032705e-08 5.781775e-08 1.891286e-08 2.112849e-07
2.495380e-07 -4.640253e-08 -5.869894e-08 1.530687e-07 4.690010e-08 1.196614e-07
-2.773677e-08 7.703216e-08 -2.963487e-08 1.591358e-07 1.494237e-07 6.808229e-08
1.629320e-07 7.612781e-08 -2.092028e-08 2.867958e-07 8.413094e-08 1.028047e-07
-3.131309e-08 1.547745e-08 -2.654492e-08 3.788758e-08 9.584586e-08 1.071169e-07
3.044517e-09 -3.118414e-09 -5.083604e-08 3.834610e-08 7.562698e-08 7.916585e-08
6.069712e-08 6.344587e-09 -2.259499e-08 -1.495945e-08 -5.497739e-09 9.403813e-09
-2.090046e-07 3.470925e-07 1.744657e-07 1.126524e-07 5.736477e-08 1.114207e-07
-9.095353e-08 3.835000e-07 -1.797096e-08 2.460920e-07 1.420159e-07 6.794900e-08
1.374473e-07 -1.824917e-08 -7.909755e-08 -6.392814e-08 -2.979626e-08 6.577447e-08
1.032226e-07 -5.802886e-09 -7.419067e-08 -7.463663e-08 -3.535012e-08 8.248472e-08
8.157012e-08 7.563303e-09 -4.437840e-08 -4.372961e-08 -1.909157e-08 3.494584e-08
7.271438e-08 1.340485e-09 -3.069254e-08 -1.960301e-08 -3.060473e-09 8.143761e-09
6.409045e-08 -8.306625e-10 -2.533098e-08 -1.406753e-08 -5.446791e-09 1.294080e-08
7.743404e-08 -2.254398e-08 -3.149074e-08 -1.038800e-08 -5.571574e-09 3.355952e-08
8.141495e-08 7.460511e-09 -5.075965e-08 -4.338912e-08 -1.827346e-08 3.188030e-08
9.123401e-08 1.576363e-08 -6.628823e-08 -5.837850e-08 -2.530951e-08 3.368197e-08
9.792749e-08 -6.753180e-09 -6.656893e-08 -5.059519e-08 -1.435297e-08 4.149043e-08
1.249302e-07 -2.077324e-08 -6.159669e-08 -4.420646e-08 -2.187940e-08 4.167070e-08
-1.266750e-07 4.136362e-07 -9.578864e-08 -4.645021e-08 -1.752153e-07 2.782398e-08
7.994341e-08 -1.261449e-08 -3.684334e-08 -3.411491e-08 -1.765254e-08 4.731621e-08
6.517998e-08 1.732213e-09 -2.812636e-08 -2.465018e-08 -1.350421e-08 2.318701e-08
-7.244660e-08 2.727415e-07 -1.148206e-07 6.085350e-08 -1.006655e-07 -2.513972e-08
8.900946e-08 5.261453e-09 -6.826491e-08 -5.507176e-08 -1.784022e-08 3.067694e-08
9.356324e-08 7.012957e-11 -4.496239e-08 -4.268885e-08 -1.995766e-08 3.636208e-08
-1.561533e-07 -5.739186e-08 1.034963e-07 -8.876653e-09 1.966221e-07 -1.814975e-07
9.883654e-08 1.209030e-07 -7.732245e-08 -2.135466e-07 7.163893e-08 -5.744028e-08
-1.776467e-07 3.293019e-07 1.053386e-07 -3.533263e-07 -2.556659e-08 -8.303626e-08
4.926766e-08 1.019858e-08 -2.708079e-08 -2.025082e-08 -1.490068e-08 1.943592e-08
-8.111201e-08 1.978887e-07 -4.846950e-08 -4.290788e-08 1.676090e-07 -2.569615e-08
1.917760e-07 4.498958e-08 -4.762758e-09 -3.861397e-07 5.053687e-08 -7.660587e-08
3.958507e-09 1.335248e-07 -8.086709e-08 -1.274523e-07 1.349047e-07 -9.937539e-08
-4.290044e-08 -5.393135e-08 6.114491e-08 2.679233e-08 1.331523e-07 -2.028537e-07
7.104479e-09 1.418137e-07 -4.859685e-08 -7.309951e-08 1.944499e-07 -9.856567e-08
-5.229009e-08 1.086961e-07 1.148728e-08 -1.238599e-07 1.042867e-07 -8.111510e-08
-1.062550e-07 1.426858e-07 6.165346e-08 -8.971720e-08 1.182679e-07 8.314347e-09
5.925123e-08 1.311996e-08 -2.896252e-08 -2.105229e-08 -5.751950e-09 6.934533e-09
4.757188e-08 1.309097e-08 -3.357706e-08 -1.825087e-08 -8.587200e-09 1.066677e-08
5.311345e-08 9.603984e-09 -2.788602e-08 -1.321931e-08 -5.309631e-09 9.510087e-09
5.205740e-08 9.682032e-09 -2.193438e-08 -1.018839e-08 -2.710559e-09 4.180978e-09
-9.260884e-08 1.066748e-07 2.659613e-07 -2.049388e-07 1.214901e-07 -2.566828e-08
4.691344e-08 1.156664e-08 -2.507110e-08 -1.316653e-08 -5.567618e-09 7.474024e-09
-6.986688e-07 4.177585e-07 1.814880e-06 -5.144601e-07 -3.700875e-07 -4.623606e-08
3.478838e-08 3.870207e-08 -5.016239e-08 4.618510e-08 3.914122e-08 3.971548e-08
-3.792411e-08 1.680227e-07 -7.784225e-08 -4.182392e-08 5.539989e-08 -1.492671e-08
-3.598913e-08 2.240874e-08 -3.299694e-08 1.195700e-08 1.065089e-07 -3.424139e-08
-2.708787e-08 6.747637e-08 -5.302788e-08 -1.943361e-08 8.397921e-08 -2.502652e-08
-3.058874e-08 5.098836e-09 -3.838891e-08 1.375572e-08 1.608423e-07 -1.383772e-08
4.955015e-08 2.459590e-08 -3.534100e-08 3.639375e-08 2.419029e-08 2.461261e-08
3.459767e-08 3.979603e-08 -3.663609e-08 4.637321e-08 5.110737e-08 4.688963e-08
4.500378e-08 4.509006e-08 -5.512834e-08 6.149300e-08 2.014792e-08 2.975298e-08
-3.439867e-08 9.202319e-08 -6.793277e-08 -5.347694e-08 1.415676e-07 -6.431999e-08
-3.831313e-08 9.839688e-08 -3.927923e-08 -1.858839e-08 9.750177e-08 -2.635488e-08
6.902085e-08 3.898097e-08 -5.162338e-08 6.214867e-08 1.898744e-08 2.040465e-08
5.003130e-08 3.235250e-08 -5.517141e-08 4.842479e-08 2.927434e-08 3.493028e-08
6.607022e-09 1.172536e-08 -3.550700e-08 3.290495e-08 6.916896e-08 5.822129e-08
1.187796e-07 -1.322026e-09 -6.915692e-08 6.433366e-08 1.732164e-08 3.705602e-08
4.707728e-08 3.985220e-08 -5.183317e-08 4.721688e-08 2.436008e-08 2.468432e-08
2.958557e-08 6.508842e-08 -5.035072e-08 5.848631e-08 4.448961e-08 3.559070e-08
3.233375e-08 4.178486e-08 -4.753916e-08 3.573059e-08 2.061788e-08 1.779033e-08
-2.273817e-09 3.290160e-09 -3.127021e-08 2.049560e-08 9.819654e-08 8.239353e-08
2.373422e-08 6.126840e-08 -4.715674e-08 4.257242e-08 1.897100e-08 1.324875e-08
2.008766e-08 4.074081e-08 -4.589894e-08 3.494814e-08 3.341104e-08 2.569866e-08
-4.392565e-07 1.125418e-07 1.561858e-06 6.862099e-07 -2.734636e-07 -3.864066e-07
4.522637e-08 1.124165e-08 -2.462665e-08 -2.047526e-08 -1.312419e-08 1.752495e-08
2.621481e-08 2.230538e-08 -2.696999e-08 2.146806e-08 2.284156e-08 1.879151e-08
2.387020e-08 4.516629e-08 -4.544139e-08 4.185515e-08 3.603991e-08 2.673742e-08
2.622537e-08 7.253655e-08 -6.233230e-08 6.612957e-08 2.999595e-08 2.213695e-08
5.221627e-07 -3.808776e-07 5.854688e-07 -4.287741e-07 4.508809e-08 1.160492e-07
4.525925e-07 -5.527669e-08 -1.553216e-08 -5.562168e-08 -5.535042e-08 1.465072e-07
4.734213e-08 1.776000e-08 -2.402249e-08 -2.127891e-08 -1.256065e-08 1.614645e-08
5.660107e-07 -4.025905e-07 4.511805e-07 -5.776290e-08 -2.228250e-08 2.573287e-07
4.653943e-08 1.897322e-08 -4.336768e-08 -3.289622e-08 -2.879211e-08 2.839492e-08
4.425692e-07 -9.452005e-08 4.560724e-08 6.634012e-08 7.182156e-08 2.039705e-07
6.535306e-08 1.932815e-08 -4.128905e-08 -3.759296e-08 -2.142478e-08 2.617363e-08
5.684936e-07 -6.639772e-07 6.877731e-07 -3.903661e-07 -8.194717e-08 2.238987e-07
2.217765e-07 -9.771229e-08 4.407104e-07 -3.799462e-08 -2.351795e-08 3.036892e-07
3.350131e-08 1.733748e-08 -2.961528e-08 -1.958149e-08 -1.534497e-08 1.757537e-08
6.020379e-07 -5.309617e-07 5.670441e-07 -1.253841e-07 -2.064043e-08 3.493136e-07
-1.669649e-07 -1.927590e-07 1.001487e-06 -3.029618e-07 -3.402669e-07 5.231235e-07
5.223889e-08 2.761537e-08 -3.767139e-08 -3.480531e-08 -1.879614e-08 2.298704e-08
1.545639e-07 -2.712161e-08 7.893280e-07 5.742916e-07 4.360478e-07 1.447952e-07
3.702192e-07 -3.724808e-07 7.186633e-07 5.686780e-07 2.532046e-07 3.281028e-07
8.894695e-08 -2.149843e-08 -4.454337e-08 -2.504463e-08 -1.357031e-08 3.425302e-08
4.857243e-07 -2.148242e-07 3.470247e-08 -2.930756e-07 2.909099e-08 -2.952370e-08
-8.521654e-08 2.085541e-07 6.416587e-08 -2.472339e-07 1.276975e-07 -2.531149e-08
6.976144e-07 -4.634252e-07 1.415370e-07 -1.123926e-08 -2.182844e-08 4.364819e-08
8.060246e-08 -1.367855e-08 -3.587806e-08 -2.361240e-08 -1.111581e-08 2.748159e-08
6.979558e-08 -3.313997e-09 -2.553674e-08 -1.902000e-08 -8.111297e-09 1.581329e-08
6.375504e-08 2.405649e-09 -3.028200e-08 -1.516079e-08 -5.817568e-09 1.104011e-08
5.517327e-08 2.669757e-09 -2.584978e-08 -1.679849e-08 -7.353937e-09 1.324616e-08
6.671145e-08 -1.535395e-08 -3.037947e-08 -2.136239e-08 -1.315168e-08 4.280898e-08
1.147175e-07 -2.972934e-08 -5.713627e-08 -3.520912e-08 -1.723216e-08 6.183539e-08
6.570708e-08 2.444680e-09 -2.903445e-08 -1.551410e-08 -5.003983e-09 8.100231e-09
4.961590e-08 1.553575e-07 -7.944189e-08 -2.702040e-07 -1.149614e-07 9.832352e-08
8.757894e-08 1.267747e-07 -1.076288e-07 -1.898492e-07 -9.831699e-08 8.288074e-08
8.291778e-08 -8.560318e-09 -4.615560e-08 -3.208888e-08 -9.974892e-09 2.274367e-08
-5.861860e-09 -4.617448e-08 -5.019282e-09 -3.699923e-08 -1.479130e-07 1.074203e-07
1.695712e-07 -1.168798e-08 -8.258781e-08 -9.233029e-08 -1.354508e-08 3.281063e-08
-3.900019e-08 1.495188e-07 -8.053429e-08 -2.550288e-08 6.473494e-08 -1.797679e-08
-5.342424e-08 1.482189e-07 -8.992674e-08 -4.008530e-08 8.882206e-08 -1.398633e-08
-5.309502e-08 2.410953e-07 -1.003251e-07 -6.522752e-08 1.046231e-07 -2.747036e-08
6.428930e-08 1.026795e-08 -6.342372e-08 -6.518620e-08 -6.134837e-08 8.267844e-08
5.433711e-08 5.633527e-09 -3.726007e-08 -2.919836e-08 -1.440064e-08 2.297326e-08
1.786304e-07 -4.255833e-08 -7.285627e-08 3.022167e-09 -3.208231e-10 5.198258e-08
-5.227420e-08 7.335438e-08 -3.804609e-08 2.538231e-08 8.798092e-08 -2.715679e-08
1.660638e-09 6.565899e-08 -4.200562e-08 -3.255801e-08 9.560404e-08 -4.219916e-08
-2.540109e-08 9.511530e-08 -5.859888e-08 -2.697498e-08 6.786501e-08 -3.306179e-08
4.813260e-08 1.612056e-08 -3.474518e-08 2.584861e-08 8.312227e-09 1.121466e-08
-9.994113e-08 2.234583e-07 -9.404093e-08 4.466662e-08 1.088093e-07 1.157981e-08
-5.100229e-08 1.324422e-07 -7.088997e-08 -1.548066e-08 1.239108e-07 -1.563071e-08
-2.773755e-07 4.539246e-07 -6.033997e-08 2.789900e-08 1.470731e-07 -1.604514e-08
-3.006168e-08 -5.727302e-08 2.913810e-08 2.686758e-08 1.843709e-07 -3.616372e-08
-7.982777e-08 2.354266e-07 7.560178e-08 -3.324688e-07 1.399586e-07 -7.654338e-08
-4.728612e-08 1.718751e-07 -1.016575e-07 -9.171357e-08 8.711004e-08 -4.161902e-08
-4.543139e-08 1.870049e-07 -1.131964e-07 4.271744e-08 -9.705607e-08 -3.325165e-08
-1.140752e-07 3.976512e-07 -1.169012e-07 8.618855e-08 -1.163733e-07 -2.453028e-08
4.475683e-08 2.000478e-08 -2.809306e-08 1.949836e-08 4.975193e-09 6.099725e-09
-7.577716e-08 1.520378e-07 -9.143925e-08 4.556239e-08 -1.696508e-07 -4.425813e-08
-5.584397e-08 2.321996e-07 -1.141405e-07 2.399301e-08 -1.065327e-07 -2.048652e-08
5.160985e-08 1.234779e-08 -2.225089e-08 1.402336e-08 2.205889e-09 5.751367e-09
5.600068e-08 1.420253e-08 -2.732100e-08 1.869626e-08 2.555899e-09 6.569099e-09
-6.313445e-08 3.198021e-07 -9.351713e-08 -2.240769e-07 -1.450672e-07 9.901669e-08
-8.669924e-08 2.329522e-07 -1.080085e-07 -9.111686e-08 -1.141602e-07 2.333424e-08
-3.207289e-08 4.214195e-09 -4.672711e-08 2.840561e-10 -1.699719e-07 5.481495e-08
-7.316189e-08 2.751124e-07 -1.075624e-07 3.384549e-08 -1.880531e-07 -2.805721e-08
-7.241952e-08 1.842372e-07 -5.580404e-08 -6.868534e-08 -1.397893e-07 2.692950e-08
5.928089e-09 1.485203e-07 -5.559282e-08 -1.849365e-07 1.286518e-07 -5.572959e-08
5.584310e-08 1.236273e-08 -3.266448e-08 2.222909e-08 6.775152e-09 7.506086e-09
5.354661e-08 1.241230e-08 -2.602825e-08 1.459723e-08 3.690431e-09 5.432630e-09
-4.776737e-08 -4.350594e-09 -4.927783e-08 1.597675e-08 1.866466e-07 -1.186282e-07
-5.295396e-08 -5.540247e-08 1.199481e-07 2.010616e-08 1.774642e-07 1.714710e-08
1.234834e-08 1.688789e-07 -9.369882e-08 -2.435601e-07 1.138863e-07 -8.422956e-08
7.992225e-09 8.850138e-08 6.616365e-08 -1.337153e-07 1.388316e-07 -2.898618e-08
1.142074e-07 2.485310e-08 -9.386173e-08 -1.082281e-07 -4.179114e-08 7.522893e-08
8.813391e-08 1.901436e-08 -5.384279e-08 -5.636155e-08 -1.531318e-08 2.292002e-08
4.770594e-08 4.796629e-09 -2.948277e-08 -2.362791e-08 -1.986228e-08 3.039574e-08
4.382860e-08 1.848860e-08 -2.564403e-08 1.085199e-08 1.339672e-09 1.357863e-09
-6.062441e-08 1.372805e-07 -4.515843e-08 7.133785e-09 1.436086e-07 1.280191e-08
6.500415e-08 4.454869e-09 -3.248200e-08 -2.846834e-08 -1.160957e-08 1.608210e-08
1.501270e-07 8.611222e-09 -9.930817e-08 -1.329248e-07 -5.173662e-08 7.022485e-08
5.854410e-08 -3.510414e-09 -2.986840e-08 -2.232608e-08 -2.109425e-08 2.918241e-08
1.909527e-07 -4.051013e-08 -7.989046e-08 -4.987916e-08 -9.523228e-09 3.828390e-08
-1.156830e-07 2.313536e-07 -8.934063e-08 1.055605e-08 1.117457e-07 8.006338e-10
1.183079e-07 -2.166134e-08 -5.209124e-08 -2.872454e-08 -9.913157e-09 2.666427e-08
-6.296777e-08 2.453993e-07 -1.025148e-07 5.262271e-08 9.925380e-08 2.047810e-08
-2.915185e-07 4.602870e-07 1.873444e-08 2.418296e-07 7.744853e-08 1.071016e-08
-1.658218e-08 1.849269e-07 -2.324647e-08 2.347062e-07 7.858912e-08 5.438114e-08
-6.289095e-09 2.330641e-07 -2.678484e-08 3.685601e-07 6.256974e-08 7.547021e-08
-1.302855e-07 2.696307e-07 -6.146647e-08 9.062275e-08 1.088562e-07 1.859628e-08
-4.407842e-08 2.237997e-07 -5.022489e-08 3.585373e-09 1.649042e-07 3.115075e-08
-4.097825e-08 1.410897e-07 -3.881886e-08 2.748448e-08 1.792697e-07 3.266016e-08
-9.816419e-08 3.286541e-07 -1.048309e-07 6.083999e-08 1.215406e-07 1.790092e-08
-5.392602e-08 -2.163188e-08 6.580931e-08 -3.036444e-08 2.158004e-07 6.333501e-08
1.032284e-07 -2.548074e-08 -3.401399e-08 -1.649191e-08 -8.734742e-09 4.624441e-08
1.027540e-07 -2.571881e-08 -4.044900e-08 -1.342569e-08 -7.846797e-09 3.136800e-08
1.003225e-07 -2.020812e-08 -3.994338e-08 -1.260747e-08 -6.171608e-09 3.152065e-08
1.817401e-07 1.387830e-07 -5.305556e-08 -3.765282e-07 -1.081256e-07 8.945920e-08
1.208570e-07 -3.272166e-08 -6.148595e-08 -2.830625e-08 -7.856569e-09 3.846210e-08
9.640273e-08 -1.805059e-08 -4.012260e-08 -2.015595e-08 -7.936196e-09 3.067957e-08
9.644943e-08 -1.302398e-08 -4.531572e-08 -3.795388e-08 -1.975968e-08 3.658614e-08
9.978737e-08 -2.245212e-08 -4.582277e-08 -2.372846e-08 -7.163434e-09 2.366145e-08
2.164956e-07 -3.481643e-08 -6.198642e-08 -2.946415e-07 -8.471955e-08 1.259904e-07
8.210983e-08 -5.890213e-10 -4.884846e-08 -3.627206e-08 -1.354123e-08 2.070391e-08
1.225236e-07 -4.556840e-08 -4.701183e-08 4.522651e-08 1.732475e-08 9.780731e-08
5.253733e-08 -3.692524e-08 -4.004734e-08 2.285391e-08 2.564333e-08 1.079302e-07
7.438604e-08 1.155671e-08 -4.426436e-08 -3.676560e-08 -1.897158e-08 2.819813e-08
7.199203e-08 1.029282e-08 -4.351686e-08 -3.852306e-08 -1.870201e-08 2.837282e-08
1.832630e-07 -5.149805e-08 -8.839595e-08 9.211997e-08 2.602211e-08 8.807708e-08
1.107576e-08 -2.100280e-08 -2.729956e-08 2.391353e-08 6.286649e-08 1.391931e-07
6.175485e-08 9.320631e-09 -3.519689e-08 -3.519046e-08 -2.469790e-08 3.741953e-08
4.837966e-08 -1.272094e-08 -3.370170e-08 -2.664748e-08 -3.056111e-08 5.395477e-08
1.201407e-07 -4.770540e-08 -6.267392e-08 2.986659e-08 1.489070e-08 7.157323e-08
2.471066e-07 -7.513489e-08 -8.611997e-08 4.627073e-08 1.287146e-08 9.603849e-08
2.510172e-07 -5.366356e-08 -9.505836e-08 6.518776e-08 2.201440e-08 8.403010e-08
6.829952e-08 9.060985e-09 -6.735843e-08 6.320898e-08 2.535756e-08 4.229637e-08
1.511833e-07 -8.968035e-09 -8.938266e-08 9.231035e-08 3.007292e-08 6.081656e-08
1.317416e-07 3.850853e-08 -1.046386e-07 1.424957e-07 5.812583e-08 7.389474e-08
-3.214364e-07 -7.839427e-07 2.294693e-06 -8.289567e-07 6.236535e-07 -1.045106e-06
1.829153e-07 -8.631017e-08 -4.073063e-08 -1.292070e-08 -3.073951e-08 1.327148e-07
3.245690e-07 -1.177841e-07 -4.894656e-08 5.554829e-08 2.442707e-08 1.594457e-07
1.347015e-07 -6.871299e-08 -3.737245e-08 -9.411430e-09 3.748595e-09 1.498274e-07
1.801913e-07 -6.056571e-08 -8.562465e-08 1.619444e-08 1.121930e-08 8.296520e-08
2.426645e-07 4.076730e-07 -2.739743e-08 4.531909e-07 2.564454e-07 3.576818e-07
1.709629e-07 -5.237715e-08 -6.491051e-08 5.159605e-08 1.534880e-08 7.256672e-08
-8.076019e-07 5.160783e-07 1.110048e-06 1.058768e-08 -6.064354e-07 -3.072172e-08
-7.868005e-08 -1.495692e-08 3.469415e-07 1.015908e-07 -1.620601e-07 -1.397889e-07
-2.524953e-06 1.366981e-06 6.435470e-06 -5.842565e-07 2.619277e-06 -4.813123e-06
-1.342508e-07 1.209757e-07 1.000582e-07 1.113892e-07 2.332836e-08 -7.327337e-08
1.726701e-07 -5.592825e-08 -7.373724e-08 -6.036598e-09 -3.440436e-09 5.179133e-08
-4.109436e-07 3.211873e-07 6.137762e-06 5.166437e-08 2.370376e-06 -3.802361e-06
-3.520668e-07 5.447489e-07 1.449986e-06 3.593693e-07 -2.067262e-06 -1.166099e-06
-6.809716e-07 2.254830e-07 1.355136e-06 5.184285e-07 -8.235319e-07 -1.307687e-07
-8.212799e-08 2.384832e-07 2.230532e-07 3.499010e-07 -2.645186e-07 -3.473589e-07
-2.402760e-07 -1.492271e-06 5.691210e-06 3.357795e-07 -3.181293e-07 -2.142120e-06
2.821019e-07 -1.750673e-07 2.807709e-06 7.138229e-08 -3.599995e-06 -6.308039e-07
-2.672430e-06 -2.324810e-06 1.089396e-05 4.116736e-07 -1.009203e-06 -1.053001e-06
-1.076647e-06 2.253395e-08 4.642510e-06 1.554462e-06 -3.069514e-06 -2.653969e-06
1.318868e-07 -2.500524e-08 -5.337319e-08 3.803237e-08 1.305449e-08 5.396727e-08
-2.605880e-06 -1.944016e-06 7.063285e-06 9.961017e-07 3.573018e-06 3.972268e-06
9.553371e-08 -1.640580e-08 -6.404214e-08 4.213658e-08 3.479701e-08 8.814747e-08
1.394005e-07 -4.744550e-08 -5.979120e-08 2.932707e-08 2.287520e-08 9.395700e-08
5.984978e-07 -4.085413e-07 4.675364e-07 -4.180312e-07 1.194069e-07 -1.507434e-07
6.550625e-08 5.871946e-08 -6.694730e-08 8.177077e-08 3.090551e-08 3.119995e-08
5.860038e-07 -3.309722e-07 8.795429e-08 -1.815067e-07 -1.987152e-08 4.603596e-08
5.911772e-07 -5.666568e-07 5.086593e-07 -2.074186e-07 5.619821e-07 -5.142896e-07
3.492486e-07 -1.634643e-07 3.798713e-08 2.081819e-07 -5.452719e-08 1.649184e-08
1.136024e-07 -2.154050e-08 -6.088926e-08 3.405327e-08 7.472264e-09 3.378953e-08
9.899379e-08 -2.330119e-08 -5.164843e-08 2.195914e-08 1.100520e-08 5.478750e-08
3.776199e-07 -2.295846e-07 2.990349e-07 -4.649464e-07 -1.571384e-07 1.047743e-07
8.101378e-08 -8.717555e-09 -2.980564e-08 2.206266e-08 1.094017e-08 2.911530e-08
3.391517e-07 -4.780916e-07 1.208588e-06 6.813327e-07 1.243701e-07 3.892315e-07
1.186420e-07 -1.636020e-08 -7.098401e-08 4.755418e-08 1.217875e-08 4.651207e-08
4.674419e-08 -7.868838e-08 2.097835e-07 -1.129049e-08 3.142875e-09 -2.113729e-08
9.464378e-08 -2.175318e-08 -3.555520e-08 3.077480e-08 1.925351e-08 5.089738e-08
-1.106668e-07 1.577180e-07 4.473779e-07 4.402945e-07 -5.274711e-08 1.791629e-07
1.109866e-07 -1.216668e-06 3.017072e-06 -5.951048e-07 -9.956245e-07 2.168683e-06
-2.551805e-08 -5.310271e-09 -2.949204e-08 1.357874e-08 1.054729e-07 -8.177424e-08
-1.086807e-07 -4.231344e-08 4.892011e-07 2.001531e-07 1.196641e-07 1.510341e-07
2.465048e-07 -1.687736e-07 5.034757e-07 3.637161e-07 8.137925e-08 1.113364e-07
9.841533e-08 1.025071e-07 -1.084706e-07 -2.228929e-07 1.100628e-07 -8.188448e-08
2.377954e-08 5.093025e-08 -5.789624e-08 4.304454e-08 2.964303e-08 2.285382e-08
-7.882075e-08 4.948354e-07 6.417208e-07 7.543887e-07 7.065480e-07 5.294476e-07
-3.081173e-08 9.240343e-08 -4.932518e-08 5.045164e-08 1.088386e-07 5.121168e-08
-1.332135e-07 2.230715e-07 -1.547205e-08 -4.015136e-08 -2.243435e-07 1.331779e-08
1.583621e-07 -4.241270e-08 -5.729186e-08 1.722449e-08 6.388475e-09 6.028549e-08
8.602306e-08 -2.330123e-08 -2.883009e-08 1.454356e-09 6.220206e-10 2.512465e-08
-8.379809e-08 -1.325400e-07 2.165438e-07 -6.787469e-08 -5.967716e-08 1.077464e-07
-1.796912e-07 3.733353e-07 -4.814001e-08 -5.619143e-08 -1.649091e-07 1.548019e-08
8.187331e-08 7.246401e-08 1.413281e-07 -5.348582e-07 -4.079081e-08 9.658835e-08
2.400588e-07 -1.521254e-07 2.985567e-08 -1.558771e-07 -2.922045e-08 1.773051e-07
-1.358705e-07 3.563719e-07 -6.646506e-08 -7.575224e-08 -1.226382e-07 1.532534e-08
-6.031961e-08 3.176309e-07 1.478116e-08 -4.588793e-07 -7.153770e-08 6.910744e-08
-5.312691e-08 1.240704e-07 -5.197599e-08 -4.304271e-08 -1.685364e-07 3.834965e-08
-8.608323e-08 -2.348930e-08 1.639596e-07 1.289931e-08 -1.056751e-07 -3.230718e-08
2.878061e-08 1.159440e-07 -4.296171e-08 -1.942209e-07 -1.037989e-07 1.554808e-07
-1.349130e-07 4.073389e-07 -1.017668e-07 -5.436152e-08 -1.814522e-07 1.940666e-08
4.312158e-07 -2.124717e-07 6.550019e-07 -5.174909e-07 1.965932e-07 -5.840613e-07
-2.233997e-07 2.166465e-07 9.072895e-07 -6.163967e-07 9.812385e-08 1.954621e-08
-1.271297e-07 5.226625e-08 3.747834e-08 -5.986165e-08 -1.504217e-07 1.536292e-07
-4.082197e-08 -3.268982e-08 -6.022986e-09 -4.222752e-08 -1.989302e-07 -9.025830e-08
-5.234123e-08 -4.991754e-08 6.822039e-08 -5.081748e-08 -2.390197e-07 -1.731718e-07
-3.552447e-08 1.709917e-07 -9.791524e-08 -9.508066e-08 -1.034663e-07 2.809266e-08
-6.734202e-08 1.285796e-07 -3.509919e-08 4.244481e-08 -2.032532e-07 -5.012449e-08
-5.598195e-08 2.235039e-07 -9.278973e-08 -1.290151e-07 -1.735665e-07 1.068681e-07
-7.433250e-08 1.653913e-07 -1.025716e-07 -2.807315e-08 -1.563166e-07 2.425930e-08
-9.153803e-08 2.580278e-07 -9.673920e-08 -7.313183e-09 -1.733788e-07 -1.048515e-08
-2.346983e-08 4.169576e-09 -1.229792e-08 -1.535224e-08 -1.172511e-07 1.058829e-07
-5.679360e-08 1.036796e-07 -5.513150e-08 -2.393996e-08 -1.777958e-07 2.042368e-08
-6.589720e-08 1.453551e-07 -7.231705e-08 -5.732475e-08 -1.941360e-07 6.699698e-08
-2.364930e-08 8.995966e-09 -4.674518e-08 -4.877642e-09 -8.081157e-08 5.875202e-08
-1.284882e-08 -1.997100e-09 -7.560709e-09 -1.821315e-08 -1.222214e-07 9.335624e-08
2.753174e-08 2.826631e-08 -2.748758e-08 -6.295774e-08 -8.878493e-08 1.170408e-07
-7.638487e-08 4.416072e-08 -4.327323e-08 -3.868875e-08 -1.258219e-07 -4.664882e-08
-2.682974e-08 1.082950e-07 -5.497304e-08 -9.029429e-08 -1.650014e-07 1.669291e-08
-3.993424e-08 -4.214902e-08 -3.514374e-08 -9.151731e-09 -1.889205e-07 -6.015678e-08
-6.372360e-08 1.610369e-07 -8.366765e-08 3.965813e-08 -1.651793e-07 -6.178399e-08
2.284623e-09 1.414105e-07 -1.069595e-07 1.101729e-07 -8.656923e-08 -5.455921e-08
-1.066262e-07 6.038337e-09 1.225049e-08 -2.512622e-08 -2.257702e-07 -1.070126e-07
-7.842994e-08 7.659055e-08 -3.786470e-08 -6.860640e-08 -1.549385e-07 -3.466862e-08
3.940137e-08 4.769769e-08 -7.096376e-08 -7.104378e-08 -4.188196e-08 4.142336e-08
3.817841e-08 -1.685956e-08 -3.906724e-08 -3.638171e-08 -5.621090e-08 8.060230e-08
-1.030785e-07 1.664035e-07 -4.587397e-08 -1.685634e-08 -2.268122e-07 1.983784e-08
6.087967e-08 1.822946e-09 -2.762339e-08 -2.259628e-08 -1.084504e-08 1.574590e-08
3.783067e-08 2.856881e-08 -5.263802e-08 -4.592875e-08 -3.770612e-08 4.929333e-08
-1.243335e-07 3.678436e-07 -9.646126e-08 -1.686585e-08 -2.055926e-07 1.479149e-08
-1.266654e-06 2.011667e-07 3.808660e-06 3.398339e-07 -1.118537e-06 -1.768256e-07
-2.850059e-06 -2.784270e-06 1.198945e-05 2.558084e-08 -4.144781e-07 8.351647e-07
2.611684e-07 5.564448e-08 1.268256e-07 -2.568577e-07 5.361092e-08 4.821253e-08
3.950647e-07 -6.781648e-07 1.392119e-06 3.461300e-07 -4.019029e-08 -7.487484e-07
2.362694e-07 6.499785e-08 -4.463185e-08 -3.431987e-07 2.896341e-08 -8.278933e-08
7.515004e-07 -3.285833e-07 4.932344e-06 3.859036e-08 -3.355506e-06 9.909214e-07
-8.331236e-07 -3.481418e-07 5.695130e-06 -9.700190e-09 -2.423232e-06 -2.245888e-06
-2.157717e-07 -2.847198e-07 4.724673e-06 -1.207381e-07 -1.254293e-06 -4.121703e-06
1.006024e-07 -5.843906e-08 -2.690790e-08 -1.696830e-07 5.610641e-08 -9.216557e-08
-1.630176e-07 1.366093e-07 2.030222e-07 -2.273969e-08 1.809775e-07 -3.669338e-08
-1.471054e-06 7.323094e-07 2.455457e-06 -1.556522e-07 -1.674220e-06 -2.898387e-07
-1.649841e-06 -2.200196e-07 4.289034e-06 -1.879285e-07 -1.799248e-06 5.020827e-07
1.338156e-07 -4.391011e-08 5.834307e-07 -5.229831e-07 -4.322280e-08 1.637072e-07
-2.028883e-06 -8.719917e-07 5.768136e-06 6.200725e-07 -1.701129e-06 -5.491921e-07
3.759288e-07 -5.825635e-07 1.062187e-06 -4.550891e-07 -2.205500e-07 5.769354e-07
1.582750e-07 -1.617155e-08 -2.474390e-07 -2.833460e-08 -1.817011e-06 7.492573e-07
2.077689e-07 3.606440e-08 7.145194e-08 -4.741825e-07 -7.626771e-08 -1.605406e-08
1.590456e-08 3.294398e-08 -2.929502e-08 1.894844e-08 2.398904e-08 2.195420e-08
8.053436e-08 4.014162e-08 -8.570091e-08 -1.601030e-07 2.033758e-07 -1.548619e-07
-4.510530e-08 4.525927e-08 -4.041334e-08 -1.767064e-08 1.481914e-07 -1.926864e-08
3.522425e-08 3.053934e-08 -3.912502e-08 2.674091e-08 1.504890e-08 1.245031e-08
-5.645867e-08 1.280733e-07 -4.536085e-08 -6.660796e-09 1.571611e-07 -1.187411e-08
-7.635108e-08 2.852133e-07 -1.037642e-07 -4.578508e-09 1.057391e-07 -7.187461e-09
-4.304550e-08 1.478291e-07 -7.424463e-08 -4.484465e-08 1.171811e-07 -2.532609e-08
-3.257092e-06 -5.342761e-07 1.304140e-05 -2.515753e-07 5.384487e-06 -1.766848e-06
3.640702e-08 4.182260e-08 -4.447656e-08 3.619715e-08 1.877509e-08 7.145250e-09
-6.425668e-07 8.449210e-07 4.836579e-06 9.585739e-07 6.862448e-06 2.682321e-06
-2.526938e-08 3.662498e-08 -3.510461e-08 -1.593771e-09 7.357508e-08 -1.768128e-08
6.335096e-09 2.067914e-07 -1.144467e-07 -1.265731e-07 8.346337e-08 -4.177336e-08
-2.830419e-06 -2.298018e-06 1.007931e-05 -1.317463e-07 2.030749e-06 7.337235e-07
3.869172e-07 -1.045415e-06 2.723756e-06 2.233986e-08 -3.185174e-07 3.924344e-06
-3.349290e-08 9.826252e-09 -4.046091e-08 1.918728e-09 1.155517e-07 -3.124115e-08
-5.292766e-08 1.165027e-07 -3.809184e-08 -5.022832e-08 1.679747e-07 -4.942873e-08
-1.077361e-06 -2.004532e-06 7.647323e-06 6.935656e-07 2.435726e-06 2.706539e-06
-4.420495e-08 -3.702120e-08 2.787955e-08 -4.062182e-09 2.012943e-07 2.936689e-08
-1.302996e-07 3.104798e-07 -1.090043e-07 9.474880e-08 1.210613e-07 1.513274e-08
-2.562786e-06 -2.291653e-06 1.077341e-05 -2.097884e-08 1.963831e-06 -5.563061e-07
-1.824828e-07 3.610341e-07 -3.628439e-08 1.265548e-07 1.142519e-07 2.695073e-08
-4.185068e-08 2.014912e-07 -8.943088e-08 1.179608e-07 1.374893e-07 6.039981e-08
2.495934e-07 1.019255e-07 -7.775266e-08 -3.178595e-07 9.437692e-08 -6.250865e-08
2.297964e-07 -1.158770e-07 9.778713e-08 -2.750893e-07 -2.540435e-08 -1.412577e-08
-7.083300e-07 1.008855e-07 5.061043e-06 4.372901e-07 4.497257e-06 3.819419e-07
4.551471e-08 1.443205e-07 2.793028e-07 -5.365412e-07 -8.683353e-08 3.973279e-08
-6.265804e-07 8.554308e-07 9.157032e-07 -1.660647e-07 8.924605e-07 -2.359095e-07
2.932237e-08 2.096689e-07 -5.859609e-08 -2.328518e-07 5.263204e-08 -3.330887e-08
-3.938880e-08 1.586852e-07 3.301876e-07 -4.668344e-07 9.343882e-08 -5.284778e-08
1.455032e-07 -9.964041e-09 -1.481828e-08 -1.867468e-07 1.256586e-07 -1.644426e-07
-2.175097e-06 -4.655333e-07 5.612437e-06 3.823117e-07 4.152552e-06 3.824130e-07
-1.965382e-06 -1.184554e-06 7.709519e-06 8.035012e-07 2.303722e-06 2.508077e-06
-7.111011e-07 8.284751e-07 4.567356e-07 9.301231e-08 5.277301e-07 -3.096004e-07
1.565254e-08 1.668342e-07 -1.027044e-07 1.761725e-07 8.032778e-08 6.747574e-08
-7.377042e-08 1.171192e-07 -4.224175e-08 7.856854e-08 1.289348e-07 4.803899e-08
5.734366e-08 8.346891e-08 -7.750957e-08 1.040428e-07 4.630907e-08 3.892626e-08
-2.064844e-06 4.533545e-07 4.500602e-06 4.362692e-07 2.442786e-06 1.133136e-06
1.157268e-08 8.799648e-08 -7.065722e-08 8.085716e-08 9.460133e-08 6.145047e-08
-2.200351e-06 -8.757488e-07 5.371856e-06 -7.414278e-07 1.608570e-06 -7.863399e-07
4.357411e-08 1.153062e-07 -9.982278e-08 1.520363e-07 6.701529e-08 6.353790e-08
-1.962838e-08 -5.621743e-09 -8.152746e-09 1.401849e-08 1.243030e-07 7.530195e-08
-2.138581e-06 -1.129353e-06 9.156481e-06 8.229806e-07 3.157963e-06 1.353537e-06
-3.890177e-06 -2.985284e-06 1.244477e-05 -3.549659e-07 1.986767e-06 -2.487895e-06
-4.094411e-08 -3.333291e-08 2.925524e-08 1.170863e-10 2.168421e-07 5.671206e-08
1.151681e-08 1.008907e-07 -8.868521e-08 9.174386e-08 6.568471e-08 3.656066e-08
-3.059837e-08 2.440144e-07 -9.215429e-08 1.905622e-07 1.147927e-07 6.944407e-08
-1.190339e-08 1.887698e-07 -1.047505e-07 1.293411e-07 8.260850e-08 4.864581e-08
-6.731440e-07 1.236105e-07 2.245133e-06 -6.762924e-07 -4.965165e-07 1.643568e-07
4.155807e-09 1.576654e-07 1.007550e-07 -4.275501e-07 -9.080398e-09 -6.442625e-08
-8.282976e-08 2.408896e-07 -7.493716e-08 -3.027903e-08 1.472723e-07 -3.005269e-08
-3.500171e-08 1.539238e-07 -5.483104e-08 -2.878700e-09 1.786461e-07 8.740948e-09
-1.813144e-08 2.491037e-07 2.427371e-07 -4.669895e-07 -1.285395e-07 4.772589e-08
-2.319330e-07 -1.163728e-06 3.110942e-06 -5.706453e-07 -7.870573e-07 9.645792e-07
-2.124900e-07 -5.755919e-07 1.563673e-06 -7.533510e-07 -3.567312e-07 6.874020e-07
-3.304780e-08 -6.889222e-08 8.410130e-08 3.219377e-08 -3.519835e-07 2.595918e-07
-7.383567e-08 2.288273e-07 -8.955679e-08 2.254234e-08 1.105806e-07 1.195998e-08
-7.968067e-08 1.297523e-07 -4.551882e-08 1.923100e-08 1.488101e-07 5.556465e-09
-3.042716e-08 -7.259008e-08 1.757986e-07 -5.236827e-08 -5.419360e-07 1.836603e-07
-4.230185e-06 -3.893994e-06 1.217319e-05 -3.552472e-07 -1.267029e-06 -9.716909e-07
2.511608e-07 -2.450657e-07 7.262869e-07 3.374732e-07 1.625289e-07 3.734011e-08
-2.506902e-07 4.117361e-07 2.220825e-08 -1.290878e-07 1.280273e-07 -3.656680e-08
3.824728e-07 -3.357406e-07 4.388144e-07 3.619274e-07 -2.036394e-08 -2.074278e-07
1.351614e-07 1.326895e-08 -4.323280e-08 1.272567e-07 8.750421e-08 1.500291e-07
-2.788710e-09 1.240585e-07 -9.039743e-08 8.498446e-08 6.722822e-08 4.154584e-08
-5.538718e-09 7.202564e-08 -3.634068e-08 8.885267e-08 1.324200e-07 9.150655e-08
3.373514e-07 -2.815684e-07 2.198665e-07 3.804093e-07 -1.617570e-07 -8.177420e-08
5.129168e-07 -7.144342e-07 1.367369e-06 5.463982e-07 -5.569529e-07 -4.628185e-07
6.969044e-07 -4.376362e-07 3.695620e-07 2.774558e-07 -4.955830e-08 -1.623308e-07
1.063738e-07 -2.513886e-08 -3.811668e-08 -2.786622e-09 -3.214700e-10 2.906490e-08
7.723572e-07 -5.917338e-07 5.368481e-07 2.204815e-07 3.087438e-09 -2.765900e-07
1.564236e-07 -3.776432e-08 -5.602181e-08 1.844299e-08 8.949078e-09 6.151991e-08
1.141563e-07 -3.034640e-08 -4.066192e-08 -9.340368e-09 -3.102040e-09 1.921778e-08
9.496344e-08 -1.567477e-07 6.142811e-07 7.644980e-08 -9.401307e-08 -4.423591e-07
4.788725e-07 -3.052078e-07 6.846990e-08 1.939176e-07 2.505675e-08 1.222955e-07
-3.204101e-08 -6.937450e-09 -4.510389e-08 -1.023206e-08 -1.260267e-07 1.581567e-09
3.246156e-07 -1.503309e-07 -4.715591e-08 1.757882e-07 -1.430288e-08 7.793905e-08
-8.578825e-08 3.033290e-07 -1.181594e-07 3.166361e-08 -1.116563e-07 -9.093529e-09
-4.618502e-08 4.794543e-08 -3.421245e-08 -5.518946e-08 -1.558027e-07 9.593760e-09
-6.368898e-08 1.061700e-07 -4.490021e-08 3.440759e-09 -1.310259e-07 -5.769303e-09
1.056194e-07 -1.529328e-07 2.022429e-07 5.743000e-08 -7.717880e-08 -1.150162e-07
2.705481e-07 -1.131050e-07 4.702276e-07 2.155744e-07 -1.198714e-07 1.500390e-08
2.980365e-08 7.496331e-08 -5.953344e-08 6.296333e-08 2.734109e-08 2.535927e-08
3.467440e-08 5.255502e-08 -5.160522e-08 4.725458e-08 2.531944e-08 1.138026e-08
3.965157e-08 4.225775e-08 -4.975396e-08 3.490001e-08 1.586693e-08 1.189323e-08
9.156401e-08 -1.751622e-08 -2.952643e-08 -2.163427e-08 -1.122371e-08 3.778290e-08
1.315002e-08 5.603702e-08 -4.505185e-08 3.471908e-08 3.816301e-08 2.596565e-08
1.590319e-08 2.599712e-08 -2.908955e-08 2.208715e-08 2.730617e-08 2.204769e-08
8.787690e-08 -2.220835e-08 -2.987484e-08 -1.720772e-08 -1.271347e-08 3.943515e-08
3.167903e-08 3.861465e-08 -3.993915e-08 3.384421e-08 2.427118e-08 2.231447e-08
8.659733e-08 -2.365066e-08 -2.907241e-08 -6.704698e-09 -4.193842e-09 2.180636e-08
1.286548e-07 -2.966921e-08 -5.477760e-08 -2.026554e-08 -1.077690e-08 3.074504e-08
1.320643e-07 -2.988603e-08 -6.049691e-08 -2.095945e-08 -9.657732e-09 3.489711e-08
7.959150e-08 -2.541932e-08 -3.201727e-08 -1.161782e-08 -3.817196e-09 3.551800e-08
-1.240955e-09 5.947898e-08 -6.227512e-08 5.146841e-08 6.148605e-08 3.812457e-08
2.868928e-09 6.284063e-08 -5.861112e-08 3.652583e-08 3.539977e-08 2.304418e-08
-1.488612e-08 9.456174e-08 -5.755192e-08 7.553403e-08 1.321270e-07 6.680643e-08
-2.780728e-08 1.711554e-07 -1.166164e-07 9.741006e-08 -8.840969e-08 -5.516198e-08
-2.721666e-09 6.720138e-08 -4.074026e-08 4.498088e-08 6.085238e-08 3.353366e-08
-3.004502e-08 5.345052e-08 -3.861790e-08 1.075353e-08 5.865303e-08 3.052464e-08
-4.701398e-08 -4.512076e-09 -9.942625e-09 -2.876524e-08 -1.668705e-07 -6.421672e-08
-5.223207e-08 -5.886709e-08 -3.573837e-08 -1.006597e-08 -1.290208e-07 -7.641257e-08
-4.070024e-09 1.958125e-07 -6.189444e-08 2.766189e-07 -1.344254e-07 -1.133286e-07
-3.668911e-08 1.515884e-07 -1.076189e-07 5.070984e-08 -9.665055e-08 -4.801703e-08
-2.766554e-08 2.379869e-08 -4.516542e-08 -1.284398e-09 -9.752990e-08 -5.690584e-08
-4.872802e-10 3.788473e-08 -3.855148e-08 2.072898e-08 4.955119e-08 3.024482e-08
-1.734146e-06 4.499180e-07 4.468112e-06 3.889698e-07 2.467621e-06 7.074301e-07
-3.675219e-07 -2.739025e-07 2.449225e-06 7.883223e-07 9.888167e-07 7.950867e-07
-1.120251e-06 3.461837e-07 4.948415e-06 9.471816e-07 4.831647e-06 1.474040e-06
-7.406485e-07 3.222976e-07 5.837139e-06 7.287250e-07 4.527756e-06 1.840874e-06
4.496190e-08 2.022186e-07 -1.406371e-07 1.621829e-07 -1.157395e-07 -8.879177e-08
-2.087464e-07 -1.219505e-07 1.307510e-06 4.801636e-07 7.795726e-07 5.974914e-07
9.201899e-08 -1.083807e-07 1.022684e-06 7.154627e-07 4.464878e-07 9.046212e-07
-1.258925e-06 1.027819e-06 2.571870e-06 4.264510e-07 1.843296e-06 8.832403e-07
-1.409746e-07 3.782699e-07 1.041123e-06 7.428573e-07 5.329998e-07 3.128173e-07
-2.842449e-08 9.311800e-08 -4.419821e-08 3.418820e-08 8.597498e-08 2.791521e-08
-4.891953e-08 1.639775e-07 -9.227401e-08 8.773663e-08 9.639863e-08 2.815068e-08
9.700175e-08 -2.167008e-08 -3.809504e-08 1.443884e-08 3.442209e-09 2.446806e-08
-1.468141e-08 9.118847e-08 -5.299102e-08 7.484769e-08 1.157523e-07 5.809501e-08
-9.840746e-09 4.861826e-08 -4.359979e-08 5.337982e-08 1.103817e-07 5.411567e-08
1.396621e-07 -3.601978e-08 -6.409580e-08 6.100205e-09 2.268895e-09 4.388180e-08
1.159469e-07 -3.148996e-08 -4.147093e-08 -3.510653e-09 -2.529677e-09 1.880748e-08
1.368743e-07 -2.764657e-08 -5.637615e-08 1.832513e-08 3.644188e-09 3.175316e-08
-2.191384e-08 1.542671e-07 -7.943367e-08 8.454454e-08 1.141199e-07 5.349459e-08
4.307840e-08 2.160308e-08 -2.852022e-08 -2.637966e-08 -1.776565e-08 2.084136e-08
3.000297e-08 1.247681e-08 -3.141242e-08 -2.274168e-08 -2.496025e-08 2.846530e-08
4.971215e-08 3.003739e-08 -4.256993e-08 -3.699665e-08 -1.350863e-08 1.367162e-08
-1.948410e-08 1.271600e-07 -7.591986e-08 5.702890e-08 6.945988e-08 3.006311e-08
5.954814e-08 4.092728e-08 -8.068740e-08 -6.907299e-08 -4.537017e-08 4.619498e-08
-2.452896e-09 1.410993e-07 -8.460889e-08 8.255013e-08 5.719488e-08 4.301682e-08
7.507123e-08 -1.665397e-08 -3.207843e-08 -1.417816e-08 -6.964316e-09 2.839031e-08
-7.108016e-09 6.002052e-08 -6.287516e-08 5.101857e-08 8.177823e-08 6.117324e-08
-1.115796e-08 9.023529e-08 -5.100825e-08 4.826054e-08 1.067615e-07 5.170269e-08
-1.190362e-08 1.432159e-07 -9.748644e-08 1.028467e-07 7.459564e-08 3.242475e-08
7.609343e-08 -1.245883e-09 -5.023963e-08 -3.721984e-08 -2.504767e-08 4.881049e-08
-5.873208e-09 8.590402e-09 -3.313933e-08 2.741405e-08 8.230579e-08 4.567874e-08
1.142680e-07 -3.148996e-08 -4.632844e-08 -5.906265e-09 -2.109269e-09 3.152415e-08
1.673692e-07 -3.478779e-08 -7.191176e-08 -2.838509e-08 -8.712408e-09 4.960155e-08
-7.942790e-08 6.188114e-07 2.319518e-07 -1.606884e-07 2.735404e-07 -2.334120e-07
8.164314e-08 -3.179412e-08 -3.693402e-08 -1.251228e-09 -1.058971e-09 4.717967e-08
2.029178e-07 -7.604152e-08 -8.924658e-08 -2.530402e-08 -7.716829e-09 7.536780e-08
8.662252e-08 1.862820e-08 -5.830809e-08 5.807915e-08 1.999515e-08 3.284878e-08
-2.776029e-07 5.887639e-07 4.377627e-08 3.293094e-08 1.117821e-07 1.764424e-09
6.810450e-09 -2.988941e-09 9.611941e-08 -2.026847e-07 1.411963e-07 -9.127486e-08
-5.278163e-10 2.201353e-07 -1.059649e-07 -2.141177e-07 -1.006168e-07 7.330336e-08
4.841191e-08 2.109088e-08 -6.170200e-08 5.525121e-08 3.350238e-08 4.372638e-08
-3.227511e-08 -7.608180e-08 7.901302e-08 4.214680e-08 -2.581725e-07 6.211954e-08
-3.688156e-08 -5.652080e-08 2.961088e-08 2.705223e-08 -1.528939e-07 1.035711e-07
7.720037e-08 6.719535e-09 -4.981532e-08 3.919702e-08 1.675317e-08 2.230173e-08
1.421265e-07 6.475270e-09 -9.229016e-08 1.214737e-07 4.261216e-08 6.431771e-08
5.356324e-08 1.789280e-09 -3.035095e-08 2.506413e-08 2.015818e-08 2.981538e-08
4.729934e-08 1.303087e-08 -4.185173e-08 3.421311e-08 2.850875e-08 3.383674e-08
2.059648e-07 -3.293640e-08 -9.199802e-08 8.779902e-08 2.938783e-08 7.584470e-08
8.120895e-08 -1.678725e-08 -3.896953e-08 2.411576e-08 8.666645e-09 3.147605e-08
5.275890e-08 1.241726e-08 -2.797756e-08 1.456469e-08 3.787079e-09 6.757387e-09
2.933415e-08 1.902944e-09 -3.834319e-08 3.029119e-08 5.346797e-08 6.995034e-08
5.296764e-08 1.930918e-08 -5.196683e-08 4.566747e-08 2.180369e-08 2.793570e-08
4.742173e-08 1.641711e-08 -3.430826e-08 2.553459e-08 1.303722e-08 1.678193e-08
7.776177e-08 -6.744871e-09 -3.374212e-08 2.947089e-08 6.871165e-09 2.447245e-08
1.791257e-07 -4.845090e-08 -6.634282e-08 3.994678e-08 1.828337e-08 7.364351e-08
1.170631e-07 -3.425627e-09 -6.815651e-08 5.354219e-08 1.633627e-08 3.941792e-08
9.583145e-08 4.164551e-08 -9.105571e-08 1.157510e-07 6.027636e-08 5.615999e-08
7.587578e-08 -2.199175e-09 -4.687440e-08 3.623488e-08 1.054055e-08 2.709759e-08
6.395003e-08 -9.694402e-09 -2.659347e-08 1.952834e-08 8.395761e-09 2.345792e-08
1.152850e-07 1.528096e-08 -7.716249e-08 8.695794e-08 2.908088e-08 4.842021e-08
8.824268e-08 9.755983e-09 -6.135745e-08 5.732498e-08 1.360400e-08 3.068740e-08
5.323386e-08 -8.970178e-09 -3.490527e-08 2.547738e-08 2.456715e-08 5.601400e-08
1.714822e-07 -4.714478e-08 -6.740025e-08 3.478796e-08 1.785763e-08 8.111439e-08
6.149762e-08 6.190133e-09 -2.553740e-08 2.065876e-08 3.874134e-09 9.661446e-09
5.534889e-08 1.514201e-09 -2.611705e-08 1.773944e-08 8.161460e-09 1.956544e-08
2.424010e-07 -5.532462e-08 -9.066775e-08 7.335771e-08 2.334407e-08 9.061271e-08
-3.319543e-08 -1.025638e-08 -7.385876e-09 7.131888e-09 1.751980e-07 4.405302e-08
1.432866e-07 -3.342479e-08 -7.306177e-08 4.568068e-08 1.042179e-08 4.876840e-08
-1.304199e-06 -8.720770e-07 6.130187e-06 6.255551e-07 -1.701546e-06 -1.148648e-06
-2.129261e-07 3.303395e-07 1.637150e-07 1.377455e-07 5.529783e-08 -2.405763e-08
-2.160785e-08 -6.797159e-08 4.740817e-07 1.728297e-07 6.618338e-08 1.336411e-07
1.298663e-07 -8.371703e-08 1.123313e-07 6.803978e-08 1.305498e-07 2.263174e-08
1.017758e-07 -8.212727e-09 -5.991083e-08 6.014889e-08 2.044339e-08 5.536872e-08
1.578395e-07 -3.468924e-08 -8.559283e-08 4.688257e-08 1.942678e-08 7.108109e-08
1.370238e-07 -3.382070e-08 -7.358332e-08 2.988403e-08 1.102239e-08 5.749949e-08
3.598537e-07 -5.824040e-08 1.092660e-07 5.375363e-07 6.804972e-08 -1.164807e-08
7.718230e-08 2.194206e-08 7.582749e-07 2.410266e-07 2.913733e-07 6.218123e-07
1.192086e-07 -4.292908e-08 -6.120427e-08 2.913885e-08 1.108174e-08 7.343233e-08
1.112614e-07 -3.118696e-08 -3.512872e-08 2.644697e-08 1.497702e-08 6.405236e-08
-4.082316e-08 1.472128e-07 -8.687610e-08 4.842284e-08 9.200034e-08 1.683937e-08
1.219238e-07 -5.230886e-08 -5.922451e-08 4.777341e-08 1.943454e-08 9.445682e-08
-1.496393e-08 -3.774528e-08 -1.442436e-08 -2.745938e-08 -7.723504e-08 1.085289e-07
4.444333e-08 2.784884e-08 -5.161301e-08 5.507434e-08 2.575171e-08 3.496353e-08
-4.050396e-08 7.962559e-08 -5.961120e-08 3.402471e-08 1.143613e-07 2.517698e-08
-6.356351e-08 2.132274e-07 -8.602696e-08 4.742451e-08 1.277182e-07 2.919760e-08
-3.603109e-08 1.169705e-07 -4.165407e-08 1.832623e-08 1.457420e-07 1.952146e-08
3.359542e-07 -1.529611e-07 -8.558163e-08 -5.316480e-08 -1.247544e-08 1.192612e-07
-4.473095e-08 1.749857e-07 -7.837203e-08 5.541359e-08 1.220267e-07 4.012000e-08
3.115245e-08 -4.424429e-08 -4.081578e-09 -1.302501e-08 -8.328928e-09 1.602745e-07
-6.944884e-08 1.513806e-07 -1.508978e-08 4.672089e-08 1.398828e-07 6.680231e-08
-7.312429e-08 2.348247e-07 -7.121773e-08 8.911449e-08 1.207926e-07 3.960298e-08
-1.121411e-07 2.672431e-07 -8.399836e-08 8.719062e-08 1.622740e-07 2.217575e-08
-8.718953e-07 5.760318e-08 2.483109e-06 -5.425436e-07 9.472019e-07 -3.837457e-07
-1.354731e-06 5.962743e-07 4.259264e-06 -2.234804e-07 2.669267e-06 -3.032962e-07
-1.546061e-08 -1.391309e-07 1.335480e-07 -1.317040e-08 -9.328950e-08 -7.490507e-08
6.973203e-08 2.519083e-08 -5.369490e-08 5.229252e-08 2.585424e-08 2.854564e-08
4.963568e-08 2.263278e-08 -3.025424e-08 3.528556e-08 2.327633e-08 2.607652e-08
3.317162e-08 2.715258e-08 -2.328469e-08 1.896120e-08 8.899835e-09 6.537049e-09
5.426377e-08 2.101500e-08 -3.427802e-08 4.481499e-08 3.587823e-08 3.936194e-08
2.089674e-07 -8.226795e-08 -9.975480e-08 -2.986922e-09 1.198683e-08 1.208085e-07
5.535898e-07 -2.466118e-07 2.070151e-08 -6.809066e-08 -2.801469e-08 8.338472e-08
5.150204e-08 2.931333e-08 -5.952813e-08 4.857707e-08 3.955041e-08 4.111807e-08
4.760989e-08 9.161302e-09 -2.687885e-08 2.486628e-08 1.595843e-08 1.839734e-08
-2.241326e-07 3.511651e-07 4.737582e-08 1.149052e-07 8.318544e-08 2.137406e-08
-2.150366e-07 2.412702e-07 9.723052e-08 -2.494346e-08 1.046145e-07 -1.096972e-08
1.306787e-07 -3.433993e-09 -7.519851e-08 -9.869959e-08 1.488289e-07 -1.280065e-07
-2.120028e-07 3.500420e-07 4.846761e-08 7.498977e-08 1.089707e-07 1.661624e-08
-1.220115e-07 1.968749e-07 5.423033e-08 5.030691e-08 1.880083e-07 1.565095e-08
-1.130723e-07 -8.918634e-08 1.747344e-07 3.945714e-08 1.526502e-07 3.833211e-08
1.568209e-07 1.192058e-08 1.145373e-07 -4.265553e-07 9.360745e-08 -7.429158e-08
-2.861808e-07 4.944066e-07 8.613239e-08 1.011409e-07 4.379027e-08 -3.790128e-08
-2.086913e-07 3.191560e-07 1.539010e-07 2.901833e-07 1.387864e-07 7.361200e-08
-6.447413e-08 1.790652e-07 -8.698662e-08 -1.784112e-08 8.505601e-08 6.982827e-09
-3.015600e-08 7.938701e-08 -4.331443e-08 -4.523754e-08 1.035710e-07 -4.449217e-10
-1.757773e-07 2.081349e-07 2.020246e-07 2.480210e-08 3.048751e-07 3.602157e-09
-7.415058e-08 1.941981e-07 -9.563085e-08 2.163908e-08 9.165910e-08 4.587280e-09
-5.241324e-08 1.369592e-07 -4.595342e-08 5.734789e-09 1.226338e-07 1.019565e-09
-3.345585e-08 -2.116508e-09 -2.741379e-08 -1.223688e-09 1.568588e-07 -1.259827e-09
-1.917681e-07 -2.912412e-08 3.297461e-07 -9.712594e-08 2.510321e-08 -7.123842e-08
-1.268820e-08 1.055044e-07 -3.596695e-08 -3.890904e-08 1.799308e-07 -7.478886e-08
4.045199e-08 2.385309e-08 -3.457608e-08 2.624007e-08 8.679973e-09 9.747607e-09
1.407252e-08 2.145101e-07 -9.565119e-08 -1.594201e-07 1.611854e-07 -8.848578e-08
-1.292098e-08 -4.244517e-09 -8.253662e-08 2.676975e-09 6.132926e-08 -6.163089e-08
1.138463e-08 1.465790e-07 -8.933621e-08 -1.851451e-07 1.492327e-07 -8.530627e-08
-2.734920e-08 1.480221e-07 -9.919717e-08 -1.175056e-07 1.247667e-07 -5.474742e-08
4.518319e-08 1.812208e-08 -2.399844e-08 1.510031e-08 7.051881e-09 7.025702e-09
-2.595719e-08 -4.619028e-09 -2.885391e-08 1.339582e-08 1.129608e-07 -7.512033e-08
5.492091e-08 1.428768e-08 -2.904527e-08 2.209548e-08 3.724502e-09 6.653804e-09
2.048672e-08 9.831753e-08 -4.988520e-08 -5.610130e-08 1.174058e-07 -7.494055e-08
-3.723875e-08 1.246644e-07 -5.638031e-08 4.939711e-08 1.022656e-07 2.123499e-08
4.682583e-08 1.883975e-08 -2.389430e-08 1.933113e-08 7.795441e-09 9.515443e-09
4.141584e-08 2.063132e-08 -2.269562e-08 1.254678e-08 3.585121e-09 4.188955e-09
-7.415369e-08 1.339759e-07 -7.101247e-08 5.125629e-08 1.449181e-07 3.604034e-08
-4.281500e-08 1.710148e-07 -9.855368e-08 9.616797e-08 9.134269e-08 2.838751e-08
4.720919e-08 2.151815e-08 -2.505538e-08 1.405706e-08 2.821189e-09 2.962383e-09
-4.345534e-08 2.158215e-07 -9.865691e-08 7.403773e-08 8.882875e-08 2.816815e-08
3.840905e-08 2.382431e-08 -2.616421e-08 1.632295e-08 7.137619e-09 7.000915e-09
-3.857828e-08 3.786108e-08 -3.844764e-08 2.466149e-08 1.214672e-07 3.625930e-08
4.454765e-08 2.169594e-08 -2.478255e-08 1.438610e-08 3.042034e-09 3.301271e-09
4.683271e-08 2.661092e-08 -3.075045e-08 2.063192e-08 5.864752e-09 6.153776e-09
-5.222145e-08 1.728760e-08 -2.407986e-08 2.626035e-08 1.524654e-07 6.211231e-08
-4.276030e-08 1.199472e-07 -3.527043e-08 7.018110e-08 1.674733e-07 6.335758e-08
8.396028e-08 -2.220664e-08 -3.084655e-08 7.268509e-09 1.997607e-09 2.815401e-08
6.619143e-08 4.236153e-08 -7.148135e-08 8.945758e-08 3.675002e-08 4.190742e-08
-4.297972e-08 1.155161e-07 -4.829774e-08 6.435393e-08 1.127368e-07 6.163281e-08
-3.334866e-08 -1.263139e-07 4.897127e-07 -2.172696e-07 1.012843e-07 -2.326554e-07
2.093273e-08 6.854770e-08 1.170499e-06 -7.953758e-07 5.717025e-07 -6.958428e-07
1.239742e-07 -2.826777e-08 -4.367051e-08 -1.403624e-08 -4.554510e-09 3.469336e-08
1.321930e-07 -3.478873e-08 -5.892976e-08 -2.197123e-08 -6.150780e-09 3.262613e-08
2.459730e-07 -5.092326e-07 1.217258e-06 -7.024045e-07 2.466377e-07 -5.695424e-07
-2.455215e-07 -7.850832e-08 9.401791e-07 -2.225725e-07 1.566928e-07 -2.166563e-07
-1.223164e-07 1.822668e-07 5.776847e-07 -4.456018e-07 1.828136e-07 -1.382619e-07
-1.236153e-06 5.355735e-07 3.061629e-06 -1.089001e-08 7.569372e-07 2.968410e-08
-2.396386e-08 -5.934592e-08 8.832735e-07 -4.494428e-07 2.673362e-07 -3.446659e-07
4.608774e-08 2.635718e-08 -3.918947e-08 6.338855e-08 5.053375e-08 6.140879e-08
5.824621e-08 1.366294e-08 -3.475158e-08 3.437302e-08 1.008682e-08 1.871450e-08
4.757473e-08 1.639469e-08 -2.610132e-08 2.552234e-08 1.306726e-08 1.794593e-08
-7.186521e-07 6.544321e-07 5.381206e-07 -1.833216e-07 -4.971321e-08 1.248839e-08
-3.989041e-07 6.735520e-07 2.888005e-07 -2.905316e-07 1.902542e-08 3.695391e-08
-2.551819e-07 4.567752e-07 4.236786e-07 -4.165096e-07 3.156228e-08 2.253802e-08
-2.549061e-07 4.650319e-07 1.429339e-08 -3.298730e-07 -1.160278e-07 -1.712628e-08
7.028372e-08 1.768328e-08 -4.550363e-08 4.293484e-08 1.217288e-08 2.173671e-08
-2.704550e-08 1.698988e-08 -3.976298e-08 -5.615794e-09 -8.541369e-08 4.464823e-08
4.492300e-08 8.800641e-08 -9.825098e-08 -1.434520e-07 -6.378741e-08 6.428427e-08
5.817062e-08 -8.007852e-10 -5.057364e-08 5.048117e-08 3.550842e-08 6.297404e-08
-2.982910e-08 -5.929680e-09 -2.035927e-08 2.555167e-09 -1.278930e-07 6.035452e-08
3.441704e-08 6.801365e-09 -3.478264e-08 2.786257e-08 3.050314e-08 3.370528e-08
4.181865e-08 1.995230e-08 -2.411754e-08 2.615404e-08 1.393460e-08 1.565833e-08
4.747173e-08 1.512807e-08 -2.444375e-08 -1.778594e-08 -9.231692e-09 8.207793e-09
6.322973e-08 1.357088e-08 -4.146637e-08 3.367854e-08 1.200163e-08 1.391225e-08
6.060331e-08 1.022096e-08 -3.057841e-08 -2.319349e-08 -8.907490e-09 1.533190e-08
4.690412e-08 2.027013e-08 -3.698089e-08 -2.359627e-08 -1.349463e-08 2.286488e-08
4.529541e-08 1.782309e-08 -2.395699e-08 2.585450e-08 1.499303e-08 1.736171e-08
7.220222e-08 1.609569e-08 -3.972357e-08 4.268466e-08 2.025516e-08 2.647574e-08
8.403057e-08 -1.320660e-08 -4.294368e-08 -1.859086e-08 -7.820685e-09 2.218982e-08
1.359567e-07 -1.642704e-08 -5.821905e-08 -6.451185e-08 -2.355398e-08 6.469646e-08
6.712440e-08 -9.829372e-09 -2.750995e-08 -1.701877e-08 -7.461089e-09 2.261586e-08
1.792831e-07 -8.665841e-08 -3.245671e-08 -8.196767e-08 -4.918006e-08 1.931298e-07
3.606878e-08 5.159448e-09 -3.673674e-08 -3.450101e-08 -2.877347e-08 4.734537e-08
4.365199e-08 2.469036e-08 -2.896263e-08 2.486181e-08 1.063138e-08 1.256693e-08
1.142455e-07 1.124950e-08 -9.210779e-08 -1.047311e-07 -4.077172e-08 7.365723e-08
9.262871e-08 1.449310e-09 -6.820814e-08 -8.214024e-08 -4.972547e-08 7.616808e-08
2.188807e-07 -4.809011e-08 -7.602248e-08 -6.242157e-08 -2.647179e-08 9.918422e-08
9.899468e-08 -2.065547e-08 -4.917436e-08 -4.274914e-08 -3.027703e-08 5.444402e-08
1.378746e-07 -4.052388e-08 -8.186785e-08 -6.836327e-08 -2.166601e-08 6.688490e-08
1.512078e-07 -2.612679e-08 -7.492155e-08 -1.111705e-07 -4.251367e-08 8.699605e-08
6.030356e-08 -6.913780e-09 -3.049933e-08 -2.132420e-08 -1.663321e-08 3.773799e-08
8.621274e-08 -9.183556e-09 -4.607100e-08 -7.726401e-08 -6.011016e-08 9.971352e-08
1.092946e-08 2.200844e-08 -3.411075e-08 2.777627e-08 3.857116e-08 3.640390e-08
8.912548e-08 -4.509428e-09 -5.346991e-08 -2.825774e-08 -1.169924e-08 2.779600e-08
9.963314e-08 -1.190956e-08 -4.304538e-08 -2.323859e-08 -7.882574e-09 2.274337e-08
-3.340558e-08 3.928257e-08 -3.191697e-08 -1.548654e-09 7.659096e-08 -1.901236e-08
-4.562756e-08 1.725246e-07 -9.247375e-08 -9.380706e-08 1.178412e-07 -5.492153e-08
1.355798e-07 -3.525506e-08 -5.843768e-08 -4.633310e-08 -2.151736e-08 6.256043e-08
-4.885898e-08 1.832429e-07 -9.107697e-08 -5.918293e-08 1.150840e-07 -2.530109e-08
9.972487e-08 -2.538354e-08 -5.711535e-08 -4.397243e-08 -2.252272e-08 5.868626e-08
-1.646481e-08 7.801156e-08 -3.563581e-08 -2.290716e-08 6.140020e-08 -3.384417e-08
2.044515e-07 -5.313719e-08 -9.064635e-08 -7.485766e-08 -3.587097e-08 8.285814e-08
-3.947622e-08 1.129741e-07 -4.474140e-08 -1.142270e-08 9.923323e-08 -2.514352e-08
7.477626e-08 -2.101948e-08 -4.246412e-08 -3.975819e-08 -3.234889e-08 7.403988e-08
1.458120e-07 -1.645643e-08 -7.711362e-08 -9.023443e-08 -3.834223e-08 8.179844e-08
-1.021667e-07 2.297008e-07 -1.098270e-07 1.016140e-07 -1.819449e-07 -5.355784e-08
-4.087356e-08 9.519500e-08 -5.820916e-08 7.390722e-08 -1.259136e-07 -7.364795e-08
3.225303e-07 -7.435234e-07 2.231930e-06 -6.784476e-07 -9.064012e-07 1.349966e-06
2.993092e-07 1.329523e-08 1.446568e-06 -8.890022e-07 -1.221624e-06 1.455734e-06
-6.146978e-09 7.994848e-08 -4.581403e-08 -3.088745e-08 8.127136e-08 -5.007726e-08
-1.758728e-07 -7.454877e-07 2.792799e-06 -7.381111e-07 -8.794666e-07 1.062590e-06
5.958058e-07 1.455888e-07 2.235747e-07 -3.720659e-07 1.536295e-07 1.533460e-08
1.270293e-08 1.202875e-07 1.672644e-07 -1.280751e-07 -1.901921e-07 9.333088e-08
2.541822e-07 -6.556702e-07 1.359800e-06 -7.051162e-07 1.694976e-07 -5.320743e-07
9.919898e-08 5.361863e-08 -9.463203e-08 -1.296618e-07 -7.301127e-08 7.064944e-08
1.493400e-07 8.609702e-09 -8.323793e-08 -1.261846e-07 -5.964353e-08 6.383776e-08
3.226109e-08 -2.964671e-08 7.438194e-08 6.348888e-08 5.254552e-08 -6.020464e-08
1.286416e-07 5.514003e-08 -9.343663e-09 -2.156141e-07 -9.424822e-08 1.042238e-07
1.484204e-07 -1.113300e-08 -9.497893e-08 -1.248913e-07 -7.204977e-08 9.720324e-08
1.493121e-07 1.529687e-08 -7.150239e-08 -1.563211e-07 -7.363107e-08 9.309996e-08
1.947265e-07 1.850812e-07 9.600976e-09 4.934627e-07 -4.508412e-08 -8.149319e-08
3.026672e-07 -1.355388e-07 1.078307e-07 3.741376e-07 8.183871e-08 -1.659366e-09
5.650936e-07 -3.409508e-07 4.397626e-07 3.438863e-07 5.723781e-08 5.060226e-07
1.540982e-07 4.396382e-08 -1.042389e-07 -1.954687e-07 -7.888996e-08 8.044856e-08
3.573889e-09 1.169385e-07 -6.234380e-08 5.415484e-08 -1.179583e-07 -7.599313e-08
-4.102286e-07 -1.753116e-06 8.304114e-06 1.341404e-06 -2.608036e-06 -4.216237e-06
4.878065e-08 -3.697448e-08 -3.319372e-08 -3.628753e-08 -7.199160e-08 9.553836e-08
1.392129e-07 -2.811235e-07 2.031581e-06 -1.375501e-07 -9.538031e-07 7.688346e-07
6.838965e-08 5.453424e-09 -4.184987e-08 4.274313e-08 1.820924e-08 2.918477e-08
6.292117e-08 -9.028377e-09 -3.536159e-08 2.137148e-08 1.395546e-08 3.857200e-08
4.058850e-08 2.869212e-09 -3.179399e-08 2.652562e-08 2.784440e-08 5.049169e-08
6.657744e-08 1.045163e-08 -3.696816e-08 3.030895e-08 1.340901e-08 1.826769e-08
1.158620e-07 -2.250250e-08 -4.587994e-08 -1.102099e-07 -1.077406e-07 1.261453e-07
1.726961e-07 1.083565e-07 -1.027129e-07 -2.671997e-07 -7.222321e-08 9.953768e-08
8.295871e-08 3.821794e-08 -6.224809e-08 -9.131573e-08 -1.335458e-07 1.372406e-07
8.307303e-09 1.501668e-07 -9.485946e-08 1.592886e-07 9.379384e-08 6.759952e-08
1.296553e-08 1.954118e-07 -9.600699e-08 2.033746e-07 1.024043e-07 6.086095e-08
-1.746522e-08 8.235715e-08 -6.671416e-08 8.715665e-08 1.194760e-07 1.096611e-07
8.782114e-08 1.020404e-08 -6.130206e-08 4.871230e-08 1.378221e-08 2.886488e-08
4.564508e-08 1.669897e-08 -2.362868e-08 1.116474e-08 2.881752e-09 3.513052e-09
9.999337e-09 -6.543027e-08 5.317921e-08 1.784257e-08 5.490130e-08 1.520906e-07
-2.401464e-08 1.482349e-07 -9.208474e-08 1.091348e-07 9.398752e-08 5.718875e-08
1.387736e-08 -7.101619e-08 3.679896e-08 4.330155e-08 -8.973398e-09 7.477722e-08
1.145922e-07 -5.568964e-08 -3.789221e-08 9.686663e-08 4.375924e-08 1.431860e-07
2.752853e-07 -4.045818e-09 -3.225202e-08 2.799811e-07 7.806082e-08 1.359249e-07
4.066493e-08 2.008958e-07 -1.271994e-07 1.665996e-07 -1.069461e-07 -9.074279e-08
-2.307304e-08 1.375957e-07 -9.337149e-08 9.289932e-08 8.207644e-08 3.614786e-08
1.867401e-07 -7.745671e-08 -3.810757e-08 1.268386e-07 4.894857e-08 1.487936e-07
-2.394444e-08 1.021945e-07 -6.230742e-08 1.128907e-07 1.250671e-07 7.878946e-08
1.494243e-08 1.501747e-07 -8.999235e-08 -1.198212e-07 -1.120760e-07 7.960349e-08
3.808127e-08 9.595432e-08 -1.006497e-07 -1.470521e-07 -7.345280e-08 5.407877e-08
1.799380e-08 5.727162e-08 -5.691111e-08 -4.997657e-08 -5.915135e-08 5.516754e-08
2.859087e-07 -1.011843e-07 1.681873e-07 3.702113e-07 6.713789e-08 -9.559558e-08
2.658938e-08 1.015873e-07 -9.510685e-08 -9.865172e-08 -7.216054e-08 3.779463e-08
3.276419e-08 7.770753e-08 -6.604093e-08 -8.001324e-08 -9.018350e-08 7.122648e-08
-2.207399e-07 4.685079e-07 2.631066e-07 3.691015e-07 -8.441267e-08 -1.541405e-07
-6.327779e-09 2.574752e-07 -1.454796e-08 3.020988e-07 1.114932e-07 6.689488e-08
-4.347350e-08 6.450236e-09 -6.905036e-09 -4.269799e-09 1.273034e-07 8.049136e-08
-2.424934e-08 -8.592454e-08 2.843617e-07 -1.433375e-08 1.129441e-07 1.515570e-07
-1.302864e-07 3.524874e-07 1.907043e-08 2.847180e-07 1.428605e-07 4.886206e-08
-6.807824e-08 -2.175381e-08 -1.925293e-09 1.702826e-08 -1.705265e-07 5.591206e-09
-2.333191e-08 1.686446e-07 -6.069213e-08 1.092204e-08 -2.396953e-07 1.349463e-08
-1.481498e-09 5.875460e-08 -3.246607e-08 6.709998e-08 1.635661e-07 8.245782e-08
-3.174029e-08 -1.770217e-08 1.182985e-08 5.671968e-09 1.575113e-07 1.278481e-07
-2.029630e-07 3.636103e-07 -3.792993e-08 -4.985607e-08 -9.501120e-08 3.518114e-08
-2.305041e-08 1.550835e-07 -9.428788e-08 8.360018e-08 8.309630e-08 3.779723e-08
8.422353e-09 2.687990e-07 -6.905245e-08 2.878853e-07 1.132199e-07 7.773726e-08
-1.314577e-07 3.823988e-07 3.590853e-08 3.786845e-07 5.794587e-08 3.988686e-08
-2.944944e-07 5.326761e-07 2.508659e-07 3.084216e-07 4.428667e-08 2.484826e-08
-2.090886e-08 1.239433e-07 -2.604836e-09 1.147587e-07 1.958147e-07 1.252325e-07
6.441211e-07 -9.316145e-07 1.462181e-06 -4.284070e-09 -6.048992e-08 -2.419781e-07
5.255790e-07 -1.972204e-07 4.752590e-07 -2.335967e-07 1.002473e-07 -2.733124e-07
4.343403e-07 -6.204652e-07 9.513786e-07 -4.831212e-07 5.032695e-08 -5.697220e-07
1.776123e-07 -1.312263e-07 4.781148e-07 -6.665723e-07 2.204926e-07 -3.414374e-07
5.710671e-07 -1.068630e-06 2.346165e-06 -5.571546e-07 4.438703e-07 -1.252624e-06
6.584503e-07 -1.022162e-06 1.913328e-06 -1.535733e-07 5.186586e-07 -1.822031e-06
-6.827328e-08 1.999924e-07 -1.008283e-07 -6.368959e-08 -9.258418e-08 4.249576e-08
2.903995e-08 2.772730e-07 -9.794756e-08 -2.881821e-07 -9.996738e-08 8.469058e-08
-2.113981e-08 1.861176e-07 -1.093567e-07 -1.117728e-07 -1.035165e-07 3.494355e-08
-7.294014e-08 1.939050e-07 -8.564658e-08 -7.037098e-08 -8.645996e-08 4.167365e-08
-4.152285e-08 1.182374e-07 -3.726500e-08 -3.838795e-08 -1.452711e-07 4.547337e-08
-6.914923e-08 5.225387e-08 -3.341044e-08 2.385228e-08 -1.205338e-07 4.234032e-08
1.100644e-07 -1.735807e-07 8.545855e-07 8.124647e-08 -1.766539e-07 -5.219539e-07
6.117566e-07 -4.473015e-07 4.413632e-07 -2.385130e-07 8.168529e-08 -7.038125e-08
-3.535264e-08 2.045818e-07 -5.023353e-08 1.627790e-07 9.438623e-08 7.254390e-08
3.571066e-08 -3.129720e-08 -3.097152e-08 -2.929068e-08 -5.759447e-08 1.580884e-07
6.256083e-08 -2.235810e-08 -4.883111e-08 -5.642316e-08 -5.027164e-08 1.172317e-07
1.431246e-07 -3.199044e-08 -5.819106e-08 8.167087e-09 1.071025e-09 3.500369e-08
1.053985e-07 -2.081263e-08 -4.033992e-08 1.095167e-08 2.861641e-09 2.067357e-08
-3.473895e-08 9.099802e-08 -3.005523e-08 9.132835e-08 1.731037e-07 9.422031e-08
-4.347264e-08 2.442039e-07 -1.030724e-07 1.237025e-07 1.058031e-07 4.363893e-08
-6.203092e-09 7.195033e-08 -6.874463e-08 6.827917e-08 9.835767e-08 6.426213e-08
1.099426e-07 -1.994639e-08 -3.997578e-08 1.455772e-08 2.296076e-09 1.721331e-08
-3.455318e-08 9.385470e-08 -6.780105e-08 6.901341e-08 1.146553e-07 8.281373e-08
-3.320739e-08 1.114560e-07 -4.873231e-08 3.277837e-08 1.548903e-07 5.533941e-08
7.120637e-08 -1.418647e-08 -3.226357e-08 1.761878e-08 9.997877e-09 3.334534e-08
8.345093e-08 -3.209678e-08 -3.578187e-08 6.600301e-09 1.477011e-09 4.366782e-08
-2.829605e-08 1.305188e-07 -8.501424e-08 3.749329e-08 6.870169e-08 2.141954e-08
-2.668365e-08 1.001947e-07 -4.453034e-08 5.640789e-08 9.515008e-08 4.360886e-08
-3.330889e-08 9.303733e-08 -3.773215e-08 2.861222e-08 1.384095e-07 3.611205e-08
-6.597572e-08 1.923062e-07 2.673614e-08 2.123678e-07 1.163776e-07 7.697966e-08
1.779794e-08 8.021144e-08 -9.226810e-08 -6.429520e-08 7.502781e-08 -3.690304e-08
6.230953e-09 1.198103e-07 -8.567098e-08 -6.471011e-08 5.855585e-08 -3.294096e-08
-3.044657e-08 7.136585e-08 -2.682552e-08 5.022447e-08 1.568164e-07 9.901262e-08
-7.349514e-08 1.965848e-07 -9.103468e-08 6.617661e-08 1.079246e-07 1.978469e-08
-1.570324e-07 4.510744e-07 -7.059137e-08 5.781126e-08 1.406433e-07 8.455636e-09
-9.118762e-08 1.972572e-10 4.459432e-08 2.202916e-08 2.047608e-07 3.037118e-08
-4.230219e-08 1.236607e-07 -7.819137e-08 -2.525970e-08 6.136157e-08 -2.996122e-08
4.513123e-08 3.589696e-08 -2.470616e-08 1.337605e-07 1.114115e-07 1.044488e-07
2.618295e-07 -8.245248e-08 -9.797286e-08 -1.556804e-07 -5.137763e-08 1.227429e-07
-1.557328e-08 1.411784e-07 -8.416641e-08 -6.071976e-08 7.071818e-08 -1.342687e-08
-1.748535e-08 8.124993e-08 -5.953111e-09 8.730840e-08 1.106449e-07 1.111673e-07
3.432576e-08 1.477730e-07 -8.324576e-08 1.348463e-07 1.031630e-07 8.142834e-08
-8.663673e-09 7.796630e-08 -7.803627e-08 -3.594829e-08 5.798712e-08 -2.644615e-08
3.535828e-09 7.455314e-08 -5.254646e-08 -5.331271e-08 1.185990e-07 -6.581363e-08
1.757297e-08 1.602709e-07 -1.157292e-07 -9.998546e-08 9.122870e-08 -4.775088e-08
3.987508e-08 1.066365e-07 -9.570662e-08 1.432819e-07 7.279985e-08 6.297570e-08
7.153988e-08 1.553219e-07 -7.872967e-08 2.449172e-07 8.750891e-08 7.501875e-08
6.827922e-08 9.323830e-09 -4.268575e-08 3.396650e-08 7.329965e-09 1.734477e-08
5.346827e-07 -3.234346e-07 9.857954e-08 -2.009874e-07 2.714834e-08 1.244019e-07
1.212625e-07 -2.472806e-08 -6.475535e-08 4.879649e-08 1.979384e-08 6.508106e-08
8.696785e-08 2.880054e-09 -4.139531e-08 3.477405e-08 7.294832e-09 1.911817e-08
-2.365715e-07 2.694543e-07 4.558305e-07 -5.404088e-07 -2.244561e-07 -4.955002e-08
6.036095e-08 -3.984926e-09 -2.790794e-08 1.862749e-08 7.487457e-09 2.102588e-08
1.012489e-07 -1.063461e-07 -1.019417e-08 -1.750043e-07 6.893918e-08 -8.574631e-08
6.251895e-08 4.968478e-09 -2.497140e-08 1.948903e-08 3.320769e-09 1.045400e-08
8.267934e-08 1.316777e-07 -2.501963e-08 -1.344757e-07 3.852262e-08 -7.642705e-08
3.016329e-08 3.374069e-08 -3.783574e-08 2.469162e-08 1.291562e-08 1.289780e-08
7.328483e-08 -5.572552e-10 -4.051188e-08 2.513335e-08 7.972586e-09 1.733337e-08
4.665138e-07 -2.062942e-06 8.312033e-06 1.018315e-07 -6.741962e-07 9.106930e-06
-9.900634e-07 -1.155167e-06 6.644051e-06 -2.540629e-07 -4.824241e-07 3.614093e-06
1.798341e-08 4.361031e-08 -4.415036e-08 6.908149e-08 8.050416e-08 8.456207e-08
1.352665e-07 8.097709e-09 -7.742474e-08 1.030229e-07 2.746300e-08 4.964874e-08
4.892768e-08 4.394720e-09 -2.751076e-08 2.202337e-08 1.342220e-08 2.264249e-08
-6.101632e-09 -2.943639e-10 -3.143502e-08 3.639186e-08 8.473277e-08 5.670363e-08
5.837601e-08 -2.430664e-09 -2.562159e-08 1.965590e-08 9.735430e-09 2.090954e-08
-3.122803e-09 1.253429e-07 -7.347505e-08 8.502936e-08 7.736602e-08 4.650221e-08
5.565272e-08 3.514899e-08 -5.292291e-08 7.044605e-08 9.982463e-08 9.636710e-08
2.304110e-08 1.894646e-08 -3.338095e-08 2.721944e-08 3.454693e-08 3.598669e-08
-9.995111e-08 3.341241e-07 -1.096376e-07 6.522825e-08 1.181896e-07 2.124640e-08
1.008290e-07 4.696420e-08 -9.607580e-08 1.276184e-07 4.750781e-08 7.281840e-08
-1.136409e-07 2.632287e-07 -9.877668e-08 -3.474437e-08 9.357307e-08 -1.694731e-08
-8.687447e-08 3.255720e-07 -6.468810e-08 -1.392160e-07 1.251562e-07 -4.265897e-08
-5.508519e-08 -2.055638e-08 -2.531216e-08 -2.186909e-08 1.458452e-07 -4.045436e-08
-1.157106e-07 2.691317e-07 -1.035906e-07 1.724542e-08 1.058500e-07 -4.531441e-09
1.342566e-07 2.118179e-08 -7.337981e-08 1.688712e-07 3.960478e-08 8.939710e-08
-5.706199e-08 3.947438e-10 -3.148236e-08 2.116047e-09 1.599122e-07 -1.207648e-08
-8.532910e-08 -1.855727e-08 7.005075e-08 6.656589e-08 5.604392e-08 6.177915e-08
1.003050e-07 -4.106982e-09 1.176572e-08 1.266939e-07 8.098186e-08 1.399736e-07
-1.136913e-07 3.836758e-07 -1.144848e-07 -4.828124e-08 1.199262e-07 -2.029637e-08
-8.832228e-08 2.443357e-07 -1.000004e-07 -5.800513e-08 1.035835e-07 -3.045957e-08
-2.307459e-07 4.671432e-07 1.172213e-07 -6.368869e-08 2.053304e-07 -5.184807e-08
-8.250908e-08 2.002789e-07 -9.300675e-08 -4.035777e-09 9.410900e-08 -3.467191e-09
8.730912e-08 5.221596e-08 -8.739102e-08 1.586568e-07 6.752079e-08 8.120652e-08
1.410499e-07 2.983482e-08 -7.900475e-08 1.894469e-07 7.152330e-08 1.019783e-07
-1.064055e-07 2.178541e-07 -1.026131e-07 2.567440e-08 -1.338136e-07 1.825000e-08
1.909369e-07 6.541269e-09 -8.449328e-08 2.101897e-07 8.890516e-08 1.140985e-07
1.208010e-07 -7.820386e-09 -6.254546e-08 6.975627e-08 2.323844e-08 5.398832e-08
1.139785e-07 6.205497e-09 -8.763352e-08 1.091981e-07 5.676499e-08 7.851171e-08
8.087232e-08 -9.539806e-09 -6.414574e-08 5.984596e-08 3.387854e-08 8.208190e-08
-6.595043e-08 1.356142e-07 -3.793679e-08 1.263540e-08 -1.803334e-07 -3.656824e-08
-1.214757e-07 3.242040e-07 -1.071665e-07 -1.424787e-07 -1.271648e-07 5.712159e-08
1.050107e-07 -2.462494e-08 -4.411447e-08 5.123472e-08 2.320845e-08 7.711597e-08
-8.443191e-08 2.895909e-07 -1.069549e-07 -4.429138e-08 -1.055346e-07 1.743892e-08
-3.466428e-08 6.514182e-09 -5.238731e-08 2.032304e-10 -1.649280e-07 3.633265e-08
1.465731e-07 -1.748531e-08 -6.727484e-08 9.649503e-08 3.034098e-08 8.035308e-08
2.464014e-07 -4.270420e-08 -5.955304e-08 1.832252e-07 4.431838e-08 7.288973e-08
9.405454e-08 -2.211675e-08 -4.750541e-08 3.125481e-08 1.622156e-08 5.413016e-08
2.269225e-07 -8.156375e-08 -8.448857e-08 7.990480e-08 1.773546e-08 1.247075e-07
1.324325e-07 -4.712256e-08 -2.775940e-08 8.041805e-08 6.980004e-08 1.392338e-07
1.526175e-07 -2.345241e-08 -7.510937e-08 6.090996e-08 2.187295e-08 4.869913e-08
-1.527661e-07 3.500114e-07 -7.408954e-08 1.821634e-07 1.229539e-07 4.080627e-08
-4.281510e-08 2.481605e-07 -1.108534e-07 1.274054e-07 1.047895e-07 4.744184e-08
1.705268e-07 -3.474338e-08 -7.796061e-08 4.916085e-08 1.753196e-08 6.121941e-08
1.366582e-07 -3.043360e-08 -5.373556e-08 2.969070e-08 1.375108e-08 5.590951e-08
-1.592108e-07 2.829290e-07 -4.976957e-08 2.979448e-08 1.279048e-07 -1.032101e-09
9.616192e-08 -9.436504e-09 -5.629293e-08 3.701486e-08 7.517818e-09 2.964387e-08
-3.602914e-08 -1.714412e-08 -6.495738e-09 -9.304677e-11 1.834839e-07 3.547052e-08
-6.664024e-08 2.220764e-07 -7.065909e-08 1.182966e-07 1.155107e-07 4.925256e-08
8.017202e-08 -1.105443e-08 -5.226616e-08 3.458931e-08 1.957607e-08 4.481125e-08
-1.624129e-07 3.392352e-07 -1.049400e-07 5.232154e-08 1.261576e-07 1.895506e-09
-1.125031e-07 2.661277e-07 -7.558619e-08 8.963511e-08 1.161957e-07 2.543213e-08
-9.451593e-07 3.985771e-07 7.225633e-06 -4.966427e-07 -7.331947e-06 5.796564e-06
-6.243808e-07 1.833838e-08 1.806091e-06 -7.885370e-07 5.714017e-07 -4.078838e-07
4.021978e-08 4.580065e-08 -6.652303e-08 -7.031871e-08 -7.660924e-08 9.081901e-08
9.424960e-08 -8.010738e-08 4.327555e-06 -8.747165e-08 -3.312432e-06 2.305718e-06
1.057083e-07 -1.570959e-07 3.374257e-07 -6.951970e-07 -1.899931e-07 4.177838e-07
-6.220160e-07 6.334932e-07 6.392606e-07 -5.133580e-08 -1.014956e-07 6.069289e-08
5.468684e-08 4.111002e-08 -5.201951e-08 -4.852407e-08 -2.257793e-08 2.138233e-08
5.833523e-08 4.009885e-08 -5.466178e-08 -4.839967e-08 -2.093180e-08 2.155067e-08
3.887166e-08 3.633350e-08 -3.456789e-08 -3.783354e-08 -3.030614e-08 3.017189e-08
-2.698594e-08 -4.011006e-08 6.032602e-08 4.757391e-09 2.384607e-07 -1.125867e-08
8.499112e-08 7.597793e-09 -4.565162e-08 -4.114866e-08 -8.411977e-09 1.762873e-08
-1.886576e-07 4.801371e-07 8.016864e-08 -2.537928e-07 1.270973e-07 -5.468861e-09
-8.445866e-07 5.700891e-07 1.679531e-06 -2.682287e-07 -3.454783e-07 -1.183180e-07
-1.844833e-07 2.209975e-07 9.460659e-08 -1.077486e-07 2.453925e-07 -1.116563e-07
4.631679e-08 1.337250e-08 -2.973537e-08 -2.750106e-08 -1.643343e-08 2.120504e-08
4.753575e-08 1.410620e-08 -3.396762e-08 -1.838360e-08 -6.073962e-09 9.743560e-09
-1.084576e-06 -1.478724e-06 5.207078e-06 8.352271e-07 7.098176e-07 1.635062e-06
-6.148039e-07 -2.696782e-07 1.206547e-05 -6.407211e-07 8.728843e-06 -4.663805e-06
6.339933e-07 -3.828860e-07 8.228413e-06 6.422463e-07 -1.455241e-06 8.908968e-06
-1.286983e-08 -2.420213e-08 -2.520954e-08 -2.213376e-08 -8.194092e-08 1.067146e-07
5.610328e-08 1.327434e-08 -3.722351e-08 -2.517379e-08 -1.500263e-08 2.259417e-08
2.207823e-07 3.690596e-08 -1.092520e-07 -2.087602e-07 -7.373246e-08 1.057667e-07
8.703133e-09 -5.244672e-09 -4.008370e-08 -2.361853e-08 -6.518408e-08 7.884233e-08
1.161276e-07 1.165796e-08 -6.832221e-08 -7.179348e-08 -1.840003e-08 3.081224e-08
4.151593e-07 -3.445434e-07 4.910091e-07 -4.052998e-07 -1.885469e-08 4.793082e-08
4.909902e-08 1.145302e-08 -2.796956e-08 -2.156224e-08 -9.680155e-09 1.316115e-08
-5.882435e-08 1.898210e-07 1.024713e-07 3.152885e-07 7.713304e-08 5.150324e-08
1.994408e-07 -1.343479e-07 4.263173e-08 -6.596805e-08 -4.626205e-09 2.287377e-07
2.103124e-08 -3.092341e-09 -4.492379e-08 -2.876987e-08 -7.172890e-08 9.435210e-08
7.705340e-08 1.671789e-08 -6.340647e-08 -6.157211e-08 -2.356136e-08 3.065576e-08
4.957764e-08 -1.596336e-08 -2.938760e-08 -2.251249e-08 -2.757974e-08 5.693242e-08
2.161636e-07 -3.162520e-08 -8.923692e-08 -1.432160e-07 -4.995164e-08 9.231599e-08
-1.771123e-09 6.106405e-08 -3.658390e-08 1.367196e-07 9.456260e-08 8.077079e-08
1.051477e-07 -1.764865e-08 -6.448598e-08 -4.585130e-08 -1.953104e-08 5.023768e-08
-1.470768e-07 -1.937436e-08 5.257022e-07 2.790666e-07 8.498667e-08 -8.107057e-09
1.337473e-07 -6.377430e-08 -2.933316e-08 -6.198649e-08 -5.344963e-08 1.482568e-07
1.840372e-07 6.385999e-09 -9.925322e-08 1.473124e-07 4.257133e-08 8.134799e-08
-9.779417e-08 1.252202e-07 5.529934e-07 1.941817e-07 -3.073039e-08 6.581630e-08
6.831700e-08 -5.972719e-09 -4.747232e-08 4.436609e-08 3.707181e-08 7.059659e-08
5.949534e-08 -3.072038e-08 -4.264062e-08 -2.591685e-08 -1.687274e-08 7.912724e-08
3.947395e-08 1.020289e-08 -3.135002e-08 2.625658e-08 1.907179e-08 3.201293e-08
1.356858e-07 -4.309897e-08 -5.254565e-08 -2.715721e-08 -3.132602e-08 1.007434e-07
1.051928e-07 -2.616753e-08 -7.427295e-08 -6.577784e-08 -4.216047e-08 8.187172e-08
1.253186e-07 -3.254421e-08 -5.500756e-08 -3.012644e-08 -9.519656e-09 4.901024e-08
1.928128e-08 -1.260508e-08 -3.647999e-08 2.346058e-08 5.674036e-08 9.529667e-08
1.336778e-07 -2.079123e-08 -8.049420e-08 -5.175380e-08 -1.375349e-08 4.576434e-08
-5.152293e-07 6.576516e-07 2.075956e-07 3.667582e-08 -2.569376e-07 1.585447e-07
1.428276e-07 -1.501670e-08 -7.570509e-08 -7.477510e-08 -2.532020e-08 3.838099e-08
-5.470011e-08 -7.461358e-08 4.526544e-07 1.106323e-08 6.898631e-08 9.762916e-08
-9.211154e-08 -8.562641e-08 4.947922e-07 -1.535198e-07 -2.646127e-07 -8.813413e-08
1.143971e-07 -1.773994e-08 -6.081325e-08 -3.599056e-08 -1.772670e-08 4.024137e-08
2.459926e-07 -1.061371e-07 -9.123518e-08 -6.494698e-08 -3.142630e-08 1.463486e-07
2.526845e-07 -9.112422e-08 -5.667094e-08 -2.181305e-07 -2.948056e-08 8.465465e-08
-1.635193e-08 -1.165774e-08 -2.830850e-08 -2.877003e-08 -1.400502e-07 1.698621e-07
8.962531e-08 -1.908538e-08 -3.555030e-08 -3.692293e-08 -1.927125e-08 5.091594e-08
9.869367e-08 -1.157358e-08 -5.705161e-08 -3.275884e-08 -1.123888e-08 3.634007e-08
-8.683339e-07 -6.713125e-08 3.577684e-06 -6.441393e-07 9.153749e-07 -7.619020e-07
-6.892748e-07 8.383095e-07 5.804890e-07 8.157870e-07 1.052259e-06 -1.204675e-07
3.637309e-07 -6.540856e-07 7.982495e-07 -4.461004e-07 8.505132e-08 -1.746054e-07
3.374410e-07 -1.503760e-07 3.432076e-08 -3.749638e-07 -1.010557e-07 1.247061e-07
-6.675436e-08 2.895764e-07 5.562935e-07 -5.546713e-07 1.913714e-07 -4.642611e-07
-4.080174e-07 4.254379e-07 1.111541e-06 -5.344036e-07 3.032123e-07 -2.115250e-07
2.744167e-07 -1.087415e-07 -5.961772e-08 -1.676283e-07 -4.060811e-08 1.426228e-07
-1.609190e-07 2.848742e-07 3.150153e-07 -2.382136e-07 1.305907e-07 -7.822710e-08
-6.248734e-08 1.805085e-07 2.352632e-08 2.135253e-07 1.551270e-07 9.431713e-08
-2.993438e-07 4.288871e-07 5.805733e-07 -5.083879e-07 1.021186e-07 -1.233377e-07
-2.786473e-07 3.325252e-07 4.212253e-07 -9.544659e-08 -2.795683e-08 6.720318e-08
-4.471237e-08 -3.058801e-08 1.027983e-06 8.220301e-08 -8.385892e-07 -2.328076e-07
-4.712570e-07 3.405245e-07 7.216597e-07 -2.154667e-09 -4.881811e-07 -1.260853e-07
8.195945e-09 2.563236e-07 7.901159e-08 3.994062e-07 -2.503019e-08 -9.264384e-09
-5.423871e-08 -2.798106e-09 5.736370e-08 -2.301440e-08 -8.401773e-08 -1.084085e-07
-5.902354e-07 2.130079e-07 1.396138e-06 6.312366e-07 -4.337529e-07 -2.245917e-08
-6.290954e-07 -6.384908e-07 4.091542e-06 6.466626e-07 -3.547295e-06 -1.858503e-06
-1.031492e-06 4.214188e-08 4.405652e-06 1.127187e-06 -2.361163e-06 -1.435847e-06
-1.360769e-06 -5.341873e-07 4.959304e-06 -3.982331e-07 -2.937694e-06 -1.023528e-06
-1.529440e-06 -2.231738e-07 3.695331e-06 -9.872352e-09 -1.529133e-06 -4.302544e-07
-6.809379e-08 2.855952e-07 1.557327e-07 4.106785e-07 5.218626e-08 2.336215e-08
-1.578084e-07 4.363743e-07 6.580411e-07 3.993142e-07 1.372647e-07 2.545310e-07
-1.401814e-07 -1.279510e-06 3.162138e-06 -3.893404e-07 1.647624e-07 -1.557869e-06
2.627133e-08 2.569161e-07 4.735135e-08 4.028142e-07 -1.424454e-08 7.141237e-08
-1.189218e-07 1.802537e-07 -3.236119e-08 7.612714e-08 -3.041275e-07 -9.739237e-08
-1.189424e-06 -1.481944e-06 4.492508e-06 -7.242065e-07 7.571860e-07 -1.754040e-06
-4.786015e-07 5.710258e-07 6.534292e-07 3.748677e-07 -1.669808e-07 -1.992470e-08
-7.016789e-08 -2.496993e-08 2.379076e-08 2.704433e-08 1.246900e-07 7.128306e-08
-1.591620e-07 -9.356486e-07 4.121347e-06 8.888754e-07 2.340840e-07 -4.231794e-06
-1.152992e-06 -1.049955e-06 4.645069e-06 7.772132e-07 1.415878e-06 1.160324e-06
-3.702997e-08 -2.966370e-08 -2.777514e-08 -3.432131e-09 1.084723e-07 -7.880033e-08
-2.871790e-08 3.520040e-08 -3.835936e-08 3.191061e-09 7.338542e-08 -3.860243e-08
-7.093084e-08 3.007070e-07 3.478047e-07 3.277660e-07 -1.423516e-08 -4.630901e-09
-4.807254e-07 5.798044e-07 3.190431e-07 3.026736e-07 -1.322730e-08 1.247344e-08
-3.149089e-07 4.615342e-07 3.222369e-07 1.482081e-07 8.480701e-08 -8.915156e-09
-1.425945e-07 2.240188e-07 4.397679e-07 3.203213e-07 -1.324692e-07 -7.148740e-08
-3.047658e-07 6.382175e-07 1.470050e-07 1.985077e-07 1.735587e-08 8.552780e-10
-2.187536e-07 4.419781e-07 9.483039e-08 3.716095e-07 -1.985708e-07 -1.701449e-07
-5.179083e-08 1.677538e-07 3.044361e-08 5.139921e-08 1.523724e-07 5.411046e-08
-1.869560e-06 -2.952442e-07 1.006711e-05 -4.144409e-07 6.934033e-06 1.274423e-06
4.596779e-07 -2.073967e-07 8.039516e-08 -1.804372e-07 2.854285e-08 -2.120866e-08
5.530447e-07 -3.808777e-07 3.842686e-07 -3.062414e-07 -2.086683e-08 -8.798976e-08
-8.483046e-09 1.255960e-07 -7.320704e-08 -5.497718e-08 5.803903e-08 -1.685042e-08
5.301384e-08 1.070899e-08 -2.823129e-08 2.131246e-08 7.914952e-09 1.392957e-08
6.049263e-08 4.365088e-09 -2.592122e-08 2.320850e-08 1.323319e-08 1.736398e-08
5.710993e-08 7.716746e-09 -2.338012e-08 1.581170e-08 2.948213e-09 8.258887e-09
5.904010e-08 4.672267e-09 -2.802051e-08 2.413055e-08 1.121938e-08 1.935507e-08
9.487359e-08 2.149230e-09 -6.120532e-08 4.421099e-08 1.543239e-08 3.182673e-08
-3.049970e-08 3.498611e-08 -3.706556e-08 1.903747e-09 7.181696e-08 -3.930552e-08
2.670810e-07 -8.115148e-08 -9.208344e-08 -3.682271e-08 -1.311637e-08 8.876790e-08
-1.818932e-08 6.245887e-08 -4.157341e-08 -1.770896e-08 8.440747e-08 -3.561716e-08
6.528559e-08 2.873339e-10 -2.775660e-08 1.675046e-08 6.942214e-09 1.251950e-08
1.215044e-07 -3.364377e-08 -4.694103e-08 2.424745e-08 9.280850e-09 4.350048e-08
1.217477e-07 -2.277001e-08 -6.201511e-08 2.663774e-08 9.373621e-09 3.551628e-08
3.898461e-08 2.179333e-08 -2.205346e-08 1.276310e-08 4.511293e-09 3.874182e-09
6.453747e-08 -2.204224e-08 -3.183288e-08 -1.753398e-08 -1.627116e-08 4.458940e-08
4.467011e-08 -2.630818e-08 -3.685959e-08 2.123761e-08 3.527491e-08 1.131742e-07
2.264713e-07 -8.236276e-08 -8.928301e-08 7.769950e-08 1.220597e-08 9.571159e-08
8.001340e-08 -1.632447e-08 -5.424444e-08 8.098650e-08 6.513059e-08 1.116847e-07
1.356546e-07 -9.335884e-09 -7.335673e-08 7.653495e-08 1.972001e-08 5.040127e-08
-6.425442e-08 4.544690e-08 -4.427167e-08 2.763631e-08 -1.398126e-07 4.341121e-08
9.778337e-08 -1.944638e-08 -3.884883e-08 3.564406e-08 2.837455e-08 6.741344e-08
2.314234e-07 -4.374810e-08 -9.140693e-08 1.456797e-07 3.363865e-08 9.791968e-08
-3.221284e-08 2.092046e-07 -8.155867e-08 -2.047609e-07 8.786720e-08 -4.633085e-08
-5.423304e-08 1.191350e-07 -6.076615e-08 -4.913062e-08 1.236412e-07 -3.108615e-08
6.487720e-10 2.126892e-07 -9.690007e-08 -1.603849e-07 7.560176e-08 -2.605029e-08
-2.639988e-08 1.473636e-07 -8.841647e-08 -1.168140e-07 1.305154e-07 -7.089278e-08
1.221988e-08 8.003226e-08 -4.947051e-08 -5.450076e-08 1.520276e-07 -9.200214e-08
-7.491551e-08 5.894040e-08 -9.677664e-09 -2.263500e-09 1.730415e-07 -7.151304e-08
1.023606e-07 -2.017748e-08 -4.657622e-08 -1.348511e-08 -2.504680e-09 2.793100e-08
1.312817e-07 -3.127678e-08 -5.273434e-08 -1.886485e-08 -8.456656e-09 5.265816e-08
-3.214772e-08 3.897037e-08 -4.671624e-08 -5.194328e-09 -9.161200e-08 -4.179387e-08
1.445533e-07 -3.560885e-08 -5.679642e-08 -2.273956e-09 1.431592e-10 3.545869e-08
1.014811e-07 -2.847203e-08 -3.599377e-08 -1.186804e-08 -8.806077e-09 4.749856e-08
1.764340e-08 1.626217e-07 -1.128495e-07 9.741114e-08 -8.679071e-08 -5.036739e-08
1.321112e-07 -3.478839e-08 -6.413790e-08 -2.429318e-08 -5.190010e-09 3.893348e-08
3.753827e-07 -1.276059e-07 -6.957797e-08 -1.359291e-07 -4.049883e-08 1.172725e-07
4.187832e-09 1.514209e-07 -1.102628e-07 1.149844e-07 -8.707631e-08 -5.597044e-08
-2.371935e-09 -5.248715e-08 6.294035e-08 -1.451350e-08 -8.119472e-08 1.241356e-07
3.410227e-07 -1.089492e-07 -9.030102e-08 -6.994792e-08 -1.821691e-08 1.187523e-07
2.909250e-08 -6.359959e-08 -3.498843e-09 -3.988724e-08 -6.684453e-08 1.365151e-07
-3.888983e-08 1.931510e-07 -4.578833e-08 -1.232449e-08 -2.524936e-07 -5.594084e-08
-5.485102e-08 -4.880760e-08 8.130421e-09 -5.455784e-08 -1.212269e-07 -5.274716e-08
5.888402e-07 -7.492649e-07 8.888315e-07 5.185271e-07 3.228119e-08 9.391485e-07
2.132129e-08 -5.880208e-07 4.876919e-06 3.187750e-07 2.078369e-06 2.992130e-06
5.608689e-07 -1.378096e-06 1.575321e-06 -3.862569e-07 -3.761375e-07 1.206289e-06
-2.467258e-08 -8.765519e-08 2.292129e-07 1.911218e-09 8.446121e-09 -1.427644e-07
6.233087e-07 -6.014059e-07 4.084663e-07 -1.512187e-07 4.442997e-08 6.794183e-07
-5.815999e-07 4.773887e-07 7.393757e-07 4.586991e-07 5.768498e-08 -1.176027e-08
-6.559180e-07 5.773429e-07 9.610234e-07 4.243315e-07 5.215339e-07 2.365733e-07
-4.218466e-08 -7.887676e-08 1.320790e-07 -5.187895e-08 -2.232601e-08 -1.323179e-09
-7.215912e-07 6.322564e-07 1.182362e-06 -2.423542e-07 3.994716e-07 8.163510e-08
-2.667901e-07 5.044096e-07 1.041804e-08 1.093707e-07 2.414956e-08 -4.108471e-08
2.363941e-08 -1.299605e-06 4.139658e-06 6.471141e-07 6.839821e-07 2.097036e-06
1.610519e-07 -1.963924e-06 5.216885e-06 -4.462519e-07 -1.441918e-06 3.577109e-06
-5.069053e-07 4.538059e-07 8.442446e-07 2.261777e-07 2.041161e-07 -7.994700e-08
-7.762854e-07 4.756079e-07 2.267895e-06 6.192574e-07 2.280298e-06 8.823758e-07
-1.323865e-06 1.144286e-06 1.480457e-06 -3.512422e-07 1.187237e-06 -1.921999e-07
-3.267955e-06 -2.140814e-06 1.332544e-05 -4.713219e-07 -3.305522e-06 6.603008e-07
-1.179757e-06 -5.472394e-07 5.765791e-06 -4.127332e-07 -2.462761e-06 1.392350e-06
3.410137e-07 -9.565600e-08 -9.801787e-08 -7.363042e-08 -1.638090e-08 1.211078e-07
-3.089560e-06 -1.608784e-06 7.643916e-06 -1.548907e-07 -1.801774e-06 1.109768e-06
6.130309e-08 -4.119698e-08 -2.042927e-08 -8.319344e-08 -7.961301e-08 1.398471e-07
-1.805119e-06 -2.315829e-07 6.290531e-06 -1.137221e-07 -3.197319e-06 -9.046667e-08
1.718775e-08 -8.773317e-09 7.197912e-08 -5.331639e-08 -2.872252e-08 2.373264e-07
2.113885e-07 -1.184143e-07 2.636256e-07 -4.888011e-07 -6.497953e-08 -1.179129e-07
4.359234e-07 -1.378402e-07 1.030350e-07 -2.433057e-07 -4.653095e-09 8.467109e-08
-1.126220e-06 1.092592e-06 1.896106e-06 2.458902e-07 -1.982408e-06 3.472853e-07
-1.399992e-06 7.416970e-07 2.242440e-06 -2.869260e-07 -1.779929e-06 -3.852913e-07
-8.859737e-07 -4.592391e-08 3.725859e-06 -8.798947e-07 -1.602845e-06 1.022011e-06
4.955492e-08 -1.061063e-08 -3.015300e-08 -2.441932e-08 -2.752946e-08 5.618127e-08
-3.026011e-08 2.956555e-08 -3.802861e-08 3.459570e-09 8.335147e-08 1.004757e-09
-7.533774e-07 6.830270e-07 1.147195e-06 -5.511139e-07 -1.526159e-06 6.909607e-07
-3.326648e-07 5.204878e-07 5.351216e-07 -8.461008e-08 1.057647e-07 -1.057953e-07
-2.836865e-07 2.721019e-07 8.440816e-08 8.353507e-08 1.851874e-07 -2.757938e-08
-5.604195e-08 1.082073e-07 -4.895055e-08 2.153523e-08 1.117627e-07 1.184188e-08
-5.527360e-08 1.542046e-07 -8.697395e-08 3.259117e-08 9.580302e-08 7.973033e-09
-4.416072e-07 -1.489901e-06 4.417983e-06 -6.703536e-07 7.307008e-07 -1.451658e-06
6.465860e-07 -1.169001e-06 4.097926e-06 -8.913785e-07 1.181287e-06 -2.736694e-06
-4.962080e-07 3.502391e-07 1.150280e-06 -2.538427e-07 -6.158708e-07 5.835239e-08
-2.038405e-07 2.959536e-07 8.135333e-07 1.374580e-08 5.347472e-06 -8.886450e-06
4.106110e-07 -5.560909e-07 5.622185e-07 5.465505e-07 -9.588135e-09 -2.902642e-07
-6.535363e-07 4.850584e-07 1.094472e-06 -5.576289e-07 -7.111964e-07 -6.338665e-08
5.928345e-07 -3.977907e-07 4.918659e-07 3.488214e-07 -5.440702e-08 -3.287828e-07
-7.503723e-07 6.457324e-07 9.218982e-07 -1.627839e-07 -6.193159e-07 -1.962351e-07
4.232889e-08 2.252325e-08 -3.922291e-08 -2.619615e-08 -1.212937e-08 1.535637e-08
5.662195e-07 -7.177489e-07 2.154598e-06 -8.004299e-07 7.570173e-07 -1.638981e-06
6.830955e-08 2.307743e-09 -2.573056e-08 -2.042932e-08 -7.230881e-09 1.481148e-08
5.945934e-08 2.793760e-08 -4.394768e-08 -3.608207e-08 -1.301200e-08 1.378512e-08
-9.012388e-07 4.373088e-07 2.674281e-06 1.129773e-06 -2.280909e-06 -7.564479e-07
9.734041e-08 -1.709974e-08 -3.684890e-08 -3.271444e-08 -2.093317e-08 4.919356e-08
5.904784e-07 -1.259089e-06 1.827701e-06 7.378733e-08 -2.894237e-07 -9.261701e-07
7.559476e-08 3.061534e-08 -5.643270e-08 -5.544356e-08 -2.164286e-08 2.546425e-08
5.205600e-08 2.903907e-08 -5.016451e-08 -3.499111e-08 -1.833488e-08 2.130861e-08
-3.446120e-08 -7.712762e-08 3.574820e-07 2.384198e-08 -5.819726e-08 1.420284e-07
-1.534448e-07 2.188799e-07 -1.560810e-08 1.295449e-07 2.514416e-07 -2.386791e-08
7.238445e-08 1.129474e-08 -4.581031e-08 -4.496613e-08 -1.282247e-08 1.555461e-08
-1.304218e-07 4.009642e-07 -7.576036e-08 1.305949e-07 1.276973e-07 3.879083e-08
7.182846e-08 4.776452e-09 -3.503978e-08 -2.398731e-08 -7.886097e-09 1.579449e-08
1.484041e-07 -2.482082e-08 -7.542443e-08 -3.967762e-08 -1.588163e-08 4.361266e-08
1.177176e-07 -2.313630e-08 -2.014243e-08 -1.553611e-07 -7.926310e-08 1.211002e-07
-4.777064e-07 3.159076e-07 4.689574e-07 -5.409958e-07 2.527237e-07 -1.221179e-07
-2.636446e-08 2.995988e-07 1.021411e-07 4.222138e-07 6.285786e-08 2.507919e-08
4.158413e-07 -5.110817e-07 5.796313e-07 -5.740190e-07 1.925774e-07 -1.341829e-07
-1.095875e-07 1.570296e-07 -2.480408e-08 6.972196e-08 1.632526e-07 3.277510e-08
1.423455e-07 -3.141129e-08 -3.689436e-08 1.345511e-07 9.917603e-08 1.995666e-07
6.336062e-07 -4.085174e-07 3.835539e-07 -2.223286e-07 2.665224e-08 -3.123632e-07
4.447156e-07 -1.050022e-07 1.084463e-07 -3.120011e-07 3.717009e-08 -8.317300e-08
3.125834e-07 -8.236217e-08 -2.186898e-08 1.739662e-07 5.041637e-08 9.715653e-08
3.227953e-07 -2.140626e-07 4.046591e-07 -4.069881e-07 5.946626e-08 -6.551643e-08
1.404483e-07 -1.083644e-08 -7.097814e-08 1.139369e-07 4.536071e-08 1.055938e-07
-5.339512e-09 6.822435e-10 -3.284482e-08 2.365976e-08 9.522989e-08 8.717283e-08
3.107185e-07 -1.147179e-07 2.884041e-07 -3.915950e-07 -4.957834e-08 -2.399801e-08
2.197498e-07 -6.194178e-08 -7.591602e-08 -7.793517e-08 -3.040220e-08 9.950336e-08
1.236653e-07 6.100475e-08 3.760475e-08 -2.657058e-07 -1.104761e-07 1.332237e-07
-5.809952e-08 1.880113e-07 2.642249e-07 -4.689436e-07 1.951841e-07 -8.646316e-08
9.091188e-08 -1.946079e-07 2.291679e-07 -7.366563e-07 2.578374e-07 3.023524e-09
2.111243e-07 -5.063640e-08 4.738183e-07 -4.010769e-07 2.878401e-07 -3.546292e-07
-5.854303e-08 -2.571358e-08 6.347968e-08 -1.572218e-08 1.370475e-07 7.624368e-08
-1.122102e-07 3.966465e-07 -8.976518e-08 1.293091e-07 1.357544e-07 4.556650e-08
2.162512e-07 7.281560e-08 1.545587e-07 -4.970179e-07 -6.952002e-08 3.656880e-08
-3.171556e-07 4.426829e-07 6.850404e-07 3.728631e-07 -1.763911e-07 -2.652555e-08
-4.489062e-08 2.560618e-07 -7.040507e-08 1.536338e-07 1.497840e-07 6.034327e-08
9.417984e-08 -2.357823e-08 -2.918607e-08 1.091572e-08 3.234085e-09 1.872747e-08
1.822118e-07 -3.801291e-09 3.467154e-08 -4.199680e-07 -7.194020e-08 1.578921e-07
-1.297127e-07 2.947800e-07 7.019937e-08 -1.271850e-07 1.212446e-07 -2.622710e-08
1.016703e-07 -1.431273e-08 -3.752515e-08 1.945914e-08 3.246283e-09 1.502545e-08
-2.458219e-07 3.981293e-07 3.976496e-07 -3.441109e-07 -7.501845e-07 4.425365e-07
1.822255e-08 4.116153e-08 -3.680473e-08 -4.024181e-08 -4.554544e-08 3.305010e-08
-2.104083e-07 3.373004e-07 3.211881e-07 -1.977425e-07 4.044355e-08 2.007270e-08
4.290796e-08 4.405476e-08 -5.018464e-08 -4.921039e-08 -2.024775e-08 2.051158e-08
7.948610e-08 3.665873e-08 3.114621e-07 -5.364525e-07 -1.135660e-07 3.450658e-09
5.468197e-08 5.142694e-08 -6.543938e-08 -7.683752e-08 -3.205024e-08 3.157489e-08
2.524170e-08 4.024323e-08 -3.521052e-08 -4.122800e-08 -4.361801e-08 4.160927e-08
-5.102050e-07 4.445828e-07 9.453463e-07 -4.134187e-07 -3.843029e-08 -6.749164e-08
-1.078040e-08 -6.705279e-08 5.810327e-07 5.296546e-08 -8.489935e-08 -3.144872e-09
4.316424e-08 1.552942e-08 -4.666110e-08 -3.638742e-08 -2.516257e-08 3.177902e-08
2.999622e-08 2.053154e-08 -3.154364e-08 -1.970270e-08 -2.372677e-08 2.832308e-08
4.312278e-08 3.075829e-08 -4.821101e-08 -7.144438e-08 -6.643276e-08 8.046678e-08
2.933134e-08 3.743315e-08 -5.798905e-08 -3.950627e-08 -2.766274e-08 3.194574e-08
2.085741e-08 6.958285e-09 -3.609956e-08 -2.534224e-08 -4.856973e-08 5.661846e-08
8.428063e-09 2.627223e-08 -3.752887e-08 -2.383632e-08 -3.649380e-08 3.526209e-08
-1.214905e-07 4.128238e-07 -7.878961e-08 -1.845817e-07 -1.444132e-07 7.557381e-08
-7.349228e-08 2.922298e-07 -9.758832e-08 -8.916581e-08 1.444782e-07 -3.374570e-08
-6.485610e-08 1.831413e-07 -8.060207e-08 -5.556676e-08 1.391968e-07 -5.444770e-08
-6.489580e-08 1.255629e-07 -4.516014e-08 -1.924269e-08 1.646211e-07 -3.226763e-08
4.114304e-08 2.436021e-08 -2.751608e-08 -2.623799e-08 -1.951571e-08 2.120669e-08
2.992316e-08 3.720649e-08 -3.387548e-08 -3.958292e-08 -2.978660e-08 2.634097e-08
-1.032415e-08 9.234813e-08 -6.945693e-08 -5.739542e-08 -1.100768e-07 6.944468e-08
7.511977e-09 1.427076e-07 -1.033932e-07 -1.121676e-07 -8.721542e-08 3.401708e-08
4.330684e-09 7.911128e-08 -6.592940e-08 -5.823345e-08 -8.858195e-08 7.284145e-08
2.658910e-08 1.146357e-07 -8.514531e-08 -9.653603e-08 -6.075878e-08 3.966547e-08
-1.136447e-07 2.202074e-07 -9.795129e-08 -3.582536e-08 1.153492e-07 -1.587457e-08
-4.901022e-08 1.633150e-07 -9.167036e-08 -5.309799e-08 8.087482e-08 -2.941028e-08
-1.096520e-08 2.685255e-08 -3.721410e-08 -1.417694e-08 -7.070252e-08 4.209663e-08
1.149900e-08 4.931531e-08 -3.827689e-08 3.859354e-08 4.588402e-08 2.801251e-08
-5.476970e-08 1.676164e-07 -9.637379e-08 -4.974412e-08 8.207304e-08 -3.497095e-08
1.102207e-07 4.921931e-08 -7.047442e-08 2.322353e-07 7.864540e-08 8.653088e-08
-4.772154e-08 2.321711e-07 -1.010420e-07 -7.128396e-08 1.091979e-07 -2.829538e-08
-3.842461e-08 1.132130e-07 -7.212284e-08 -1.994437e-08 1.184716e-07 -3.211189e-08
3.539702e-08 2.449027e-08 -3.409099e-08 3.763608e-08 2.414909e-08 2.585849e-08
3.542141e-08 4.693215e-08 -5.356381e-08 4.750257e-08 3.334668e-08 3.227440e-08
-3.388325e-08 8.510153e-08 -4.389427e-08 -2.808743e-09 1.055482e-07 -2.061267e-08
4.319685e-08 6.499508e-08 -5.800466e-08 6.808705e-08 2.313477e-08 2.024478e-08
2.799488e-08 4.739870e-08 -4.613199e-08 3.508812e-08 1.741003e-08 1.678668e-08
-4.868972e-10 3.209590e-08 -3.398986e-08 2.194530e-08 6.681847e-08 4.061671e-08
1.130462e-07 -1.442623e-08 -4.905690e-08 -4.055751e-08 -1.651452e-08 4.825971e-08
2.091473e-08 5.570675e-08 -3.639789e-08 4.251308e-08 4.228054e-08 2.341826e-08
-7.143728e-08 1.275441e-07 -5.853099e-08 -1.519624e-08 1.412050e-07 -1.427243e-08
9.830932e-10 6.086844e-08 -3.919580e-08 4.266074e-08 6.033286e-08 3.065470e-08
1.226410e-08 6.086282e-08 -6.201279e-08 3.886037e-08 4.013133e-08 2.575930e-08
-3.576503e-08 1.276433e-07 -5.013699e-08 -4.423201e-09 1.573665e-07 -3.584087e-08
4.681921e-09 7.844387e-08 -7.108717e-08 5.952186e-08 8.001775e-08 4.052729e-08
-8.140483e-09 3.122218e-08 -3.423112e-08 5.123433e-08 1.236655e-07 7.892219e-08
1.066640e-07 -1.747798e-08 -3.929362e-08 -1.725415e-08 -2.456022e-09 1.644369e-08
-2.537368e-09 1.941815e-07 -8.026286e-08 2.230361e-07 7.622823e-08 6.357772e-08
-2.596632e-08 -1.299645e-08 -2.371891e-08 2.455903e-11 1.223936e-07 8.207148e-08
3.438473e-07 -8.066118e-08 -7.893057e-08 -1.864438e-07 -2.804962e-08 7.860799e-08
-1.399779e-09 -5.330802e-08 3.997560e-08 -1.415521e-08 -3.483844e-08 1.580170e-07
2.202981e-07 -5.151045e-08 -9.065443e-08 -1.967101e-07 -4.148269e-08 1.273743e-07
-5.648745e-08 1.430483e-07 -6.572044e-08 -7.652661e-08 -1.943903e-07 6.218215e-08
-9.853644e-07 -1.817893e-06 6.754173e-06 -1.017166e-06 -6.143604e-07 3.600162e-06
-1.120708e-06 -2.355706e-07 4.875433e-06 -5.631660e-07 -3.040596e-06 2.641334e-06
2.032412e-07 -3.272321e-07 1.207029e-06 -6.060610e-07 -3.384493e-07 4.685195e-07
-1.907343e-06 -1.711731e-06 1.136116e-05 -6.290299e-07 -2.532212e-06 3.521031e-06
4.978958e-08 1.039836e-08 -2.485411e-08 1.784247e-08 5.267176e-09 1.207632e-08
4.702456e-07 -5.733953e-07 1.468725e-06 -3.935131e-07 -4.824063e-07 1.311841e-06
-3.508834e-07 -3.042567e-07 1.829488e-06 -7.520377e-07 -7.641098e-07 5.266793e-07
-1.216085e-06 -5.806832e-07 7.893012e-06 1.490561e-06 5.902898e-07 3.571577e-06
6.175701e-08 4.703869e-09 -2.869838e-08 1.937682e-08 6.079904e-09 1.117190e-08
-2.006625e-06 -2.238675e-06 7.858880e-06 1.099035e-06 2.495740e-06 2.605267e-06
7.331641e-08 -4.781416e-10 -3.326506e-08 2.519330e-08 7.213367e-09 1.673480e-08
7.125352e-08 1.786099e-08 -4.297851e-08 4.210845e-08 1.289871e-08 1.948508e-08
-2.433491e-06 -1.796745e-07 8.843800e-06 4.185068e-07 3.953459e-06 6.261586e-07
-1.660981e-06 1.912521e-07 5.098726e-06 -5.757619e-07 2.248655e-06 -6.548948e-07
-4.861892e-07 4.785908e-07 9.766248e-07 -5.697282e-08 5.049379e-07 1.573606e-07
7.295514e-08 9.327810e-09 -4.052104e-08 3.280232e-08 7.848104e-09 1.386579e-08
1.045425e-07 -2.184860e-08 -4.207301e-08 1.989392e-08 4.157660e-09 1.970567e-08
-1.513653e-06 -1.239632e-06 1.633198e-05 -5.969300e-07 -2.146095e-06 6.396546e-06
8.151265e-07 -1.252564e-06 2.867089e-06 4.548220e-07 4.446823e-07 2.096589e-06
1.064496e-07 -2.334738e-08 -4.265593e-08 1.049577e-08 5.601917e-09 2.031055e-08
1.109740e-07 -2.769163e-08 -4.231694e-08 9.575404e-09 -2.939263e-09 2.326792e-08
1.103311e-07 -2.548173e-08 -4.212509e-08 1.455932e-08 -2.833575e-10 2.149968e-08
1.072440e-07 -2.579912e-08 -4.547155e-08 -7.381331e-10 5.577499e-09 2.546215e-08
-5.337856e-07 -7.089621e-07 3.399644e-06 -1.324231e-06 1.718282e-06 -3.126110e-06
-5.340006e-08 -1.328140e-08 -1.722948e-08 -1.060870e-08 -1.251549e-07 6.524472e-08
1.308554e-08 6.418325e-08 -5.082174e-08 3.678398e-08 2.696298e-08 1.959897e-08
5.978739e-07 -5.900743e-07 7.112535e-07 1.857528e-08 9.164329e-09 2.509910e-07
4.980654e-07 -2.009156e-07 2.420796e-07 3.106562e-07 -1.736355e-07 3.802529e-08
1.639585e-08 6.079665e-08 -5.451714e-08 4.008908e-08 2.340673e-08 2.256483e-08
7.393634e-07 -5.309617e-07 6.080721e-07 -2.010406e-07 2.175629e-08 2.742291e-07
2.537595e-09 5.706008e-08 -3.817048e-08 4.247226e-08 6.104376e-08 4.424815e-08
4.958506e-07 -4.780854e-07 3.783277e-07 5.268672e-07 1.158657e-07 1.643757e-07
3.332804e-07 -3.870434e-08 1.011193e-06 -4.454758e-08 3.366335e-08 1.044901e-06
2.008884e-08 9.710538e-08 -7.987247e-08 8.089169e-08 5.020604e-08 3.684397e-08
1.098320e-08 1.035894e-07 -7.754416e-08 9.199271e-08 8.954704e-08 4.930748e-08
6.394117e-07 -4.212211e-07 5.230017e-07 3.832343e-07 1.526920e-08 1.889546e-07
-2.928964e-07 -5.778825e-07 2.689143e-06 7.697467e-07 8.898659e-07 6.454555e-07
3.797763e-07 -5.155263e-08 6.091940e-07 1.574339e-07 1.392313e-07 7.055965e-07
1.988466e-07 -1.325820e-06 3.698364e-06 2.595109e-07 1.763925e-07 1.575998e-06
5.616359e-07 -4.163896e-07 9.049087e-07 5.354101e-07 5.669155e-07 8.124987e-07
2.122607e-07 -4.811743e-08 -8.417306e-08 3.687978e-08 1.146229e-08 6.678334e-08
1.452542e-07 -3.148996e-08 -5.959926e-08 -4.055250e-09 -5.849740e-10 3.622491e-08
1.743069e-07 -4.039942e-08 -7.373909e-08 -1.185818e-08 -4.935999e-09 5.206985e-08
7.492522e-08 -3.171035e-08 -3.359565e-08 3.957862e-09 4.484252e-09 6.566105e-08
1.306245e-08 4.474286e-08 -3.050814e-08 3.040255e-08 3.031310e-08 1.737593e-08
1.090462e-08 2.594512e-08 -3.341645e-08 2.061457e-08 4.084145e-08 3.510707e-08
-2.852820e-10 3.701092e-08 -3.417403e-08 1.915038e-08 3.595189e-08 2.441946e-08
-3.124596e-06 -2.448028e-06 8.418148e-06 -1.522337e-07 4.762115e-07 -3.684506e-06
-5.218326e-07 4.707084e-07 1.861364e-06 -4.961144e-07 6.128722e-07 -6.066462e-07
-3.479921e-07 4.171874e-07 2.373602e-07 -7.267551e-08 -1.285751e-07 7.584267e-08
-1.030677e-06 8.563098e-08 2.823113e-06 -5.676949e-07 1.096552e-06 -2.302520e-07
-4.366039e-07 5.213638e-07 8.803363e-07 -2.453229e-07 3.569728e-07 1.032853e-08
-3.269083e-07 4.068545e-07 8.323339e-08 -5.045938e-08 -1.247612e-07 -7.798782e-09
8.725620e-08 -1.828161e-08 -3.120350e-08 2.488175e-08 1.165000e-08 3.772382e-08
8.659693e-08 -1.410958e-08 -3.532377e-08 3.842483e-08 1.740951e-08 4.722108e-08
-3.755396e-07 6.747078e-07 4.171115e-07 5.670514e-09 1.508213e-07 5.990760e-08
3.091122e-07 -1.222391e-07 -4.197064e-08 -2.427102e-07 -6.195489e-08 1.197099e-07
2.491193e-07 1.760611e-08 5.392988e-08 -4.286213e-07 5.911001e-09 6.668615e-08
-4.916214e-07 5.456683e-07 4.199266e-07 -1.393287e-08 8.049494e-08 1.056593e-08
-3.977575e-07 5.887322e-07 2.536426e-07 -2.481191e-07 7.427075e-08 5.035664e-09
-2.408387e-07 4.251148e-07 7.571980e-08 -2.493566e-09 -7.773205e-08 -9.891243e-09
-3.509505e-07 5.848431e-07 5.941319e-08 -2.487310e-08 -7.949779e-08 3.335490e-08
2.624237e-07 -2.858927e-08 -1.011221e-07 -1.637808e-07 -4.970149e-08 1.239042e-07
2.674687e-07 -8.117473e-08 -7.835973e-08 -3.699794e-08 -1.575842e-08 9.201501e-08
8.552837e-08 -2.819778e-08 -4.944378e-08 -4.989253e-08 -4.394903e-08 9.780155e-08
-2.618214e-06 -2.229076e-06 1.191145e-05 -3.367769e-07 -1.283308e-06 1.320421e-06
-3.654778e-07 -4.495424e-08 3.478353e-06 -8.548354e-07 -1.606657e-06 1.106183e-06
-4.927679e-07 4.951483e-07 5.711609e-07 1.520954e-08 1.321720e-07 -7.578595e-08
-1.259518e-06 2.996346e-07 2.916815e-06 -5.703220e-07 -2.336570e-06 1.928183e-06
5.122185e-07 -5.939727e-07 2.414231e-06 1.081324e-06 1.295859e-06 2.162246e-06
-2.413986e-06 -1.608974e-06 7.459622e-06 1.915274e-08 -1.755413e-06 8.515532e-07
4.045366e-07 -1.948738e-07 -7.366720e-08 1.498657e-07 2.794779e-08 1.303922e-07
3.384273e-07 -1.058861e-07 -2.692691e-08 1.328165e-07 3.967141e-08 1.854540e-07
3.657264e-07 -1.692006e-07 8.401326e-08 2.321975e-07 1.081954e-07 1.595940e-07
1.050665e-08 -1.479072e-06 4.433546e-06 7.483364e-07 7.536952e-07 2.176499e-06
-5.677061e-07 -5.653327e-07 3.155777e-06 1.049823e-06 9.896240e-07 1.412503e-06
2.230715e-07 -9.367946e-08 3.130220e-08 1.984387e-07 1.492659e-09 9.371505e-08
-2.620163e-06 -1.362794e-06 7.839645e-06 3.187299e-07 2.750346e-06 1.217428e-06
-1.277206e-06 -2.122269e-06 1.626498e-05 1.021467e-06 4.750364e-06 4.425537e-06
-3.599702e-06 -2.367357e-06 1.487615e-05 -5.443196e-07 2.317352e-06 -3.785061e-06
-3.137596e-09 -7.364866e-09 1.880078e-08 1.570196e-08 -1.253962e-08 1.116494e-07
-1.211502e-06 8.704987e-07 3.583575e-06 7.351272e-07 3.663553e-06 1.108464e-06
6.312877e-07 -6.818826e-07 2.020400e-07 5.139651e-07 7.375514e-07 7.167692e-07
-2.805084e-09 -3.110347e-07 2.266106e-06 9.384998e-07 1.251875e-06 1.385539e-06
-1.232093e-06 8.800126e-07 1.621740e-06 4.911625e-07 1.173809e-06 3.560610e-07
8.623340e-08 5.523777e-08 -4.199843e-08 -1.700358e-07 1.087481e-07 -7.466664e-08
5.745856e-07 -4.046904e-07 2.905614e-07 -1.041124e-07 1.191924e-07 4.684728e-08
2.443537e-07 -8.812211e-08 -9.245108e-08 6.579616e-08 1.540166e-08 8.806213e-08
5.456223e-07 -3.151968e-07 1.990697e-07 -6.089715e-09 3.060186e-08 3.072916e-08
2.248956e-07 -5.587558e-08 -8.665047e-08 1.939887e-08 5.990001e-09 6.741915e-08
4.645816e-07 -3.018466e-07 9.146472e-08 -2.363450e-08 5.247049e-08 1.241800e-07
1.466910e-07 -4.785553e-08 -7.301125e-08 3.161870e-08 8.790720e-09 6.080179e-08
3.898675e-08 2.326824e-08 -2.461790e-08 1.446271e-08 6.470146e-09 6.673997e-09
3.836814e-08 2.546575e-08 -2.731080e-08 1.669881e-08 5.617558e-09 6.083337e-09
4.171679e-08 3.153185e-08 -3.675172e-08 2.957144e-08 1.321521e-08 5.954842e-09
3.570761e-08 2.581229e-08 -3.524128e-08 2.470445e-08 1.394539e-08 1.391308e-08
3.885580e-08 4.000126e-08 -3.706027e-08 3.268170e-08 1.524249e-08 1.550077e-08
2.621419e-08 2.953289e-08 -2.764237e-08 1.919614e-08 1.612691e-08 1.539422e-08
1.590244e-07 -3.386192e-08 -6.797944e-08 3.037424e-08 1.051722e-08 4.538916e-08
2.897139e-08 4.624120e-08 -3.999682e-08 3.433557e-08 1.426012e-08 1.009577e-08
3.491265e-08 5.569039e-08 -5.742848e-08 4.439709e-08 2.396141e-08 1.651273e-08
1.889224e-07 -5.533065e-08 -7.821694e-08 5.966707e-08 1.361572e-08 6.662513e-08
7.989858e-08 -5.011988e-09 -3.575234e-08 -2.561795e-08 -1.219249e-08 2.763380e-08
7.649801e-08 -1.279108e-08 -2.710208e-08 -1.301210e-08 -5.221087e-09 1.686817e-08
8.541807e-08 -2.189697e-08 -3.591193e-08 2.693126e-08 1.948034e-08 5.664293e-08
7.616324e-08 -8.596458e-09 -2.646335e-08 -1.610611e-08 -3.579997e-09 1.436041e-08
6.951516e-08 -6.686990e-09 -2.539835e-08 -1.399249e-08 -5.098026e-09 1.319868e-08
1.187347e-07 -3.034640e-08 -4.629758e-08 -9.811748e-09 -2.215974e-09 2.982686e-08
1.288996e-07 -3.738739e-08 -6.068944e-08 1.991837e-08 9.388330e-09 7.637208e-08
1.370951e-07 -3.869818e-08 -5.829836e-08 1.541407e-08 2.218798e-09 3.336314e-08
1.233589e-07 -3.194369e-08 -6.336777e-08 2.646270e-08 5.506081e-09 3.611227e-08
-3.012308e-08 8.289231e-08 -4.500419e-08 3.152216e-08 1.183939e-07 4.549775e-08
3.098652e-07 -1.338781e-07 8.918022e-09 -7.043801e-08 -6.344506e-09 6.828833e-08
-2.019830e-08 1.348767e-07 -7.942945e-08 6.358141e-08 6.677963e-08 2.496447e-08
-4.258584e-08 1.147821e-07 -6.293275e-08 4.557405e-08 1.406959e-07 5.209741e-08
1.412058e-07 -4.866603e-08 -6.958230e-08 -2.413074e-08 -7.937006e-09 8.582157e-08
4.353505e-08 -4.416400e-08 -2.283917e-08 -1.402362e-08 -1.537501e-08 1.170790e-07
-7.417203e-08 2.662528e-07 -1.042284e-07 2.634845e-08 1.039654e-07 7.901994e-09
2.224953e-07 -8.778299e-08 -2.278765e-08 -1.429072e-07 -4.949438e-08 1.387055e-07
-3.550018e-08 1.135484e-07 -7.784724e-08 2.201115e-08 7.162521e-08 1.503967e-08
1.844128e-07 -1.206887e-07 -2.347511e-08 -7.728263e-08 -2.574757e-08 1.778604e-07
-4.897602e-08 1.482135e-07 -8.403877e-08 1.830600e-08 7.945775e-08 2.472395e-08
-3.602910e-08 6.759159e-09 -2.621307e-08 -4.556471e-10 1.508556e-07 1.330674e-08
-3.067927e-08 1.005185e-07 -4.821810e-08 1.874550e-08 1.082248e-07 1.844835e-08
2.650766e-07 -1.147090e-07 -8.920942e-08 4.524602e-08 1.800052e-09 9.537391e-08
2.454445e-07 -8.990776e-08 -7.650272e-08 -3.665343e-09 -1.875179e-08 1.208557e-07
2.504513e-08 -3.099324e-08 -1.194142e-08 -3.043839e-08 -5.435842e-08 1.306608e-07
-2.636990e-08 1.713865e-08 -4.070579e-08 -2.508668e-10 9.909769e-08 -4.808261e-08
6.297590e-08 -3.122716e-08 -3.546319e-08 -2.249139e-08 -2.090229e-08 7.404492e-08
3.140100e-07 -1.259231e-07 -9.013454e-08 -1.059374e-07 -1.260971e-08 1.172282e-07
4.061822e-08 1.471983e-07 -1.143679e-07 -1.558082e-07 7.339196e-08 -5.469516e-08
1.062111e-07 -2.194714e-08 -8.844551e-08 -1.425346e-07 -5.409842e-08 1.024351e-07
5.959298e-08 -2.707375e-08 -4.819343e-08 -2.804871e-08 -3.580299e-08 9.477341e-08
1.450181e-07 -3.586501e-08 -7.884779e-08 -5.092791e-08 -1.788706e-08 8.264723e-08
-5.150271e-08 -2.921428e-08 -1.830523e-08 -5.288558e-09 1.320102e-07 -5.612251e-08
2.190316e-08 -5.118192e-08 -1.593786e-08 -2.243881e-08 -3.806233e-08 1.236991e-07
-4.043540e-08 3.526064e-07 -5.182082e-08 -2.638766e-07 9.384225e-08 -3.809666e-08
-4.721464e-09 6.448744e-08 -4.564984e-08 -6.060100e-08 -1.180648e-07 4.097972e-08
1.304261e-07 -4.189822e-08 -4.875887e-08 -8.410379e-08 -6.317619e-08 1.292873e-07
1.950514e-07 -2.389579e-08 -8.954448e-08 -1.105569e-07 -2.393468e-08 8.012997e-08
1.047891e-07 8.667406e-08 -7.029090e-08 -2.240918e-07 6.183389e-08 -5.094556e-08
6.301812e-08 -3.260107e-08 -5.140626e-08 -2.482309e-08 -4.051852e-08 1.180473e-07
-4.379485e-09 6.632332e-08 -4.525302e-08 -3.231190e-08 9.478389e-08 -4.761364e-08
-1.731512e-07 2.485714e-07 8.701966e-08 -1.164783e-07 1.859688e-07 -4.512777e-08
-4.322770e-08 2.305563e-07 -1.060685e-07 -1.167539e-07 1.296752e-07 -4.449078e-08
-1.301735e-08 1.696807e-07 -1.071004e-07 -8.778666e-08 9.511777e-08 -3.761205e-08
-4.751779e-08 9.456449e-08 -6.678925e-08 -3.176050e-08 1.164647e-07 -3.978979e-08
2.695513e-09 1.277361e-07 -1.117483e-07 -1.513428e-07 8.360777e-08 -4.506307e-08
-2.660600e-08 3.705485e-08 -3.100811e-08 3.376905e-09 6.836287e-08 -3.231744e-08
-9.634508e-08 3.161131e-07 -8.145813e-08 -1.258413e-07 1.451983e-07 -5.371622e-08
4.117356e-08 2.600522e-08 -3.228124e-08 1.209232e-07 1.262284e-07 1.373053e-07
-2.057436e-08 5.630119e-08 -3.271814e-08 4.938037e-08 1.301367e-07 1.016752e-07
-2.876183e-08 3.812953e-08 -3.107993e-08 4.140864e-09 6.735814e-08 -3.137970e-08
-1.899178e-08 6.761845e-08 -3.814204e-08 -1.820543e-08 5.526274e-08 -1.960644e-08
-4.584789e-08 9.413511e-08 -3.911438e-08 -3.205048e-08 1.246072e-07 -5.272224e-08
2.642541e-07 -1.634887e-07 9.410163e-08 -2.559846e-07 -4.302921e-08 3.881809e-09
5.383582e-08 1.334593e-07 -8.804699e-08 2.189013e-07 9.799798e-08 8.552648e-08
-9.274179e-08 -2.534585e-07 2.551871e-06 8.632803e-07 9.388110e-07 6.107170e-07
4.596771e-08 1.798188e-08 -2.050076e-08 1.045282e-08 2.146189e-09 2.307582e-09
-6.024714e-09 6.146854e-08 -3.502970e-08 4.973122e-08 8.921538e-08 5.376528e-08
4.199073e-08 1.938407e-08 -2.080389e-08 1.179262e-08 2.403208e-09 1.712260e-09
-1.961570e-08 1.652150e-08 -3.403123e-08 1.682724e-08 9.142009e-08 5.149798e-08
5.417853e-08 2.176815e-08 -3.107387e-08 2.253895e-08 5.535485e-09 7.714500e-09
-1.955572e-08 -2.327259e-09 -2.727718e-08 1.124890e-08 1.518316e-07 1.344336e-07
4.701988e-08 1.534482e-08 -2.252436e-08 1.180851e-08 3.225591e-09 3.438966e-09
5.469613e-09 4.746713e-08 1.756764e-08 1.181950e-07 1.901498e-07 1.835117e-07
-6.404075e-08 2.705148e-07 -3.447728e-08 1.826911e-07 1.145718e-07 5.174060e-08
2.236620e-09 2.535767e-08 -3.381381e-08 -1.717041e-08 -5.381084e-08 4.775517e-08
2.420107e-08 3.142519e-08 -3.601572e-08 -4.594239e-08 -4.799645e-08 4.069167e-08
4.657428e-08 1.884004e-08 -2.254579e-08 1.164066e-08 3.960436e-09 3.686182e-09
-8.160113e-08 1.915794e-07 -4.973440e-09 -4.485423e-08 1.323108e-07 -3.140627e-08
4.733054e-08 1.389868e-08 -2.198064e-08 1.172329e-08 2.863014e-09 3.865199e-09
7.142206e-08 -5.158791e-09 -2.551369e-08 1.676306e-08 3.789851e-09 1.438518e-08
4.706402e-08 7.781022e-08 -7.785261e-08 -8.408127e-08 -4.977843e-08 3.268944e-08
2.627826e-08 6.178891e-08 -6.960345e-08 -5.681137e-08 -3.553595e-08 3.561542e-08
2.687912e-08 1.677818e-07 -1.135359e-07 -1.364155e-07 -8.238941e-08 6.039958e-08
5.011422e-08 1.048459e-07 -1.027139e-07 -1.273354e-07 -6.740684e-08 5.349680e-08
-1.930283e-08 1.547218e-07 -1.157748e-07 -1.226175e-07 -1.381725e-07 7.722840e-08
-2.743072e-08 1.886458e-07 -1.157407e-07 -1.112937e-07 -1.036736e-07 4.130147e-08
-3.061217e-08 9.606221e-08 -6.972648e-08 -6.082703e-08 -1.112921e-07 6.661126e-08
-1.704777e-08 4.151400e-08 4.016209e-07 5.695331e-08 -6.572665e-08 -1.474959e-07
-2.437489e-07 4.094300e-07 2.956281e-08 -9.790424e-08 1.727420e-07 -2.296094e-08
-2.937046e-08 1.090416e-07 -1.193159e-08 -1.047773e-07 -1.033970e-07 1.008373e-07
-2.747468e-06 -7.341018e-07 1.265080e-05 1.058021e-07 -4.598191e-06 -4.340923e-06
3.619130e-08 1.571222e-07 -8.930708e-08 -1.771476e-07 -6.318793e-08 6.799757e-08
1.121503e-08 1.790278e-07 -7.411305e-08 -1.957730e-07 -1.180402e-07 9.229760e-08
-4.352815e-08 2.127898e-07 -8.688118e-08 -1.954959e-07 -9.817478e-08 7.626245e-08
-7.785321e-09 8.038580e-08 -6.528526e-08 3.812497e-08 4.548065e-08 2.418742e-08
3.169532e-08 -3.746738e-08 -2.219989e-08 2.647163e-08 4.869419e-08 1.565015e-07
1.109235e-08 -2.538523e-08 -3.611231e-09 2.551441e-08 3.577918e-08 1.539972e-07
-6.189127e-08 1.464927e-07 2.998122e-08 9.984502e-08 1.906401e-07 1.133758e-07
-4.345536e-08 -5.755092e-09 -7.134035e-09 -3.928465e-09 2.002265e-07 8.192434e-08
3.040486e-07 -1.357811e-07 -8.529605e-08 9.949128e-08 6.087544e-09 9.369776e-08
-3.784847e-08 2.191766e-07 -4.468162e-08 2.806540e-08 1.444514e-07 6.539711e-08
-3.740123e-08 -2.968427e-09 -2.044701e-08 -3.451528e-10 1.574234e-07 5.980313e-08
-2.250984e-08 1.773918e-07 -9.712651e-08 8.772173e-08 7.804740e-08 3.592664e-08
-1.190363e-08 1.586278e-07 -9.760219e-08 1.023581e-07 7.023620e-08 3.270753e-08
-8.939966e-08 1.467325e-07 3.754331e-08 9.504147e-08 1.777511e-07 8.038879e-08
-1.555484e-07 1.574938e-07 5.721071e-08 1.135150e-07 1.618745e-07 3.396179e-08
-2.193497e-07 4.481137e-07 -5.484057e-08 -1.884652e-07 -1.738914e-07 3.696129e-08
-5.665940e-08 1.502027e-07 -3.011395e-09 4.076068e-08 -2.332433e-07 1.323273e-09
-1.124389e-07 1.179659e-07 6.854561e-08 1.597292e-07 1.627099e-07 9.354685e-08
-5.623714e-07 4.629103e-07 7.220927e-07 4.862511e-07 -1.262226e-07 -1.129367e-07
-1.913738e-07 5.357653e-07 -1.777994e-08 1.458042e-07 1.008949e-07 1.193720e-08
-2.354580e-07 4.415199e-07 4.770594e-08 1.338962e-08 -2.219772e-07 -3.570737e-08
3.832326e-08 2.173637e-08 -2.176490e-08 1.559568e-08 4.898450e-09 5.153599e-09
4.322114e-08 1.993011e-08 -2.050076e-08 1.088386e-08 1.987824e-09 2.463812e-09
5.308266e-08 1.075139e-08 -2.542829e-08 2.125095e-08 8.513058e-09 1.340101e-08
-1.780129e-06 -2.241902e-07 3.315139e-06 4.878325e-08 -1.589605e-06 -1.161633e-07
2.102995e-08 8.311073e-10 -3.737382e-08 2.698766e-08 5.257706e-08 6.899628e-08
4.463818e-08 1.566951e-08 -2.183390e-08 1.621888e-08 3.997360e-09 6.240411e-09
4.067026e-08 2.065787e-08 -2.443781e-08 2.065229e-08 8.324194e-09 8.069863e-09
2.321083e-08 3.153500e-08 -3.460454e-08 4.096662e-08 3.691225e-08 4.354545e-08
2.103470e-08 -2.072147e-08 -3.654165e-08 2.535041e-08 5.584933e-08 9.522252e-08
9.669081e-08 -1.441592e-08 -4.273127e-08 6.346529e-08 3.851708e-08 9.001441e-08
4.212294e-08 1.909257e-08 -2.239251e-08 1.324770e-08 4.161288e-09 4.656257e-09
5.055495e-08 1.683624e-08 -2.809908e-08 1.508387e-08 4.652591e-09 6.047174e-09
1.366451e-07 1.030971e-07 9.049347e-07 8.296612e-08 -1.015137e-06 -1.331617e-06
8.382106e-08 7.578830e-08 -9.568979e-08 1.756365e-07 7.441072e-08 7.949792e-08
5.622487e-07 -1.165756e-06 2.375765e-06 9.715507e-08 -5.566530e-07 -1.059033e-06
1.421740e-07 -4.039944e-08 -5.987157e-08 -9.299018e-09 -2.717871e-09 3.493138e-08
-3.293506e-07 4.079226e-08 4.675017e-06 7.919342e-07 -5.071487e-07 -4.198461e-06
5.264504e-07 -1.058309e-06 2.724959e-06 4.638253e-07 -8.962256e-07 -1.676248e-06
7.428482e-07 -1.833034e-06 3.336540e-06 -1.806810e-07 4.993900e-07 -2.361151e-06
5.840766e-07 -4.537309e-07 1.150499e-06 -1.205473e-07 -3.009148e-08 -1.396423e-06
2.337707e-08 2.011134e-08 -3.285977e-08 -2.194533e-08 -2.450568e-08 2.499253e-08
4.061703e-08 1.488619e-08 -2.651877e-08 -1.652414e-08 -1.007089e-08 1.182143e-08
-3.830743e-08 1.171877e-07 -6.475379e-08 -3.420685e-08 8.712549e-08 -3.960516e-08
-2.391680e-08 1.070034e-07 -6.480225e-08 -3.049404e-08 3.725665e-08 -2.529112e-08
-2.084754e-08 9.506489e-08 -4.696573e-08 -3.349824e-08 7.062201e-08 -1.883056e-08
8.017244e-09 7.025438e-08 -4.261638e-08 -6.252731e-08 -1.053183e-07 4.963804e-08
-2.738331e-08 1.181545e-07 -7.372010e-08 -2.730433e-08 6.016925e-08 -2.179298e-08
-2.419779e-08 3.963155e-08 -3.623619e-08 1.495066e-09 1.101108e-07 -3.859021e-08
-3.285157e-08 1.555931e-07 -9.244336e-08 -5.199436e-08 7.539575e-08 -2.546054e-08
-1.569901e-08 8.677091e-08 -6.764644e-08 3.560487e-08 4.627073e-08 2.855588e-08
1.734013e-09 1.126535e-07 -6.940885e-08 6.293364e-08 5.237238e-08 2.217423e-08
-3.012370e-08 2.141215e-08 -3.494888e-08 4.036562e-09 1.188831e-07 3.459893e-08
-2.822105e-08 1.417719e-07 -7.752232e-08 3.989361e-08 5.951657e-08 1.941245e-08
8.466610e-08 -4.500638e-09 -4.262381e-08 2.512634e-08 6.956417e-09 1.873122e-08
7.554952e-08 -1.719730e-09 -3.128855e-08 1.977797e-08 3.140890e-09 1.278359e-08
8.183139e-08 1.465081e-09 -4.872334e-08 3.129314e-08 1.075509e-08 2.565942e-08
4.573041e-08 8.227135e-08 -8.345033e-08 -8.048867e-08 -4.927487e-08 3.798377e-08
1.819523e-08 6.645788e-08 -6.780809e-08 -5.422337e-08 -3.872840e-08 3.576632e-08
9.301963e-08 -9.204884e-09 -4.462638e-08 2.865657e-08 1.025333e-08 1.809806e-08
8.291030e-08 -4.274421e-09 -3.427006e-08 2.560729e-08 8.342734e-09 2.105059e-08
-4.014345e-08 1.149686e-07 -5.129471e-08 -8.501593e-08 -2.044974e-07 1.314783e-07
-3.198324e-08 3.042276e-07 -9.704936e-08 -1.809069e-07 9.418868e-08 -3.517178e-08
-8.641952e-08 2.685298e-07 -1.043105e-07 -1.170886e-07 1.226065e-07 -4.311775e-08
-1.047588e-07 1.555624e-07 -3.183598e-08 -1.005062e-07 -1.565131e-07 9.028933e-08
-1.375388e-07 3.839509e-07 -9.856619e-10 -1.756456e-07 1.660364e-07 -3.048340e-08
-3.395616e-08 3.192055e-09 -3.326206e-08 1.639420e-08 1.099861e-07 -2.859250e-08
-1.519920e-08 7.095436e-08 1.471279e-08 -1.413068e-07 -1.234469e-07 1.128561e-07
3.717723e-08 9.435496e-08 -9.509939e-08 -1.903371e-07 -8.293576e-08 6.259054e-08
4.341876e-08 1.168375e-07 -9.554302e-08 1.263723e-07 6.536233e-08 4.458821e-08
-5.343147e-09 1.541922e-08 -3.100618e-08 2.223316e-08 7.530517e-08 5.727848e-08
1.476167e-08 4.685676e-09 -3.483729e-08 2.271091e-08 6.035133e-08 5.320593e-08
3.554063e-08 5.141284e-08 -7.227429e-08 5.952095e-08 3.811501e-08 3.315411e-08
7.139192e-09 2.678439e-08 -3.200083e-08 2.093099e-08 3.840980e-08 2.891212e-08
8.881123e-08 1.624433e-07 -1.085883e-07 -2.528863e-07 -1.157949e-07 1.058531e-07
1.807750e-08 7.212475e-08 1.249408e-08 -1.349219e-07 -1.206322e-07 1.319500e-07
7.610305e-08 2.563175e-08 -6.963625e-08 -1.062927e-07 -1.113898e-07 1.737012e-07
-2.893430e-09 8.448534e-08 -4.320413e-08 -8.040043e-08 -1.173211e-07 7.447392e-08
-2.919415e-08 1.350996e-07 -5.343035e-08 -7.341764e-08 -1.500338e-07 1.129099e-07
7.753555e-08 -3.370954e-08 5.072978e-07 -4.991440e-08 -8.353445e-08 2.958743e-07
9.339774e-08 -1.864800e-08 -4.672057e-08 2.572524e-08 1.794143e-08 5.058658e-08
-4.281500e-08 1.956180e-07 -1.010580e-07 9.821773e-08 8.412169e-08 2.689730e-08
-3.012365e-08 -1.247278e-08 -2.222959e-08 6.026065e-09 1.510491e-07 6.944143e-08
-4.925275e-08 1.096253e-07 -4.814197e-08 1.796974e-08 1.103594e-07 1.424684e-08
-7.587210e-08 3.031809e-07 -1.085195e-07 1.035611e-07 1.116401e-07 3.777326e-08
8.287396e-08 -9.130795e-09 -3.317961e-08 2.121726e-08 9.810996e-09 2.483414e-08
-2.859044e-08 9.889740e-08 -5.118252e-08 2.980852e-08 9.464383e-08 2.868561e-08
9.605687e-08 -4.564269e-09 -4.774289e-08 3.796855e-08 1.440249e-08 3.040517e-08
2.419839e-07 -3.923624e-08 1.497139e-06 2.023439e-08 -1.173868e-08 1.358009e-06
3.871644e-07 -2.132556e-07 5.101069e-07 -3.112018e-07 -9.741164e-08 1.348551e-07
8.548353e-08 2.161734e-09 -4.373291e-08 3.629941e-08 8.776210e-09 1.709448e-08
7.059803e-08 -3.458140e-09 -3.522148e-08 2.085069e-08 7.933534e-09 1.665156e-08
6.690454e-08 4.276551e-09 -3.912561e-08 3.075513e-08 9.472568e-09 1.819651e-08
5.668683e-07 -7.504006e-07 1.050659e-06 3.909766e-07 9.643524e-08 6.126415e-07
2.851088e-07 -7.600627e-08 -1.098713e-07 -3.121878e-08 -1.287287e-08 1.007128e-07
6.824669e-08 -2.425479e-09 -2.425161e-08 1.955897e-08 5.911433e-09 1.503166e-08
8.096309e-08 -8.657419e-09 -3.873971e-08 2.200762e-08 1.050881e-08 3.061276e-08
2.181944e-07 -6.070995e-08 -9.000236e-08 1.208169e-08 1.019589e-08 7.494426e-08
1.629133e-07 -5.774063e-08 -6.249339e-08 1.263282e-08 1.339350e-09 8.033782e-08
5.613490e-08 1.039797e-08 -2.293091e-08 1.768795e-08 5.312645e-09 7.997760e-09
3.997663e-08 -4.436103e-09 -2.829928e-08 -6.202347e-08 -8.843262e-08 1.526569e-07
6.145925e-08 -2.429339e-08 -3.915588e-08 -5.200946e-08 -6.039733e-08 1.111849e-07
6.440048e-08 4.999104e-08 -5.797879e-08 -1.143071e-07 -1.255085e-07 1.127546e-07
1.196314e-07 1.790014e-08 -8.323793e-08 -1.058314e-07 -2.491414e-08 5.477771e-08
6.509060e-09 -1.035998e-08 -3.656571e-08 -4.209575e-08 -8.386980e-08 1.656278e-07
-6.243958e-09 1.563491e-09 -3.707409e-08 -2.335353e-08 -7.316363e-08 7.472049e-08
2.207813e-07 -2.992305e-08 -9.414340e-08 -1.164051e-07 -4.337216e-08 9.047156e-08
1.094846e-07 3.941926e-08 -1.087771e-07 -1.463794e-07 -7.033842e-08 1.171559e-07
1.518561e-07 4.355634e-08 -9.656501e-08 -1.508184e-07 -4.080749e-08 6.238871e-08
6.459203e-08 7.124826e-08 -8.871768e-08 -9.517882e-08 -5.502903e-08 5.213374e-08
7.696981e-08 1.131911e-08 -7.024992e-08 -9.582859e-08 -4.992163e-08 8.865297e-08
-1.128585e-07 1.508403e-07 -2.049510e-08 -3.398165e-08 -1.726998e-07 3.538792e-08
-1.747369e-07 3.522611e-07 -1.004481e-07 -3.824638e-09 1.348356e-07 -3.992660e-09
-2.157632e-07 4.417339e-07 1.658789e-08 5.594159e-08 -1.310622e-07 1.827787e-08
-1.210396e-07 1.835663e-07 1.320128e-07 4.908816e-08 -8.135050e-08 9.250995e-08
2.942026e-07 -7.895345e-08 4.672317e-07 3.896562e-07 -9.950639e-08 -3.855206e-07
8.636209e-08 8.586521e-08 1.152941e-07 4.301323e-07 5.983656e-08 1.262156e-07
2.200869e-07 2.905486e-08 -1.025327e-07 -1.927539e-07 -7.219397e-08 1.176042e-07
-1.038423e-07 -1.748967e-06 3.030259e-06 1.448551e-06 -9.728495e-07 -1.972352e-06
6.493586e-07 -5.964129e-07 6.635059e-07 3.673084e-07 -1.367992e-07 -1.465611e-07
8.622847e-08 -9.027679e-09 -7.455808e-08 -7.687485e-08 -6.047746e-08 1.040933e-07
-1.320345e-08 9.175635e-08 -8.222143e-08 -8.638917e-08 -1.436035e-07 7.202790e-08
-1.445067e-07 -2.510480e-07 2.982335e-06 1.184670e-06 -1.643474e-06 -2.123878e-06
2.262866e-07 -3.461702e-07 1.600454e-06 5.522494e-07 -2.326562e-07 -3.145205e-07
-4.163283e-07 -2.510705e-07 2.825177e-06 9.072145e-07 -8.552037e-07 -3.923427e-07
-3.192040e-08 9.576666e-08 -4.474836e-08 -5.930472e-08 -1.143892e-07 6.319361e-08
2.002012e-07 -5.216819e-08 -1.684150e-08 1.498152e-07 8.035158e-08 1.498214e-07
-3.768751e-08 -9.713815e-09 -3.748526e-08 8.117713e-09 -1.167222e-07 4.168755e-08
8.782293e-08 -7.803485e-08 1.671453e-07 7.179523e-08 5.430579e-08 -1.067797e-07
5.615127e-08 -3.316862e-07 1.467578e-06 7.744384e-07 -5.212299e-07 -7.902280e-07
2.249468e-07 -6.875702e-07 1.355158e-06 5.743743e-07 -1.908480e-07 -2.080170e-07
-4.007458e-08 -6.810977e-09 1.897842e-07 1.529183e-08 8.904920e-08 6.784691e-08
-5.965014e-08 -5.345695e-09 5.589321e-08 2.960041e-08 6.057615e-08 8.404978e-08
-2.734999e-08 -6.824868e-08 1.219563e-08 3.192842e-08 6.811574e-08 5.971956e-08
-2.557221e-08 9.593478e-08 -4.837850e-08 -8.133834e-08 -1.791883e-07 8.722127e-08
-3.417370e-07 2.599426e-07 7.998220e-07 -4.911178e-07 -2.062795e-07 9.481440e-08
-3.643307e-07 -7.480615e-07 3.257737e-06 -1.067271e-06 -1.088570e-06 1.365321e-06
7.620505e-08 8.857304e-08 5.093635e-07 -6.768866e-07 -4.199741e-07 3.640593e-07
4.952525e-08 -4.760433e-09 8.844931e-07 6.314633e-07 -1.748399e-08 -1.786739e-07
3.347625e-07 -7.012351e-08 5.805493e-08 3.906599e-07 6.832521e-08 1.130203e-07
-1.070067e-06 4.227535e-07 2.937321e-06 -7.302051e-07 -1.345196e-06 1.021187e-06
3.338149e-07 -3.603323e-07 4.591036e-07 5.532412e-07 1.452191e-08 -3.920631e-09
4.972744e-08 -4.318354e-07 1.720806e-06 6.758060e-07 -2.657114e-07 -2.520297e-07
-5.048218e-07 7.183193e-07 2.903179e-07 -3.611333e-07 -1.424729e-06 6.175956e-07
1.250042e-07 9.531874e-08 -8.817063e-08 2.556783e-07 -1.118251e-07 -9.320983e-08
-5.770099e-07 3.517547e-08 1.792452e-06 -7.037846e-07 -5.471568e-07 5.084042e-07
-1.183567e-07 4.082398e-08 4.876480e-07 -6.496072e-09 2.162919e-08 2.095218e-07
4.899079e-08 1.534281e-08 -3.288598e-08 2.249366e-08 1.053593e-08 1.315410e-08
5.992078e-08 1.614766e-08 -3.654790e-08 2.846141e-08 6.954295e-09 1.253399e-08
5.563214e-08 1.016120e-08 -2.845749e-08 2.540856e-08 7.498002e-09 1.530641e-08
6.473362e-08 8.246489e-09 -3.936140e-08 2.535178e-08 9.232998e-09 1.216218e-08
3.377111e-07 -1.203702e-07 -5.424785e-08 -5.149698e-09 -1.347027e-08 1.013833e-07
4.900699e-07 -1.684225e-07 -7.318457e-08 8.642453e-09 7.591143e-10 1.335020e-07
4.567354e-07 -2.464236e-07 -7.313811e-08 -4.316978e-08 1.179465e-09 1.340107e-07
3.780780e-07 -9.521279e-08 -7.538592e-08 -1.265770e-07 -3.386272e-08 1.430926e-07
6.572470e-08 6.958375e-09 -3.497681e-08 2.250234e-08 5.828268e-09 9.525692e-09
3.278095e-07 -1.209122e-07 -9.055565e-08 1.585287e-08 -6.512933e-09 9.904548e-08
5.946962e-08 9.286662e-09 -3.108556e-08 1.752386e-08 6.982635e-09 7.139328e-09
6.767908e-07 -5.900743e-07 1.189703e-07 4.288608e-08 3.563145e-08 2.193489e-08
4.459348e-07 -2.350726e-07 -6.368779e-08 6.612527e-08 2.360563e-08 1.435512e-07
2.420334e-07 -5.632750e-08 -6.250683e-09 3.799340e-08 3.404778e-08 2.310622e-07
1.660037e-07 -5.169245e-08 -7.201797e-08 -2.241683e-08 -7.260012e-09 4.920615e-08
-2.355580e-07 5.931768e-07 3.125526e-08 -1.455427e-07 1.096710e-07 -1.572049e-08
5.623225e-07 -2.429451e-07 4.496143e-07 1.334223e-07 6.996457e-08 4.510486e-07
8.396304e-07 -5.387724e-07 1.315872e-06 1.192325e-07 4.736991e-08 8.376603e-07
1.142976e-07 -3.250384e-08 -4.607989e-08 -6.677029e-09 -3.710481e-09 3.161445e-08
6.537070e-08 2.352299e-07 -6.768849e-08 -3.085870e-07 6.076848e-08 -4.546871e-08
1.063810e-07 -2.919424e-08 -4.806561e-08 -9.985710e-10 -1.947462e-09 3.573823e-08
1.044868e-07 -2.810752e-08 -2.953196e-08 4.167196e-12 3.364944e-10 3.350573e-08
1.591200e-07 -1.894452e-08 -8.666099e-08 -1.294951e-07 -4.905175e-08 1.293412e-07
5.107143e-07 -5.259453e-07 1.929528e-07 8.868038e-08 6.656106e-08 1.493841e-08
5.206266e-08 -4.729854e-08 -1.337576e-08 -1.841724e-08 -2.425360e-08 1.009062e-07
9.558653e-08 8.190972e-08 5.039198e-08 -2.082216e-07 -6.077834e-08 7.034678e-08
2.556516e-07 -9.182694e-08 -4.730187e-09 -1.251375e-07 -5.560350e-08 1.657519e-07
5.968721e-07 -3.625179e-07 4.875121e-07 1.551782e-08 -5.637068e-08 2.359650e-07
4.498068e-07 -2.593907e-07 1.174805e-08 -2.604193e-07 -3.298603e-08 1.270372e-07
7.616748e-08 5.138785e-08 -1.100107e-07 -1.454953e-07 9.359335e-08 -4.880379e-08
-4.807186e-07 5.155227e-07 6.261811e-07 -2.764217e-07 -2.239912e-07 2.617293e-08
1.142346e-07 -6.799414e-09 -5.444680e-08 -5.150137e-08 -1.349701e-08 2.739883e-08
5.745583e-07 -4.156929e-07 6.676177e-07 -1.013511e-07 -2.213344e-07 2.175510e-07
6.515873e-07 -8.958682e-07 1.310959e-06 -8.826674e-08 -2.980304e-08 6.518252e-07
4.452178e-07 -5.900736e-07 1.173194e-06 -5.231309e-07 -1.876797e-07 4.566748e-07
1.855186e-07 -2.822641e-08 -8.735995e-08 -1.217190e-07 -3.630177e-08 9.543181e-08
2.591818e-07 -7.875289e-08 4.297096e-08 -2.686858e-07 -4.419335e-08 1.166116e-07
-1.153171e-08 -5.376018e-08 1.206687e-07 -1.122121e-08 -1.167719e-07 6.081375e-08
2.712008e-07 -4.391907e-08 1.441228e-07 -5.123648e-07 -3.257622e-08 1.018907e-08
1.389317e-08 -8.358316e-09 1.319177e-07 -4.706234e-09 3.548868e-08 2.069464e-07
6.402009e-08 3.864198e-08 -5.465427e-08 -1.500592e-07 1.623206e-07 -1.220133e-07
1.801835e-08 3.703358e-08 5.412011e-08 -3.604263e-08 -2.191344e-07 1.857469e-07
4.727150e-07 -6.639767e-07 1.470681e-06 -5.194609e-07 -1.071393e-07 5.559407e-07
5.433737e-07 -1.693580e-07 2.097153e-07 -3.603575e-07 -5.927715e-08 2.119329e-07
1.330846e-07 1.583618e-07 -1.354992e-08 -4.065925e-07 2.712948e-08 -4.323469e-08
6.498077e-08 1.292369e-07 -3.210396e-08 -3.383417e-07 1.275348e-07 -1.050774e-07
4.654827e-09 1.057517e-07 4.828052e-09 -1.268991e-07 1.091737e-07 -6.673210e-08
-3.267545e-07 5.389456e-07 1.056995e-07 -3.379169e-08 1.254110e-07 -3.136244e-08
5.508360e-08 -5.588086e-08 8.434766e-07 -8.310512e-08 -8.845434e-08 6.422100e-07
-6.621381e-08 5.047148e-08 -3.978397e-08 -2.667331e-08 1.134838e-07 -6.768640e-08
1.026085e-07 -6.290142e-08 7.377229e-07 -6.465553e-07 -2.647310e-07 2.778196e-07
-3.041453e-07 6.493563e-07 5.274465e-08 -9.571609e-08 -4.477561e-08 2.325747e-08
-2.978357e-07 5.046065e-07 -2.422038e-08 3.063147e-08 -1.685973e-07 1.864033e-08
1.408613e-08 3.686980e-08 -5.646506e-08 -5.313773e-08 -6.158470e-08 5.488440e-08
-3.859139e-07 -8.890211e-11 1.867462e-06 -8.344683e-07 -6.556307e-07 4.908788e-07
-2.984895e-07 1.965097e-08 1.805674e-06 -7.773538e-07 -6.249960e-07 4.872713e-07
3.961134e-08 -4.849550e-10 2.216171e-07 -7.804874e-08 -5.431457e-07 5.228157e-07
-1.050630e-06 -5.546071e-07 2.329740e-06 -1.378536e-06 2.914859e-06 -1.451240e-06
-3.828290e-07 -6.797671e-07 3.003565e-06 1.012761e-06 1.613211e-06 1.352553e-06
-1.017375e-06 -1.891173e-06 8.322412e-06 3.524173e-07 1.740236e-06 -3.817570e-06
1.083167e-07 -2.995855e-08 -4.927951e-08 -6.354754e-08 -4.389656e-08 9.358881e-08
-2.897576e-06 -2.898888e-06 7.545376e-06 -5.866817e-07 1.430483e-06 -2.107142e-06
1.980826e-07 -6.019777e-08 -3.574544e-09 -2.056867e-07 -1.339142e-07 1.754466e-07
1.146901e-07 -7.090955e-08 -3.361250e-08 -6.762063e-09 -4.313706e-08 1.343122e-07
6.302053e-08 -2.605117e-07 3.920255e-06 -2.873273e-09 2.237922e-06 3.367995e-06
1.496422e-07 -3.560127e-08 -8.857634e-08 -1.252172e-07 -5.594783e-08 1.019832e-07
1.193231e-07 2.388139e-09 -7.296235e-08 -1.066133e-07 -4.621698e-08 9.377128e-08
-1.318645e-07 -8.705851e-07 2.867467e-06 7.084911e-07 3.452969e-07 1.050299e-06
2.515737e-07 -5.040611e-08 -1.003904e-07 -1.438616e-07 -3.114329e-08 1.153041e-07
8.202991e-08 -5.701465e-10 -4.698669e-08 -5.906944e-08 -4.973331e-08 9.772113e-08
1.481665e-07 -1.961747e-08 -8.640890e-08 -1.055384e-07 -3.087598e-08 9.269602e-08
-1.771830e-07 2.417260e-10 5.365623e-06 -1.869022e-07 1.383161e-06 4.048850e-06
5.806968e-07 -5.294859e-07 4.823518e-07 -3.417003e-07 -9.771938e-08 2.516671e-07
8.453888e-08 -1.325677e-08 -4.757735e-08 -5.221801e-08 -3.256946e-08 8.755588e-08
1.334256e-07 5.899603e-08 -9.859543e-08 -1.422267e-07 -5.332773e-08 7.223799e-08
-2.514007e-06 -9.430093e-07 6.946973e-06 -2.269283e-08 3.661819e-06 -1.260379e-07
2.640722e-07 1.209604e-07 9.606551e-07 -3.928347e-08 1.313003e-07 1.135579e-06
3.540572e-08 -5.355882e-09 -3.588266e-08 -2.680867e-08 -4.940696e-08 8.326148e-08
4.524790e-07 -1.199884e-06 1.461369e-06 -3.507805e-07 -2.261806e-07 5.696846e-07
3.281498e-07 -2.337218e-07 5.703778e-07 -3.341225e-07 -1.707983e-09 2.086713e-07
6.429925e-09 -1.198880e-06 2.952066e-06 3.950888e-07 7.144243e-07 1.140357e-06
8.504341e-08 -8.062843e-09 -4.740554e-08 6.182523e-08 4.397199e-08 7.390133e-08
-1.213480e-06 -2.228996e-06 6.211318e-06 -2.859626e-07 -1.216960e-06 1.620131e-06
2.200223e-07 -1.129263e-08 -9.843433e-08 -1.908357e-07 -7.120395e-08 1.172257e-07
-2.860243e-06 -2.783158e-06 1.142232e-05 1.165794e-07 -3.612479e-07 -6.918846e-07
1.103746e-08 -1.237917e-08 -1.817122e-08 -3.288452e-08 -7.385122e-08 1.527961e-07
1.491338e-07 -4.020019e-08 -8.997809e-08 -8.331466e-08 -4.157725e-08 9.719426e-08
4.552572e-07 -3.935532e-07 2.336124e-08 -5.156002e-09 -7.649580e-08 1.294150e-07
-3.592193e-08 -3.045865e-08 6.046402e-09 -3.887651e-09 1.950686e-07 5.272001e-08
5.832569e-07 8.717111e-07 -4.586468e-06 7.873143e-07 3.901449e-06 9.243576e-06
4.903540e-08 1.550139e-08 -2.399648e-08 2.274445e-08 9.106752e-09 9.708740e-09
-6.193000e-08 2.258771e-07 -5.827576e-08 2.065243e-07 1.090195e-07 5.669870e-08
5.059753e-08 1.343736e-08 -2.249880e-08 1.404311e-08 5.860653e-09 6.220925e-09
-1.578241e-07 3.797539e-07 -4.223948e-08 3.668614e-08 1.481235e-07 1.383978e-08
5.608590e-08 9.080159e-09 -3.272012e-08 2.572011e-08 1.072573e-08 1.608538e-08
5.660759e-08 1.366020e-08 -2.712900e-08 1.945515e-08 5.862478e-09 8.576448e-09
-6.403771e-08 3.101389e-07 -7.420957e-08 1.144155e-07 1.593504e-07 6.869389e-08
1.259088e-07 -3.920764e-08 -4.541956e-08 6.725320e-08 2.985679e-08 1.133794e-07
2.223997e-07 -6.261584e-08 -9.401372e-08 9.328352e-08 2.165288e-08 7.722201e-08
-1.018097e-07 1.928682e-07 9.742371e-08 4.769622e-08 1.694332e-07 2.551330e-08
3.708851e-07 -8.708389e-07 1.115141e-06 5.990946e-07 3.559583e-07 4.836641e-07
-1.254844e-07 3.919514e-07 -3.089675e-08 2.099680e-07 1.240623e-07 -1.169088e-08
4.986936e-07 -1.325820e-06 1.610495e-06 1.685666e-07 1.544902e-07 6.565948e-07
5.792006e-07 -5.389816e-07 4.795415e-07 9.924893e-08 2.763191e-08 2.226816e-07
3.897546e-07 -2.142954e-07 2.093809e-06 1.780969e-07 1.029581e-07 2.046944e-06
-1.071379e-07 2.585232e-07 1.179059e-07 2.085848e-07 8.816747e-08 4.187626e-08
1.402799e-07 4.180280e-08 -9.536484e-08 1.239136e-07 4.721428e-08 6.707221e-08
8.483701e-08 2.410160e-08 -5.887488e-08 5.966502e-08 2.087776e-08 3.184277e-08
5.048886e-08 5.378117e-08 -6.411839e-08 7.434178e-08 5.789779e-08 6.118664e-08
-4.413549e-08 -6.632635e-08 1.148367e-07 -7.236630e-10 1.620552e-07 3.217777e-08
-7.948318e-08 1.449055e-07 9.996818e-09 9.885173e-08 1.343267e-07 3.699396e-08
3.037607e-08 1.424673e-08 -3.445636e-08 2.970909e-08 3.017395e-08 3.240195e-08
-1.180319e-08 1.568345e-07 -2.854354e-08 9.606424e-08 1.755991e-07 5.321424e-08
-7.823412e-08 2.127322e-07 6.950204e-08 1.300182e-07 -1.903623e-08 4.004667e-08
4.060834e-08 1.490741e-08 -2.726252e-08 2.049889e-08 1.050046e-08 1.499376e-08
5.207688e-08 2.165487e-08 -4.405504e-08 3.554066e-08 1.304307e-08 1.696234e-08
5.914706e-08 2.095318e-08 -3.508765e-08 -2.622454e-08 -8.610607e-09 1.113994e-08
5.213591e-08 1.210273e-08 -2.353440e-08 2.140824e-08 1.068568e-08 1.241161e-08
4.617126e-08 8.669028e-09 -2.797733e-08 2.370388e-08 1.194025e-08 2.022952e-08
6.176718e-08 1.020001e-08 -2.798145e-08 2.919910e-08 1.560846e-08 2.737098e-08
5.712014e-08 8.675965e-09 -4.136571e-08 3.164835e-08 1.597506e-08 2.228178e-08
8.135153e-08 -1.787555e-08 -2.950423e-08 2.455458e-08 1.064876e-08 2.863282e-08
6.908900e-07 -8.958683e-07 6.231350e-07 -5.533900e-08 -4.529967e-08 2.847026e-07
5.111234e-07 -2.629348e-07 1.107198e-07 1.309140e-07 -1.625262e-07 -6.410467e-08
8.155884e-08 -1.490847e-08 -4.427378e-08 2.270331e-08 7.754527e-09 3.418456e-08
7.439660e-08 -5.344680e-09 -3.575670e-08 1.766136e-08 6.641445e-09 1.626001e-08
8.795126e-08 -1.129000e-08 -4.292004e-08 1.812521e-08 5.218195e-09 1.818896e-08
8.441179e-08 -3.881922e-09 -3.511494e-08 2.539930e-08 3.273253e-09 1.478192e-08
5.845425e-07 -4.212211e-07 1.295620e-07 2.818504e-07 6.118146e-09 4.411823e-08
7.842326e-08 -1.716188e-10 -3.924253e-08 2.342444e-08 8.989679e-09 1.097140e-08
4.824136e-07 -3.147220e-07 3.475903e-07 2.684511e-07 1.059351e-07 1.416864e-07
8.210622e-08 -7.630932e-09 -4.841814e-08 3.017905e-08 1.103705e-08 2.605328e-08
9.458656e-08 -1.319193e-08 -4.346632e-08 2.429992e-08 4.191334e-09 2.105702e-08
7.540846e-08 -9.478332e-09 -2.604348e-08 1.918773e-08 6.021361e-09 1.728320e-08
-1.734424e-08 8.967447e-08 -5.227120e-08 4.603301e-08 -9.028077e-08 -6.285382e-08
7.126425e-08 -1.216737e-08 -2.737236e-08 1.499574e-08 7.964657e-09 2.041721e-08
1.135987e-07 -2.593009e-08 -6.209217e-08 3.281883e-08 9.902936e-09 3.469473e-08
1.019363e-07 -9.437046e-09 -4.699446e-08 3.649843e-08 7.863326e-09 2.080024e-08
3.617951e-07 -1.268342e-07 -4.565105e-09 2.215609e-07 -1.666789e-07 -1.412600e-07
3.625449e-07 -4.260797e-07 1.227243e-06 4.874316e-07 4.445335e-07 4.745998e-07
-5.395207e-09 1.344098e-07 -1.067346e-07 6.655391e-08 -8.290385e-08 -4.793180e-08
2.075257e-07 -1.429433e-07 6.154644e-07 7.479226e-07 2.920158e-07 3.201640e-07
2.745438e-08 1.902042e-08 2.386258e-09 1.022155e-07 1.618570e-07 1.250013e-07
-2.050959e-08 -1.415963e-08 2.034085e-07 2.831925e-07 -3.609496e-08 6.996031e-08
8.499926e-09 1.158974e-07 -9.702627e-08 -1.346913e-07 -1.277235e-07 7.278503e-08
5.815510e-08 7.476788e-10 -2.919984e-08 -1.839233e-08 -1.174335e-08 2.024010e-08
-2.794203e-08 1.163212e-07 2.979408e-08 -1.386854e-07 -9.605410e-08 1.101020e-07
5.591246e-08 1.273697e-09 -2.719345e-08 -2.148851e-08 -1.647021e-08 2.775920e-08
5.881749e-08 1.046237e-08 -2.671453e-08 1.726406e-08 2.469903e-09 5.105241e-09
-1.028083e-07 2.704418e-07 -1.118980e-07 -6.648406e-08 -1.276907e-07 3.709433e-08
-3.426341e-08 1.241447e-07 -6.878372e-08 -4.545350e-08 -1.659919e-07 3.434160e-08
4.849471e-08 1.387544e-08 -2.630317e-08 -1.540250e-08 -9.992212e-09 1.315630e-08
5.736522e-08 1.265745e-08 -4.020398e-08 -3.006065e-08 -1.099611e-08 1.580073e-08
7.167128e-08 1.103673e-08 -6.674924e-08 -4.699734e-08 -2.788545e-08 3.716546e-08
1.047347e-07 3.001664e-08 -7.499412e-08 -8.081307e-08 -3.110680e-08 3.999423e-08
-1.081986e-07 1.558070e-07 5.719964e-08 -9.564390e-08 -2.888383e-07 1.350204e-07
5.168598e-08 1.904663e-08 -3.769688e-08 -4.189924e-08 -1.951609e-08 2.282251e-08
5.816497e-08 1.382681e-08 -3.136058e-08 -1.784583e-08 -5.730965e-09 9.725110e-09
4.756998e-08 -3.954593e-09 -3.001319e-08 -2.473409e-08 -2.058066e-08 3.293321e-08
-5.260184e-08 1.242367e-07 -3.466869e-08 -1.140669e-07 -2.213089e-07 1.462842e-07
2.800572e-07 -1.504028e-07 5.959351e-07 3.996080e-08 5.074048e-07 9.103973e-07
5.865437e-07 -7.774794e-07 1.516925e-06 4.008565e-07 2.731456e-07 7.423345e-07
3.634780e-08 -3.590648e-08 1.380688e-07 -4.726884e-07 -1.206885e-07 -9.109655e-08
1.781352e-08 9.389655e-08 -1.052115e-07 1.011944e-07 -9.740406e-08 -6.513130e-08
6.918249e-08 2.867128e-08 -5.378101e-08 6.003496e-08 2.557621e-08 2.931462e-08
1.061444e-07 1.189089e-08 -6.336968e-08 7.183456e-08 1.524900e-08 2.559750e-08
3.048918e-08 2.386554e-08 -3.764639e-08 4.350453e-08 5.105403e-08 5.018772e-08
-3.637760e-08 -4.323043e-08 3.896616e-08 -6.566835e-10 1.881618e-07 2.861058e-08
9.588607e-09 1.161393e-07 -8.531929e-08 7.552269e-08 -1.431967e-07 -9.043684e-08
6.421474e-08 -6.888208e-09 -2.784277e-08 -1.881382e-08 -1.189651e-08 2.358895e-08
7.025950e-08 -1.527898e-08 -3.180924e-08 -1.803624e-08 -8.872063e-09 2.764563e-08
-4.333316e-07 5.473299e-07 2.504810e-07 -4.822437e-08 1.785170e-07 3.590101e-08
-5.644890e-08 2.515883e-07 -3.798891e-08 -2.185963e-07 1.313151e-07 -6.579192e-08
-1.263500e-08 1.159508e-07 -7.451749e-08 -5.028711e-08 8.757241e-08 -5.021817e-08
8.302646e-08 -6.562725e-09 -3.771636e-08 -3.362139e-08 -1.173902e-08 3.576052e-08
7.502947e-08 -5.894911e-09 -3.769735e-08 -2.787667e-08 -1.008766e-08 3.468988e-08
-9.878597e-08 3.095764e-07 -7.624006e-08 -1.580530e-07 1.448397e-07 -8.409532e-08
-3.999669e-08 1.226276e-07 -6.826812e-08 -1.352812e-08 1.113479e-07 -3.394549e-08
-7.696677e-08 2.910405e-07 -8.956027e-08 -9.124103e-08 1.383545e-07 -4.684000e-08
8.941793e-08 -8.293465e-09 -4.261795e-08 -2.379431e-08 -5.753024e-09 1.595536e-08
8.600699e-08 -8.710070e-09 -3.495238e-08 -1.780245e-08 -5.512596e-09 1.509722e-08
1.038472e-07 4.224553e-08 -9.514023e-08 -1.801547e-07 -9.232981e-08 1.009844e-07
8.763314e-08 9.609922e-08 -9.854100e-08 -2.005821e-07 -8.469631e-08 8.005305e-08
7.505683e-08 -6.005048e-09 -2.526119e-08 -1.897044e-08 -5.407440e-09 1.577229e-08
1.058059e-07 3.738881e-08 -9.369425e-08 -1.293382e-07 -8.321020e-08 1.091169e-07
1.550092e-07 2.825504e-08 -1.068353e-07 -2.346783e-07 -7.182199e-08 1.056840e-07
1.620281e-09 2.135226e-07 4.928530e-08 -3.427387e-07 -1.049349e-07 1.137181e-07
-3.689726e-08 -1.651397e-08 -7.864971e-09 -2.020637e-09 -1.510032e-07 1.263716e-07
5.015481e-08 5.575624e-08 -9.378273e-08 -1.406413e-07 -7.102614e-08 7.069184e-08
8.329804e-08 -2.659079e-08 -3.246287e-08 -4.204398e-09 -3.802503e-09 3.797312e-08
7.249713e-08 -9.834080e-09 -2.650134e-08 -1.565270e-08 -7.599257e-09 1.760386e-08
-1.257513e-07 2.220222e-07 2.086361e-07 1.686277e-07 -7.250461e-08 6.959832e-08
-2.512412e-07 4.531792e-07 2.348469e-07 2.177554e-07 -6.186810e-08 -1.064009e-08
-2.333628e-08 -4.899727e-09 -5.428598e-08 -2.947963e-08 -7.799360e-08 1.148658e-07
2.164067e-07 7.092691e-08 -6.949051e-08 -2.889904e-07 -3.131185e-08 5.705671e-08
1.258579e-07 7.475942e-08 -2.783983e-08 -1.985612e-07 -5.614722e-08 9.891186e-08
6.060650e-08 8.917012e-08 -8.580758e-08 -1.337388e-07 -1.221297e-07 1.022118e-07
6.607467e-08 5.603167e-08 -7.478027e-08 -1.108177e-07 -1.043713e-07 1.641482e-07
-2.260140e-07 2.239075e-07 3.576028e-07 1.468432e-07 -5.159894e-08 -1.193153e-09
-6.212953e-08 -4.844568e-08 4.064590e-07 -8.125955e-09 9.437895e-08 1.890476e-07
2.177057e-08 3.255212e-07 -8.113683e-08 3.191984e-07 -1.131745e-07 -5.416461e-08
-4.949011e-08 -4.561525e-08 -4.953900e-09 -5.703625e-08 -1.830575e-07 -5.901071e-08
-1.036263e-07 2.662032e-07 -1.876512e-08 -9.170836e-08 -2.375807e-07 6.385088e-08
-4.019772e-08 -4.784722e-08 3.374829e-07 2.355763e-08 -4.815910e-08 7.221594e-08
-4.938743e-08 1.667532e-08 8.224195e-07 2.078333e-08 -4.683686e-07 -2.151355e-08
-1.851043e-07 2.508158e-08 9.077268e-07 6.788951e-07 -1.163789e-07 -2.861384e-08
-2.539938e-07 -2.827604e-07 2.399373e-06 8.250838e-07 -1.413399e-06 -7.248080e-07
-9.477831e-08 1.108538e-07 4.820814e-08 1.386570e-07 -3.312559e-07 -3.580774e-08
-1.289360e-07 3.953719e-07 -8.129263e-08 8.022169e-08 -8.392689e-08 -3.254130e-08
7.357748e-08 -5.752013e-08 3.238653e-09 2.994977e-08 -7.720679e-08 -7.715958e-09
5.479647e-07 -2.809074e-07 8.797090e-08 2.887811e-07 -2.834131e-08 -5.722014e-10
7.120305e-07 -2.595490e-07 7.683902e-08 1.230393e-07 -4.041241e-08 4.640752e-08
-1.143299e-07 2.387445e-07 -4.834827e-08 4.127897e-08 -3.329614e-07 -8.499029e-08
-8.339519e-08 1.430749e-07 1.369693e-09 8.735349e-09 -2.109978e-07 -3.909362e-08
4.153833e-08 2.157559e-08 -2.466843e-08 1.514992e-08 3.045607e-09 2.820322e-09
-3.838013e-08 1.173199e-07 -4.324020e-08 -3.595903e-08 -1.782931e-07 8.690554e-08
-2.549633e-07 4.291982e-07 3.270517e-07 -3.478538e-07 1.064690e-07 -2.872752e-08
-2.172656e-07 2.668379e-07 1.156393e-07 9.061763e-08 -1.797545e-07 3.335189e-09
-4.031019e-08 -3.552289e-08 -1.922409e-08 -1.613300e-08 -1.285322e-07 5.243514e-08
-1.354102e-07 3.577216e-07 -7.313846e-08 -2.374735e-07 -1.613302e-07 3.934453e-08
-1.519001e-07 3.935987e-07 1.966475e-08 -2.000566e-07 -5.910816e-08 5.271092e-08
-1.354439e-07 3.997362e-07 7.739800e-08 -3.054520e-07 -1.134035e-07 7.205072e-08
-6.043427e-08 2.138769e-07 -1.128049e-07 -1.236355e-07 -1.035400e-07 5.371523e-08
-5.426703e-07 4.551641e-07 9.050862e-07 2.236387e-07 1.629471e-07 2.162921e-07
1.849655e-07 -3.656892e-08 -4.366792e-08 -8.074257e-08 9.474184e-08 -9.843067e-08
-1.116284e-06 1.147856e-07 3.231575e-06 9.637325e-07 1.797677e-06 1.248253e-06
-7.108202e-08 1.446454e-07 7.651529e-07 -5.653810e-07 -1.137701e-07 2.681224e-07
2.421059e-07 -3.859989e-08 6.717632e-09 -1.046164e-07 1.054198e-07 -6.736732e-08
-9.831508e-07 -1.163710e-06 3.703926e-06 -7.903250e-07 -9.955778e-07 1.163917e-06
-6.922667e-07 -1.554783e-06 6.698813e-06 -4.419514e-07 -6.543220e-07 3.756201e-06
-1.117196e-06 -1.840407e-06 7.398994e-06 -6.093336e-07 -1.735938e-06 2.547153e-06
9.088393e-08 -1.784810e-06 4.633840e-06 3.859157e-07 2.283415e-06 4.465794e-06
-1.196162e-06 5.487744e-07 5.778605e-06 -4.101060e-07 -2.160376e-06 1.427117e-06
-7.232665e-09 4.184303e-08 -3.431162e-08 1.915138e-08 4.512935e-08 2.273231e-08
-1.104395e-06 -5.693313e-07 4.723612e-06 9.536667e-07 1.071554e-06 9.817439e-07
1.056422e-07 1.101160e-07 1.999379e-07 3.883248e-07 2.569364e-08 -4.396325e-08
5.236000e-09 1.247159e-07 9.064469e-08 -3.619365e-07 -4.073683e-08 3.276227e-08
7.036812e-08 6.696769e-08 -8.370848e-08 -1.049008e-07 -3.927939e-08 5.089330e-08
-3.954780e-08 1.145083e-07 5.953074e-08 -2.078799e-07 -1.743011e-07 1.166233e-07
-8.250923e-08 2.851820e-07 -1.036525e-07 -6.313413e-09 1.057265e-07 -4.644517e-09
-3.345584e-08 -1.791849e-08 -1.284505e-08 -7.682168e-10 2.003529e-07 6.160433e-09
5.515357e-08 1.646129e-07 -1.405809e-08 -3.036785e-07 -8.348069e-08 8.304916e-08
1.617155e-08 6.164451e-08 3.086412e-08 -1.553438e-07 1.681565e-07 -1.155338e-07
-2.088146e-07 3.423379e-07 -1.121626e-07 -4.424634e-07 6.129378e-08 1.876079e-07
-6.581003e-08 1.582172e-07 -6.866384e-08 -1.187001e-07 -1.147718e-07 4.859733e-08
-2.838006e-07 2.609487e-07 8.240556e-07 -1.575137e-08 -3.464424e-07 3.636193e-07
-7.109058e-08 1.302065e-07 -2.500023e-08 -1.471196e-07 -1.481983e-07 9.799305e-08
-2.189407e-07 -6.382716e-08 9.916516e-07 -1.444661e-07 -6.827388e-07 -1.746381e-07
-2.062628e-07 3.472510e-07 5.464382e-07 -3.337334e-07 -5.439326e-07 1.978688e-07
-1.172406e-07 3.244189e-07 -7.724633e-08 -2.718913e-07 -1.102005e-07 8.184534e-09
-2.823655e-07 1.452172e-07 1.042954e-06 -6.161312e-07 -8.832066e-08 1.717334e-08
-1.594063e-07 4.782649e-07 1.590677e-07 -3.704307e-07 -3.295466e-08 -7.854521e-08
-2.541501e-07 -7.094078e-08 1.117086e-06 -8.607320e-08 -9.434831e-07 -9.669043e-09
-8.845370e-07 -3.041507e-07 1.857770e-06 -8.082308e-07 -7.357889e-07 6.322263e-07
-4.476392e-08 -2.046027e-08 -1.008784e-08 1.680631e-08 1.012881e-07 1.148493e-07
1.662415e-07 1.116233e-08 -2.006414e-08 3.417627e-07 9.889375e-08 1.047974e-07
3.794520e-07 -7.742769e-08 -4.462143e-08 2.634618e-07 2.176341e-08 6.558749e-08
-8.791855e-08 2.293721e-07 -8.959011e-08 -1.251652e-07 9.764682e-08 -4.600526e-08
-2.499343e-08 1.683608e-07 -9.071978e-08 -7.332161e-08 1.191553e-07 -4.515963e-08
-7.912642e-08 1.433829e-08 6.542134e-08 -5.976192e-08 1.221163e-07 1.237075e-07
4.978216e-08 3.298766e-08 3.170070e-08 9.210834e-08 -7.626800e-08 -2.910363e-08
7.648582e-08 1.011681e-09 4.836846e-07 4.413426e-07 -1.318812e-07 -4.896313e-07
-2.584793e-08 1.670511e-07 -1.010592e-07 -7.140867e-08 8.886182e-08 -3.750489e-08
-6.420126e-08 -1.502171e-08 7.252382e-07 7.171623e-08 -2.191398e-07 1.497868e-07
-6.100677e-08 2.197857e-07 -9.713669e-08 -3.988765e-08 1.160797e-07 -2.265373e-08
-5.464888e-07 5.475636e-07 7.783005e-07 3.187500e-07 -1.390862e-07 -5.559491e-08
-2.897920e-08 1.130584e-07 -8.837655e-08 -3.884877e-08 8.504187e-08 -2.123214e-08
-4.661200e-08 1.845099e-07 -8.021603e-08 -6.089419e-08 1.380832e-07 -5.125167e-08
-2.553050e-08 2.972979e-08 -4.041644e-08 3.036908e-09 1.061598e-07 -4.650339e-08
-3.615521e-08 1.474783e-07 -5.708347e-08 -1.232673e-08 1.811025e-07 -6.032724e-08
-1.410567e-07 3.474171e-07 -1.123297e-07 -9.159609e-08 1.183325e-07 -1.483510e-08
-9.749596e-08 2.639365e-07 -6.836207e-08 -3.650439e-08 1.690174e-07 -2.052333e-08
-5.845298e-08 4.363285e-08 -3.176889e-08 -1.307878e-08 1.584133e-07 -3.169302e-08
-6.273523e-07 -1.330370e-07 6.140774e-06 -3.715187e-07 -1.905309e-06 -2.548887e-06
-1.041135e-07 1.259602e-07 1.709661e-06 1.505934e-08 -1.865062e-06 -5.642695e-07
-1.125774e-06 6.187552e-07 3.039091e-06 -3.507329e-07 -1.287076e-06 -7.628136e-07
-2.802943e-07 4.920970e-07 4.304602e-07 3.362558e-07 -2.924550e-07 -5.276883e-08
-5.885545e-08 2.155452e-07 -9.889464e-08 -1.320899e-07 1.235869e-07 -5.133410e-08
-2.733574e-08 1.129384e-07 -4.009562e-08 -2.683365e-08 5.951788e-08 -2.347625e-08
-7.656578e-08 4.191648e-07 -1.375811e-07 1.690050e-07 -1.207366e-07 -4.731891e-08
-2.918025e-08 1.006536e-07 -7.411661e-08 3.062726e-08 6.025053e-08 3.089249e-08
-2.971779e-07 4.313931e-07 1.280984e-07 3.732443e-08 -5.292057e-08 2.869122e-08
-1.787310e-07 4.412973e-07 9.051074e-08 1.808940e-07 -2.232878e-07 -9.209230e-08
-1.107585e-07 2.291674e-07 -8.591892e-09 1.437107e-08 -1.427462e-07 1.887724e-08
-2.085307e-07 4.830025e-07 -2.480989e-09 -5.273729e-08 -1.806975e-07 2.513149e-08
-2.097805e-07 2.326873e-07 4.508015e-08 6.167306e-09 -1.619669e-07 -1.416337e-08
-2.862846e-08 1.530426e-07 -7.560170e-08 4.980007e-08 5.364899e-08 1.747019e-08
1.244708e-07 -7.306135e-09 -7.494097e-08 -6.323521e-08 -2.280871e-08 4.352571e-08
-1.746472e-07 4.565499e-07 2.561156e-10 1.346420e-07 -1.616998e-07 -6.134756e-08
6.401015e-08 -1.049014e-08 -3.053003e-08 -2.277716e-08 -1.733800e-08 3.813348e-08
9.302881e-08 6.382829e-09 -5.213822e-08 -4.823347e-08 -1.306877e-08 2.554120e-08
7.865559e-08 -3.405691e-09 -5.272457e-08 -3.304106e-08 -9.963975e-09 2.814107e-08
1.017306e-07 -3.014123e-09 -5.480134e-08 -4.280529e-08 -1.176744e-08 2.527425e-08
-2.501419e-06 -1.993334e-06 1.764001e-05 1.034526e-06 3.063019e-06 2.910059e-06
-4.642950e-07 7.064308e-07 5.109853e-07 -5.758139e-07 6.442604e-07 5.916331e-08
-2.522899e-06 -3.588289e-06 1.790467e-05 -1.755042e-06 5.796961e-06 -5.602984e-06
1.144131e-07 -3.259257e-09 -5.656381e-08 -9.755023e-08 -6.132917e-08 1.414246e-07
5.483319e-08 -2.227428e-08 -3.438959e-08 -1.989043e-08 -2.433052e-08 7.450768e-08
4.223467e-08 -2.462081e-08 -4.819987e-08 -4.946086e-08 -3.514510e-08 9.514278e-08
9.703743e-08 -2.253084e-09 -4.585357e-08 -4.159473e-08 -1.851230e-08 3.550229e-08
1.076715e-07 -1.347573e-08 -5.150919e-08 -3.627620e-08 -9.687750e-09 2.742035e-08
2.369403e-08 5.695855e-08 -4.868847e-08 -6.592689e-08 -9.117471e-08 7.971480e-08
-2.725017e-06 -3.090984e-06 1.016828e-05 -3.920320e-07 1.248961e-06 -9.066593e-07
9.539185e-08 -1.154924e-08 -3.602722e-08 -1.938289e-08 -3.744734e-09 1.312284e-08
1.169080e-07 -4.624373e-08 -4.587859e-08 -1.760596e-08 -1.595953e-08 7.258642e-08
8.657325e-08 -5.098061e-08 -3.690736e-08 -9.151534e-11 6.232308e-09 8.194981e-08
1.216533e-07 -3.369047e-08 -6.439032e-08 2.422241e-08 6.856996e-09 3.800591e-08
1.701400e-07 -5.587553e-08 -7.316882e-08 1.431572e-08 1.725761e-09 5.029336e-08
-6.268820e-08 1.847313e-07 -1.083323e-07 -1.888352e-08 -1.070031e-07 1.361437e-08
1.030890e-07 -1.636195e-08 -4.712760e-08 2.941131e-08 1.020969e-08 3.109296e-08
1.085338e-07 -1.613360e-08 -5.004418e-08 2.829679e-08 1.045140e-08 2.381655e-08
-3.426802e-08 1.733796e-07 -1.004006e-07 -4.292898e-08 -8.947710e-08 3.377281e-08
-7.202871e-08 2.428718e-07 -1.144631e-07 -1.007588e-07 -1.385452e-07 3.477494e-08
-6.426204e-08 2.578806e-07 -1.088522e-07 -6.681377e-08 -1.202556e-07 2.034518e-08
-5.483608e-08 1.749485e-07 -1.035854e-07 -3.108158e-08 -1.062468e-07 2.807407e-08
6.145017e-08 1.012380e-07 -1.078728e-07 -1.246631e-07 -7.751778e-08 6.430490e-08
7.653387e-07 -5.900743e-07 6.103691e-07 9.683684e-08 -3.469227e-08 2.940821e-07
4.689357e-07 -4.212211e-07 5.236961e-07 3.164594e-07 3.678074e-08 2.153364e-07
8.584414e-08 -1.401891e-07 4.268391e-06 2.265555e-09 -3.854378e-07 3.839523e-06
1.034723e-07 -1.735725e-08 -4.453516e-08 3.589488e-08 1.524144e-08 4.164858e-08
1.486032e-07 2.080270e-07 -2.096794e-07 4.606700e-07 7.270411e-08 -7.657314e-08
1.882696e-07 -5.827151e-08 4.434838e-07 4.916318e-07 3.775469e-08 1.838755e-07
-6.795302e-09 2.027474e-07 -8.281558e-08 -1.612577e-07 -9.764995e-08 4.941055e-08
-5.302270e-10 2.009023e-07 -1.073535e-07 -1.717432e-07 -6.418392e-08 4.214992e-08
-1.387968e-08 2.698916e-07 -9.318432e-08 -2.546026e-07 -1.498043e-07 8.882935e-08
3.019662e-07 -3.196122e-07 8.385360e-07 6.700419e-07 1.552470e-07 2.675042e-07
7.496362e-08 -4.413587e-07 1.082536e-06 2.734499e-07 1.471706e-07 6.275910e-07
-2.194291e-07 4.578837e-07 2.179863e-08 -2.091026e-07 -9.007427e-08 2.741268e-08
-7.112367e-08 -2.663563e-08 -1.494374e-08 -6.128578e-09 -1.524412e-07 7.565349e-08
-2.511682e-07 1.231815e-07 9.133895e-07 -6.366075e-07 -3.847935e-07 1.819408e-07
-1.862257e-07 5.275272e-07 -3.852773e-08 2.891956e-07 -1.507556e-07 -5.892514e-08
4.069257e-07 -3.020326e-08 -4.254408e-08 2.995111e-07 -5.148578e-08 -5.084880e-08
2.447127e-08 -5.816624e-08 9.072213e-07 6.468372e-07 1.556589e-08 1.458222e-07
-3.043360e-07 1.241230e-07 1.738943e-06 -7.259946e-07 -4.747531e-07 5.770445e-07
-6.346623e-09 -1.822660e-07 1.559249e-06 6.283992e-07 2.712062e-07 6.346304e-07
-2.479482e-07 5.402942e-07 2.000465e-07 -3.254678e-07 -1.935728e-07 1.697496e-07
-4.410254e-08 2.250414e-07 1.274837e-07 -2.811242e-07 -3.070173e-07 2.202191e-07
-3.070445e-08 4.049696e-08 9.733818e-09 -6.922930e-08 1.962489e-07 -8.368407e-08
-1.368298e-07 1.986193e-07 -5.211156e-08 -5.747066e-08 1.413872e-07 -2.320068e-08
-1.446649e-07 2.349692e-07 2.756453e-08 -2.302275e-08 1.408607e-07 2.499073e-08
-7.614252e-07 6.575666e-07 8.804761e-07 2.562448e-07 4.521283e-07 3.977897e-08
-8.734195e-07 4.531347e-07 1.111781e-06 -4.292704e-07 2.971874e-07 -2.039697e-07
-2.572050e-07 -7.881064e-08 2.865645e-07 -4.363018e-08 -1.681873e-08 7.051751e-08
-2.427531e-07 3.295742e-07 1.077142e-07 -1.920783e-09 -1.113978e-07 2.669934e-08
6.756010e-09 -5.444093e-08 2.724472e-07 3.958948e-08 2.042619e-07 -9.268227e-08
-4.517486e-08 2.064093e-07 2.873054e-08 2.995533e-07 6.873672e-08 6.944568e-08
8.893088e-08 1.016085e-07 -6.122708e-08 3.282324e-07 1.055671e-07 6.443821e-08
-8.432356e-08 2.039760e-07 2.485276e-08 1.127425e-07 1.185556e-07 6.804197e-08
-1.830315e-07 3.785868e-07 1.854408e-08 -1.445478e-07 1.449501e-07 -4.797379e-08
-3.322817e-07 -5.483154e-08 2.696271e-06 -1.044654e-06 1.266932e-06 -9.997375e-07
-2.324417e-07 4.523551e-07 -9.864742e-09 -5.042099e-08 2.434178e-08 -3.546003e-08
-2.769560e-07 3.755080e-07 6.517388e-08 1.706924e-08 1.075617e-07 -4.813527e-09
-1.568733e-07 3.731945e-07 5.061891e-08 3.550256e-08 1.015904e-07 2.763526e-08
3.680605e-10 2.595485e-08 -3.693546e-08 -1.717254e-08 -5.375453e-08 3.730421e-08
-2.822964e-07 4.241006e-07 1.752262e-07 5.736769e-08 4.706685e-08 -4.729908e-08
6.961178e-08 -7.508133e-09 -2.579188e-08 1.482364e-08 4.689079e-09 1.537066e-08
-4.582683e-07 5.559310e-07 1.297155e-06 5.984166e-09 -9.571103e-07 -2.090445e-07
-1.010235e-07 3.686876e-07 9.991339e-08 -1.738972e-07 1.043487e-09 3.798147e-08
1.547540e-08 1.335519e-07 -9.500705e-08 1.193583e-07 6.236060e-08 4.615716e-08
8.182260e-08 2.411286e-07 8.068226e-08 -4.869036e-07 -9.788437e-08 4.732931e-08
8.085779e-08 1.906946e-07 1.292027e-07 -5.400021e-07 -5.784086e-08 -2.325956e-07
2.230158e-07 1.744959e-07 3.935259e-07 -4.959083e-07 -1.136995e-08 -1.127994e-07
-1.862263e-08 3.632211e-07 2.117755e-07 -5.151797e-07 8.740539e-08 -1.477305e-07
-5.224175e-08 -4.548369e-08 1.290873e-07 2.040764e-08 -1.755396e-07 1.199639e-07
-5.888406e-08 1.257264e-07 -4.138702e-08 -1.986992e-08 -2.277487e-07 3.391970e-08
3.351314e-08 8.985456e-08 -7.882342e-08 8.356478e-08 4.381227e-08 2.938482e-08
-7.303762e-08 -1.199882e-06 3.063831e-06 -4.395328e-07 -1.535548e-07 1.315192e-06
6.050361e-07 -7.378908e-07 3.137218e-07 3.881695e-07 3.677357e-07 2.715994e-07
1.023376e-06 -5.588971e-07 1.116681e-06 2.792865e-07 4.006173e-07 1.807383e-06
2.522613e-09 3.027225e-08 -3.933156e-08 2.271275e-08 5.508769e-08 3.831323e-08
-5.001275e-09 1.380360e-07 -9.516351e-08 8.599031e-08 6.289878e-08 3.690631e-08
4.353680e-07 -2.506252e-07 3.839858e-07 3.803792e-07 1.620793e-08 -5.381930e-08
5.076041e-07 -8.707819e-07 2.558035e-06 6.238166e-07 3.806512e-07 1.295835e-06
-7.596322e-07 6.615098e-07 6.990583e-07 1.229958e-07 -6.471129e-08 1.989096e-08
2.648450e-08 -4.260482e-08 -2.390958e-08 2.101077e-08 2.806048e-08 1.415113e-07
7.391474e-10 7.459174e-08 -4.035234e-08 4.132144e-08 5.542592e-08 3.008924e-08
-1.343305e-08 4.514672e-08 -3.716470e-08 1.799643e-08 4.484308e-08 2.719197e-08
-1.458123e-08 2.525437e-08 -3.222810e-08 1.510211e-08 8.761516e-08 4.548356e-08
1.327394e-07 6.835688e-08 -1.033686e-07 1.682740e-07 5.807869e-08 6.760931e-08
6.809022e-09 -3.672506e-08 -2.164254e-08 2.593005e-08 7.762689e-08 1.116081e-07
-5.001275e-09 1.144540e-07 -7.101545e-08 6.322655e-08 5.198189e-08 2.549773e-08
-3.864842e-07 5.147139e-07 6.442649e-07 3.334582e-07 1.751906e-07 1.284047e-07
-1.150030e-06 7.613905e-07 4.210197e-06 6.534327e-07 4.505654e-06 2.673829e-06
-1.190419e-06 6.207870e-07 2.500550e-06 -9.167901e-07 1.689466e-06 -1.711073e-06
1.157514e-07 1.226796e-08 -9.276877e-08 1.032762e-07 5.317565e-08 7.662095e-08
-5.037571e-07 -2.277544e-06 4.395030e-06 -1.232950e-06 9.365048e-07 -2.859375e-06
-7.156447e-07 7.113245e-07 1.658993e-06 1.386110e-08 7.801944e-07 -4.313524e-07
-4.465480e-07 6.432617e-07 8.849879e-07 -1.245553e-07 -2.201907e-07 3.097740e-07
8.453751e-07 -7.092670e-07 1.605412e-06 2.987677e-07 -1.619242e-07 -1.736175e-06
2.615161e-07 -4.443502e-08 -8.759699e-08 1.835587e-07 6.901691e-08 1.161223e-07
-2.076099e-07 1.149579e-07 4.003433e-06 -1.484175e-08 -3.448574e-07 -4.336231e-06
1.802612e-07 -3.349288e-08 -7.131997e-08 3.051716e-07 1.239182e-07 1.293138e-07
3.111411e-07 -8.068402e-08 -5.890537e-08 1.744445e-07 6.108384e-08 1.130622e-07
3.597825e-07 -7.315982e-08 5.835824e-08 2.657171e-07 -1.164416e-09 3.991222e-09
1.642664e-07 -3.215457e-08 -7.032073e-08 7.988927e-08 3.855939e-08 9.657314e-08
6.790395e-09 2.946989e-07 4.631477e-08 2.277923e-07 -1.214970e-07 -7.963507e-08
2.373925e-07 -1.253692e-07 2.491759e-08 8.852586e-08 4.434261e-08 1.716438e-07
9.993738e-08 2.577932e-08 6.377301e-08 1.526009e-07 1.449191e-07 1.758279e-07
-8.848373e-08 -7.162757e-08 7.971374e-07 -7.525092e-08 -4.300708e-07 -2.385034e-07
-7.630651e-07 -2.999964e-08 3.155894e-06 -7.339600e-07 -1.136477e-06 1.078374e-06
-1.082861e-06 5.150710e-07 1.546973e-06 -6.691786e-08 -6.670805e-07 1.252925e-07
3.873029e-07 -1.886392e-07 5.462239e-07 5.212361e-07 -6.956993e-08 -2.607156e-07
6.383183e-07 -2.629318e-07 1.016894e-07 6.696050e-07 -1.076077e-06 -1.749185e-06
1.093377e-07 -2.293275e-08 -4.019630e-08 -1.809744e-08 -4.685257e-09 1.594593e-08
1.001661e-07 -1.517808e-08 -4.077270e-08 -2.238567e-08 -1.696420e-09 2.032095e-08
8.191275e-08 -1.758084e-08 -2.743616e-08 -1.119270e-08 -4.644126e-09 1.939956e-08
5.265491e-07 -4.304339e-07 4.096164e-07 2.729404e-07 -3.251987e-08 -1.663933e-07
9.072670e-08 -8.178975e-09 -3.479066e-08 2.099202e-08 2.790395e-09 1.226144e-08
1.783383e-07 6.336928e-09 1.787622e-07 3.612709e-07 8.577106e-08 8.010335e-08
1.465274e-07 -2.767177e-07 1.630445e-07 4.172017e-08 -1.580779e-09 -8.812848e-08
5.786355e-07 -3.076113e-07 1.799137e-07 2.392212e-07 1.286315e-08 -5.441425e-08
-3.585620e-06 -4.055081e-06 2.708986e-05 -6.403153e-07 -3.134486e-07 -3.295969e-06
-2.769448e-08 3.423609e-08 -4.345706e-08 -7.958492e-10 -1.068692e-07 -5.792984e-08
-2.812719e-08 1.927831e-07 -9.954369e-08 8.276298e-08 -7.288969e-08 -3.152430e-08
2.714682e-08 1.913436e-07 -1.004796e-07 1.552664e-07 -1.500436e-07 -1.003781e-07
-4.253487e-06 -3.821732e-06 2.414246e-05 -4.006677e-07 -2.521011e-06 -8.960234e-07
4.706313e-08 3.995459e-08 -4.278529e-08 4.716887e-08 2.532832e-08 2.429333e-08
9.774121e-08 4.163332e-08 -9.934769e-08 1.340405e-07 5.475557e-08 6.961869e-08
9.009663e-08 1.630451e-08 -5.212010e-08 9.215652e-08 6.399879e-08 9.255091e-08
-2.960624e-06 -1.021012e-06 1.581670e-05 8.473387e-07 6.661691e-06 1.812759e-06
-2.889468e-07 6.395531e-07 1.089174e-05 7.289394e-07 -6.832105e-06 -4.797567e-06
6.152846e-08 8.995188e-08 -1.047022e-07 -1.498595e-07 -6.692913e-08 6.743164e-08
-6.285227e-07 1.775768e-07 1.650050e-06 7.516149e-07 -1.265194e-06 -2.581180e-07
4.808704e-08 1.177983e-07 -8.563176e-08 -1.254263e-07 -1.184893e-07 1.041383e-07
5.026922e-09 1.007497e-07 -8.099159e-08 -6.722662e-08 -4.151528e-08 3.438073e-08
4.899095e-09 7.935603e-08 -7.801620e-08 -5.907104e-08 -4.919318e-08 4.144106e-08
3.906733e-08 2.173305e-08 -3.464436e-08 -3.706378e-08 -3.374907e-08 2.993659e-08
5.636078e-07 -1.176750e-06 2.208275e-06 -8.527731e-07 3.199449e-07 -1.649105e-06
-8.067215e-08 -2.598990e-06 7.410520e-06 7.438165e-07 1.316708e-06 -4.126138e-06
-1.114132e-07 -1.943464e-06 1.039052e-05 4.418488e-07 -3.798477e-07 -9.846214e-06
4.574042e-08 7.773637e-08 -8.361866e-08 -9.937765e-08 -4.837842e-08 4.255319e-08
-8.185995e-09 8.949369e-08 -6.610729e-08 -7.979409e-08 -8.771054e-08 6.723957e-08
-1.078303e-08 2.075345e-07 -9.071144e-08 -1.582073e-07 -1.759743e-07 8.695445e-08
-2.681265e-06 -2.604371e-06 9.057909e-06 4.966573e-07 -1.896588e-06 -6.541269e-07
6.909082e-08 -2.931919e-08 -4.616901e-08 -1.578733e-08 -2.045371e-08 8.164516e-08
1.532156e-07 -3.099422e-08 -7.716753e-08 -4.352321e-08 -2.148198e-08 7.890747e-08
-1.685668e-07 1.521187e-08 2.210808e-07 -5.137043e-08 1.324079e-07 -1.123310e-07
-1.440270e-07 4.100895e-07 -8.434949e-08 -1.323645e-07 1.405623e-07 -4.236790e-08
-2.186100e-07 2.956424e-07 1.688661e-07 -1.028766e-07 9.930954e-08 -3.581218e-08
-2.128885e-07 3.098820e-07 6.058247e-08 -1.892286e-07 7.229754e-08 2.854110e-09
-5.140596e-07 -1.274057e-07 3.864012e-06 9.563563e-08 -2.970969e-06 2.109608e-06
8.397505e-08 -3.187992e-08 -4.077295e-08 -1.780845e-09 -2.575211e-09 6.331721e-08
9.132787e-08 1.685139e-07 -9.847087e-08 -2.107244e-07 1.030186e-07 -8.988123e-08
3.708271e-08 4.835341e-08 1.665423e-08 -1.164562e-07 1.606315e-07 -7.071722e-08
-2.803433e-08 1.795214e-08 -4.143244e-08 6.685639e-09 8.933714e-08 -5.715658e-08
1.549778e-07 -4.055797e-08 -7.515790e-08 -4.105425e-08 -1.480754e-08 4.521491e-08
2.986015e-08 7.691851e-08 -8.633900e-08 -9.417904e-08 -5.117293e-08 4.949033e-08
7.548505e-08 5.400980e-08 -8.773788e-08 -1.154002e-07 -4.822894e-08 4.905613e-08
1.123873e-07 -3.440375e-08 -4.684260e-08 -3.250508e-09 -2.950507e-10 3.994461e-08
1.300064e-07 -2.293245e-08 -5.289924e-08 -2.336158e-08 -7.183787e-09 2.904164e-08
1.056971e-07 7.976666e-08 -1.054548e-07 -1.465688e-07 -7.040614e-08 7.298755e-08
-9.572096e-09 6.405446e-08 -1.443011e-08 -9.501094e-08 -1.702247e-07 1.410000e-07
1.013844e-07 -3.205141e-08 -3.399222e-08 -1.289283e-08 -9.638618e-09 4.660308e-08
-4.221891e-07 6.249224e-07 2.440211e-07 -1.628091e-07 6.479417e-07 1.585537e-07
1.734014e-07 1.582202e-08 2.074660e-07 -4.416724e-07 -1.977071e-08 -1.951653e-08
1.282326e-07 -4.039945e-08 -6.396548e-08 -8.600739e-09 -2.881758e-09 4.529012e-08
1.703727e-07 -4.051702e-08 -8.003413e-08 -6.885366e-08 -2.134167e-08 4.958378e-08
7.786631e-08 -2.805466e-08 -3.275927e-08 -9.306144e-09 -5.244342e-09 3.667325e-08
2.162835e-07 -4.006982e-08 -8.853534e-08 -8.942705e-08 -3.022419e-08 7.535723e-08
-2.645607e-07 -8.880133e-08 1.096457e-06 2.007290e-07 -5.463426e-07 -1.827275e-06
1.572103e-07 -2.052186e-08 -7.907469e-08 -6.307492e-08 -1.688386e-08 5.158652e-08
-4.058867e-07 4.963097e-07 4.537768e-07 2.667178e-08 1.473896e-07 1.655761e-07
1.222408e-07 -4.929617e-08 -5.386112e-08 -1.439212e-08 -9.308808e-09 5.805213e-08
4.798582e-08 -4.759690e-08 -3.127424e-08 -9.682053e-09 -4.519426e-08 1.701788e-07
4.001205e-08 -3.816192e-08 -2.239196e-08 -1.069950e-08 -1.750582e-08 1.171868e-07
2.853596e-07 -2.977540e-07 9.177713e-07 6.282754e-07 -2.057409e-07 -4.773744e-07
-5.728079e-07 4.383632e-07 1.039047e-06 9.329056e-08 -6.674742e-07 2.181195e-07
3.338086e-08 1.978687e-07 4.198444e-07 2.161845e-07 -1.813232e-07 1.873606e-07
2.060797e-08 -5.853734e-08 4.640479e-07 2.866250e-08 -2.812424e-07 -8.822596e-08
-3.180586e-07 4.505462e-07 1.986071e-07 3.875514e-07 1.106860e-07 -4.778289e-08
2.312610e-09 6.489534e-09 -3.512704e-08 2.464222e-08 6.081603e-08 5.614150e-08
-1.247415e-07 3.890280e-07 1.537661e-07 2.258906e-07 -1.760726e-09 -2.625570e-08
4.098206e-07 -2.825665e-07 2.239012e-07 2.181905e-07 -1.414248e-08 9.168635e-08
4.069598e-07 -1.907056e-07 2.438620e-07 3.207673e-07 6.755627e-08 7.711267e-08
2.888516e-07 -9.825697e-08 -2.427470e-08 3.196235e-07 8.074829e-08 1.504021e-07
3.868616e-09 -2.292530e-08 1.442432e-08 1.490591e-08 8.518165e-08 1.821763e-07
1.861194e-07 8.558774e-08 9.978172e-08 2.943698e-07 -2.796982e-08 5.941359e-08
7.082868e-08 -2.585408e-09 -3.242279e-08 -1.673703e-08 -5.836605e-09 1.183534e-08
6.825533e-08 2.013297e-08 -4.412669e-08 -3.919334e-08 -1.250548e-08 1.658204e-08
-1.064948e-07 -1.373258e-07 9.541925e-07 2.375649e-07 -1.794010e-07 -3.207714e-07
8.336096e-08 -1.121397e-08 -2.683566e-08 -1.849957e-08 -6.763362e-09 2.004323e-08
7.041644e-08 -8.306625e-10 -2.462139e-08 -1.508789e-08 -4.576913e-09 9.828122e-09
7.067384e-07 -9.306714e-07 1.390693e-06 -1.114336e-07 -8.058534e-08 7.806560e-07
2.820333e-07 -1.009487e-07 6.231395e-07 4.333035e-07 4.747563e-07 2.364748e-07
3.147081e-08 1.893905e-08 -2.898170e-08 -1.872640e-08 -1.639265e-08 1.737478e-08
8.603698e-08 -6.319413e-07 1.592220e-06 9.271114e-07 6.929468e-07 1.074917e-06
-9.830369e-08 -1.479787e-06 2.913212e-06 5.672071e-07 6.023846e-07 1.211066e-06
4.651364e-08 3.060328e-08 -6.385336e-08 6.774867e-08 6.267707e-08 6.137391e-08
1.813616e-07 -5.144864e-07 1.505039e-06 2.317397e-07 1.424181e-07 1.048232e-06
6.885258e-07 3.834331e-07 4.722868e-07 7.204020e-07 6.167709e-07 1.172072e-06
4.745146e-07 -1.245133e-07 3.257367e-08 2.536697e-07 -3.580212e-08 1.091852e-07
1.954905e-08 -3.483220e-07 6.580998e-07 2.055837e-07 9.375654e-08 2.866475e-07
5.189202e-07 -2.255062e-07 1.509053e-07 1.486597e-07 -1.046121e-07 -4.216801e-08
3.226564e-08 3.572385e-08 -4.534488e-08 3.543046e-08 3.317595e-08 2.309301e-08
2.526317e-09 1.896398e-08 -3.243477e-08 2.759535e-08 7.526311e-08 5.780289e-08
1.610896e-07 -4.865016e-08 -6.994862e-08 -2.518047e-08 -7.796887e-09 8.546693e-08
4.340506e-08 6.403982e-08 -6.704900e-08 8.301169e-08 3.154542e-08 3.334929e-08
8.784502e-08 5.944498e-08 -7.678393e-08 1.852955e-07 1.071594e-07 1.021034e-07
1.720380e-07 -3.773529e-07 7.537759e-07 6.677321e-08 3.989425e-08 3.937141e-07
7.619327e-07 -5.390034e-07 4.405452e-07 8.550531e-08 1.927326e-08 2.454615e-07
-1.307441e-08 2.657759e-08 -3.409684e-08 1.350436e-08 6.761917e-08 4.178687e-08
1.547323e-08 1.199114e-07 -8.014464e-08 9.634871e-08 4.885623e-08 3.400910e-08
3.273900e-08 7.753399e-08 -6.941726e-08 7.933024e-08 7.300737e-08 6.858820e-08
-5.280426e-09 4.920351e-08 -3.563054e-08 4.703288e-08 7.499273e-08 6.621135e-08
6.635300e-07 -6.821824e-07 1.058968e-06 3.022695e-07 1.483933e-07 7.033852e-07
2.245477e-07 -2.608438e-08 1.127227e-07 1.861444e-07 -5.324858e-08 -1.658777e-07
6.119361e-07 -4.209062e-08 -3.503864e-09 2.056282e-07 9.908106e-08 3.989827e-07
7.822482e-08 6.305380e-09 -4.871041e-08 1.572962e-07 9.565911e-08 1.085685e-07
6.970986e-07 -1.549963e-07 8.090093e-07 6.958684e-07 5.342126e-07 1.226498e-06
4.854732e-08 2.440953e-08 -2.905802e-08 2.402441e-08 1.045319e-08 1.167414e-08
2.578818e-07 -1.458258e-07 2.440177e-07 3.843538e-07 9.495197e-08 2.872144e-07
3.992858e-08 1.963802e-08 -2.589143e-08 1.822740e-08 1.017515e-08 1.359848e-08
5.232925e-08 3.682536e-08 -4.099980e-08 4.247424e-08 1.165652e-08 1.304051e-08
7.704228e-08 1.287078e-07 7.056545e-07 2.376047e-07 5.214465e-07 5.936111e-07
2.389052e-07 -2.275931e-07 8.155515e-07 7.004562e-07 2.672316e-07 1.966077e-07
7.597630e-08 8.892868e-09 -3.979298e-08 3.723054e-08 1.274885e-08 2.260743e-08
3.625247e-08 1.639993e-08 -6.325578e-08 9.103946e-08 6.568571e-08 8.197877e-08
8.769065e-08 -1.718663e-08 -4.739018e-08 3.811453e-08 1.432434e-08 4.836282e-08
6.884059e-08 2.236968e-08 -5.894701e-08 6.500088e-08 1.975883e-08 3.475330e-08
1.096256e-07 -6.066086e-08 4.224563e-07 5.935867e-07 2.236342e-09 7.590742e-08
9.531355e-08 -1.160455e-07 1.325888e-06 5.529405e-07 -2.978423e-07 -7.016080e-07
-6.730343e-09 -6.682427e-07 3.857233e-06 8.715319e-07 1.246088e-06 2.073907e-06
-2.912550e-08 1.749496e-08 2.382768e-07 -3.313027e-08 -2.219194e-07 -2.254597e-07
3.747660e-07 -1.183695e-07 7.640198e-07 4.726381e-07 1.458470e-07 3.685968e-07
1.818419e-07 -2.048781e-07 8.151167e-07 7.449583e-07 2.818935e-07 2.631196e-07
-5.960620e-08 -5.374430e-08 1.619403e-07 8.711324e-08 -8.057348e-07 4.677168e-07
-1.373062e-08 8.955169e-08 -7.540169e-08 4.077114e-08 6.573994e-08 3.182043e-08
-2.129985e-08 2.636892e-08 -3.929260e-08 1.091835e-08 8.143412e-08 3.416332e-08
-1.989018e-08 2.407130e-08 -3.254924e-08 1.255584e-08 8.663939e-08 4.367126e-08
9.918872e-09 6.588748e-08 -3.676778e-08 4.521510e-08 5.385787e-08 2.429193e-08
-2.651210e-08 1.372644e-07 -8.093350e-08 7.017688e-08 7.758479e-08 2.801535e-08
-5.399245e-07 5.740845e-07 8.238817e-07 -4.312179e-07 -3.242891e-07 1.273729e-07
-3.897978e-09 3.813461e-07 9.569347e-08 1.356000e-07 -3.984198e-08 6.176490e-08
-4.258482e-07 5.740542e-07 4.823018e-07 -2.074648e-07 6.069541e-08 1.608036e-07
2.305502e-08 5.960471e-07 2.356833e-07 -3.730072e-08 -1.253153e-06 6.710063e-07
-9.194647e-07 4.576445e-07 2.218168e-06 1.239122e-07 -1.010239e-06 1.037755e-07
1.773947e-09 1.026925e-07 -6.235235e-08 5.467412e-08 3.643283e-08 1.882511e-08
-3.160827e-07 3.355726e-07 5.279141e-07 -1.065113e-07 -2.558549e-07 1.703767e-07
7.595339e-08 8.902649e-09 -4.496370e-08 3.723985e-08 1.302396e-08 2.350997e-08
4.010682e-08 -7.509780e-09 -3.219166e-08 2.909589e-08 2.578374e-08 5.095987e-08
1.301573e-07 -2.332997e-08 -8.345278e-08 5.882296e-08 2.381080e-08 6.325075e-08
-3.309460e-08 1.888910e-07 -9.136443e-08 -7.379538e-08 6.743666e-08 -2.370706e-08
-1.047657e-08 1.294837e-07 -8.471038e-08 -5.105832e-08 6.020703e-08 -2.335754e-08
-3.363623e-07 4.819531e-07 1.497583e-07 -2.517584e-07 1.420666e-07 -7.852875e-08
-2.017456e-07 4.677010e-07 2.445761e-07 -3.124055e-07 -8.628515e-08 5.114276e-08
-1.713817e-07 3.541018e-07 -4.076046e-09 -2.347672e-07 1.454533e-07 -4.084758e-08
3.849765e-08 1.450326e-08 -2.874652e-08 2.102157e-08 1.900031e-08 2.308903e-08
-6.525569e-08 1.175866e-07 -4.459744e-08 3.924015e-08 1.400319e-07 2.085101e-08
4.820967e-08 1.663844e-08 -3.191617e-08 2.609020e-08 1.223249e-08 1.419278e-08
2.753797e-07 -2.999562e-08 1.164147e-07 2.697968e-07 -7.810605e-08 -1.817123e-08
3.874950e-07 -1.998492e-07 1.358052e-07 3.521005e-07 9.457620e-08 5.578382e-08
1.917318e-07 -2.831302e-08 -9.939224e-09 3.325697e-07 4.312421e-08 -6.068111e-08
1.741196e-07 2.486682e-08 4.679853e-07 3.992975e-07 -7.548098e-09 2.295505e-07
4.466782e-08 1.194547e-08 -2.625132e-08 2.030047e-08 1.135333e-08 1.731333e-08
1.073528e-07 -2.374670e-08 -4.614078e-08 -5.625187e-09 -3.206828e-09 2.539872e-08
1.165135e-07 -2.517428e-08 -4.179685e-08 -5.790240e-09 -1.564462e-09 1.880737e-08
6.721431e-08 1.673815e-08 -4.707069e-08 4.720971e-08 1.432799e-08 1.936763e-08
1.017055e-07 -2.873914e-08 -4.565826e-08 -1.070862e-08 -3.415622e-09 2.761980e-08
3.803479e-08 9.986199e-09 -2.893854e-08 2.306413e-08 1.769090e-08 2.338717e-08
9.001982e-08 3.028914e-08 -6.368126e-08 -8.072691e-08 -4.343722e-08 6.380369e-08
-3.403775e-08 1.415531e-07 -1.430920e-08 -1.319405e-07 -1.672763e-07 1.350667e-07
7.537943e-08 1.710391e-08 -5.654952e-08 -6.133425e-08 -2.021583e-08 2.636881e-08
5.829397e-08 3.288220e-08 -5.442731e-08 -5.797641e-08 -2.090149e-08 2.331478e-08
1.106818e-07 1.288733e-07 -3.114874e-08 -1.450547e-07 -1.524724e-07 1.419926e-07
2.947426e-07 2.045284e-08 -3.004072e-08 -3.823988e-07 -7.718585e-08 4.747418e-08
-5.192997e-08 1.629345e-07 -8.255756e-08 4.317385e-08 8.947198e-08 1.586539e-09
-9.994388e-08 2.545152e-07 -1.056877e-07 5.033361e-08 1.025942e-07 6.789900e-09
-9.818866e-08 1.438803e-07 -5.971647e-08 2.847699e-08 1.527575e-07 2.130868e-08
8.370145e-08 2.999906e-08 -9.782150e-10 -2.607341e-07 -9.987146e-08 1.127539e-07
4.960336e-08 1.893360e-07 -1.164984e-07 -2.274036e-07 -1.193622e-07 7.221035e-08
1.253584e-07 1.357595e-07 -1.071115e-07 -2.663581e-07 -9.318032e-08 8.735665e-08
1.543769e-07 8.326722e-08 -1.027613e-07 -2.077174e-07 -6.671229e-08 7.380340e-08
2.389982e-08 1.093676e-07 1.242886e-07 -1.880464e-07 -7.601597e-08 1.132465e-07
9.610436e-09 5.736543e-08 -4.615372e-08 -5.065712e-08 -6.086426e-08 5.539745e-08
3.206495e-09 1.570302e-07 -8.996215e-08 -1.106072e-07 -1.136408e-07 8.030861e-08
-2.461935e-08 8.396333e-08 -7.069933e-08 -8.844172e-08 -1.300744e-07 8.593459e-08
-1.568615e-08 6.666031e-08 -2.013966e-08 -1.398049e-07 -1.890373e-07 1.297085e-07
-7.171368e-07 4.365535e-07 1.163828e-06 -1.557534e-07 4.633788e-07 4.336077e-08
1.047127e-07 -1.524425e-07 8.161646e-08 2.103269e-07 -3.035741e-07 -1.325267e-07
-3.247457e-07 4.003112e-07 8.057735e-07 4.979710e-07 -8.473854e-08 4.257943e-08
-2.625354e-07 -5.067575e-07 2.219627e-06 7.409852e-07 -9.857194e-07 -1.137877e-06
-5.218299e-08 -1.401506e-08 1.714577e-07 4.366467e-08 -9.320471e-08 -2.821607e-08
-2.327333e-07 3.190813e-07 9.070864e-07 5.743632e-07 -3.681113e-07 -2.430246e-07
-1.331849e-07 6.677969e-08 1.591814e-07 3.374202e-08 4.631803e-08 4.761599e-08
8.561691e-08 1.897650e-07 9.921936e-08 3.738267e-07 9.910566e-08 7.384777e-08
-1.138056e-07 1.549803e-07 2.464321e-07 2.961146e-07 5.218167e-08 -2.036457e-07
-4.279950e-07 4.619255e-07 4.994442e-07 -5.614991e-07 2.044551e-07 4.959477e-08
-3.380003e-07 3.322721e-07 1.928858e-07 -2.862444e-07 -6.345131e-08 -7.652777e-09
-4.365538e-07 6.313624e-07 4.570880e-07 -2.425454e-07 7.711448e-09 -4.032903e-09
-1.795935e-07 8.461325e-08 6.600370e-07 -8.001258e-08 2.803067e-07 -1.697988e-07
-1.751684e-08 -5.884277e-08 2.588039e-08 3.557895e-08 1.429847e-07 1.121444e-07
3.150398e-07 -6.423415e-08 -1.052746e-07 -1.206883e-07 -2.249492e-08 9.348424e-08
9.645808e-08 -3.216205e-08 -4.808811e-08 -4.382561e-08 -1.585793e-08 8.604969e-08
-3.569141e-08 -4.666661e-08 2.036401e-08 -7.897052e-09 2.251225e-07 1.013828e-07
1.286412e-07 -2.790958e-08 -5.959139e-08 -1.014844e-07 -4.667758e-08 8.217570e-08
-1.045865e-07 -6.373973e-08 1.115501e-07 2.646408e-08 2.363708e-07 7.368481e-08
-2.534851e-07 3.008025e-07 3.756428e-07 2.780044e-07 3.800494e-08 -1.037601e-07
4.264611e-07 4.107671e-08 6.341717e-08 3.459433e-08 -1.097526e-07 1.502600e-07
3.809130e-08 8.385697e-08 -9.435277e-08 1.333637e-07 8.033958e-08 6.938205e-08
-1.289025e-07 -1.220418e-07 2.575339e-07 1.103177e-07 3.129258e-08 -4.759827e-08
-3.411077e-08 -3.625565e-08 5.621439e-09 1.500630e-08 7.470762e-08 6.415011e-08
6.780730e-07 -1.058420e-06 2.941561e-06 -1.222970e-07 6.949688e-07 -2.270546e-06
4.853039e-07 -8.369991e-07 1.110269e-06 -9.210106e-08 3.656447e-08 -3.426715e-07
7.747223e-08 1.494835e-07 2.098507e-08 2.955025e-07 2.881305e-08 4.994273e-08
7.121983e-07 -6.875103e-07 1.281524e-06 -2.025902e-07 1.237053e-07 -2.435405e-07
-1.199686e-07 1.924541e-07 -4.872538e-08 -2.819208e-09 1.936226e-07 -1.199045e-09
-2.536222e-07 4.104507e-07 2.603890e-07 -1.271465e-07 1.185255e-07 -2.195481e-08
1.944309e-07 -1.735764e-07 1.603364e-06 7.771990e-08 -9.007048e-08 -1.688184e-06
-2.982318e-07 5.325390e-07 2.006507e-07 -1.636485e-07 -1.300552e-07 4.055004e-08
1.925687e-07 -1.250582e-07 2.054844e-08 1.067572e-07 -6.654194e-08 -8.244800e-08
-1.157760e-07 4.600461e-09 9.127551e-08 -2.185111e-08 1.444650e-07 1.209765e-10
-2.106395e-07 3.589251e-07 3.124110e-08 -2.444195e-09 1.345480e-07 -2.913075e-09
-4.677249e-07 5.797736e-07 7.478487e-07 -1.258177e-07 8.528045e-09 -8.002884e-08
-5.035555e-08 1.695547e-07 -2.064693e-08 -2.623216e-08 2.212743e-07 -3.682520e-08
-8.155209e-08 1.532855e-07 4.465210e-08 1.463018e-07 1.801091e-07 6.563845e-08
6.985578e-08 -2.626321e-09 -2.500298e-08 -1.625350e-08 -3.743918e-09 1.039961e-08
4.265003e-08 1.850800e-07 1.295817e-07 4.939873e-07 -4.504767e-08 -1.773175e-09
6.642490e-08 -9.641714e-09 -2.916937e-08 -1.759488e-08 -9.549118e-09 2.118783e-08
-1.173253e-07 5.404643e-07 7.357518e-08 4.191701e-07 1.232747e-08 3.601919e-08
-1.159124e-07 2.636172e-07 1.323692e-07 3.945671e-08 -1.341548e-07 -5.039567e-08
7.491361e-08 -1.172019e-08 -2.789521e-08 -1.408651e-08 -5.942010e-09 1.574655e-08
-1.775020e-07 3.785206e-07 -1.023290e-07 -9.194267e-08 -1.509103e-07 4.494629e-08
-8.849621e-08 2.489754e-07 -1.084682e-07 -5.350909e-08 -1.277899e-07 7.349608e-09
-5.201236e-08 -1.824144e-08 -1.003184e-08 -4.299384e-08 -2.493115e-07 -1.304024e-07
-3.611083e-08 9.139082e-08 -5.460242e-08 8.520324e-08 -1.763754e-07 -8.527042e-08
-2.926634e-07 4.192241e-07 2.079661e-07 -5.214545e-08 -1.307794e-07 -1.579048e-08
-2.195642e-07 5.505286e-07 -2.436082e-08 -2.441867e-07 -9.307586e-08 5.346571e-08
-1.065773e-07 4.344942e-07 1.157181e-07 -3.178854e-07 9.193392e-08 -3.800246e-08
-3.688465e-08 5.055134e-08 -3.930590e-08 -5.005627e-08 -1.865163e-07 8.706015e-08
-1.286266e-07 2.420260e-07 7.279894e-09 -2.522226e-07 -8.000283e-08 3.172234e-08
-1.673476e-07 3.507924e-08 1.600358e-07 -6.341367e-08 -7.995379e-08 -4.458985e-08
-9.251708e-08 2.937642e-07 -3.439229e-08 -1.834012e-07 -1.904893e-07 1.062376e-07
-6.885292e-08 -3.744277e-07 4.862654e-06 -2.201974e-07 -3.433584e-06 7.515055e-07
7.617838e-08 -5.278097e-09 -3.294846e-08 1.814413e-08 5.635000e-09 1.357993e-08
4.722429e-07 -9.445054e-07 1.422623e-06 5.894032e-08 -5.009235e-09 -6.800212e-07
-8.111155e-07 -7.420539e-07 4.651887e-06 -3.426139e-07 -3.003157e-06 1.976319e-06
-9.388787e-07 5.570780e-07 2.511863e-06 1.598517e-07 -1.152570e-06 -1.378967e-07
6.333711e-08 -1.663922e-09 -2.511180e-08 1.523769e-08 4.991711e-09 1.263439e-08
7.867031e-08 -5.563340e-08 1.045135e-06 4.556915e-08 -5.683745e-07 -4.024640e-08
-1.853304e-07 -3.003449e-08 6.502576e-07 -6.228477e-09 -7.850888e-07 -8.128765e-09
1.384527e-08 1.120844e-07 -7.318530e-08 9.266430e-08 8.337756e-08 6.314172e-08
-1.981212e-08 8.987867e-08 -3.704421e-08 3.822824e-08 5.990578e-08 2.189361e-08
-3.820836e-07 6.647556e-07 2.816581e-07 -3.094852e-07 -1.403165e-06 5.987419e-07
-1.458985e-08 7.867301e-08 -3.876511e-08 2.887723e-08 7.043691e-08 3.450035e-08
1.307272e-07 7.091556e-08 8.531492e-07 6.802434e-08 -1.703937e-07 -7.892253e-07
3.829143e-07 -1.787867e-07 -5.418401e-09 2.398002e-07 2.356358e-08 1.260132e-07
-1.750868e-08 -7.070187e-08 3.419746e-07 -1.712799e-09 1.208866e-07 7.071170e-09
1.240621e-07 -3.834880e-08 -3.021419e-08 1.213802e-07 8.254234e-08 1.502960e-07
-9.674399e-07 -6.592671e-07 3.905902e-06 -6.345500e-07 -1.486847e-06 9.175757e-07
-8.716006e-08 2.543795e-07 1.576753e-07 8.950559e-08 -1.825520e-07 -6.866523e-08
3.876081e-08 2.211601e-08 -2.422931e-08 1.608355e-08 6.212261e-09 7.994234e-09
4.810224e-08 2.101076e-08 -3.937159e-08 3.626071e-08 1.604273e-08 2.229877e-08
-3.687128e-07 5.711075e-07 3.595245e-07 -2.489142e-07 3.902780e-08 8.979315e-09
-3.152434e-08 -2.772001e-08 2.167481e-08 7.774517e-10 1.392768e-08 4.189799e-08
5.100198e-08 7.897900e-09 -2.530481e-08 1.754350e-08 6.600951e-09 1.280628e-08
5.733301e-08 2.203349e-08 -4.469498e-08 3.409737e-08 1.303756e-08 1.737986e-08
5.726543e-08 1.373929e-08 -3.217718e-08 1.922686e-08 5.848683e-09 8.691021e-09
3.327413e-08 2.042362e-08 -2.357951e-08 1.932091e-08 1.383830e-08 1.368580e-08
6.876346e-08 5.090091e-09 -3.565527e-08 2.031838e-08 4.670794e-09 8.637474e-09
6.481714e-08 -3.349140e-09 -2.500295e-08 1.439166e-08 5.340657e-09 1.339690e-08
7.160068e-08 3.840723e-09 -3.785824e-08 2.721811e-08 4.554176e-09 1.561790e-08
4.504023e-08 2.162876e-08 -2.194726e-08 1.449165e-08 4.471133e-09 5.997094e-09
4.473155e-08 1.958301e-08 -2.193452e-08 1.528692e-08 4.760156e-09 5.879735e-09
5.207722e-08 1.206031e-08 -3.978302e-08 3.181936e-08 1.902285e-08 2.485862e-08
4.133114e-07 -3.341202e-07 6.600473e-07 3.455588e-07 -2.586960e-07 -4.845392e-07
-2.930081e-06 -6.250603e-07 8.366683e-06 -5.459880e-07 4.107350e-06 -1.780964e-06
5.584579e-08 1.473771e-08 -2.921453e-08 1.868182e-08 3.458448e-09 5.816479e-09
5.264209e-08 1.177810e-08 -3.298320e-08 2.125973e-08 9.659839e-09 1.215682e-08
4.564097e-08 1.343715e-08 -2.380328e-08 1.571738e-08 5.338836e-09 9.086275e-09
9.890112e-07 -1.402509e-06 1.837174e-06 -6.449331e-07 3.047707e-07 -2.304735e-06
6.536894e-08 1.322582e-09 -3.046152e-08 1.722242e-08 4.789914e-09 1.092448e-08
-2.488461e-06 -5.872222e-07 1.278740e-05 -1.431574e-06 8.294962e-06 -5.389154e-06
6.171707e-08 -5.212667e-09 -2.731187e-08 1.797861e-08 7.712070e-09 2.218505e-08
6.638321e-08 -5.235584e-09 -2.497292e-08 1.707865e-08 7.913969e-09 1.727866e-08
8.060200e-08 -1.719730e-09 -4.161427e-08 2.192074e-08 5.806703e-09 1.177658e-08
3.936417e-07 -6.992965e-08 1.127599e-07 -3.342082e-07 1.362280e-07 -4.896139e-08
2.924952e-07 -6.412533e-08 -1.140868e-08 -3.090331e-07 9.400668e-08 -7.415131e-08
-3.322825e-08 -3.758822e-08 3.578914e-08 6.230146e-09 8.042902e-08 -1.024898e-07
-3.461010e-08 -5.495156e-08 8.745839e-09 -6.939033e-11 9.184826e-08 -3.985756e-08
-1.793972e-08 1.070698e-07 -7.905431e-08 5.150606e-08 -1.412581e-07 -6.635859e-08
-4.514600e-08 1.470239e-07 -5.555065e-08 7.289975e-08 -2.112900e-07 -7.343260e-08
-5.081463e-08 1.752476e-07 -2.928348e-08 1.052535e-07 -2.199970e-07 -1.063869e-07
-2.085424e-06 -3.908798e-07 5.182151e-06 -2.654984e-07 1.840634e-06 -2.266764e-07
-1.824032e-08 1.003752e-07 -4.817499e-08 4.011856e-08 -8.403805e-08 -4.067746e-08
-4.280472e-08 2.623797e-07 -7.475634e-08 1.900095e-07 -1.273996e-07 -6.574130e-08
-2.689356e-08 1.995414e-08 -4.883235e-08 -4.135484e-10 -9.816044e-08 -6.282055e-08
9.645771e-08 -2.701583e-08 1.841371e-07 1.535017e-07 -5.682557e-08 2.879469e-09
6.773594e-09 2.487087e-07 -1.273581e-07 1.494339e-07 -1.082852e-07 -5.233907e-08
6.984454e-08 1.041441e-07 -5.680886e-08 1.266037e-07 -1.624155e-07 -1.280359e-07
2.371670e-07 -1.483415e-06 2.669602e-06 4.151549e-07 -2.060338e-07 -6.382147e-07
-2.904666e-08 1.025609e-07 -5.079769e-08 3.764232e-08 -1.165193e-07 -5.148832e-08
6.004634e-08 3.082433e-08 -7.592844e-08 1.904173e-07 -1.102217e-07 -6.414467e-08
-8.796627e-08 1.849294e-07 3.359655e-07 5.455339e-07 -1.004811e-07 -2.676985e-08
7.482980e-08 -2.190880e-08 -3.179171e-08 -1.246850e-08 -7.902714e-09 3.206180e-08
1.219530e-07 -2.483987e-08 -5.246216e-08 -3.105982e-08 -8.154292e-09 2.975351e-08
8.195130e-08 9.026487e-09 -6.032274e-08 1.932265e-07 -9.574634e-08 -8.970703e-08
9.784051e-08 -2.466791e-08 -3.368464e-08 -2.519332e-08 -9.621434e-09 4.780816e-08
-7.881110e-08 3.386504e-07 1.343810e-08 3.594211e-07 3.564727e-08 -5.490415e-08
-3.506839e-08 -5.522627e-08 -1.783697e-08 3.078575e-08 -9.096693e-08 8.466068e-08
-5.105328e-08 -6.234863e-08 2.738732e-07 2.145975e-08 5.382330e-08 2.491125e-08
6.751281e-08 2.572244e-07 -6.367896e-08 3.565041e-07 -6.583790e-08 -7.445235e-08
-4.708378e-08 1.333229e-07 -1.345174e-08 1.198365e-07 -2.166620e-07 -1.466334e-07
-2.006104e-07 3.752037e-07 -7.447104e-08 -3.639212e-08 -2.198707e-07 2.563184e-08
-7.395215e-07 8.756186e-07 1.553468e-06 2.359022e-07 1.050599e-06 4.017231e-07
2.907010e-07 -6.471660e-07 2.612016e-06 6.294477e-07 -1.983931e-07 -6.273380e-07
3.555195e-09 5.930852e-08 -5.213709e-08 7.898964e-08 -1.702486e-07 -1.751888e-07
-4.424794e-08 6.713419e-08 -3.894430e-08 8.980750e-08 -1.599570e-07 -1.563304e-07
1.096085e-08 4.846832e-08 -4.924012e-08 8.033025e-08 -1.419142e-07 -1.264610e-07
4.958694e-08 -1.240038e-08 -4.386225e-08 6.531110e-08 -1.124399e-07 -1.162793e-07
8.214346e-08 4.595050e-08 -7.509232e-08 1.157525e-07 -1.490354e-07 -1.723799e-07
2.227430e-07 -1.329904e-08 -5.564411e-08 1.412776e-07 -1.080219e-07 -1.048895e-07
3.349671e-08 3.154011e-08 -5.467727e-08 6.242285e-08 -1.555798e-07 -1.227282e-07
2.995374e-08 9.237630e-08 -5.306335e-08 6.764980e-08 -1.447478e-07 -1.229184e-07
3.130659e-08 1.675693e-07 -7.806245e-08 1.160607e-07 -1.508522e-07 -9.927814e-08
-4.384061e-08 -1.240038e-08 1.586793e-08 9.214748e-09 -1.501953e-07 -1.033469e-07
4.603738e-09 4.455676e-08 -1.435477e-08 6.504726e-08 -1.808379e-07 -1.505190e-07
4.209017e-09 3.584096e-08 -1.057386e-08 7.029452e-08 -1.529921e-07 -1.832952e-07
3.431263e-09 -6.915101e-09 -3.603600e-08 2.697283e-08 -1.429983e-07 -1.034166e-07
9.297420e-10 9.178938e-09 -3.887974e-08 1.823095e-08 -1.349488e-07 -1.148461e-07
-2.669721e-08 -3.552412e-08 9.854373e-09 -1.747879e-08 -1.546529e-07 -1.377698e-07
3.624489e-09 3.977955e-08 -4.555576e-08 7.902721e-08 -1.642843e-07 -1.424391e-07
3.894836e-08 6.526517e-08 -8.673567e-08 1.341867e-07 -1.126786e-07 -9.826594e-08
1.611748e-08 4.057047e-08 -7.129539e-08 9.877848e-08 -1.221757e-07 -1.349792e-07
-2.958734e-08 1.593473e-08 -6.003812e-08 -3.561216e-09 -1.189891e-07 -8.002018e-08
-5.010662e-08 -5.858915e-09 -3.868957e-08 -1.078610e-08 -1.236950e-07 -9.449788e-08
-4.379981e-08 1.004648e-08 -3.619196e-08 -2.112062e-08 -1.325337e-07 -8.776238e-08
-1.920630e-08 -1.771234e-08 -3.723244e-08 -5.926766e-09 -1.255586e-07 -9.642157e-08
2.290499e-09 -1.426666e-09 -1.736660e-08 1.578238e-08 -1.457315e-07 -1.294864e-07
-3.368105e-08 2.915934e-08 -6.031498e-08 2.113533e-08 -1.235113e-07 -7.889699e-08
4.892826e-09 3.885010e-08 -5.231503e-08 4.051353e-08 -1.330453e-07 -9.746905e-08
-2.243902e-08 1.004648e-08 -5.604378e-08 -3.238462e-09 -1.148722e-07 -8.726369e-08
5.456887e-08 6.516883e-08 -7.507473e-08 1.146694e-07 -1.480420e-07 -1.734017e-07
4.607824e-08 7.565308e-08 -5.563892e-08 1.328395e-07 -1.322536e-07 -1.328659e-07
7.921515e-08 7.703866e-08 -4.783703e-08 1.571302e-07 -8.121783e-08 -9.556504e-08
8.639574e-08 -1.944195e-08 -2.792526e-08 1.235571e-08 2.762850e-09 2.127314e-08
8.640642e-08 -2.123441e-08 -2.961975e-08 1.243176e-08 5.603057e-09 2.095507e-08
8.842373e-08 -2.160107e-08 -2.904755e-08 1.232707e-08 4.754545e-09 1.843437e-08
8.330899e-08 -1.943183e-08 -2.938646e-08 1.233188e-08 2.808250e-09 2.345368e-08
8.260285e-08 -2.154836e-08 -3.015677e-08 1.416279e-08 4.456589e-09 2.269906e-08
8.252150e-08 -1.979611e-08 -2.964342e-08 1.322401e-08 5.465609e-09 2.235734e-08
7.747508e-08 -1.209819e-08 -2.607646e-08 1.424210e-08 4.022000e-09 1.775281e-08
7.742296e-08 -1.195325e-08 -2.802534e-08 1.416621e-08 4.586599e-09 1.807449e-08
7.732960e-08 -1.242857e-08 -2.863793e-08 1.439482e-08 5.260420e-09 1.767498e-08
7.345773e-08 -1.424153e-08 -2.633810e-08 1.295545e-08 5.116555e-09 1.979913e-08
7.344231e-08 -1.209819e-08 -2.642175e-08 1.281416e-08 5.367081e-09 1.983547e-08
7.398455e-08 -1.323812e-08 -2.807589e-08 1.256219e-08 6.922411e-09 1.965029e-08
8.063734e-08 -1.562290e-08 -2.863742e-08 1.480202e-08 3.039747e-09 1.797805e-08
8.812034e-08 -1.544220e-08 -2.908980e-08 1.701470e-08 4.262779e-09 1.986936e-08
8.396569e-08 -1.340071e-08 -2.933236e-08 1.888985e-08 3.804065e-09 1.802278e-08
8.731407e-08 -1.562725e-08 -2.688505e-08 1.600480e-08 4.825915e-09 1.864880e-08
7.814023e-08 -1.451786e-08 -2.734302e-08 1.686839e-08 4.039497e-09 2.119860e-08
7.872321e-08 -1.460814e-08 -2.928556e-08 1.636427e-08 5.324089e-09 2.092129e-08
8.286052e-08 -1.838606e-08 -2.604530e-08 1.001993e-08 3.303289e-09 1.892721e-08
8.616917e-08 -1.864182e-08 -2.783932e-08 1.224907e-08 2.441875e-09 2.141746e-08
8.963392e-08 -1.777041e-08 -2.816815e-08 1.017394e-08 2.875063e-09 1.948941e-08
8.259586e-08 -1.818168e-08 -2.972246e-08 1.181610e-08 8.081122e-09 2.230772e-08
7.601938e-08 -1.636999e-08 -2.941966e-08 1.451656e-08 6.516449e-09 2.330957e-08
7.603202e-08 -1.604831e-08 -2.814065e-08 1.462162e-08 5.874952e-09 2.309764e-08
8.905901e-08 -1.588428e-08 -2.970122e-08 1.478752e-08 2.710337e-09 1.764896e-08
8.452046e-08 -1.703892e-08 -2.897127e-08 1.278885e-08 3.760339e-09 1.958108e-08
8.894467e-08 -1.435150e-08 -2.919932e-08 1.661488e-08 3.481056e-09 1.969626e-08
8.894000e-08 -1.635558e-08 -2.878728e-08 1.449788e-08 2.972409e-09 1.806003e-08
8.648582e-08 -1.704333e-08 -2.913107e-08 1.319818e-08 3.465725e-09 1.899679e-08
8.798505e-08 -1.588714e-08 -2.893893e-08 1.456047e-08 2.522547e-09 1.763825e-08
8.022617e-08 -1.329537e-08 -2.893035e-08 1.463743e-08 2.947100e-09 1.833874e-08
8.884784e-08 -1.438251e-08 -2.931169e-08 1.601312e-08 4.087165e-09 1.980081e-08
8.346349e-08 -2.041984e-08 -2.750004e-08 1.251718e-08 2.379224e-09 2.290783e-08
8.388778e-08 -1.862421e-08 -2.730530e-08 1.139475e-08 3.222487e-09 2.214446e-08
8.103355e-08 -1.838606e-08 -2.539596e-08 9.135712e-09 4.080107e-09 1.936019e-08
8.140984e-08 -1.958222e-08 -2.883392e-08 1.406634e-08 6.049587e-09 2.652160e-08
8.138327e-08 -2.167645e-08 -2.971170e-08 1.328974e-08 4.670007e-09 2.610006e-08
8.843826e-08 -2.077949e-08 -3.244195e-08 1.584689e-08 5.821824e-09 2.838873e-08
7.233867e-08 -1.919011e-08 -2.675440e-08 1.613857e-08 6.543155e-09 3.066322e-08
7.240612e-08 -1.634772e-08 -2.690330e-08 1.658899e-08 6.275117e-09 3.059462e-08
7.578486e-08 -1.858237e-08 -3.212893e-08 1.290330e-08 9.847443e-09 3.434463e-08
7.468132e-08 -2.043422e-08 -2.580278e-08 1.737464e-08 7.125973e-09 3.217531e-08
8.017856e-08 -2.076350e-08 -3.247871e-08 1.711857e-08 8.642625e-09 3.468325e-08
8.639218e-08 -2.158386e-08 -3.260925e-08 1.764184e-08 8.234372e-09 3.563326e-08
7.930794e-08 -2.373258e-08 -2.851139e-08 1.121313e-08 3.257783e-09 2.684878e-08
8.009218e-08 -2.205975e-08 -2.927935e-08 9.730081e-09 4.257698e-09 2.681351e-08
8.238503e-08 -2.223092e-08 -2.842174e-08 9.063361e-09 6.099221e-09 2.393306e-08
7.997909e-08 -1.626604e-08 -2.493808e-08 1.578124e-08 6.679518e-09 2.671933e-08
8.105080e-08 -1.571103e-08 -2.888024e-08 1.666406e-08 7.242123e-09 2.638928e-08
8.738652e-08 -1.842634e-08 -3.039020e-08 1.432118e-08 9.285685e-09 2.863666e-08
8.444902e-08 -2.071307e-08 -3.229725e-08 1.540560e-08 5.638159e-09 2.585426e-08
9.325729e-08 -2.201196e-08 -3.411675e-08 1.779865e-08 7.272117e-09 3.385570e-08
8.864552e-08 -2.114915e-08 -3.418501e-08 1.571853e-08 7.811115e-09 3.058178e-08
8.478804e-08 -2.383232e-08 -2.634636e-08 1.367084e-08 5.018479e-09 3.032062e-08
9.310089e-08 -2.287200e-08 -3.174443e-08 1.727419e-08 4.334328e-09 3.348818e-08
8.514844e-08 -2.329292e-08 -2.845642e-08 1.295203e-08 5.224192e-09 2.890298e-08
8.374437e-08 -2.450836e-08 -3.838941e-08 1.673970e-08 2.356708e-09 4.210015e-08
8.380756e-08 -2.280891e-08 -3.304122e-08 1.548805e-08 5.894946e-09 3.817774e-08
7.923501e-08 -2.375113e-08 -2.772133e-08 1.168102e-08 6.741135e-09 3.348991e-08
7.198445e-08 -2.218173e-08 -2.760856e-08 1.483781e-08 8.914249e-09 3.461683e-08
8.180281e-08 -2.219264e-08 -3.390826e-08 1.431219e-08 9.250488e-09 3.886534e-08
8.255583e-08 -2.274133e-08 -3.468567e-08 1.732662e-08 1.048812e-08 3.797136e-08
9.256458e-08 -2.813067e-08 -3.221051e-08 1.746214e-08 7.513692e-09 4.228254e-08
9.843775e-08 -2.845920e-08 -3.717451e-08 1.417907e-08 8.798206e-09 5.361801e-08
1.071579e-07 -2.712899e-08 -3.598706e-08 1.931916e-08 7.005187e-09 4.298855e-08
8.374263e-08 -2.848582e-08 -3.090194e-08 1.424901e-08 6.216842e-09 4.161219e-08
8.279797e-08 -2.783400e-08 -3.320717e-08 1.496560e-08 6.816480e-09 4.449613e-08
8.268345e-08 -2.780794e-08 -3.062819e-08 1.299470e-08 7.355838e-09 3.948891e-08
8.526304e-08 -2.262202e-08 -3.256372e-08 2.077753e-08 1.139612e-08 4.267097e-08
8.899910e-08 -2.648553e-08 -3.308791e-08 1.627213e-08 1.285447e-08 4.485768e-08
9.047076e-08 -2.331354e-08 -3.196696e-08 1.861376e-08 1.026876e-08 4.345244e-08
8.149841e-08 -2.847195e-08 -3.311790e-08 2.022427e-08 1.100077e-08 5.070546e-08
9.317227e-08 -3.005434e-08 -3.335390e-08 2.037103e-08 1.033934e-08 5.007907e-08
7.648623e-08 -3.005955e-08 -3.371420e-08 2.006967e-08 1.041383e-08 5.510343e-08
7.066360e-08 -2.701323e-08 -3.093888e-08 1.289713e-08 1.443217e-08 5.022446e-08
6.748414e-08 -2.419345e-08 -3.362556e-08 1.622740e-08 1.154156e-08 5.314976e-08
6.750763e-08 -2.249183e-08 -3.366453e-08 1.642862e-08 1.282539e-08 5.331896e-08
1.007536e-07 -2.959804e-08 -3.773826e-08 2.530371e-08 9.319067e-09 4.723318e-08
8.949468e-08 -2.815499e-08 -3.528166e-08 2.062738e-08 7.986276e-09 4.801098e-08
9.188579e-08 -2.850446e-08 -3.543729e-08 2.323224e-08 8.404789e-09 4.763664e-08
9.725813e-08 -2.915411e-08 -3.615078e-08 2.532015e-08 7.673018e-09 5.114557e-08
8.270281e-08 -2.601633e-08 -3.735350e-08 2.635229e-08 8.348291e-09 5.584865e-08
9.685053e-08 -2.617477e-08 -3.612898e-08 2.691036e-08 6.767819e-09 4.486951e-08
9.686435e-08 -2.634363e-08 -3.540081e-08 2.778994e-08 7.731173e-09 4.519964e-08
1.003584e-07 -3.025787e-08 -3.566504e-08 2.478202e-08 9.039112e-09 4.720639e-08
8.763784e-08 -2.897584e-08 -3.083167e-08 1.264219e-08 6.675837e-09 4.456458e-08
8.783621e-08 -3.011605e-08 -2.890630e-08 1.213168e-08 8.560952e-09 4.687584e-08
1.021637e-07 -2.919825e-08 -3.540161e-08 1.721790e-08 7.389326e-09 5.090666e-08
7.892240e-08 -2.890331e-08 -2.943203e-08 9.859353e-09 5.141330e-09 4.354323e-08
7.828046e-08 -2.648524e-08 -3.142473e-08 1.005734e-08 7.564574e-09 4.203583e-08
7.819421e-08 -2.984092e-08 -3.134792e-08 9.436840e-09 7.093744e-09 4.201256e-08
8.379654e-08 -3.009848e-08 -3.856979e-08 1.583983e-08 6.312082e-09 5.971561e-08
8.314925e-08 -2.880422e-08 -3.635887e-08 1.530813e-08 8.822410e-09 5.716736e-08
7.663280e-08 -2.990519e-08 -2.792134e-08 1.015609e-08 9.737739e-09 4.872954e-08
6.736881e-08 -2.878176e-08 -2.804565e-08 1.443802e-08 1.030667e-08 6.663971e-08
7.512964e-08 -2.872138e-08 -3.773380e-08 1.966012e-08 1.261789e-08 5.779586e-08
8.381042e-08 -2.901592e-08 -4.068917e-08 1.571123e-08 1.485067e-08 5.838951e-08
9.495751e-08 -3.950875e-08 -3.878252e-08 2.590185e-08 1.436269e-08 8.358655e-08
1.093636e-07 -3.985381e-08 -4.221038e-08 2.186351e-08 1.321078e-08 6.503161e-08
1.200299e-07 -4.234204e-08 -4.982869e-08 2.757246e-08 8.276209e-09 8.353085e-08
8.658080e-08 -3.466595e-08 -3.511984e-08 1.342591e-08 1.876211e-08 7.593131e-08
9.525188e-08 -3.045070e-08 -3.284460e-08 2.016470e-08 1.530943e-08 7.148961e-08
1.100230e-07 -3.045457e-08 -4.050478e-08 2.487762e-08 1.750634e-08 6.669033e-08
6.892089e-08 -3.533458e-08 -3.129508e-08 7.834017e-09 1.136008e-08 7.746836e-08
8.380837e-08 -3.643415e-08 -3.853920e-08 1.799659e-08 8.175289e-09 9.222393e-08
8.744885e-08 -4.254052e-08 -4.029947e-08 1.984578e-08 3.538371e-09 9.634773e-08
1.069867e-07 -3.637813e-08 -4.156760e-08 2.159100e-08 1.163261e-08 6.473459e-08
1.070824e-07 -3.741641e-08 -4.118352e-08 2.070024e-08 1.119110e-08 6.365457e-08
1.267375e-07 -3.767676e-08 -4.996643e-08 2.099138e-08 8.715812e-09 8.359009e-08
9.031268e-08 -3.602474e-08 -3.424827e-08 1.533092e-08 7.371473e-09 6.524633e-08
8.814466e-08 -3.615883e-08 -3.081473e-08 1.646134e-08 1.061930e-08 6.245070e-08
8.883278e-08 -3.703633e-08 -3.742525e-08 1.460480e-08 7.093918e-09 6.089655e-08
6.503892e-08 -3.457379e-08 -3.285496e-08 1.225331e-08 1.970681e-08 8.035826e-08
5.863061e-08 -2.980223e-08 -3.542464e-08 1.818011e-08 1.667713e-08 8.446106e-08
5.855595e-08 -2.943426e-08 -3.539992e-08 1.780116e-08 1.771593e-08 8.455398e-08
9.772300e-08 -3.636010e-08 -3.565670e-08 9.001990e-09 7.834423e-09 7.410800e-08
1.038693e-07 -3.621284e-08 -3.524990e-08 1.253216e-08 8.651101e-09 7.569895e-08
1.251845e-07 -3.830404e-08 -4.238094e-08 1.906613e-08 4.630022e-09 8.325517e-08
8.173568e-08 -3.960851e-08 -3.554866e-08 2.338112e-08 1.560356e-08 8.424503e-08
1.039827e-07 -4.207060e-08 -3.798430e-08 2.092884e-08 1.311726e-08 8.040688e-08
7.364189e-08 -4.236287e-08 -3.698139e-08 2.401504e-08 1.208789e-08 8.805122e-08
9.101831e-08 -3.418302e-08 -4.989329e-08 1.254045e-08 1.525262e-08 9.466727e-08
6.977819e-08 -3.611558e-08 -3.992387e-08 2.360331e-08 1.045781e-08 9.177854e-08
6.803251e-08 -3.944436e-08 -2.642420e-08 2.119271e-08 1.141365e-08 9.247679e-08
7.183140e-08 -3.368342e-08 -2.865843e-08 5.348061e-09 7.978288e-09 6.769022e-08
7.233055e-08 -3.533796e-08 -3.357791e-08 7.731861e-09 4.408123e-09 6.590073e-08
7.163624e-08 -3.528496e-08 -3.309905e-08 4.302321e-09 3.525071e-09 6.675045e-08
5.333200e-08 -3.707970e-08 -2.811329e-08 2.149226e-08 2.114328e-08 1.213525e-07
5.352553e-08 -3.951904e-08 -3.113474e-08 2.232513e-08 2.390794e-08 1.201773e-07
6.257053e-08 -4.420366e-08 -3.459570e-08 1.323400e-08 2.926355e-08 1.389988e-07
1.072463e-07 -6.177633e-08 -3.109401e-08 1.644408e-08 1.927799e-08 1.225316e-07
1.180489e-07 -6.815940e-08 -3.799127e-08 2.368789e-08 1.071446e-08 1.229040e-07
1.073473e-07 -6.250433e-08 -3.707688e-08 2.167597e-08 6.385954e-09 1.192107e-07
1.087263e-07 -5.400990e-08 -3.796522e-08 1.666260e-08 6.438134e-09 1.203648e-07
7.411219e-08 -4.738717e-08 -3.859308e-08 2.198331e-08 8.702371e-09 1.148000e-07
6.432004e-08 -4.288994e-08 -2.997714e-08 1.672696e-08 1.513163e-08 1.042574e-07
1.082914e-07 -4.300758e-08 -4.345213e-08 1.567659e-08 1.384408e-08 9.850122e-08
1.028464e-07 -4.652541e-08 -4.286988e-08 2.698862e-08 9.937196e-09 1.234018e-07
1.627438e-07 -4.643664e-08 -5.065846e-08 1.281611e-08 6.342199e-09 1.160990e-07
7.472683e-08 -4.164705e-08 -3.901804e-08 1.120844e-08 8.963142e-09 9.387429e-08
6.956084e-08 -4.532922e-08 -3.281705e-08 9.881134e-09 9.573034e-09 9.666146e-08
7.060716e-08 -3.976224e-08 -3.599385e-08 7.467098e-09 1.118392e-08 9.592032e-08
7.208894e-08 -4.256246e-08 -3.764417e-08 1.438791e-08 8.614346e-09 9.864450e-08
7.929927e-08 -4.453757e-08 -3.678163e-08 1.329682e-08 8.883674e-09 9.846412e-08
7.471234e-08 -4.074537e-08 -3.596432e-08 1.002954e-08 1.163761e-08 9.313273e-08
7.913387e-08 -4.295003e-08 -2.983245e-08 1.649962e-08 1.246874e-08 1.069010e-07
7.947935e-08 -4.645048e-08 -4.064534e-08 1.172628e-08 5.987994e-09 9.521284e-08
1.141551e-07 -6.032012e-08 -4.200272e-08 2.559906e-08 9.616304e-09 1.265338e-07
1.138734e-07 -7.020906e-08 -4.121322e-08 2.010111e-08 1.444663e-08 1.321754e-07
1.481143e-07 -6.956551e-08 -5.505958e-08 3.291631e-08 1.657343e-08 1.066125e-07
5.055188e-08 -4.468308e-08 -1.891566e-08 1.682254e-08 1.755259e-08 1.181690e-07
7.990994e-08 -4.529693e-08 -3.593605e-08 1.805730e-08 2.163163e-08 1.278839e-07
9.831544e-08 -5.443750e-08 -3.299488e-08 3.188576e-08 2.176814e-08 1.384359e-07
1.090266e-07 -4.090043e-08 -3.799597e-08 2.565364e-08 1.583803e-08 8.903764e-08
1.384235e-07 -4.054972e-08 -5.464889e-08 2.650906e-08 2.004156e-08 1.060533e-07
1.109229e-07 -4.754123e-08 -3.923837e-08 1.144776e-08 2.428656e-08 1.246292e-07
1.233814e-07 -6.963760e-08 -4.386055e-08 2.741138e-08 1.676375e-08 1.477596e-07
1.246796e-07 -8.710080e-08 -2.910528e-08 1.760052e-08 2.222503e-08 1.614161e-07
1.688875e-07 -8.398631e-08 -5.639204e-08 3.215760e-08 2.049212e-08 1.273691e-07
1.192142e-07 -6.250704e-08 -4.149013e-08 2.800423e-08 1.314283e-08 1.462399e-07
1.316016e-07 -5.895606e-08 -4.285621e-08 -9.043957e-09 -2.157948e-09 1.471999e-07
1.406363e-07 -4.629388e-08 -4.360034e-08 2.267766e-09 6.352482e-09 1.521720e-07
1.139571e-07 -5.892348e-08 -4.098730e-08 1.068217e-08 2.173198e-08 1.493842e-07
1.601247e-07 -5.779105e-08 -4.941867e-08 3.241810e-08 2.433001e-08 1.261767e-07
1.618265e-07 -6.695026e-08 -6.080611e-08 3.096489e-08 1.000765e-08 1.192920e-07
1.184935e-07 -6.020696e-08 -3.645957e-08 8.002546e-09 2.322974e-08 1.445377e-07
1.738573e-07 -4.663064e-08 -4.357805e-08 1.910331e-08 2.487491e-08 1.301581e-07
1.522371e-07 -5.869929e-08 -4.248043e-08 3.987856e-08 2.818160e-08 1.297891e-07
1.151986e-07 -6.315865e-08 -3.198901e-08 1.719650e-08 1.417770e-08 1.289379e-07
8.822165e-08 -5.350723e-08 -3.173107e-08 2.968559e-08 1.878515e-08 1.257481e-07
9.057195e-08 -6.554288e-08 -3.727585e-08 -6.227135e-09 1.028035e-08 1.075068e-07
1.044988e-07 -7.705408e-08 -1.428533e-08 1.821073e-08 2.365723e-08 1.396199e-07
1.278790e-07 -8.527365e-08 -2.082498e-08 2.159873e-08 1.514991e-08 1.356345e-07
1.102878e-07 -7.359818e-08 -1.905313e-08 2.020343e-08 5.844267e-09 1.267344e-07
1.190479e-07 -6.312894e-08 -4.313448e-08 2.766680e-08 1.448558e-08 1.471136e-07
1.742371e-07 -6.290634e-08 -5.585947e-08 2.129512e-08 1.339788e-08 1.303467e-07
1.761489e-07 -6.108427e-08 -5.865046e-08 1.864841e-08 8.509752e-09 1.319027e-07
5.829022e-08 -4.820967e-08 -1.735196e-08 1.060399e-08 7.314410e-09 1.349429e-07
5.568117e-08 -4.485948e-08 -2.364496e-08 -1.178585e-09 -4.376897e-09 1.029697e-07
4.904675e-08 -6.324669e-08 -2.053526e-08 -3.260668e-08 -6.241736e-10 1.228924e-07
1.045419e-07 -6.154875e-08 -3.454758e-08 2.509430e-08 1.733979e-08 1.170974e-07
9.674818e-08 -4.510843e-08 -3.467810e-08 -1.838129e-09 1.077301e-08 1.158991e-07
3.102762e-08 -4.461974e-08 -1.917508e-09 -1.255104e-09 1.511199e-08 1.406422e-07
3.935599e-08 -5.793267e-08 -1.769868e-08 1.171483e-08 2.986453e-08 1.482483e-07
2.677318e-08 -4.084417e-08 -1.762258e-08 2.203807e-08 3.201195e-08 1.476360e-07
2.669063e-08 -4.539578e-08 -1.640450e-08 2.140074e-08 3.069786e-08 1.475554e-07
1.692766e-08 -6.228996e-08 1.095919e-08 7.478637e-09 1.465435e-08 1.908255e-07
6.555061e-08 -6.012068e-08 -2.005860e-08 4.196017e-08 2.323181e-08 1.470768e-07
1.022330e-07 -6.778775e-08 -2.011307e-08 2.650182e-08 2.398743e-08 1.474354e-07
2.180269e-07 -1.043293e-07 -2.405222e-08 3.150021e-08 5.299004e-08 2.075119e-07
2.133817e-07 -6.487359e-08 -1.857203e-08 1.124536e-07 3.429201e-08 1.931740e-07
2.507764e-07 -4.739388e-08 -2.985136e-08 2.447507e-07 3.983882e-08 1.230446e-07
2.340651e-07 -1.132230e-07 -3.494473e-08 8.341872e-09 3.895997e-08 2.002721e-07
3.114213e-07 -1.174447e-07 -2.991488e-08 -1.318846e-08 3.326826e-08 1.224841e-07
3.120150e-07 -1.805049e-07 4.087206e-10 -4.826838e-10 7.230260e-09 1.391118e-07
7.140868e-08 -7.448879e-08 -9.634901e-09 1.600464e-08 -7.500500e-10 1.557713e-07
9.297942e-08 -8.095973e-08 2.899689e-09 8.396265e-09 -6.200880e-09 1.265012e-07
1.321228e-07 -8.212455e-08 -3.297341e-08 7.167814e-09 2.690269e-10 1.317216e-07
1.575941e-07 -1.113769e-07 5.365174e-08 1.188192e-08 2.575646e-08 1.969939e-07
1.507999e-07 -1.800931e-07 7.458408e-08 -1.392380e-08 2.510966e-08 2.045393e-07
1.583087e-07 -1.490961e-07 5.538667e-08 1.989994e-09 4.145486e-09 1.890781e-07
5.677072e-08 -7.422602e-08 5.139160e-08 5.122809e-10 -4.496618e-09 2.521367e-07
8.470944e-08 -7.247291e-08 2.178864e-08 2.051267e-08 1.130478e-09 2.186392e-07
1.675653e-07 -8.687229e-08 2.386731e-08 -6.582292e-09 6.993338e-10 2.010966e-07
1.674049e-07 -9.880160e-08 -3.504820e-08 4.010251e-09 1.405637e-08 1.678961e-07
1.751410e-07 -1.161045e-07 -1.857907e-08 -1.274796e-08 1.209374e-08 1.459941e-07
2.381598e-07 -1.367886e-07 -2.322638e-08 -5.190382e-09 -9.488391e-09 1.881669e-07
1.751153e-07 -7.357156e-08 -4.474639e-08 -8.318493e-09 -1.022731e-08 1.393743e-07
1.471589e-07 -3.721466e-08 -4.738521e-08 -2.420224e-08 -3.906840e-09 1.480335e-07
2.386353e-07 -8.566859e-08 -5.776900e-08 6.359732e-10 -3.059016e-08 1.829061e-07
1.333080e-07 -9.814588e-08 4.436706e-08 9.982182e-09 -1.415668e-09 1.707344e-07
9.931139e-08 -8.469110e-08 3.638092e-08 1.529428e-08 -1.633836e-08 1.946023e-07
1.576822e-08 -3.566354e-08 3.588289e-08 -2.477418e-08 7.477630e-09 1.376780e-07
1.126555e-07 -6.262341e-08 -6.557712e-09 3.824677e-09 1.711442e-08 2.085166e-07
1.294107e-07 -6.056185e-08 -4.981362e-08 3.610978e-08 2.787922e-08 1.565912e-07
2.301664e-07 -5.957465e-08 -4.145589e-08 -8.081370e-09 2.395269e-08 2.156123e-07
3.481286e-08 -6.994686e-08 -8.361941e-09 -1.316655e-08 4.645604e-08 1.545960e-07
4.047357e-08 -6.418122e-08 1.629966e-08 1.492067e-08 2.455366e-08 1.355261e-07
4.091840e-08 -6.178040e-08 -2.972856e-08 1.388668e-08 3.814666e-08 1.294272e-07
1.578537e-07 -7.627679e-08 -5.020022e-08 2.465947e-08 2.531662e-08 1.557965e-07
1.580663e-07 -8.608595e-08 -6.019503e-08 1.696602e-08 8.051318e-09 1.309681e-07
2.118270e-07 -8.864154e-08 -4.152295e-08 1.501761e-08 2.255553e-08 2.167213e-07
2.185399e-07 -1.053149e-07 -5.047912e-08 4.229986e-09 3.210111e-08 1.902075e-07
1.292921e-07 -9.869242e-08 -1.854450e-08 1.136675e-09 1.424315e-08 1.766669e-07
1.389456e-07 -1.044667e-07 -1.729529e-08 -5.450756e-10 2.336814e-08 1.667175e-07
2.061117e-07 -1.041906e-07 -4.459153e-08 3.777933e-09 2.359552e-08 1.664766e-07
1.840092e-07 -8.986151e-08 -4.803273e-08 4.365760e-08 2.509611e-08 1.487688e-07
2.245990e-07 -9.678468e-08 -4.238752e-08 3.241209e-08 4.051871e-08 2.223419e-07
2.033334e-07 -8.909340e-08 -3.943966e-08 2.792845e-08 2.129365e-08 2.007296e-07
1.915521e-07 -1.047884e-07 -1.395887e-08 5.601126e-09 2.760532e-08 1.860472e-07
4.993653e-08 -5.403822e-08 -1.047636e-08 8.472741e-09 -7.283125e-09 1.666038e-07
4.201056e-08 -3.540376e-08 -4.803081e-09 -2.738819e-08 -1.269237e-08 1.613741e-07
4.477227e-08 -7.376936e-08 -5.139287e-09 -1.660616e-08 -5.399539e-09 1.568585e-07
2.848663e-07 -1.506423e-07 5.128633e-08 1.208580e-08 -2.465551e-08 5.702360e-08
3.311822e-07 -1.716000e-07 3.080838e-08 -3.818061e-08 1.783161e-09 1.667887e-07
4.056499e-07 -1.790582e-07 3.250102e-08 7.607980e-09 7.005670e-09 9.111114e-08
2.508312e-07 -1.475922e-07 7.868546e-08 -1.086360e-08 3.771272e-08 2.332992e-07
2.487512e-07 -9.610878e-08 7.774691e-08 1.087523e-07 8.585842e-08 2.317172e-07
2.890762e-07 -1.016168e-07 8.403073e-08 2.218758e-07 7.862186e-08 1.871437e-07
1.750676e-07 -1.934979e-07 2.579533e-07 -1.390207e-08 1.194657e-08 1.988771e-07
2.305919e-07 -2.046576e-07 3.157701e-07 -3.954822e-08 1.718111e-08 1.278472e-07
1.798262e-07 -1.558539e-07 2.765818e-07 -4.273736e-08 -6.553736e-09 7.854555e-08
5.186309e-08 -7.060878e-08 8.015737e-09 -1.878555e-08 5.477920e-08 8.744368e-08
5.517531e-08 -7.348098e-08 5.263516e-08 -2.848215e-09 1.471992e-08 7.445239e-08
3.545284e-08 -7.135826e-08 1.301180e-08 1.898222e-08 2.405740e-08 3.009284e-08
2.282277e-07 -1.316267e-07 1.013124e-08 -4.238096e-08 1.626176e-08 1.055768e-07
2.967562e-07 -1.556317e-07 -1.549281e-08 -4.923690e-08 -1.616502e-08 1.321121e-07
3.200815e-07 -2.028135e-07 2.617344e-08 -5.697807e-08 2.854990e-08 1.849136e-07
1.799181e-07 -1.149421e-07 1.337925e-07 -4.672466e-08 3.637746e-08 8.182596e-08
6.107644e-08 -1.121587e-07 1.231231e-07 1.487369e-08 -1.350465e-08 1.357879e-07
-3.479579e-09 -4.659988e-08 1.005414e-07 -6.075111e-09 2.407188e-08 6.771347e-08
1.984549e-07 -1.097651e-07 -8.682881e-09 -2.703119e-08 2.540464e-08 8.169830e-08
1.988537e-07 -4.557730e-08 -1.256338e-08 -2.168572e-08 1.844791e-08 8.158236e-08
2.585469e-07 -1.051331e-07 -2.083435e-08 -2.516364e-08 -2.143801e-08 1.124884e-07
8.258138e-08 -1.036137e-07 5.149318e-08 -2.062809e-08 -9.195138e-09 1.740331e-07
6.598554e-08 -8.174486e-08 5.142052e-08 -6.692861e-09 -3.846252e-08 1.870015e-07
6.080574e-08 -4.233974e-08 6.385460e-08 -2.940152e-08 3.855583e-10 1.863500e-07
6.790442e-08 -7.468105e-08 1.277871e-07 -9.112619e-09 -3.275591e-08 2.174352e-07
8.803360e-08 -8.380167e-08 1.685729e-07 1.581361e-09 -3.807078e-08 1.858045e-07
1.671515e-07 -1.150862e-07 1.639255e-07 -3.355139e-08 -5.013406e-08 1.715572e-07
1.235038e-07 -1.049600e-07 1.355607e-07 -6.647111e-08 3.174090e-08 9.706439e-08
5.111345e-08 -9.764000e-08 1.469995e-07 1.323151e-08 -4.042349e-08 1.225782e-07
3.846603e-08 -1.219740e-08 1.594123e-07 -4.384493e-08 5.793713e-08 1.284202e-07
3.049064e-07 -1.668975e-07 1.463376e-07 7.632189e-09 5.834657e-08 1.146892e-08
2.776627e-07 -8.574442e-08 1.467556e-07 3.344773e-08 7.018930e-08 8.420384e-09
2.750927e-07 -1.208111e-07 1.697348e-07 1.368738e-07 4.831812e-08 -3.231867e-08
2.900034e-07 -1.054434e-07 4.959334e-09 -5.987356e-08 5.158530e-09 -1.245134e-07
2.902178e-07 -1.068389e-08 9.255720e-09 -6.441023e-08 8.715887e-08 -1.280066e-07
2.139618e-08 -1.765089e-08 1.121404e-07 -1.754001e-08 5.810775e-08 -3.462588e-08
1.580278e-07 -6.826201e-08 1.252809e-07 -4.383245e-08 7.397430e-08 -1.097169e-07
1.620806e-07 -7.237143e-08 1.414254e-07 -2.507275e-08 2.643120e-09 -1.194986e-07
1.502346e-07 -8.187663e-08 1.185497e-07 -9.369057e-09 1.745829e-08 -1.422307e-07
1.701740e-07 -7.096222e-08 2.451516e-07 -3.631765e-08 -6.246856e-08 3.470314e-08
2.588239e-07 -1.611363e-07 1.707757e-07 -6.698940e-09 2.523277e-08 -2.688059e-08
3.170283e-07 -1.943991e-07 1.638318e-07 1.333917e-08 9.957434e-09 -1.544473e-08
3.794424e-07 -1.937308e-07 1.173851e-07 -2.091040e-08 2.884390e-08 -7.931474e-10
5.142961e-07 -1.939072e-07 1.673432e-07 -1.910117e-08 3.001009e-08 -1.068108e-07
5.393264e-07 -2.043891e-07 1.116575e-07 -2.981474e-08 5.329170e-09 -1.226895e-07
3.867322e-07 -2.171537e-07 1.538119e-07 -2.792884e-08 -5.207472e-09 -3.940608e-08
3.784002e-07 -2.298434e-07 1.483818e-07 -1.174812e-07 -1.353803e-08 -1.031111e-07
3.830787e-07 -1.410942e-07 -1.652488e-07 -9.030832e-08 8.942332e-08 -1.112975e-07
2.065648e-07 -3.488576e-07 6.455191e-07 -3.042416e-08 1.395998e-07 -2.588810e-07
4.320782e-07 -3.725214e-07 6.457318e-07 -1.832208e-07 1.344476e-07 -3.323668e-07
2.990264e-07 -4.175360e-07 7.756254e-07 -8.504158e-08 2.923423e-07 -4.412901e-07
4.647521e-07 -2.928194e-07 4.891083e-07 -1.614152e-07 1.576018e-07 -3.892034e-07
4.029971e-07 -4.167027e-07 5.344616e-07 -2.510291e-07 6.487966e-08 -4.375091e-07
6.221111e-07 -4.368351e-07 4.660709e-07 -2.601573e-07 2.565195e-08 -4.976729e-07
1.009767e-07 2.780639e-08 2.615904e-07 -1.049948e-07 2.492129e-07 -3.763101e-07
7.718935e-08 -5.279546e-08 3.632311e-07 -1.505958e-07 1.955287e-07 -3.900567e-07
4.436588e-07 3.217594e-08 3.477340e-07 -3.516838e-07 2.348991e-07 -4.224708e-07
3.069150e-07 -1.687223e-07 3.781705e-07 -1.415151e-07 5.758601e-08 -1.049540e-07
4.213873e-07 -1.606535e-07 8.686794e-08 -1.719405e-07 2.868351e-08 -6.001462e-09
4.356535e-07 -2.075850e-07 1.165082e-07 -1.834496e-07 3.745980e-08 -2.696969e-08
3.999765e-08 -1.924111e-07 2.079182e-07 -6.786412e-08 6.607544e-08 2.407400e-08
3.093530e-07 -2.203806e-07 1.583062e-07 -1.397420e-07 8.982341e-08 -1.290941e-07
2.850327e-07 -1.854504e-07 1.269582e-07 -1.134602e-07 7.432089e-08 -9.970142e-08
8.523545e-08 -1.403136e-07 2.776713e-07 -1.774814e-08 -1.194422e-10 -3.307171e-08
6.722922e-08 2.647472e-08 2.842528e-07 -9.698293e-08 1.767020e-07 -1.674657e-08
1.704430e-07 -5.763329e-08 1.447067e-07 -1.940219e-07 4.699965e-08 -5.232485e-08
3.149405e-07 -2.721102e-07 4.676334e-07 -1.697044e-07 -4.845377e-08 -7.805981e-08
4.213081e-07 -4.267232e-07 3.534444e-07 -1.659487e-07 3.202458e-08 1.684264e-08
4.207128e-07 -2.780170e-07 1.007199e-07 -1.576871e-07 1.588618e-08 -4.336816e-10
4.580884e-07 -6.164530e-08 -7.731509e-09 -9.997177e-08 -6.272860e-08 -1.563128e-07
3.860660e-07 -1.604424e-07 5.995542e-08 2.828426e-09 2.295874e-09 -2.861059e-07
6.062749e-07 -1.438694e-07 1.330699e-08 -7.686200e-08 2.511841e-08 -2.830423e-07
5.486753e-07 -4.306620e-07 4.382272e-07 -1.851356e-07 1.682362e-07 -3.954798e-07
4.023580e-07 -2.919909e-07 4.158167e-07 -1.789100e-07 1.788448e-07 -2.870535e-07
3.769766e-07 -4.227581e-07 4.270902e-07 -6.393688e-08 1.644702e-07 -3.056094e-07
5.985781e-07 -4.080828e-07 3.780022e-07 -1.437313e-07 1.911707e-07 -3.068042e-07
5.650329e-07 -2.736760e-07 3.742424e-07 -1.173534e-07 1.812741e-07 -3.219298e-07
5.255192e-07 -3.807430e-07 4.631503e-07 -1.838611e-07 9.888511e-08 -3.565535e-07
4.341742e-07 -3.880956e-07 4.546024e-07 -9.045477e-08 8.339633e-08 -3.221886e-07
5.194036e-07 -4.607996e-07 4.681082e-07 -1.438874e-07 1.874042e-07 -3.878963e-07
3.877333e-07 -2.719560e-07 4.521848e-07 -2.205762e-07 1.152907e-07 -3.803902e-07
5.253638e-07 -2.495505e-07 3.350898e-07 -2.775357e-07 1.238674e-07 -3.728111e-07
4.152705e-07 -2.488323e-07 9.991889e-07 -2.672092e-07 1.692833e-07 -4.753751e-07
2.437805e-07 2.177543e-08 2.379432e-07 -8.458587e-08 2.020356e-07 5.385483e-08
2.192701e-07 -6.238949e-08 2.679157e-07 -1.304573e-07 1.274697e-07 2.007709e-08
2.902654e-07 -6.225239e-08 1.112849e-07 -2.110620e-07 1.568586e-08 1.291939e-08
1.701301e-07 -1.250955e-07 7.217589e-07 5.606937e-10 -6.618652e-10 -5.755358e-07
1.979400e-07 -8.953133e-08 3.458063e-07 -2.546038e-08 5.825704e-10 -4.588665e-07
2.214295e-07 -7.691543e-08 4.850394e-07 -6.530835e-09 -6.850289e-08 -5.282519e-07
2.192722e-07 -1.370308e-07 7.099193e-07 -1.791932e-08 -5.378989e-08 -5.256305e-07
1.848140e-07 -2.152657e-08 8.158151e-07 -2.460951e-08 2.474967e-07 -5.306286e-07
1.847531e-07 -7.267232e-08 7.122351e-07 -2.775449e-08 -2.215229e-08 -5.604212e-07
1.993001e-07 -5.435199e-08 5.741725e-07 2.936880e-08 9.047670e-08 -3.081408e-07
1.714810e-07 -2.561902e-09 6.724649e-07 -2.724612e-08 2.149156e-07 -5.783547e-07
3.713004e-07 -1.508925e-07 6.999003e-07 -1.484976e-07 2.361549e-08 -3.406101e-07
2.135661e-07 -1.870758e-07 8.716446e-07 -6.323166e-08 1.427376e-07 -4.652502e-07
1.282897e-07 -1.029467e-07 8.169747e-07 -9.330575e-08 6.996403e-08 -3.329587e-07
1.459941e-07 -2.141834e-07 1.270291e-06 -4.469055e-07 4.393532e-07 -9.945720e-07
5.328740e-07 -2.233474e-07 1.081826e-06 -6.495253e-07 5.683298e-07 -9.566317e-07
3.509492e-07 -2.903161e-07 1.134986e-06 -5.369627e-07 5.159787e-07 -8.424795e-07
3.362640e-07 -2.527720e-07 1.112543e-06 -3.791565e-07 1.189722e-07 -5.256564e-07
3.635180e-07 -2.460754e-07 6.567835e-07 -4.189143e-07 1.375767e-07 -3.106133e-07
3.755131e-07 -2.843339e-07 4.806234e-07 -4.378117e-07 2.683073e-08 -3.098154e-07
3.344736e-07 -3.095726e-07 1.366919e-06 -4.119460e-07 2.481928e-07 -1.235258e-06
5.708351e-07 -3.428950e-07 1.202264e-06 -6.750866e-07 3.904314e-07 -1.124001e-06
6.887436e-07 -4.952569e-07 1.372660e-06 -6.065914e-07 3.819547e-07 -1.279589e-06
3.562228e-07 -4.890969e-07 1.624997e-06 -4.721563e-07 4.589503e-07 -1.044461e-06
3.589511e-07 -2.903961e-07 1.716130e-06 -5.053099e-07 1.068126e-06 -1.075532e-06
4.453632e-07 -7.409657e-07 1.990462e-06 -2.689806e-07 6.869509e-07 -1.229930e-06
3.418596e-07 -3.297817e-07 1.109122e-06 -3.752209e-07 4.495457e-08 -5.020607e-07
2.151771e-07 -4.995969e-07 1.158567e-06 -5.230277e-07 1.148768e-07 -4.287914e-07
3.972923e-07 -4.975732e-07 6.725722e-07 -4.828079e-07 8.219615e-08 -2.872748e-07
6.518642e-08 -1.074181e-08 4.489191e-07 -1.436701e-07 5.721052e-08 -2.550920e-07
6.746116e-08 1.235315e-07 4.583888e-07 -1.256977e-07 4.538425e-07 -2.143353e-07
2.285076e-07 1.561304e-07 1.105464e-07 -3.134870e-07 2.049825e-07 -2.193192e-07
1.707947e-07 1.727081e-07 5.070487e-07 -4.885070e-07 4.642017e-07 -7.751605e-07
-2.295399e-07 -3.083694e-08 8.342908e-07 -1.910785e-07 3.226350e-07 -6.891000e-07
-9.920866e-08 1.092774e-07 6.191225e-07 -5.039458e-08 3.767410e-07 -5.839916e-07
1.826232e-07 -1.567681e-07 1.266429e-06 -4.034982e-07 4.220433e-07 -9.249698e-07
1.528624e-07 -2.028825e-07 1.250730e-06 -3.568850e-07 4.940412e-07 -9.567763e-07
1.444888e-07 -3.030114e-10 1.265275e-06 -4.481473e-07 5.606331e-07 -1.005840e-06
1.377197e-07 -1.505526e-07 8.232111e-07 -4.148265e-07 2.865373e-07 -2.060885e-07
1.542374e-07 -1.709339e-07 1.004436e-06 -4.286262e-07 3.517500e-07 -2.623476e-07
2.208825e-07 -1.508298e-07 4.301336e-07 -4.656926e-07 2.410524e-07 -1.030465e-07
5.167442e-07 6.808599e-08 2.948215e-07 -2.674526e-07 6.110472e-07 -1.386317e-06
5.415669e-07 -9.706392e-08 7.609800e-07 -1.485221e-07 1.547064e-07 -1.494487e-06
4.875746e-07 -1.888837e-07 7.271510e-07 -6.624374e-08 2.512524e-07 -1.617550e-06
5.098488e-07 -2.606903e-07 4.313368e-07 -3.594907e-07 2.178228e-07 -3.479781e-07
1.622879e-07 -3.127230e-07 4.492615e-07 -1.858654e-07 1.675578e-07 -3.043908e-07
3.190763e-07 -2.375900e-07 3.625707e-07 -3.697116e-07 1.319947e-07 -3.915540e-07
3.351302e-07 -3.677783e-07 1.477070e-06 -4.408519e-07 7.588952e-07 -8.059840e-07
3.623061e-07 -2.842771e-07 1.731272e-06 -5.007578e-07 1.030691e-06 -1.100793e-06
2.833635e-07 8.567922e-08 2.494059e-07 -4.350891e-07 1.077563e-06 -7.253299e-07
2.259288e-07 1.468321e-07 3.886430e-07 -2.426707e-07 3.783783e-07 -2.025008e-07
8.206222e-08 2.338068e-08 5.361270e-07 -3.856241e-07 3.183128e-07 -3.339358e-07
2.200532e-07 3.046746e-08 3.889769e-07 -4.652633e-07 5.568069e-08 -1.173256e-07
3.743812e-07 -4.077418e-07 1.136075e-06 -7.022448e-07 4.574587e-07 -8.368318e-07
4.425536e-07 -3.951531e-07 1.064151e-06 -8.064644e-07 4.476726e-07 -1.007209e-06
2.485352e-07 -4.485230e-07 1.626335e-06 -9.353456e-07 2.880066e-07 -1.043662e-06
-1.204659e-06 9.548569e-08 3.311881e-06 -5.588053e-07 8.942877e-07 -1.780017e-06
-5.680543e-07 3.358764e-07 1.948354e-06 -9.500631e-07 2.432515e-06 -4.331329e-06
-6.149377e-07 -3.014248e-07 5.733958e-06 -7.668329e-07 7.509373e-07 -3.629531e-06
1.638483e-08 2.647290e-07 9.649882e-07 -7.036786e-07 7.419511e-07 -6.293877e-07
7.277644e-08 5.392803e-08 1.410272e-06 -7.462618e-07 8.413658e-07 -7.881568e-07
-1.535970e-07 5.880388e-08 6.454173e-08 -7.634859e-07 9.306943e-07 -1.782042e-07
-7.674271e-08 4.495396e-07 9.331045e-07 -4.938747e-07 7.133898e-07 -7.767113e-07
-4.184582e-07 2.072536e-07 1.026935e-06 -2.051821e-07 5.938666e-07 -6.156625e-07
-2.076634e-07 2.666587e-07 6.444273e-07 -3.845289e-08 5.227504e-07 -4.684795e-07
-3.684344e-08 2.881479e-07 1.015134e-06 -6.037527e-07 6.971047e-07 -6.898304e-07
-9.843775e-08 1.977401e-07 1.232723e-06 -5.048661e-07 7.041923e-07 -5.967946e-07
-3.789438e-07 8.699478e-08 2.161833e-06 -3.234570e-07 1.191447e-06 -1.168722e-06
1.501525e-07 3.069523e-07 4.294646e-07 -4.067474e-07 6.689173e-07 -4.847894e-07
-1.040717e-07 6.810544e-08 6.933824e-07 -6.867065e-08 5.234065e-07 -5.600432e-07
-1.053313e-07 2.710336e-07 6.339909e-07 -6.433509e-08 8.293739e-07 -5.269714e-07
2.753975e-07 -7.110738e-08 1.072567e-06 -5.984099e-07 3.928765e-07 -1.058379e-06
1.864284e-07 -2.749358e-07 1.214033e-06 -6.761179e-07 2.365662e-07 -9.665716e-07
1.986668e-07 -3.595436e-07 1.681011e-06 -7.519440e-07 5.167784e-07 -1.049916e-06
-8.809488e-08 3.082403e-07 8.728819e-07 -4.803831e-07 5.733962e-07 -4.859742e-07
-9.197732e-08 2.386256e-07 6.596861e-07 -5.275890e-07 6.322074e-07 -5.493820e-07
7.508814e-08 2.979948e-07 8.337088e-07 -6.280796e-07 4.687785e-07 -3.016610e-07
3.509306e-08 3.322967e-07 7.900436e-07 -3.574544e-07 5.487926e-07 -3.781638e-07
-1.179918e-07 2.664393e-07 1.233803e-06 -5.068621e-07 5.050953e-07 -6.608982e-07
-8.380254e-08 3.125731e-07 9.155021e-07 -5.603033e-07 4.342211e-07 -4.699855e-07
3.522049e-07 3.136560e-07 6.574520e-07 -2.875641e-07 5.986031e-07 -5.820873e-07
-4.297926e-08 2.355686e-07 9.913694e-07 -4.744845e-07 6.537275e-07 -5.897110e-07
6.606629e-07 9.931994e-08 -4.130457e-07 -6.422927e-07 1.028552e-06 -1.504951e-06
8.025842e-07 -3.212189e-07 1.384292e-06 -7.465847e-07 9.140513e-07 -2.087240e-06
8.648989e-07 -5.110168e-07 1.427236e-06 -7.347743e-07 9.108184e-07 -2.034971e-06
-1.753229e-07 4.571652e-07 4.340950e-06 -5.552307e-07 3.708218e-06 -3.315510e-06
-1.309331e-07 8.310577e-08 3.805468e-06 -3.901709e-07 9.076439e-07 -3.627349e-06
-1.161962e-07 -4.331327e-07 5.013525e-06 -3.394699e-07 3.175472e-07 -3.376735e-06
-5.841542e-07 -3.004624e-07 2.658306e-06 1.011322e-07 2.282962e-06 -1.401092e-06
1.685718e-07 -1.330858e-08 1.294926e-06 -3.659357e-07 3.877359e-06 -3.727412e-06
1.699935e-07 1.198701e-06 -1.090961e-06 -3.583648e-08 3.818286e-06 -3.283755e-06
7.424461e-07 -2.025298e-07 2.127963e-06 -9.775746e-07 1.512570e-06 -2.175363e-06
3.233209e-07 -2.178112e-07 3.142181e-06 -1.093798e-06 1.387190e-06 -2.154475e-06
5.675407e-07 -5.573695e-07 3.011185e-06 -1.094714e-06 1.602571e-06 -2.116854e-06
-4.748655e-07 -2.226272e-09 2.783454e-06 -4.272908e-07 1.382011e-06 -7.868479e-07
-2.668605e-07 1.494446e-07 1.575143e-06 -6.089563e-07 7.857340e-07 -2.571975e-07
-3.735891e-07 1.067562e-07 1.754742e-06 -6.886843e-07 7.055499e-07 -2.889407e-07
-3.272667e-07 3.841680e-07 1.138980e-06 -6.250528e-07 9.319037e-07 -4.472972e-07
-3.365078e-07 -3.463756e-07 1.129419e-06 -3.497313e-07 7.614411e-07 -4.364942e-07
-4.264324e-07 -6.124282e-08 1.386292e-06 -5.744725e-07 1.181587e-06 -4.566298e-07
-7.247693e-07 3.542773e-07 2.575131e-06 -9.647110e-07 1.220132e-06 -1.089402e-06
-8.015724e-07 5.332243e-07 2.059830e-06 -9.033341e-07 1.391590e-06 -1.288471e-06
-1.142802e-06 5.615915e-07 2.514426e-06 -8.323362e-07 1.269926e-06 -1.406220e-06
-1.929483e-07 3.180118e-07 9.135615e-07 -9.676626e-09 6.929042e-07 -3.891275e-07
-1.709815e-07 -6.382783e-09 1.016047e-06 8.184643e-08 7.168397e-07 -3.252969e-07
1.865452e-08 2.516882e-07 1.371755e-06 -1.863856e-07 1.030764e-06 -6.998734e-07
-5.396030e-07 9.672126e-07 1.024563e-06 -4.268205e-07 1.811592e-06 -5.819385e-07
-6.574661e-07 9.421933e-07 8.413040e-07 -3.724512e-07 1.743856e-06 -4.345481e-07
-3.189692e-07 9.371041e-07 1.934218e-07 -4.443918e-07 1.861643e-06 -4.478949e-07
-3.717871e-07 8.324703e-07 1.023616e-06 -2.994170e-07 9.974398e-07 -3.366241e-07
-2.807364e-07 1.964835e-07 1.061389e-06 -5.208489e-08 8.465718e-07 -1.605915e-07
-5.307401e-08 2.445058e-09 1.045824e-06 3.326822e-08 6.699983e-07 1.132570e-07
-7.236143e-07 8.641563e-07 1.027989e-06 -8.036312e-07 3.884084e-06 -1.772016e-06
-7.223241e-07 -2.171261e-07 3.885126e-06 -8.907482e-07 4.134286e-06 -1.907490e-06
-1.173070e-06 -2.928399e-07 5.336800e-06 -6.551994e-07 3.733023e-06 -1.663769e-06
-4.968717e-07 1.649318e-06 -4.651030e-08 -1.214369e-07 4.804199e-06 -2.575742e-06
-5.851344e-07 1.529823e-07 4.769764e-06 -6.402517e-07 4.331417e-06 -3.414178e-06
-6.817399e-07 -4.750148e-07 3.523457e-06 2.669509e-08 2.989305e-06 -9.927501e-07
-9.292465e-07 1.473294e-07 5.311019e-06 -2.847105e-07 4.349505e-06 -2.905349e-06
-2.351268e-07 1.972359e-07 1.809797e-06 -5.751979e-07 3.513809e-06 -1.971221e-06
-5.429234e-07 1.005798e-06 1.262674e-07 -5.038557e-07 3.859832e-06 -1.182210e-06
-5.016469e-07 -1.023169e-07 5.103557e-06 -2.593619e-07 3.542363e-06 -1.806862e-06
-4.321751e-07 6.018545e-07 4.558806e-06 -3.781818e-07 5.214963e-06 -2.278703e-06
-6.060560e-07 8.311286e-07 4.749579e-06 -8.530919e-07 4.136426e-06 -2.422119e-06
-1.050205e-06 9.381254e-07 3.150790e-06 4.240520e-08 4.735082e-06 -7.717122e-09
-9.841949e-07 1.207077e-06 4.491611e-06 -6.629059e-07 5.424368e-06 -2.686723e-06
-8.254421e-07 6.655535e-07 1.036371e-06 -2.845512e-07 6.663235e-07 7.739346e-08
-9.773065e-07 5.865807e-07 1.434335e-06 -1.593314e-07 6.906091e-07 -9.869183e-08
-1.012397e-06 4.273397e-07 2.455302e-06 -2.579757e-07 7.672636e-07 -2.171032e-07
-8.639465e-07 1.177390e-06 1.482031e-06 -3.087293e-07 2.145579e-06 -2.251045e-07
-1.008290e-06 1.109912e-06 1.728500e-06 -4.162499e-07 2.198197e-06 -2.003954e-07
-9.019868e-07 9.866145e-07 1.890505e-06 -4.237924e-07 2.108396e-06 -3.617067e-07
-1.267203e-06 1.741740e-06 1.331832e-06 -3.563585e-08 5.452835e-06 -3.310742e-07
-1.317719e-06 3.297211e-07 6.446561e-06 -3.693869e-07 5.111314e-06 -7.957958e-07
-2.179002e-06 7.833274e-09 7.932142e-06 1.648967e-07 4.627539e-06 2.449377e-07
-1.309342e-06 1.499659e-06 1.779543e-06 -4.700217e-07 2.500838e-06 -6.254287e-07
-1.366395e-06 1.482069e-06 2.374164e-06 -5.018541e-07 2.599123e-06 -4.727452e-07
-2.178095e-06 1.004284e-06 3.209075e-06 1.275899e-07 2.151962e-06 2.646299e-07
-6.053574e-07 5.680887e-07 9.838910e-07 -1.469553e-07 7.378724e-07 -1.936113e-08
-2.438914e-07 2.600429e-08 9.107943e-07 -4.133438e-07 5.339620e-07 -1.617033e-07
-8.640167e-07 3.158094e-07 1.302709e-06 -1.903626e-07 8.840296e-07 -4.888003e-08
-3.337853e-07 1.815534e-06 3.852321e-07 8.210319e-07 1.805480e-06 4.218746e-07
-3.582472e-07 2.291931e-06 4.560935e-07 1.158393e-07 2.082044e-06 -2.970649e-07
-9.321624e-07 1.269477e-06 2.383527e-06 8.916290e-07 1.687266e-06 1.774316e-07
-3.080726e-07 1.376116e-06 2.787509e-06 -6.386804e-07 5.630088e-06 -1.774216e-06
-8.033485e-07 2.710827e-07 4.475563e-06 7.854386e-07 5.080428e-06 1.919944e-06
-1.571871e-07 1.175268e-06 2.857327e-06 -1.585667e-08 5.107022e-06 1.574602e-06
-3.657669e-07 6.092527e-07 7.732571e-07 -2.241440e-07 7.915560e-07 -1.469817e-07
-5.612136e-07 6.034489e-07 9.649407e-07 -5.404028e-07 8.797942e-07 -4.497962e-07
-5.071640e-07 7.315016e-08 1.023258e-06 -2.523075e-07 7.776224e-07 -2.661315e-07
-1.455624e-07 5.106199e-07 7.184036e-07 -8.874199e-08 8.651917e-07 -2.410797e-07
-1.773295e-07 1.953035e-07 6.949911e-07 1.838778e-08 9.569914e-07 -2.683518e-07
-1.486479e-07 -8.412741e-08 7.774875e-07 1.476519e-07 7.677094e-07 -3.173321e-07
-2.312043e-07 5.751165e-07 7.137015e-07 -1.064044e-07 6.995716e-07 7.976343e-08
-1.712521e-07 2.297690e-07 8.184044e-07 4.907003e-08 6.111977e-07 -9.076139e-09
7.100039e-08 -7.687816e-08 2.297213e-07 9.972833e-08 1.381756e-07 2.570389e-07
-1.869892e-07 9.372657e-07 2.108885e-07 -1.089887e-07 2.079791e-06 -5.425626e-07
-2.791404e-07 4.800378e-07 8.152873e-07 -3.191563e-07 2.249410e-06 -5.191125e-07
-2.439290e-07 -3.085985e-07 1.079494e-06 1.133270e-09 1.862315e-06 -8.789987e-08
-3.262295e-07 6.531038e-07 4.269034e-07 1.888270e-07 6.981490e-07 1.923332e-07
-3.630606e-07 6.904760e-07 6.740825e-07 2.408223e-07 5.837955e-07 1.391349e-07
-5.775558e-07 8.246996e-07 1.321826e-07 2.208290e-07 5.965291e-07 4.809117e-07
-3.061647e-07 5.152129e-07 5.692043e-07 1.160102e-07 6.031987e-07 1.343755e-07
-4.985339e-07 4.208535e-07 8.405754e-07 2.521408e-07 5.206354e-07 2.906716e-07
-3.563728e-07 4.023562e-07 6.647852e-07 2.071762e-07 4.633905e-07 1.700776e-07
-4.696988e-08 6.531308e-07 2.962036e-07 3.904405e-08 4.276538e-07 -8.267792e-08
2.554046e-08 5.248074e-07 3.377029e-07 2.912397e-07 3.736459e-07 -1.675652e-07
-1.702832e-07 8.297097e-07 -1.105221e-07 1.261684e-07 5.818502e-07 1.300523e-07
-4.685193e-07 6.632622e-07 3.451561e-07 2.155630e-07 6.177342e-07 3.715276e-07
-5.357471e-07 6.079877e-07 7.130888e-07 3.052815e-07 4.750565e-07 3.628676e-07
-5.677506e-07 7.261746e-07 8.868503e-07 3.159000e-07 3.074683e-07 3.936935e-07
-5.054790e-07 3.803134e-07 1.005937e-06 3.215182e-07 4.439805e-07 2.684590e-07
-4.962921e-07 8.400761e-07 6.221909e-07 4.272103e-07 9.890261e-07 2.690097e-07
-5.553272e-07 6.350711e-07 1.058892e-06 2.589430e-07 7.981455e-07 3.327624e-07
-3.657279e-07 4.572709e-08 9.282641e-07 3.234635e-07 6.239895e-07 2.156469e-07
-4.371360e-07 2.134533e-07 1.346892e-06 1.933798e-07 9.034939e-07 -9.125873e-08
-3.051036e-07 4.174278e-07 4.345908e-07 3.578090e-07 8.456220e-07 -1.159703e-07
-4.171467e-08 -4.593372e-08 2.768487e-07 3.488181e-08 6.096972e-07 -1.035051e-07
-4.711296e-08 -1.644083e-07 1.927902e-07 2.529024e-09 2.162504e-07 -1.461288e-07
-1.725216e-07 4.956928e-07 2.252104e-07 -1.502944e-08 5.003033e-07 -4.735852e-08
-5.775417e-07 1.534218e-08 1.859353e-06 2.657379e-08 1.456554e-06 9.088034e-07
-6.222852e-07 9.057981e-07 1.124092e-06 1.043576e-07 1.986396e-06 1.187772e-06
-6.027675e-07 3.001582e-07 2.878042e-06 9.200350e-08 1.965526e-06 1.373597e-06
-3.396625e-07 -1.470314e-07 5.827138e-07 -7.154754e-08 1.321480e-07 1.103334e-07
-3.647018e-07 1.596880e-07 7.453681e-07 5.085584e-08 4.435565e-07 1.281055e-07
-5.453984e-07 4.466862e-07 6.272836e-07 1.467543e-07 4.738969e-07 2.988790e-07
-2.888869e-07 2.909435e-07 6.829730e-07 4.435104e-08 4.341904e-07 1.787979e-07
-1.253006e-07 1.626676e-07 6.846155e-07 2.395800e-08 4.380464e-07 1.622834e-07
-9.891837e-08 -1.482128e-07 5.253775e-07 -7.735930e-08 1.216286e-07 1.575056e-07
-1.197566e-07 3.746150e-07 6.407053e-07 2.811998e-07 2.238839e-07 -1.327762e-07
-3.113758e-07 3.873396e-07 6.898898e-07 3.215874e-07 2.529967e-07 3.427375e-08
-2.656138e-07 6.041148e-07 5.427947e-07 4.933997e-07 4.662530e-07 2.366505e-08
-1.810263e-07 4.000072e-07 5.469106e-07 2.541545e-07 2.259992e-07 2.007163e-07
-1.462588e-07 2.913246e-07 4.621250e-07 2.028040e-07 -6.369221e-08 -1.375923e-07
-2.019563e-07 3.157818e-07 5.617450e-07 2.728939e-07 -9.124441e-09 9.413828e-08
-2.939018e-07 3.741322e-07 5.678488e-07 2.282794e-07 2.427751e-07 1.653947e-09
-1.972235e-07 5.956976e-07 4.635072e-07 3.748212e-07 5.032917e-07 1.639593e-07
-2.114831e-07 5.882940e-07 4.036171e-07 3.872814e-07 5.466843e-07 5.480802e-08
-3.227038e-07 2.392099e-07 8.057500e-07 2.034741e-07 -8.742813e-09 4.447059e-08
-2.915794e-07 2.445753e-07 3.390758e-07 4.011554e-07 -1.418348e-07 1.213663e-07
-2.818892e-07 3.798570e-07 6.379154e-07 3.649383e-07 2.177556e-07 2.703214e-08
-2.082731e-07 4.840900e-07 3.258520e-07 1.303596e-07 1.496453e-07 1.070399e-07
-2.782632e-08 3.214717e-07 1.934847e-07 3.232543e-07 2.964480e-07 -7.513715e-08
-4.594580e-08 5.171801e-07 1.539365e-07 2.784208e-07 4.424575e-08 8.437132e-08
-6.112957e-08 2.341093e-07 8.716369e-07 2.485921e-07 1.013421e-06 4.873915e-07
-2.282525e-07 5.520354e-08 9.610420e-07 3.059008e-08 5.696729e-07 2.554499e-07
-1.711045e-08 4.218682e-07 5.112430e-07 3.091018e-07 8.123299e-07 4.555934e-07
-3.084864e-08 2.200161e-07 9.180877e-07 2.462766e-07 9.663025e-07 5.587356e-07
-1.263848e-07 -1.371720e-07 4.301509e-07 -6.829639e-09 2.025804e-07 3.201002e-07
-1.051369e-07 4.303766e-07 7.532109e-07 2.331452e-07 9.117265e-07 4.074265e-07
-1.994037e-07 1.219752e-07 8.455902e-07 1.151681e-07 6.716493e-07 2.389149e-07
-3.632700e-08 8.116948e-08 1.020314e-06 1.338334e-07 5.714644e-07 5.534371e-07
-4.732958e-08 -1.585277e-07 4.144163e-07 2.264811e-07 3.058653e-07 -7.197034e-08
-1.048229e-07 8.694190e-08 2.192571e-07 8.655964e-08 2.692543e-07 1.148358e-07
-5.630147e-08 1.698486e-07 1.011914e-07 1.502775e-07 1.987783e-07 5.173419e-08
-3.751472e-08 -1.869776e-07 2.290018e-07 -7.636457e-08 -1.349922e-07 4.383595e-08
5.320678e-08 1.562225e-07 1.427596e-07 1.149451e-07 8.946356e-08 1.080445e-07
-9.634782e-08 1.977361e-07 1.588837e-07 1.544441e-07 6.335029e-08 7.568261e-08
-3.747241e-08 -1.010764e-07 3.000022e-07 -1.911154e-08 2.123217e-07 -1.120710e-07
-3.873694e-08 -1.975318e-07 2.213302e-07 -3.019861e-08 -1.116204e-07 -1.524621e-07
-1.050404e-07 2.385343e-07 1.872512e-07 -4.788675e-08 1.516375e-07 -4.940509e-08
-1.509534e-07 2.992372e-07 4.414866e-07 9.808518e-08 1.781327e-07 -1.715404e-07
-6.296039e-08 1.248262e-07 3.995441e-07 5.037151e-08 3.635547e-08 -1.242603e-07
-8.691958e-08 5.739227e-07 7.779471e-08 1.207086e-07 -7.626023e-08 -3.125917e-08
-1.143262e-07 2.726302e-07 4.088440e-08 2.019558e-07 7.422036e-08 6.723650e-09
-1.679186e-07 2.486613e-07 3.139586e-07 2.681287e-07 1.202898e-07 9.560126e-08
-7.020064e-08 2.161814e-07 2.797787e-07 2.460940e-07 7.198095e-08 -2.320790e-09
-3.553964e-08 7.380224e-08 7.271187e-08 7.948050e-08 -1.185076e-07 -4.083976e-08
2.813276e-08 4.468199e-08 6.655626e-08 5.820017e-08 -9.394109e-08 -5.686109e-08
-5.230079e-08 -7.551284e-08 4.009089e-08 -4.077744e-08 -1.869777e-07 -1.404629e-07
-8.137554e-08 -5.886530e-08 5.042720e-07 -1.094374e-09 1.432928e-08 8.321770e-08
-5.878291e-08 1.736267e-07 9.485131e-08 9.480772e-08 2.112954e-07 6.558324e-08
-3.250133e-08 8.572025e-08 1.830402e-07 8.011950e-08 2.760219e-07 1.388779e-07
-9.820815e-08 1.281131e-07 4.088403e-07 1.908735e-07 -1.598754e-07 -2.176481e-07
-1.931371e-07 1.581012e-07 3.985829e-07 2.153690e-07 -1.243506e-07 -1.110676e-07
-1.511027e-07 1.952103e-07 7.194764e-08 2.556562e-07 -1.877631e-07 -1.526922e-07
-1.352310e-08 -5.651342e-08 1.238568e-07 -1.043042e-08 -4.310678e-09 -1.399229e-07
-2.166326e-08 -7.596416e-08 5.061086e-08 -4.058157e-08 -1.841700e-07 -1.710046e-07
-8.618758e-08 1.042624e-07 1.158881e-07 9.069587e-10 -3.310483e-08 -6.881895e-08
-1.324155e-07 2.049537e-07 9.024584e-08 1.454252e-07 -5.313138e-08 -8.246986e-08
-1.370476e-07 1.037780e-07 1.157379e-07 -2.841286e-08 -9.575102e-08 -4.267061e-08
-9.267172e-08 3.004018e-07 7.624180e-08 1.157237e-07 -2.316975e-07 -5.187905e-08
-8.354211e-08 5.515086e-08 2.028630e-07 3.787966e-08 -2.159115e-07 -1.044350e-07
-7.489258e-08 5.548190e-08 2.371785e-07 2.504583e-08 -2.454338e-07 -8.702499e-08
-8.476913e-08 1.872033e-07 2.325954e-07 7.382909e-08 -2.448937e-07 -7.550554e-08
-1.006315e-07 1.341918e-07 3.632087e-07 1.038924e-07 -1.211371e-07 -1.680024e-07
-3.090236e-08 2.165752e-07 -2.239514e-08 1.849887e-07 -1.532861e-07 -1.362347e-07
-6.538814e-08 1.291538e-07 6.347765e-08 1.150114e-07 -1.307158e-07 -7.373674e-08
-6.577886e-08 1.103285e-07 5.226544e-08 8.297401e-08 -2.095396e-07 -1.365027e-07
-4.796633e-08 6.612969e-08 5.136440e-08 1.382608e-08 -1.958523e-07 -1.355956e-07
-2.670874e-08 2.918277e-07 -2.175910e-08 1.113842e-07 -2.716548e-07 -1.229570e-07
-5.915528e-08 6.343124e-08 3.738361e-08 4.829078e-08 -2.172378e-07 -1.916110e-07
-1.130561e-07 8.291351e-08 4.325527e-08 6.618917e-08 -2.038052e-07 -1.638285e-07
-3.503274e-08 5.673004e-08 2.327613e-08 5.541995e-08 -1.751050e-07 -1.212583e-07
-2.722138e-08 -1.750398e-08 1.788786e-08 6.992700e-09 -1.463052e-07 -8.737267e-08
-1.364970e-08 -1.053202e-08 1.642969e-08 -3.516323e-09 -1.240164e-07 -1.081248e-07
-4.977880e-08 -7.999417e-08 7.136178e-08 -5.363345e-08 -1.776694e-07 -1.485515e-07
-1.188364e-07 2.860548e-08 1.087380e-07 -2.914737e-08 -1.677410e-07 -9.115944e-08
-8.112792e-08 7.068937e-08 1.342872e-07 1.300318e-08 -2.096929e-07 -1.417429e-07
-5.655268e-08 3.373907e-08 1.140988e-07 2.596970e-08 -1.514709e-07 -2.078244e-07
-6.248995e-08 3.130499e-08 1.945469e-07 1.104681e-07 -2.490723e-07 -7.710603e-08
-2.766991e-08 8.103919e-08 2.916738e-09 1.546848e-07 -2.552350e-07 -1.119801e-07
-5.644237e-08 9.137854e-08 3.346382e-08 1.813526e-07 -2.735776e-07 -1.732363e-07
2.762234e-08 1.517468e-07 -2.811250e-08 1.754423e-07 -1.307224e-07 -1.949633e-07
1.454351e-07 -1.313609e-08 3.554010e-08 2.002586e-07 -1.380558e-07 -1.056752e-07
1.340404e-07 5.103378e-08 2.232983e-08 1.953862e-07 -1.006437e-07 -1.288143e-07
-5.962163e-08 -9.164264e-08 1.334410e-07 -5.167794e-08 -1.086857e-07 -1.443939e-07
-5.808865e-08 -8.122857e-08 7.200971e-08 -4.332609e-08 -1.806204e-07 -1.483837e-07
-9.061899e-08 3.599946e-09 -4.162493e-09 -3.073845e-08 -1.068431e-07 -6.795666e-08
-2.511152e-08 1.387182e-07 8.361430e-08 1.895687e-07 -8.856749e-08 -4.447316e-08
1.690670e-08 1.977976e-07 1.253164e-07 2.816120e-07 2.178143e-09 -2.808569e-08
-5.465827e-08 2.039127e-07 -2.341227e-08 2.379202e-07 -1.100548e-07 -1.468006e-07
-7.281957e-08 -1.545617e-08 6.169783e-08 -7.897443e-09 -7.555208e-09 -5.777911e-08
-8.572696e-08 2.996552e-08 7.815645e-08 -4.136512e-09 -5.613536e-08 -4.013909e-08
-8.589357e-08 5.622480e-08 -1.479651e-08 -3.558286e-09 2.331627e-08 -3.065764e-08
-4.472546e-09 7.076309e-08 -5.184893e-09 1.173581e-07 -1.766991e-07 -2.084088e-07
7.450438e-09 1.050735e-07 -4.616253e-09 1.546471e-07 -1.468808e-07 -1.490768e-07
5.447577e-08 1.189195e-07 2.901874e-08 1.873386e-07 -8.050125e-08 -8.499930e-08
-4.132066e-08 3.113081e-08 3.898720e-08 7.287326e-08 -2.080955e-07 -1.541004e-07
1.698563e-08 5.808041e-08 -5.856005e-08 1.162719e-07 -1.507423e-07 -1.121721e-07
9.647125e-09 8.370589e-08 -4.776779e-08 1.404109e-07 -1.754242e-07 -1.551814e-07
-3.743862e-08 -3.638107e-08 7.956061e-09 -2.609980e-09 -1.608274e-07 -1.332539e-07
-1.852639e-08 1.030270e-08 -4.179758e-08 2.859322e-08 -1.375871e-07 -1.068022e-07
-5.191135e-08 4.348026e-08 -3.351963e-08 4.340167e-08 -1.200836e-07 -9.280513e-08
-3.289970e-08 3.085401e-08 -8.299075e-09 2.775900e-08 -1.984082e-07 -1.444115e-07
-1.567614e-08 4.222123e-08 -1.032368e-08 1.351495e-08 -1.895798e-07 -1.578309e-07
-5.672561e-08 1.359974e-07 -4.769697e-08 4.883473e-08 -1.821659e-07 -1.096163e-07
-3.788099e-08 3.639736e-10 9.237903e-09 3.162365e-08 -9.937624e-08 -1.223466e-07
-3.020795e-08 -8.712454e-10 4.943465e-09 2.346868e-08 -1.208199e-07 -1.134697e-07
-2.811913e-08 2.935563e-08 -1.882163e-08 3.556957e-08 -6.613936e-08 -1.099656e-07
-5.778847e-08 -2.608669e-08 1.152347e-08 -4.046840e-08 -1.633609e-07 -1.329194e-07
-5.780898e-08 -3.412817e-08 1.687244e-08 -4.099185e-08 -1.923881e-07 -1.360312e-07
-1.023882e-07 5.237764e-08 -1.291150e-09 -1.366040e-08 -1.661529e-07 -9.045984e-08
8.819436e-08 2.848038e-08 1.153833e-08 1.287397e-07 -1.123548e-07 -1.763937e-07
5.611617e-09 5.206195e-08 4.343907e-09 8.965924e-08 -1.366995e-07 -1.654144e-07
3.985804e-08 2.843617e-08 -5.046488e-09 8.870614e-08 -1.811973e-07 -2.177213e-07
9.812819e-08 -9.825363e-10 1.916961e-08 1.070181e-07 -1.392561e-07 -1.673240e-07
-2.263789e-08 2.967986e-08 5.731316e-09 6.344369e-08 -1.106364e-07 -1.437163e-07
6.182337e-08 7.398779e-08 2.522595e-08 1.247357e-07 -1.440576e-07 -1.885852e-07
7.664500e-08 -5.475930e-09 3.747429e-09 1.176108e-07 -1.477251e-07 -1.487315e-07
7.381490e-08 3.029067e-08 5.764926e-09 1.162060e-07 -1.107862e-07 -1.603926e-07
-3.835235e-09 3.359764e-08 -3.536898e-08 5.025829e-08 -1.820066e-07 -1.493685e-07
2.454628e-09 1.307909e-07 -7.510036e-08 1.124288e-07 -1.356817e-07 -1.081624e-07
2.197706e-08 1.194463e-07 -7.489474e-08 9.800995e-08 -1.388413e-07 -1.185881e-07
-5.804277e-08 1.280432e-08 -1.598685e-09 1.466570e-08 -1.405125e-07 -1.170507e-07
-3.663194e-08 -4.433102e-09 -2.001666e-08 1.752636e-09 -1.292245e-07 -1.091729e-07
-2.326005e-08 1.927360e-08 -2.327011e-08 3.763169e-08 -1.237400e-07 -1.126975e-07
4.598475e-09 1.455494e-08 -2.457375e-08 3.111759e-08 -1.297759e-07 -1.056522e-07
-9.235854e-09 2.135306e-08 -3.212539e-08 3.225790e-08 -1.389822e-07 -1.239530e-07
-2.744734e-08 2.360667e-08 -2.088204e-08 3.636377e-08 -1.336272e-07 -1.080282e-07
-2.291288e-08 2.019956e-08 -2.637441e-08 3.703032e-08 -1.291113e-07 -1.104284e-07
4.206191e-09 -1.234534e-08 -3.234786e-08 1.616903e-08 -1.138396e-07 -1.055722e-07
-7.432238e-11 -1.455997e-08 -3.233363e-08 2.126447e-08 -1.131567e-07 -1.084369e-07
1.721395e-08 1.940087e-08 -4.502312e-08 4.615509e-08 -1.361803e-07 -1.305087e-07
5.147817e-08 -3.959591e-09 -3.790478e-08 6.122534e-08 -1.198370e-07 -1.124856e-07
-1.175947e-08 3.845821e-08 -4.646862e-08 1.709820e-08 -1.177975e-07 -1.063853e-07
3.511938e-09 1.250398e-08 -4.101789e-08 3.314714e-08 -1.331652e-07 -1.160292e-07
-5.586644e-09 6.291900e-08 -4.068769e-08 3.278236e-08 -1.243060e-07 -1.127522e-07
-8.953948e-09 8.326467e-08 -5.809981e-08 4.050427e-08 -1.263496e-07 -1.029942e-07
-3.540744e-08 -1.337544e-08 -4.597346e-09 -4.926197e-09 -1.531698e-07 -1.373118e-07
-2.935380e-08 -1.234534e-08 -2.493115e-08 -4.659482e-09 -1.367964e-07 -1.207023e-07
5.144918e-09 -1.337545e-08 -1.118228e-08 1.296801e-08 -1.399501e-07 -1.267890e-07
-2.929836e-08 -1.337545e-08 -1.063496e-08 -4.950490e-09 -1.252456e-07 -1.129898e-07
-3.333655e-08 -1.455997e-08 3.667858e-09 -1.518420e-10 -1.367614e-07 -1.104354e-07
-1.853554e-08 9.314141e-09 -2.088813e-08 1.900361e-08 -1.464734e-07 -1.222533e-07
-8.088545e-09 2.169298e-09 -1.518290e-08 2.173827e-08 -1.404896e-07 -1.356420e-07
-3.717739e-08 3.115737e-09 -7.081880e-09 -6.609692e-09 -1.317644e-07 -1.106181e-07
-3.056719e-08 6.901304e-09 -2.113624e-08 -7.581399e-09 -1.210846e-07 -1.125151e-07
-3.791430e-08 6.812863e-09 -1.996917e-08 -5.955929e-09 -1.411245e-07 -1.178580e-07
-1.565823e-08 5.778811e-09 -2.283627e-08 1.147285e-08 -1.246943e-07 -1.091406e-07
-1.617895e-08 -1.034783e-09 -2.499968e-08 1.575698e-08 -1.294577e-07 -1.045533e-07
-2.273174e-08 2.293799e-08 -2.261490e-08 6.600575e-09 -1.208811e-07 -1.104504e-07
-3.545716e-08 6.205863e-09 -4.322222e-09 -8.580224e-09 -1.308931e-07 -1.245785e-07
-1.883208e-08 1.709235e-08 -3.844657e-08 3.132646e-08 -1.179319e-07 -1.019055e-07
-1.235934e-08 1.661759e-08 -2.873055e-08 3.935514e-08 -1.432350e-07 -1.135614e-07
-1.838432e-08 4.068471e-08 -5.499175e-08 6.510129e-08 -1.159997e-07 -1.037890e-07
-1.993368e-08 1.692044e-08 -4.519703e-08 4.747625e-08 -1.271423e-07 -1.252082e-07
-3.746630e-08 -1.167457e-08 -2.703631e-08 -1.893408e-08 -1.186153e-07 -1.050464e-07
-4.166023e-08 1.181008e-09 -3.556862e-08 -2.113557e-08 -1.182596e-07 -9.979031e-08
-4.074325e-08 -5.449130e-09 -2.999849e-08 -1.711131e-08 -1.213140e-07 -1.018684e-07
-3.303687e-08 -5.619327e-09 -2.295069e-08 -2.494007e-08 -1.249614e-07 -9.260348e-08
-4.144063e-08 -1.028837e-08 -2.405238e-08 -1.855225e-08 -1.187021e-07 -1.027309e-07
-3.407104e-08 -4.385249e-09 -1.233796e-08 -1.100473e-08 -1.272683e-07 -1.149616e-07
-4.334865e-08 6.348949e-09 -3.575992e-08 -1.093807e-08 -1.214426e-07 -9.922050e-08
-2.177214e-08 1.463523e-08 -3.525076e-08 2.573422e-09 -1.243751e-07 -1.035117e-07
-3.519317e-08 -5.619330e-09 -3.596299e-08 -1.999057e-08 -1.200730e-07 -1.002558e-07
-1.809806e-08 -7.456899e-09 -3.093238e-08 1.993495e-08 -1.109154e-07 -1.062198e-07
2.371909e-09 2.468059e-08 -4.339359e-08 4.666339e-08 -1.331197e-07 -1.316817e-07
-9.856303e-09 2.735031e-08 -3.179201e-08 5.168649e-08 -1.269933e-07 -1.128565e-07
-1.206176e-08 2.182160e-08 -3.376545e-08 6.046002e-08 -1.093510e-07 -1.156237e-07
8.075657e-08 -1.795679e-08 -2.557751e-08 1.083619e-08 3.222916e-09 1.792561e-08
8.177138e-08 -1.812494e-08 -2.540306e-08 1.125521e-08 3.136327e-09 1.881295e-08
8.193998e-08 -1.849172e-08 -2.621043e-08 1.123279e-08 4.268565e-09 1.955807e-08
8.265054e-08 -1.877651e-08 -2.695020e-08 1.120520e-08 3.633153e-09 1.880116e-08
7.912285e-08 -1.835364e-08 -2.489785e-08 1.103033e-08 4.212333e-09 1.930979e-08
7.967985e-08 -1.785015e-08 -2.481827e-08 1.058531e-08 3.574001e-09 1.791278e-08
7.970668e-08 -1.820330e-08 -2.435499e-08 1.136003e-08 3.876774e-09 1.874330e-08
8.084283e-08 -1.790133e-08 -2.435952e-08 1.073673e-08 3.820515e-09 1.881191e-08
8.053809e-08 -1.809615e-08 -2.589317e-08 1.103399e-08 3.269305e-09 1.959091e-08
8.136067e-08 -1.849888e-08 -2.657664e-08 1.137819e-08 4.152078e-09 2.001868e-08
7.999850e-08 -1.796337e-08 -2.634002e-08 1.168897e-08 4.520646e-09 2.039480e-08
7.648434e-08 -1.448054e-08 -2.538509e-08 1.198602e-08 4.320708e-09 1.774173e-08
7.713757e-08 -1.275526e-08 -2.570215e-08 1.308455e-08 4.109017e-09 1.748101e-08
7.696030e-08 -1.324169e-08 -2.653267e-08 1.263194e-08 4.748263e-09 1.812410e-08
7.682478e-08 -1.419009e-08 -2.631346e-08 1.307371e-08 4.825134e-09 1.821414e-08
7.555710e-08 -1.448054e-08 -2.468948e-08 1.147035e-08 4.796337e-09 1.779225e-08
7.402754e-08 -1.406597e-08 -2.531874e-08 1.288584e-08 3.916922e-09 1.877370e-08
7.395871e-08 -1.275526e-08 -2.573736e-08 1.208371e-08 5.032133e-09 1.896609e-08
7.428868e-08 -1.422108e-08 -2.587695e-08 1.212465e-08 5.696452e-09 1.917876e-08
7.919712e-08 -1.619501e-08 -2.558964e-08 1.324007e-08 3.726363e-09 1.810292e-08
7.924465e-08 -1.616635e-08 -2.707467e-08 1.315209e-08 3.430036e-09 1.800644e-08
8.250576e-08 -1.618727e-08 -2.652620e-08 1.415127e-08 4.042365e-09 1.944823e-08
8.089796e-08 -1.566370e-08 -2.668719e-08 1.506940e-08 4.038968e-09 1.872246e-08
7.770118e-08 -1.624532e-08 -2.499446e-08 1.278187e-08 4.061112e-09 1.840279e-08
8.289638e-08 -1.621443e-08 -2.506031e-08 1.392914e-08 4.177181e-09 1.837991e-08
7.654960e-08 -1.508102e-08 -2.529128e-08 1.473952e-08 3.722531e-09 1.974686e-08
7.738394e-08 -1.583584e-08 -2.641518e-08 1.403246e-08 4.755338e-09 2.005633e-08
8.090864e-08 -1.748256e-08 -2.558027e-08 1.050385e-08 3.083850e-09 1.796373e-08
8.110525e-08 -1.794726e-08 -2.563296e-08 1.012320e-08 2.927323e-09 1.783129e-08
8.218328e-08 -1.791343e-08 -2.537347e-08 1.095113e-08 3.049883e-09 1.894926e-08
8.262985e-08 -1.756465e-08 -2.645314e-08 1.055417e-08 2.855047e-09 1.924984e-08
7.755887e-08 -1.667925e-08 -2.514543e-08 1.241397e-08 4.398339e-09 2.031570e-08
7.753335e-08 -1.624552e-08 -2.476030e-08 1.263867e-08 3.882871e-09 1.839226e-08
7.767987e-08 -1.624735e-08 -2.500126e-08 1.264376e-08 4.148438e-09 2.018347e-08
7.894580e-08 -1.629204e-08 -2.449535e-08 1.286299e-08 3.871958e-09 1.926173e-08
8.007965e-08 -1.773901e-08 -2.605252e-08 1.149009e-08 5.441796e-09 2.015485e-08
7.526627e-08 -1.616334e-08 -2.593906e-08 1.332767e-08 4.594919e-09 2.070897e-08
7.618418e-08 -1.578685e-08 -2.498858e-08 1.422094e-08 3.988399e-09 1.909112e-08
8.144208e-08 -1.756700e-08 -2.575192e-08 1.160162e-08 3.252956e-09 1.760447e-08
8.367563e-08 -1.704735e-08 -2.720065e-08 1.263252e-08 3.204527e-09 1.815717e-08
8.191618e-08 -1.756289e-08 -2.676327e-08 1.167082e-08 3.523554e-09 1.855364e-08
8.355445e-08 -1.597499e-08 -2.658948e-08 1.340147e-08 4.088516e-09 1.908723e-08
8.361826e-08 -1.714958e-08 -2.712314e-08 1.249656e-08 3.293119e-09 1.841304e-08
8.267024e-08 -1.756489e-08 -2.708962e-08 1.185600e-08 3.388830e-09 1.851356e-08
8.331469e-08 -1.704977e-08 -2.723118e-08 1.245391e-08 3.043218e-09 1.797638e-08
7.997178e-08 -1.586038e-08 -2.703898e-08 1.241292e-08 3.534816e-09 1.776769e-08
8.353431e-08 -1.640649e-08 -2.656960e-08 1.314575e-08 3.942642e-09 1.909614e-08
7.950605e-08 -1.816401e-08 -2.456469e-08 1.055778e-08 3.897142e-09 1.970598e-08
7.981667e-08 -1.748256e-08 -2.462890e-08 1.034984e-08 3.256383e-09 1.815078e-08
8.083851e-08 -1.816401e-08 -2.413409e-08 1.062936e-08 3.842595e-09 1.891577e-08
8.014500e-08 -1.816401e-08 -2.489944e-08 1.040956e-08 3.686488e-09 1.813070e-08
8.076974e-08 -1.794726e-08 -2.525812e-08 9.659715e-09 3.446568e-09 1.785193e-08
8.173340e-08 -1.804557e-08 -2.505350e-08 1.041695e-08 3.456938e-09 1.895446e-08
8.055910e-08 -1.847965e-08 -2.490224e-08 1.113120e-08 3.175415e-09 1.939954e-08
7.843554e-08 -1.897510e-08 -2.663406e-08 1.169142e-08 4.232150e-09 2.154620e-08
7.677312e-08 -1.909635e-08 -2.655831e-08 1.254485e-08 4.916709e-09 2.540917e-08
8.134533e-08 -1.887202e-08 -2.542810e-08 1.232540e-08 4.617080e-09 2.343509e-08
7.878677e-08 -1.888256e-08 -2.552918e-08 1.323808e-08 4.442600e-09 2.394405e-08
7.952114e-08 -1.907022e-08 -2.759899e-08 1.276924e-08 5.074303e-09 2.519378e-08
8.022697e-08 -1.917515e-08 -2.882755e-08 1.269732e-08 4.707954e-09 2.513805e-08
8.095362e-08 -1.886970e-08 -2.912039e-08 1.220520e-08 4.748283e-09 2.521359e-08
7.746256e-08 -1.789239e-08 -2.619248e-08 1.254307e-08 4.927864e-09 2.218811e-08
7.648396e-08 -1.899272e-08 -2.448292e-08 1.284651e-08 5.521534e-09 2.586674e-08
7.860993e-08 -1.797877e-08 -2.530232e-08 1.302037e-08 5.015321e-09 2.362946e-08
7.635512e-08 -1.796630e-08 -2.518101e-08 1.303746e-08 5.141496e-09 2.542473e-08
7.548196e-08 -1.675685e-08 -2.625417e-08 1.374881e-08 5.853670e-09 2.445520e-08
7.536568e-08 -1.723752e-08 -2.637989e-08 1.350873e-08 6.435700e-09 2.470013e-08
7.905274e-08 -1.838256e-08 -2.659750e-08 1.204617e-08 5.906938e-09 2.440889e-08
7.910725e-08 -1.919106e-08 -2.591343e-08 1.098515e-08 3.973513e-09 2.245310e-08
7.815602e-08 -2.011637e-08 -2.614214e-08 1.121889e-08 4.359978e-09 2.618107e-08
7.925995e-08 -2.011637e-08 -2.591410e-08 1.082676e-08 4.005930e-09 2.246780e-08
8.132757e-08 -2.011637e-08 -2.473579e-08 1.121414e-08 4.362857e-09 2.405975e-08
8.096207e-08 -2.059192e-08 -2.839971e-08 1.215924e-08 2.345596e-09 2.534810e-08
8.198403e-08 -1.960296e-08 -2.779025e-08 1.115329e-08 3.681106e-09 2.395050e-08
8.019504e-08 -1.965848e-08 -2.601823e-08 9.674694e-09 4.127643e-09 2.164388e-08
7.789394e-08 -1.960126e-08 -2.554616e-08 1.387283e-08 5.913453e-09 2.649539e-08
7.809020e-08 -1.931912e-08 -2.581110e-08 1.411409e-08 5.652701e-09 2.634372e-08
7.795852e-08 -1.936109e-08 -2.743423e-08 1.394949e-08 5.388669e-09 2.544773e-08
8.000075e-08 -1.969340e-08 -2.846166e-08 1.335380e-08 6.103682e-09 2.799018e-08
7.393589e-08 -1.918009e-08 -2.493817e-08 1.408917e-08 6.766186e-09 2.839437e-08
7.284202e-08 -1.958073e-08 -2.494421e-08 1.551170e-08 6.507702e-09 2.851468e-08
7.272996e-08 -1.697848e-08 -2.524097e-08 1.520786e-08 6.701271e-09 2.870634e-08
7.393565e-08 -1.813224e-08 -2.703145e-08 1.396531e-08 8.140040e-09 3.015880e-08
7.586919e-08 -2.016692e-08 -2.420674e-08 1.512321e-08 6.901827e-09 2.975651e-08
7.343644e-08 -2.028205e-08 -2.394471e-08 1.569025e-08 6.930700e-09 2.930298e-08
7.572887e-08 -2.034895e-08 -2.717047e-08 1.509901e-08 7.504429e-09 3.080417e-08
8.017991e-08 -2.025674e-08 -2.729316e-08 1.615241e-08 7.527573e-09 3.205570e-08
7.842378e-08 -2.262467e-08 -2.527584e-08 1.067012e-08 4.485397e-09 2.679023e-08
7.849605e-08 -2.316435e-08 -2.610236e-08 1.070678e-08 3.816694e-09 2.684803e-08
7.928351e-08 -2.285157e-08 -2.667727e-08 1.020846e-08 3.935873e-09 2.659498e-08
8.071213e-08 -2.227374e-08 -2.616677e-08 9.296897e-09 5.178177e-09 2.477801e-08
7.713378e-08 -1.919991e-08 -2.384504e-08 1.407787e-08 6.790693e-09 2.651102e-08
7.698348e-08 -1.694212e-08 -2.394224e-08 1.481197e-08 6.918856e-09 2.635111e-08
7.696937e-08 -1.715080e-08 -2.462109e-08 1.470802e-08 7.298072e-09 2.652033e-08
7.960612e-08 -1.808519e-08 -2.585282e-08 1.341663e-08 8.391340e-09 2.757334e-08
8.050319e-08 -2.026285e-08 -2.416319e-08 1.523276e-08 6.686947e-09 2.842141e-08
8.103618e-08 -2.016512e-08 -2.638099e-08 1.548487e-08 6.458183e-09 2.726275e-08
8.390521e-08 -2.054269e-08 -2.827200e-08 1.568907e-08 6.984141e-09 3.068389e-08
8.309226e-08 -2.047840e-08 -2.762745e-08 1.504585e-08 7.223331e-09 2.962437e-08
8.142694e-08 -2.269998e-08 -2.405160e-08 1.253709e-08 5.964457e-09 2.875022e-08
8.149780e-08 -2.323957e-08 -2.488286e-08 1.257145e-08 5.293989e-09 2.880446e-08
8.438320e-08 -2.249352e-08 -2.719361e-08 1.441495e-08 5.389907e-09 3.140894e-08
8.195479e-08 -2.311404e-08 -2.579341e-08 1.220130e-08 5.258380e-09 2.814519e-08
7.663919e-08 -2.340469e-08 -2.588752e-08 1.257851e-08 6.619718e-09 3.303730e-08
7.716900e-08 -2.267756e-08 -2.420488e-08 1.201466e-08 6.287058e-09 3.010950e-08
7.955228e-08 -2.341802e-08 -2.430907e-08 1.288542e-08 6.263121e-09 3.071432e-08
7.797026e-08 -2.339783e-08 -2.424834e-08 1.239254e-08 6.040771e-09 3.044055e-08
7.860140e-08 -2.320145e-08 -2.499385e-08 1.164004e-08 5.845095e-09 2.973493e-08
8.131864e-08 -2.209981e-08 -2.686487e-08 1.407935e-08 6.230988e-09 3.290986e-08
7.923573e-08 -2.237747e-08 -2.721131e-08 1.515849e-08 5.911622e-09 3.394108e-08
7.432764e-08 -2.169886e-08 -2.551101e-08 1.479468e-08 7.577437e-09 3.336683e-08
7.495914e-08 -2.110294e-08 -2.407283e-08 1.414585e-08 7.049429e-09 3.004241e-08
7.662451e-08 -2.089330e-08 -2.427547e-08 1.671608e-08 6.560273e-09 3.127476e-08
7.341596e-08 -2.112817e-08 -2.362720e-08 1.434397e-08 7.029410e-09 3.027754e-08
7.938407e-08 -2.177456e-08 -2.734965e-08 1.484900e-08 8.376387e-09 3.300371e-08
7.937777e-08 -2.138438e-08 -2.705252e-08 1.488885e-08 7.937492e-09 3.300404e-08
7.290951e-08 -2.131155e-08 -2.412824e-08 1.495356e-08 7.384520e-09 2.962968e-08
7.591983e-08 -2.501589e-08 -2.537165e-08 1.308549e-08 7.140687e-09 3.784758e-08
7.364572e-08 -2.522169e-08 -2.598331e-08 1.399513e-08 7.572268e-09 4.093381e-08
7.677265e-08 -2.521020e-08 -2.556602e-08 1.367464e-08 6.800957e-09 3.785071e-08
7.945576e-08 -2.523831e-08 -2.573614e-08 1.435591e-08 7.261038e-09 3.858604e-08
7.846666e-08 -2.535478e-08 -2.965876e-08 1.669870e-08 5.653732e-09 4.189327e-08
8.088706e-08 -2.449264e-08 -2.872464e-08 1.510503e-08 6.621412e-09 4.038715e-08
7.782026e-08 -2.525670e-08 -2.566637e-08 1.250850e-08 6.730158e-09 3.655011e-08
7.302304e-08 -2.290595e-08 -2.576755e-08 1.586894e-08 7.229085e-09 3.634404e-08
7.206793e-08 -2.379812e-08 -2.613828e-08 1.545011e-08 8.500311e-09 4.035615e-08
7.843310e-08 -2.311088e-08 -2.615665e-08 1.643240e-08 7.840634e-09 3.782367e-08
7.317326e-08 -2.305498e-08 -2.591667e-08 1.649928e-08 8.030823e-09 3.952544e-08
7.355021e-08 -2.260061e-08 -2.642813e-08 1.597481e-08 7.858302e-09 4.008763e-08
7.331113e-08 -2.283649e-08 -2.935093e-08 1.572155e-08 8.729175e-09 4.092467e-08
7.937603e-08 -2.336318e-08 -2.948942e-08 1.440929e-08 9.031664e-09 4.110479e-08
8.095871e-08 -2.844708e-08 -2.584203e-08 1.791166e-08 8.295904e-09 4.395655e-08
8.140450e-08 -2.880119e-08 -2.679729e-08 1.757656e-08 7.712949e-09 4.346309e-08
8.412591e-08 -2.934964e-08 -3.002327e-08 1.621494e-08 9.289771e-09 5.020231e-08
9.180516e-08 -2.880482e-08 -2.957385e-08 1.837246e-08 7.877764e-09 4.294465e-08
7.773518e-08 -2.813551e-08 -2.541929e-08 1.617276e-08 7.062641e-09 4.324703e-08
7.807266e-08 -2.821983e-08 -2.644005e-08 1.588335e-08 6.662591e-09 4.295442e-08
7.985413e-08 -2.826661e-08 -2.849476e-08 1.573372e-08 6.973066e-09 4.406480e-08
8.242607e-08 -2.819910e-08 -2.726867e-08 1.507194e-08 7.686174e-09 4.204348e-08
7.649261e-08 -2.426444e-08 -2.510006e-08 1.719192e-08 9.678416e-09 4.258002e-08
7.728357e-08 -2.315578e-08 -2.515091e-08 1.813795e-08 9.257109e-09 4.227913e-08
7.753276e-08 -2.267778e-08 -2.868885e-08 1.852139e-08 9.399859e-09 4.285096e-08
8.184717e-08 -2.428327e-08 -3.007753e-08 1.672979e-08 1.100158e-08 4.578785e-08
7.087066e-08 -2.674719e-08 -2.583540e-08 1.893951e-08 8.445056e-09 4.611525e-08
7.802417e-08 -2.721459e-08 -2.831328e-08 1.997865e-08 1.007248e-08 4.799038e-08
8.109294e-08 -2.814495e-08 -2.852410e-08 1.885609e-08 9.607442e-09 4.773865e-08
7.035566e-08 -2.812845e-08 -2.801992e-08 1.905300e-08 9.411588e-09 5.028276e-08
6.639310e-08 -2.406824e-08 -2.509450e-08 1.693930e-08 9.950567e-09 4.419873e-08
6.764560e-08 -2.261856e-08 -2.913878e-08 1.570851e-08 1.138912e-08 4.949383e-08
6.792776e-08 -2.549277e-08 -2.518642e-08 1.534479e-08 1.031710e-08 4.469819e-08
7.621895e-08 -2.518233e-08 -2.832683e-08 1.704706e-08 1.039028e-08 4.691418e-08
6.760271e-08 -2.452990e-08 -2.852022e-08 1.855138e-08 9.439479e-09 4.909022e-08
7.091100e-08 -2.310182e-08 -2.503742e-08 1.827804e-08 9.352214e-09 4.312986e-08
7.120120e-08 -2.455364e-08 -2.915682e-08 1.494405e-08 1.180308e-08 4.913581e-08
6.607866e-08 -2.472213e-08 -2.763864e-08 1.745856e-08 9.531758e-09 4.753127e-08
6.610045e-08 -2.289271e-08 -2.724690e-08 1.766173e-08 1.071147e-08 4.767911e-08
8.005268e-08 -2.715406e-08 -2.582077e-08 1.824587e-08 8.116107e-09 4.384915e-08
8.884723e-08 -2.833441e-08 -3.140097e-08 2.097154e-08 9.212118e-09 4.526521e-08
7.999220e-08 -2.706648e-08 -2.895255e-08 1.853414e-08 8.339240e-09 4.651611e-08
8.310895e-08 -2.793175e-08 -2.927389e-08 2.008620e-08 8.884766e-09 4.590277e-08
8.551405e-08 -2.829871e-08 -2.934784e-08 2.119969e-08 8.582053e-09 4.782960e-08
7.574868e-08 -2.586816e-08 -2.988547e-08 2.199932e-08 8.325630e-09 5.012493e-08
8.600111e-08 -2.616231e-08 -2.947400e-08 2.220365e-08 7.040237e-09 4.310186e-08
8.599522e-08 -2.579081e-08 -2.935983e-08 2.213322e-08 7.736653e-09 4.312125e-08
8.847390e-08 -2.837341e-08 -3.022117e-08 2.073947e-08 9.535723e-09 4.521741e-08
7.901962e-08 -2.846604e-08 -2.514335e-08 1.597272e-08 7.935191e-09 4.559906e-08
7.957249e-08 -2.885776e-08 -2.613414e-08 1.542071e-08 7.301548e-09 4.491945e-08
7.661482e-08 -2.944486e-08 -2.557682e-08 1.348934e-08 7.659631e-09 4.447437e-08
8.484236e-08 -2.837488e-08 -2.881911e-08 1.717386e-08 7.933644e-09 4.926174e-08
7.515152e-08 -2.828551e-08 -2.480589e-08 1.414657e-08 6.771719e-09 4.471996e-08
7.558449e-08 -2.838950e-08 -2.585012e-08 1.367724e-08 6.307094e-09 4.424537e-08
7.746593e-08 -2.779583e-08 -2.594047e-08 1.140786e-08 6.653519e-09 4.433076e-08
7.750496e-08 -2.926422e-08 -2.588657e-08 1.155007e-08 6.730553e-09 4.437861e-08
7.142732e-08 -2.931909e-08 -2.609251e-08 1.408909e-08 8.789796e-09 5.397174e-08
7.338015e-08 -2.836963e-08 -2.616527e-08 1.508169e-08 8.556764e-09 4.820781e-08
7.922433e-08 -2.937017e-08 -2.547478e-08 1.444795e-08 8.480725e-09 5.107652e-08
7.255673e-08 -2.932746e-08 -2.632959e-08 1.415144e-08 8.116271e-09 4.772466e-08
7.414145e-08 -2.933428e-08 -2.551663e-08 1.237330e-08 8.417635e-09 4.522360e-08
7.792412e-08 -2.847258e-08 -2.928792e-08 1.543988e-08 8.655397e-09 5.130033e-08
7.798689e-08 -2.829490e-08 -3.017248e-08 1.528300e-08 7.237991e-09 5.351263e-08
6.818199e-08 -2.815641e-08 -2.627963e-08 1.747482e-08 9.316357e-09 5.314346e-08
7.026255e-08 -2.726834e-08 -2.658961e-08 1.833763e-08 9.074042e-09 4.682098e-08
6.894150e-08 -2.724776e-08 -2.650654e-08 1.832274e-08 9.029062e-09 5.277497e-08
7.656817e-08 -2.727173e-08 -2.581738e-08 1.799290e-08 9.034901e-09 4.995676e-08
7.686197e-08 -2.832888e-08 -3.195057e-08 1.692698e-08 1.174051e-08 5.164411e-08
7.100512e-08 -2.822033e-08 -2.975588e-08 1.945383e-08 1.047667e-08 5.068061e-08
6.914428e-08 -2.804509e-08 -2.637073e-08 1.827251e-08 9.558106e-09 5.312495e-08
6.942289e-08 -3.074729e-08 -2.668453e-08 1.417583e-08 9.483128e-09 5.867492e-08
6.482320e-08 -3.233258e-08 -2.511094e-08 1.542904e-08 9.962399e-09 6.325938e-08
7.074582e-08 -3.227011e-08 -2.693276e-08 1.462615e-08 8.773738e-09 5.923074e-08
7.402144e-08 -3.238032e-08 -2.637053e-08 1.571948e-08 9.551222e-09 6.075876e-08
7.380423e-08 -3.261221e-08 -3.005182e-08 1.677707e-08 8.300133e-09 6.270509e-08
7.437935e-08 -3.075592e-08 -2.906877e-08 1.528287e-08 9.653483e-09 6.166347e-08
7.177077e-08 -3.116885e-08 -2.675902e-08 1.322996e-08 9.655312e-09 5.748345e-08
6.609250e-08 -2.925153e-08 -2.678419e-08 1.758294e-08 1.003450e-08 5.809793e-08
6.201715e-08 -3.024191e-08 -2.464317e-08 1.811487e-08 1.095132e-08 6.452245e-08
7.375618e-08 -2.945764e-08 -2.608792e-08 1.804955e-08 1.057641e-08 6.117177e-08
6.162117e-08 -2.933166e-08 -2.488246e-08 1.818922e-08 1.107845e-08 6.485431e-08
6.152948e-08 -2.837348e-08 -2.316336e-08 1.807889e-08 9.739700e-09 6.513418e-08
6.507871e-08 -2.800396e-08 -2.851451e-08 2.059467e-08 1.064740e-08 6.116811e-08
7.376799e-08 -2.921852e-08 -2.900550e-08 1.701415e-08 1.145482e-08 6.260986e-08
7.174044e-08 -3.476412e-08 -2.640021e-08 2.701134e-08 1.150897e-08 7.087751e-08
7.554901e-08 -3.623084e-08 -2.982234e-08 2.529402e-08 1.399454e-08 7.593192e-08
8.550045e-08 -3.672062e-08 -3.231453e-08 2.398131e-08 1.234024e-08 6.504092e-08
9.291539e-08 -3.728292e-08 -3.696056e-08 2.719620e-08 1.065390e-08 7.793998e-08
7.054804e-08 -3.110804e-08 -2.591542e-08 2.142555e-08 1.334463e-08 6.601162e-08
7.433498e-08 -3.359063e-08 -2.848868e-08 1.735775e-08 1.587366e-08 6.997586e-08
7.959686e-08 -2.963420e-08 -2.711938e-08 2.257568e-08 1.342391e-08 6.723388e-08
8.541946e-08 -2.946101e-08 -3.173187e-08 2.476165e-08 1.450928e-08 6.517022e-08
6.748777e-08 -3.899047e-08 -2.757289e-08 1.357933e-08 1.245409e-08 8.421344e-08
6.708367e-08 -3.660465e-08 -2.562975e-08 1.535977e-08 1.352825e-08 7.498437e-08
8.185433e-08 -3.914571e-08 -2.726303e-08 1.410916e-08 1.184366e-08 7.967597e-08
6.634315e-08 -3.904240e-08 -2.722130e-08 1.397502e-08 1.128472e-08 7.356227e-08
6.796859e-08 -3.508341e-08 -2.592300e-08 1.126829e-08 1.366395e-08 7.176354e-08
7.627551e-08 -3.595632e-08 -3.101413e-08 1.684731e-08 1.146184e-08 8.132036e-08
7.870189e-08 -3.871381e-08 -3.111356e-08 1.771937e-08 9.610927e-09 8.366313e-08
8.487892e-08 -3.568427e-08 -2.628876e-08 2.257674e-08 1.109754e-08 7.208757e-08
8.640692e-08 -3.568144e-08 -3.138072e-08 2.297870e-08 1.124008e-08 6.622087e-08
8.645468e-08 -3.653680e-08 -3.235262e-08 2.250487e-08 1.023054e-08 6.540061e-08
1.011188e-07 -3.653959e-08 -3.681927e-08 2.263984e-08 1.009329e-08 7.901983e-08
6.878558e-08 -3.631840e-08 -2.534677e-08 1.697403e-08 7.385687e-09 6.681204e-08
7.995446e-08 -3.637058e-08 -2.754230e-08 1.745312e-08 7.785616e-09 6.682021e-08
7.887341e-08 -3.543004e-08 -2.635339e-08 1.698282e-08 8.930635e-09 6.572813e-08
7.925542e-08 -3.615808e-08 -3.030680e-08 1.663121e-08 7.062933e-09 6.550614e-08
5.552000e-08 -3.094807e-08 -2.496338e-08 2.158122e-08 1.379668e-08 6.867404e-08
5.986259e-08 -3.347005e-08 -2.743778e-08 1.740248e-08 1.629630e-08 7.262999e-08
5.553003e-08 -3.080776e-08 -2.821633e-08 2.153821e-08 1.408404e-08 7.449901e-08
5.549652e-08 -2.906226e-08 -2.836075e-08 2.144259e-08 1.455796e-08 7.457591e-08
8.280102e-08 -3.703400e-08 -2.742561e-08 1.770671e-08 1.240328e-08 7.539975e-08
8.234388e-08 -3.815519e-08 -3.011509e-08 1.442549e-08 9.962725e-09 7.315516e-08
8.403309e-08 -3.592035e-08 -2.923274e-08 1.637824e-08 1.149343e-08 7.454588e-08
9.951088e-08 -3.725940e-08 -3.430572e-08 2.028260e-08 8.850380e-09 8.028604e-08
6.250492e-08 -3.483800e-08 -2.547815e-08 2.500316e-08 1.218853e-08 7.131340e-08
6.916871e-08 -3.633214e-08 -2.848713e-08 2.372494e-08 1.453315e-08 7.559933e-08
8.469426e-08 -3.737684e-08 -3.139423e-08 2.288409e-08 1.278683e-08 7.463593e-08
6.466285e-08 -3.753226e-08 -2.882264e-08 2.541992e-08 1.173513e-08 7.741567e-08
6.123598e-08 -3.683549e-08 -2.699864e-08 2.012048e-08 1.127424e-08 8.200038e-08
6.032861e-08 -3.645738e-08 -2.470485e-08 2.291304e-08 1.240882e-08 7.224488e-08
6.268779e-08 -3.614997e-08 -3.008543e-08 2.137202e-08 1.227349e-08 8.187914e-08
7.551902e-08 -3.630586e-08 -2.787942e-08 2.139033e-08 1.207312e-08 7.627987e-08
7.839165e-08 -3.667964e-08 -3.614260e-08 1.769519e-08 1.501292e-08 8.114608e-08
6.344482e-08 -3.718336e-08 -2.917629e-08 2.470406e-08 1.176472e-08 7.833318e-08
6.172801e-08 -3.861648e-08 -2.643277e-08 2.299896e-08 1.292759e-08 8.078912e-08
6.396944e-08 -3.630709e-08 -2.579274e-08 1.344768e-08 8.132887e-09 6.837401e-08
6.735782e-08 -3.396872e-08 -2.593312e-08 9.040345e-09 8.007331e-09 6.776001e-08
6.765043e-08 -3.495959e-08 -2.898341e-08 1.043674e-08 6.822088e-09 6.888881e-08
6.770067e-08 -3.555868e-08 -2.850152e-08 1.065476e-08 5.567233e-09 6.871064e-08
6.498108e-08 -3.887849e-08 -2.764091e-08 1.104745e-08 1.145660e-08 9.219592e-08
6.163700e-08 -4.023195e-08 -2.751004e-08 1.137737e-08 1.243736e-08 9.868263e-08
6.576003e-08 -4.021743e-08 -2.781996e-08 1.112714e-08 1.086107e-08 9.197202e-08
7.620231e-08 -4.037065e-08 -2.937707e-08 1.178724e-08 1.151244e-08 9.317862e-08
7.515247e-08 -4.007588e-08 -2.995412e-08 1.307364e-08 1.137994e-08 9.466004e-08
7.066240e-08 -3.844080e-08 -3.035492e-08 1.365482e-08 1.128480e-08 9.600767e-08
6.621721e-08 -3.893852e-08 -2.723991e-08 1.032902e-08 1.178596e-08 9.133458e-08
6.071338e-08 -3.815867e-08 -2.814182e-08 1.567991e-08 1.195600e-08 9.003591e-08
6.032870e-08 -4.005822e-08 -2.737179e-08 1.280794e-08 1.189904e-08 9.872450e-08
7.413626e-08 -3.825680e-08 -3.009733e-08 1.540060e-08 1.239535e-08 9.169176e-08
6.387033e-08 -3.824643e-08 -3.125099e-08 1.591148e-08 1.236580e-08 9.685992e-08
6.323450e-08 -3.906560e-08 -2.569146e-08 1.680789e-08 1.075505e-08 9.688714e-08
6.568071e-08 -3.896206e-08 -2.785194e-08 1.853640e-08 1.104658e-08 9.288060e-08
7.453821e-08 -3.867810e-08 -3.053318e-08 1.398984e-08 1.287181e-08 9.401379e-08
6.047287e-08 -4.071461e-08 -2.599329e-08 1.581642e-08 1.961652e-08 1.112503e-07
5.652593e-08 -3.777847e-08 -2.739180e-08 1.958451e-08 1.993650e-08 1.081128e-07
5.634819e-08 -3.937956e-08 -2.312218e-08 1.862526e-08 1.967041e-08 1.092620e-07
6.489567e-08 -4.313773e-08 -3.115298e-08 9.884993e-09 2.548693e-08 1.280855e-07
6.297489e-08 -5.257362e-08 -2.374676e-08 1.192012e-08 1.310227e-08 1.154902e-07
6.348879e-08 -5.152776e-08 -2.449165e-08 1.251560e-08 1.604668e-08 1.074190e-07
7.524845e-08 -5.256829e-08 -2.693954e-08 1.711759e-08 1.408541e-08 1.082592e-07
8.082774e-08 -5.243115e-08 -2.713401e-08 1.576057e-08 1.404405e-08 1.073940e-07
7.913137e-08 -5.289031e-08 -3.179393e-08 1.666935e-08 1.199616e-08 1.121238e-07
8.694029e-08 -5.624804e-08 -3.006969e-08 1.980633e-08 1.538749e-08 1.163921e-07
7.619561e-08 -5.209725e-08 -2.640049e-08 1.780150e-08 2.092253e-08 1.203123e-07
5.806586e-08 -4.520097e-08 -2.566745e-08 1.579179e-08 1.367668e-08 1.120980e-07
6.008275e-08 -4.327011e-08 -3.030462e-08 1.450238e-08 1.567291e-08 1.025706e-07
8.067734e-08 -4.536969e-08 -2.864424e-08 1.592094e-08 1.280357e-08 1.068499e-07
6.249909e-08 -4.518475e-08 -2.950281e-08 1.551226e-08 1.202935e-08 9.971616e-08
6.061256e-08 -4.334682e-08 -2.007257e-08 1.722173e-08 1.710829e-08 1.004389e-07
6.524196e-08 -4.481289e-08 -3.166139e-08 1.994227e-08 1.284226e-08 1.055302e-07
7.861367e-08 -4.769729e-08 -3.189533e-08 1.879376e-08 1.005267e-08 1.102567e-07
8.449947e-08 -4.310435e-08 -3.237997e-08 1.249019e-08 1.679668e-08 8.921879e-08
8.163874e-08 -4.336535e-08 -3.263082e-08 1.648619e-08 1.653941e-08 9.355798e-08
8.478474e-08 -4.470408e-08 -3.974708e-08 2.159187e-08 1.343707e-08 1.066749e-07
1.108812e-07 -4.388112e-08 -4.488717e-08 1.359335e-08 1.265983e-08 9.681195e-08
6.198108e-08 -4.267709e-08 -2.699416e-08 1.075865e-08 1.516940e-08 1.007106e-07
6.809308e-08 -4.238432e-08 -2.890799e-08 1.088496e-08 1.301233e-08 9.739244e-08
6.401959e-08 -4.377913e-08 -2.809914e-08 8.702505e-09 1.406382e-08 9.849159e-08
6.410980e-08 -4.121471e-08 -2.715849e-08 8.032566e-09 1.215250e-08 9.919349e-08
6.538817e-08 -4.286407e-08 -2.541678e-08 1.404353e-08 1.359178e-08 1.022849e-07
7.376481e-08 -4.336896e-08 -2.820460e-08 1.075396e-08 1.355057e-08 9.530395e-08
6.809278e-08 -4.176047e-08 -2.881231e-08 1.066270e-08 1.330278e-08 9.723289e-08
7.269722e-08 -4.301685e-08 -2.706157e-08 1.469273e-08 1.497008e-08 1.068505e-07
7.290344e-08 -4.419690e-08 -2.790932e-08 9.899282e-09 1.336404e-08 9.519537e-08
8.765513e-08 -5.131893e-08 -3.100844e-08 1.476556e-08 1.475381e-08 9.245221e-08
9.540723e-08 -5.220816e-08 -3.805123e-08 2.007722e-08 1.220297e-08 1.109811e-07
9.612391e-08 -5.820189e-08 -3.698525e-08 1.889358e-08 1.927993e-08 1.153711e-07
1.093482e-07 -5.795955e-08 -4.349614e-08 2.076263e-08 1.589897e-08 9.728950e-08
5.673872e-08 -4.139514e-08 -2.470195e-08 1.643496e-08 1.848330e-08 1.230091e-07
5.960336e-08 -4.198659e-08 -2.534136e-08 1.475501e-08 1.973694e-08 1.114544e-07
6.848433e-08 -4.027959e-08 -2.707021e-08 2.497550e-08 1.937092e-08 1.169626e-07
5.316655e-08 -4.171327e-08 -2.466306e-08 1.384517e-08 2.019346e-08 1.090418e-07
7.481843e-08 -4.850667e-08 -2.674249e-08 1.905182e-08 2.134853e-08 1.213041e-07
7.451331e-08 -4.165548e-08 -2.671838e-08 1.648311e-08 2.191790e-08 1.212622e-07
5.187314e-08 -4.110194e-08 -2.300806e-08 1.516161e-08 1.861039e-08 1.088095e-07
8.841122e-08 -4.148726e-08 -3.099552e-08 1.784705e-08 1.419459e-08 9.233988e-08
8.825078e-08 -4.030928e-08 -3.014105e-08 2.116205e-08 1.310934e-08 8.811136e-08
1.088287e-07 -4.338943e-08 -4.298935e-08 1.890688e-08 1.939844e-08 9.734603e-08
9.304606e-08 -4.520533e-08 -3.727756e-08 1.013747e-08 2.062220e-08 1.164336e-07
6.259143e-08 -4.960905e-08 -2.151773e-08 5.738501e-09 9.411601e-09 1.267233e-07
5.566578e-08 -4.989116e-08 -1.901487e-08 9.031940e-09 8.438023e-09 1.307505e-07
8.166890e-08 -4.963781e-08 -2.661710e-08 1.025410e-08 7.681198e-09 1.299193e-07
7.393550e-08 -4.960343e-08 -2.523012e-08 1.319838e-08 9.899889e-09 1.279641e-07
7.737710e-08 -5.303162e-08 -2.567895e-08 9.883996e-09 1.506242e-08 1.399327e-07
8.962098e-08 -5.533351e-08 -2.832228e-08 9.173453e-09 1.118403e-08 1.317715e-07
8.175348e-08 -4.925572e-08 -2.511399e-08 1.000265e-08 6.754917e-09 1.307740e-07
5.458548e-08 -4.581010e-08 -2.488511e-08 1.388363e-08 1.173797e-08 1.206635e-07
4.844657e-08 -4.823305e-08 -2.065917e-08 1.677013e-08 1.288443e-08 1.272541e-07
5.803726e-08 -4.808860e-08 -2.550912e-08 1.548918e-08 1.050359e-08 1.210806e-07
7.924942e-08 -4.833068e-08 -2.943981e-08 1.612844e-08 1.190011e-08 1.271130e-07
7.897495e-08 -4.941455e-08 -2.831723e-08 1.691550e-08 1.201557e-08 1.276097e-07
6.308217e-08 -4.684783e-08 -2.791140e-08 2.324313e-08 1.340214e-08 1.277404e-07
5.587462e-08 -4.779950e-08 -1.922432e-08 1.785351e-08 1.508720e-08 1.207877e-07
5.293163e-08 -4.140805e-08 -2.196423e-08 1.476098e-08 1.155001e-08 1.335105e-07
4.740093e-08 -4.210627e-08 -1.964116e-08 1.658049e-08 1.249408e-08 1.412174e-07
7.358408e-08 -4.172510e-08 -2.545324e-08 1.510083e-08 1.265348e-08 1.296095e-07
4.496076e-08 -4.139762e-08 -2.001169e-08 1.514549e-08 1.458264e-08 1.428948e-07
5.164262e-08 -4.263084e-08 -1.130427e-08 7.916159e-09 7.838346e-09 1.506530e-07
5.747665e-08 -4.500615e-08 -2.856587e-08 1.110123e-08 1.448961e-08 1.454455e-07
7.793958e-08 -4.940039e-08 -2.575194e-08 6.516246e-09 1.618330e-08 1.378573e-07
7.924948e-08 -5.755669e-08 -2.809358e-08 2.350752e-08 2.596057e-08 1.283016e-07
8.288867e-08 -5.854178e-08 -3.188002e-08 2.605330e-08 2.388890e-08 1.360695e-07
8.850688e-08 -6.735380e-08 -2.424978e-08 2.013299e-08 2.744576e-08 1.477862e-07
1.104471e-07 -6.625037e-08 -4.453101e-08 2.681814e-08 2.700822e-08 1.256500e-07
7.059518e-08 -4.996717e-08 -3.372458e-08 2.381141e-08 2.364505e-08 1.347017e-07
8.034468e-08 -5.063655e-08 -3.367696e-08 2.923098e-08 2.332614e-08 1.405552e-07
8.693276e-08 -5.872911e-08 -3.428827e-08 1.171594e-08 2.064612e-08 1.382606e-07
1.009084e-07 -4.928595e-08 -3.395234e-08 2.416034e-08 2.333536e-08 1.407837e-07
7.965963e-08 -5.057850e-08 -2.980856e-08 1.455524e-08 1.248113e-08 1.280629e-07
8.724335e-08 -5.531315e-08 -3.318565e-08 1.145379e-08 2.038634e-08 1.429593e-07
1.012303e-07 -5.147049e-08 -3.069164e-08 1.995279e-08 1.535642e-08 1.273986e-07
1.051143e-07 -5.223458e-08 -4.341509e-08 1.791157e-08 1.205393e-08 1.223808e-07
6.280066e-08 -4.307232e-08 -2.938618e-08 2.019530e-08 1.576240e-08 1.351490e-07
8.383695e-08 -5.469694e-08 -3.135343e-08 1.299555e-08 2.163465e-08 1.438332e-07
8.354012e-08 -4.449122e-08 -2.634718e-08 1.475576e-08 1.372304e-08 1.432912e-07
9.535398e-08 -4.409183e-08 -3.345729e-08 2.160707e-08 1.509960e-08 1.315043e-07
5.218748e-08 -5.646230e-08 -1.519804e-08 1.645500e-08 1.653219e-08 1.325478e-07
8.504010e-08 -5.646162e-08 -2.404916e-08 1.679024e-08 1.639255e-08 1.341983e-07
6.877303e-08 -5.475694e-08 -2.332056e-08 2.440848e-08 1.854950e-08 1.338050e-07
6.952913e-08 -6.188013e-08 -2.114666e-08 1.528217e-08 1.797360e-08 1.278096e-07
3.905640e-08 -6.258504e-08 -9.485460e-09 9.514880e-09 1.462680e-08 1.373884e-07
4.060747e-08 -6.127878e-08 -6.730049e-09 1.013829e-08 2.229094e-08 1.304272e-07
6.364808e-08 -6.363476e-08 -1.308890e-08 1.767821e-08 2.016964e-08 1.418272e-07
6.053506e-08 -6.369574e-08 -1.091639e-08 1.843694e-08 1.907141e-08 1.437065e-07
6.835318e-08 -6.384655e-08 -2.325431e-08 1.727104e-08 1.756635e-08 1.253510e-07
8.581278e-08 -6.844005e-08 -1.847688e-08 1.839373e-08 2.150856e-08 1.364175e-07
6.348735e-08 -6.403979e-08 -9.691946e-09 1.794443e-08 2.782225e-08 1.382496e-07
7.147964e-08 -5.459485e-08 -2.300033e-08 2.557979e-08 2.039612e-08 1.314387e-07
7.875705e-08 -5.498057e-08 -2.764772e-08 2.619722e-08 1.861834e-08 1.396987e-07
1.055083e-07 -5.491268e-08 -3.852684e-08 2.466811e-08 1.875385e-08 1.273852e-07
1.061436e-07 -6.069330e-08 -3.465231e-08 2.513837e-08 2.175853e-08 1.252272e-07
5.189062e-08 -4.886853e-08 -1.995893e-08 1.895650e-08 1.813930e-08 1.354684e-07
5.359697e-08 -4.692933e-08 -1.924741e-08 1.656813e-08 1.282022e-08 1.378791e-07
5.346946e-08 -4.728630e-08 -1.971672e-08 1.596390e-08 1.418932e-08 1.309830e-07
5.158506e-08 -5.691559e-08 -1.717051e-08 6.797007e-09 1.351765e-08 1.345558e-07
3.059060e-08 -4.945583e-08 -2.088029e-08 1.609937e-08 1.910400e-08 1.273024e-07
2.898889e-08 -4.894293e-08 -2.121430e-08 2.044003e-08 2.732857e-08 1.163449e-07
2.429017e-08 -4.956210e-08 -1.820477e-08 1.695647e-08 1.866809e-08 1.324709e-07
4.805908e-08 -5.125682e-08 -2.355862e-08 3.283941e-08 2.499806e-08 1.293351e-07
2.335306e-08 -4.730615e-08 -1.963840e-09 1.750665e-08 2.818128e-08 1.297336e-07
5.854565e-08 -4.740281e-08 -2.973199e-08 1.633097e-08 2.648877e-08 1.187612e-07
6.208792e-08 -5.151313e-08 -3.069759e-08 2.272455e-08 2.199837e-08 1.184562e-07
3.433917e-08 -4.325025e-08 -8.409081e-09 2.255950e-08 1.646086e-08 1.342370e-07
4.228619e-08 -5.384672e-08 -1.535615e-08 1.599587e-08 2.576576e-08 1.438346e-07
3.570031e-08 -4.617813e-08 -1.562362e-08 2.168310e-08 2.592669e-08 1.422434e-07
3.418994e-08 -4.382717e-08 -6.651331e-09 1.437464e-08 1.737645e-08 1.456703e-07
3.184973e-08 -5.426165e-08 -1.363705e-08 1.575519e-08 1.586197e-08 1.454922e-07
3.192507e-08 -5.184057e-08 -9.983571e-09 1.778771e-08 2.025398e-08 1.361899e-07
3.410084e-08 -5.194497e-08 -1.264208e-08 1.815102e-08 2.091905e-08 1.492135e-07
6.385280e-08 -5.185417e-08 -1.722989e-08 1.611898e-08 2.087669e-08 1.416505e-07
6.317171e-08 -6.083974e-08 -1.454624e-08 1.903740e-08 2.431740e-08 1.394998e-07
4.631673e-08 -5.846513e-08 -1.448276e-08 2.460891e-08 2.392878e-08 1.386470e-07
3.456653e-08 -5.398341e-08 -5.865714e-09 1.808183e-08 1.750796e-08 1.515150e-07
3.190672e-08 -6.337314e-08 -5.294095e-09 1.108720e-08 5.550613e-09 1.500444e-07
3.792194e-08 -6.540763e-08 -5.113613e-09 4.366639e-09 8.569505e-10 1.545477e-07
5.613115e-08 -6.333899e-08 -7.773468e-09 1.502125e-08 5.318975e-09 1.650442e-07
6.358881e-08 -6.342454e-08 -7.895822e-09 1.235194e-08 5.843026e-09 1.646562e-07
6.535327e-08 -6.712779e-08 -2.801500e-09 1.375205e-08 1.418714e-08 1.689050e-07
7.828762e-08 -7.039301e-08 -4.024122e-09 1.186229e-08 9.361663e-09 1.570079e-07
5.483592e-08 -6.316602e-08 -4.496863e-09 1.617275e-08 3.568309e-09 1.420133e-07
2.979509e-08 -4.845168e-08 -1.119397e-08 1.013687e-08 4.268304e-09 1.465129e-07
2.666348e-08 -5.185509e-08 -7.964996e-09 1.399309e-08 8.958026e-09 1.485025e-07
3.719622e-08 -5.195461e-08 -1.352913e-08 1.401058e-08 1.404770e-09 1.499374e-07
5.591102e-08 -5.280025e-08 -8.761802e-09 1.754119e-08 7.278454e-09 1.644578e-07
5.607846e-08 -5.687106e-08 -7.835965e-09 3.287081e-09 5.361953e-09 1.481790e-07
4.013300e-08 -4.611622e-08 -9.135652e-09 7.725931e-09 9.327563e-09 1.428086e-07
4.163503e-08 -4.790422e-08 -8.514640e-09 8.124033e-09 7.490024e-09 1.452156e-07
2.391107e-08 -5.042718e-08 -4.623594e-09 1.718451e-08 1.085239e-08 1.565799e-07
2.034971e-08 -4.825642e-08 5.000771e-09 2.028247e-08 1.602270e-08 1.789454e-07
6.275538e-08 -5.097822e-08 -7.036523e-09 1.761836e-08 1.308270e-08 1.709231e-07
1.241649e-08 -4.966138e-08 8.792599e-09 1.427742e-08 1.860539e-08 1.776784e-07
9.428271e-09 -4.284200e-08 1.853927e-08 1.611515e-08 5.546199e-09 1.814504e-07
2.031225e-08 -4.742247e-08 -4.898130e-09 2.200625e-08 1.733498e-08 1.775775e-07
6.471070e-08 -6.467435e-08 -5.087320e-09 1.745516e-08 1.436013e-08 1.729504e-07
3.453156e-08 -7.466280e-08 2.079527e-08 4.571708e-08 1.259367e-08 1.684466e-07
9.770585e-08 -8.065400e-08 2.868385e-09 2.092055e-08 2.507614e-08 1.835078e-07
7.859458e-08 -6.079387e-08 4.098777e-09 6.911474e-08 1.935344e-08 1.771676e-07
8.059344e-08 -6.943711e-08 7.265087e-09 9.881398e-08 1.943446e-08 1.587362e-07
7.797172e-08 -8.649687e-08 2.373707e-08 1.417067e-08 9.835573e-09 1.397130e-07
1.182574e-07 -8.852678e-08 -4.188613e-09 6.863599e-09 1.745271e-08 1.737478e-07
1.607231e-07 -8.814381e-08 9.019600e-09 9.739605e-10 1.983096e-08 1.285084e-07
1.629658e-07 -1.038662e-07 1.109795e-08 6.946166e-09 7.675678e-09 1.403208e-07
3.894758e-08 -7.159437e-08 -3.670794e-10 1.540557e-08 2.500760e-10 1.610285e-07
9.568990e-08 -7.055464e-08 -1.126373e-08 4.729714e-10 -4.873476e-09 1.591101e-07
7.904669e-08 -6.985215e-08 -9.601079e-09 2.617708e-08 8.603945e-10 1.610555e-07
7.914132e-08 -7.566235e-08 -7.901281e-09 1.283075e-08 1.041998e-10 1.518822e-07
1.885149e-08 -8.145527e-08 3.363823e-08 2.003900e-08 -4.612537e-11 1.705204e-07
2.770433e-08 -7.767636e-08 2.390935e-08 1.362150e-08 4.671853e-10 1.624739e-07
9.434476e-08 -8.082991e-08 7.059653e-09 1.269313e-08 2.928902e-09 1.565443e-07
9.268713e-08 -7.788511e-08 8.004042e-09 1.131389e-08 -1.475036e-09 1.550019e-07
9.773145e-08 -8.257486e-08 2.677072e-08 1.115105e-08 -9.598996e-09 1.682940e-07
9.528714e-08 -1.034075e-07 2.840467e-08 3.475530e-09 4.716145e-09 1.756660e-07
9.291800e-08 -8.470284e-08 1.705594e-08 6.729245e-09 8.324365e-09 1.703478e-07
4.564747e-09 -4.573665e-08 1.670032e-08 2.813180e-08 -4.653249e-09 1.862880e-07
4.981014e-09 -5.196585e-08 2.119455e-08 3.341667e-08 6.152360e-09 1.791308e-07
1.006733e-08 -5.127566e-08 9.400179e-09 2.994888e-08 6.655422e-09 1.923908e-07
7.259777e-08 -5.108831e-08 8.914759e-09 2.570299e-08 7.331047e-09 1.671577e-07
8.147267e-08 -7.107634e-08 1.478648e-08 1.515383e-08 1.097386e-08 1.787958e-07
2.154506e-08 -6.235144e-08 1.326676e-08 2.900417e-08 9.995852e-09 1.887960e-07
1.271768e-08 -5.111524e-08 1.993015e-08 2.693677e-08 -1.626953e-09 1.979593e-07
1.058176e-07 -9.005955e-08 1.410880e-09 1.489409e-08 -2.466594e-09 1.659632e-07
1.048279e-07 -9.060059e-08 -4.615548e-09 1.415514e-08 4.935998e-09 1.747095e-07
1.097199e-07 -9.991916e-08 1.379467e-08 -4.815853e-10 4.003529e-09 1.505311e-07
1.674878e-07 -1.041870e-07 -1.344577e-08 6.057182e-09 -6.779877e-09 1.664350e-07
1.052675e-07 -5.855495e-08 -2.830874e-08 2.530797e-08 7.348147e-09 1.577681e-07
1.097132e-07 -7.374073e-08 -2.579177e-08 2.022383e-09 7.346307e-09 1.477124e-07
1.211556e-07 -5.269117e-08 -2.579844e-08 1.754536e-08 8.535942e-09 1.486090e-07
1.666490e-07 -7.225145e-08 -4.551561e-08 2.030907e-08 -1.115729e-08 1.491456e-07
1.084246e-08 -5.792851e-08 2.976655e-08 2.379590e-08 -6.014263e-09 1.627582e-07
8.058002e-09 -5.878404e-08 1.063184e-08 3.147898e-08 1.066321e-08 1.459206e-07
8.440595e-08 -5.629322e-08 4.913865e-09 1.212352e-08 -1.767081e-09 1.511488e-07
-2.075786e-09 -5.798837e-08 1.040436e-08 2.475687e-08 1.065091e-09 1.388963e-07
5.416146e-09 -5.084714e-08 2.823383e-08 1.475355e-08 1.854814e-08 1.271669e-07
4.404423e-08 -7.091930e-08 1.620688e-08 3.421867e-08 1.610660e-09 1.550057e-07
7.567129e-08 -8.034314e-08 1.619550e-08 2.745654e-08 8.043803e-10 1.529777e-07
5.335195e-08 -4.877348e-08 4.966171e-09 2.087645e-08 1.816731e-08 1.937579e-07
5.557854e-08 -4.357861e-08 1.099006e-08 1.700831e-08 9.053964e-09 1.979918e-07
5.980614e-08 -4.701234e-08 -1.596416e-08 2.758032e-08 1.985843e-08 1.808202e-07
1.046799e-07 -4.190100e-08 -8.033619e-09 8.137851e-09 1.344732e-08 2.034111e-07
-6.726370e-09 -4.923970e-08 2.376188e-08 2.628379e-08 2.286997e-08 1.524295e-07
-1.985321e-09 -4.317650e-08 1.522823e-08 1.960702e-08 3.378845e-08 1.489869e-07
-1.514722e-09 -4.396324e-08 3.393985e-08 2.187758e-08 1.496511e-08 1.459136e-07
-1.909513e-09 -4.370031e-08 7.865318e-09 2.226275e-08 2.361750e-08 1.413238e-07
8.384123e-08 -6.484403e-08 -1.165368e-09 1.131541e-08 7.844563e-09 1.833670e-07
9.048522e-08 -6.678637e-08 -1.646696e-08 1.694616e-08 1.332998e-08 1.695536e-07
8.985639e-08 -7.102587e-08 -1.937752e-08 1.140331e-08 6.202365e-09 1.524861e-07
1.242521e-07 -7.157652e-08 -6.491755e-09 1.117512e-08 1.098174e-08 1.977702e-07
8.636614e-08 -8.821738e-08 1.033169e-08 1.288590e-08 8.459786e-09 1.888288e-07
9.394586e-08 -8.877933e-08 -2.133253e-08 1.445215e-08 1.430016e-08 1.539274e-07
1.284297e-07 -9.970466e-08 -2.840721e-09 2.071264e-09 1.090185e-08 1.798695e-07
1.420471e-07 -8.793012e-08 -2.510613e-09 2.525843e-08 1.830037e-08 2.062031e-07
4.307968e-08 -5.747088e-08 -3.428265e-09 2.336123e-08 2.129613e-09 1.631627e-07
5.171341e-08 -5.435245e-08 -6.773893e-09 1.279438e-08 -5.886663e-09 1.648144e-07
5.041090e-08 -4.971573e-08 -7.113688e-09 6.985827e-09 7.754634e-10 1.631738e-07
5.048189e-08 -6.800321e-08 -3.347711e-09 6.332976e-09 -6.237426e-09 1.621432e-07
3.265532e-08 -7.958682e-08 2.667716e-08 5.170210e-09 1.979135e-08 1.726402e-07
2.817183e-08 -1.118674e-07 6.784168e-08 1.181334e-08 4.643035e-09 1.654021e-07
9.060124e-08 -9.048781e-08 1.838930e-08 -6.955131e-09 9.123582e-09 1.731719e-07
6.556944e-08 -1.120243e-07 1.903795e-08 1.626646e-08 1.115750e-08 1.710543e-07
8.862912e-08 -1.133749e-07 6.385025e-08 2.197404e-08 3.222117e-08 2.147539e-07
1.125739e-07 -1.402439e-07 7.976546e-08 1.166834e-08 1.541570e-08 1.811561e-07
9.052759e-08 -1.019581e-07 7.980734e-08 -7.874934e-09 -7.478788e-09 1.719367e-07
1.392727e-08 -4.710168e-08 1.665698e-08 1.897049e-08 6.015977e-09 1.865378e-07
1.651865e-08 -6.527014e-08 4.811946e-08 1.452686e-08 2.245829e-08 1.841424e-07
6.512913e-08 -4.787678e-08 5.063241e-09 1.978927e-08 9.518930e-09 1.679838e-07
6.983701e-09 -4.612374e-08 4.771170e-08 1.482157e-08 2.134381e-08 1.862486e-07
9.229406e-09 -4.701299e-08 8.546129e-08 1.249757e-08 -1.256858e-08 2.028503e-07
5.373496e-09 -5.800106e-08 3.379809e-08 5.861909e-09 1.126153e-08 2.172930e-07
7.978019e-08 -8.209637e-08 3.575681e-08 -5.994582e-09 4.985940e-09 1.972250e-07
2.508838e-08 -5.243730e-08 4.346768e-08 7.624146e-09 -2.545215e-09 1.671063e-07
3.318463e-08 -6.740107e-08 6.424289e-08 -3.714973e-09 4.293027e-10 1.655934e-07
2.673605e-08 -6.870832e-08 4.220932e-08 2.883180e-09 2.127412e-09 1.679648e-07
9.051022e-08 -6.708952e-08 2.088087e-08 -8.199273e-09 -1.580496e-09 1.743559e-07
9.040460e-08 -1.029901e-07 5.563747e-08 -1.017207e-08 5.774747e-09 1.744421e-07
5.788360e-08 -8.434966e-08 5.225982e-08 7.021451e-10 -9.372707e-09 1.902968e-07
3.066140e-08 -4.995998e-08 4.645458e-08 -5.698707e-09 1.110997e-08 1.638662e-07
1.413370e-07 -1.130732e-07 1.798360e-08 1.318971e-08 -3.207032e-09 1.624057e-07
1.518481e-07 -1.199328e-07 7.603488e-08 8.991727e-09 1.991429e-08 1.343807e-07
1.637006e-07 -1.497244e-07 8.425934e-08 -5.399916e-09 1.248711e-10 1.047747e-07
2.481187e-07 -1.475781e-07 1.205549e-08 1.424495e-08 -4.070933e-09 1.539498e-07
5.865159e-08 -9.929391e-08 5.183800e-08 3.673196e-08 2.485368e-08 1.568460e-07
3.766932e-08 -1.354135e-07 8.639472e-08 6.468442e-08 2.322114e-08 1.533658e-07
1.964425e-07 -1.310256e-07 5.384756e-08 3.681634e-08 2.532463e-08 1.647345e-07
1.284655e-07 -1.028724e-07 5.212647e-08 7.422369e-08 4.020207e-08 1.509206e-07
4.455532e-08 -1.025118e-07 9.772070e-08 -7.758763e-09 9.883903e-09 1.317860e-07
4.424685e-08 -1.093418e-07 6.889492e-08 -7.716271e-11 2.948167e-08 1.468421e-07
1.242404e-07 -1.056173e-07 4.373239e-08 -1.309243e-08 2.304983e-08 1.416500e-07
8.702372e-08 -1.099341e-07 4.378165e-08 4.925366e-09 2.312175e-08 1.399655e-07
9.275336e-08 -1.152326e-07 8.209129e-08 -3.292127e-10 2.100948e-08 1.171742e-07
1.639261e-07 -1.233235e-07 8.988446e-08 -1.563293e-08 2.667658e-08 1.622103e-07
1.282223e-07 -1.022223e-07 8.918827e-08 -6.288018e-09 3.742212e-08 1.826457e-07
2.109698e-08 -6.699973e-08 -8.968081e-09 2.228088e-08 3.434923e-08 9.968508e-08
2.047024e-08 -4.947075e-08 4.684829e-08 1.203597e-08 1.147744e-08 8.600545e-08
2.809822e-08 -6.145519e-08 1.227885e-08 1.313879e-08 1.356388e-08 1.125676e-07
2.274171e-08 -5.547618e-08 9.941286e-08 1.787330e-08 6.406614e-08 9.696335e-08
2.116237e-08 -4.675357e-08 5.165529e-08 1.065259e-08 7.856156e-09 8.783383e-08
3.129739e-08 -5.656588e-08 7.927003e-08 1.789500e-08 3.182873e-08 1.316658e-07
1.995675e-08 -5.235275e-08 4.165331e-08 1.706394e-08 5.503821e-08 8.345608e-08
2.526949e-08 -4.805820e-08 1.716241e-08 1.646608e-08 7.088853e-11 1.035754e-07
2.465978e-08 -5.659651e-08 5.973243e-08 1.410798e-08 -5.169195e-10 1.020824e-07
1.372347e-07 -1.074107e-07 1.437136e-08 -1.376216e-08 2.881311e-08 1.663601e-07
1.518326e-07 -1.145696e-07 2.216750e-08 -2.125819e-08 1.865182e-08 1.333876e-07
1.819076e-07 -1.137038e-07 -1.587602e-09 -1.214727e-08 1.520540e-08 1.467774e-07
2.042288e-07 -1.222937e-07 -2.646885e-08 -2.545833e-08 3.264644e-08 1.950716e-07
1.745710e-08 -7.720990e-08 9.083946e-08 1.704048e-08 8.604113e-09 1.116356e-07
2.148257e-08 -9.487215e-08 4.475995e-08 2.226637e-08 3.063564e-08 1.113764e-07
8.698568e-08 -7.661223e-08 4.979398e-08 1.052670e-08 5.606268e-09 1.352521e-07
7.594139e-09 -7.750359e-08 5.301335e-08 1.893950e-08 9.362730e-09 9.937070e-08
-4.537709e-09 -8.202135e-08 8.000339e-08 3.356950e-08 3.748195e-08 9.269010e-08
4.767461e-09 -9.372434e-08 6.607322e-08 3.577457e-08 2.348893e-08 1.005446e-07
9.248696e-08 -9.502051e-08 7.092685e-08 -3.139053e-09 1.305524e-08 1.213446e-07
8.015534e-08 -9.212202e-08 -2.837658e-09 6.288155e-09 3.408625e-08 1.334456e-07
1.324656e-07 -1.116579e-07 -1.848162e-09 -1.357638e-08 2.762093e-08 1.118085e-07
1.313754e-07 -7.954898e-08 8.537085e-10 1.475025e-08 3.733769e-08 1.178861e-07
1.383946e-07 -8.986458e-08 -1.995613e-08 1.294877e-08 2.261250e-08 1.165553e-07
5.388252e-08 -9.092327e-08 8.408404e-08 2.100645e-09 2.334572e-08 1.904793e-07
7.359748e-08 -1.056634e-07 5.881468e-08 -1.693802e-08 3.794822e-09 1.706444e-07
5.515883e-08 -8.368575e-08 5.825299e-08 -9.426708e-10 -2.145651e-08 1.820926e-07
5.598614e-08 -7.625226e-08 8.111154e-08 3.401999e-09 2.092007e-08 1.875097e-07
1.963469e-08 -6.323936e-08 7.072740e-08 1.148497e-08 -1.552897e-11 1.587619e-07
2.000574e-08 -7.352701e-08 5.803927e-08 1.917315e-08 1.211614e-08 1.633289e-07
3.872688e-08 -7.408107e-08 6.250223e-08 2.083923e-08 1.734474e-08 1.668412e-07
1.147568e-07 -7.393420e-08 3.321621e-08 1.615782e-08 1.591942e-08 1.560972e-07
1.305987e-07 -8.931101e-08 7.046227e-08 -1.464197e-08 -1.664446e-09 1.875615e-07
2.677054e-08 -7.344278e-08 7.457650e-08 1.420248e-08 1.220501e-08 1.773981e-07
3.268635e-08 -5.770343e-08 8.063148e-08 2.397696e-08 -2.529877e-09 1.693404e-07
5.758006e-08 -1.246115e-07 9.679036e-08 -5.196154e-09 -7.559917e-09 1.163782e-07
7.948963e-08 -1.513969e-07 1.526606e-07 -5.288797e-09 -2.122831e-08 1.075001e-07
1.317982e-07 -1.320324e-07 7.810474e-08 -2.278344e-08 -2.212652e-08 1.157419e-07
1.201544e-07 -1.533049e-07 9.891979e-08 -6.093651e-09 -1.081488e-08 1.006287e-07
1.255332e-07 -1.630329e-07 2.761235e-07 2.237957e-09 1.121253e-08 1.350716e-07
1.407277e-07 -1.879731e-07 2.311977e-07 2.632677e-09 -3.001706e-08 1.169318e-07
1.308304e-07 -1.350621e-07 2.211093e-07 -2.457034e-08 -3.538885e-08 1.037572e-07
4.242988e-08 -6.731031e-08 8.770141e-08 -9.382910e-10 -1.211495e-08 1.039495e-07
7.145744e-08 -8.049822e-08 1.484245e-07 -1.205157e-08 -9.402359e-09 9.903214e-08
4.374301e-08 -8.164559e-08 9.052922e-08 -5.212045e-09 -2.737247e-09 1.115606e-07
1.281928e-07 -7.910538e-08 5.873511e-08 -2.159132e-08 -6.321293e-09 1.067439e-07
1.324192e-07 -1.133911e-07 1.486496e-07 -3.046669e-08 3.307755e-08 8.724493e-08
7.968820e-08 -9.971375e-08 1.084135e-07 -3.138758e-09 -1.164076e-08 1.393582e-07
4.841478e-08 -6.832979e-08 9.769847e-08 -1.342282e-08 7.089164e-09 1.056808e-07
3.668711e-08 -6.460227e-08 8.093426e-08 4.908097e-09 6.417655e-09 1.395120e-07
6.109103e-08 -8.725936e-08 9.503780e-08 1.095225e-09 8.178348e-09 1.472161e-07
1.192718e-07 -6.428273e-08 6.115379e-08 -9.410579e-10 1.029772e-08 1.089576e-07
5.319871e-08 -6.454934e-08 9.325135e-08 3.790997e-09 9.337071e-09 1.512468e-07
4.134184e-08 -6.103055e-08 9.688367e-08 1.632315e-08 -4.044486e-08 1.728961e-07
5.467077e-08 -9.112925e-08 1.291405e-07 1.474244e-08 -1.879137e-08 1.487043e-07
1.255468e-07 -1.356695e-07 9.478815e-08 1.626919e-09 -5.791102e-08 1.364939e-07
8.287741e-08 -9.691020e-08 1.356511e-07 -1.008610e-08 4.612039e-08 1.375539e-07
1.121965e-07 -1.117397e-07 1.420833e-07 -3.972669e-08 4.068632e-08 9.937945e-08
7.617020e-08 -9.347193e-08 1.111097e-07 -3.315524e-09 -1.727802e-08 1.366130e-07
7.320821e-08 -7.451896e-08 1.554725e-07 -1.673704e-08 5.638043e-08 1.393668e-07
9.958578e-08 -1.256753e-07 1.723864e-07 3.481431e-09 4.781972e-09 -2.076657e-08
1.465889e-07 -1.268281e-07 1.408658e-07 2.858134e-09 1.116585e-08 -3.843254e-09
1.473622e-07 -7.899534e-08 1.445357e-07 -7.177867e-09 5.897922e-08 -2.154279e-08
1.430998e-07 -1.476258e-07 2.047455e-07 3.440385e-08 2.474757e-08 -4.102238e-08
9.774974e-08 -7.033292e-08 9.255064e-08 -6.966140e-09 2.090564e-08 -9.254882e-08
6.383143e-08 -1.029055e-07 1.260237e-07 1.884748e-08 6.858982e-08 -6.571973e-08
3.384606e-08 -7.300893e-08 1.109384e-07 8.923471e-09 1.540924e-08 -2.985339e-08
9.014331e-08 -1.199470e-07 9.326633e-08 3.087936e-08 4.491007e-08 -5.126028e-08
1.985242e-08 -8.328240e-08 1.520834e-07 2.692560e-08 5.804918e-08 -4.269752e-08
1.868923e-07 -7.739248e-08 1.186548e-07 -9.464565e-09 8.498303e-08 -1.139740e-07
1.989663e-07 -1.133567e-07 1.040880e-07 -2.688281e-08 5.354607e-08 -1.129256e-07
8.734262e-08 -8.900561e-08 1.529261e-07 8.060720e-09 2.606833e-08 -3.830075e-08
1.080989e-07 -5.016281e-08 1.485658e-07 -2.427224e-08 8.210894e-08 -6.204220e-08
1.143528e-07 -5.936010e-08 1.736544e-07 4.523509e-09 -1.371561e-08 -7.614743e-08
1.073218e-07 -9.515236e-08 1.345041e-07 2.039051e-08 2.703244e-08 -9.435730e-08
9.501221e-08 -5.138618e-08 9.985146e-08 -8.109657e-09 1.827846e-08 -3.058798e-08
7.210620e-08 -7.343803e-08 1.684982e-07 2.994865e-09 3.579256e-08 3.699978e-09
1.094340e-07 -7.218777e-08 1.032369e-07 -5.486494e-09 2.029663e-08 -2.357388e-08
1.656491e-07 -7.014621e-08 7.826617e-08 -1.911647e-08 1.817981e-08 2.129766e-08
1.507706e-07 -1.140256e-07 1.406951e-07 1.047628e-08 1.955276e-08 2.558530e-09
1.524794e-07 -1.033639e-07 1.449932e-07 -1.232905e-08 3.106490e-08 -4.163099e-08
1.152541e-07 -4.611519e-08 1.649257e-07 -1.782669e-08 -2.119110e-08 -4.235886e-09
1.334461e-07 -1.515313e-07 1.494844e-07 -1.628422e-08 -2.233330e-08 -5.795683e-08
1.995968e-07 -1.542236e-07 1.245404e-07 -1.411498e-08 -1.080467e-08 -2.652326e-08
2.466652e-07 -1.622747e-07 1.930217e-07 -2.031940e-08 1.163765e-08 -9.165629e-08
2.511913e-07 -1.850925e-07 1.891951e-07 -2.921605e-08 -2.045178e-08 -1.223394e-07
1.271125e-07 -1.079694e-07 1.191228e-07 -3.156263e-08 2.029468e-08 -5.819444e-08
9.946260e-08 -1.049329e-07 1.424330e-07 -2.071567e-08 5.179738e-09 -3.226262e-08
2.263337e-07 -1.142512e-07 1.031132e-07 -3.758460e-08 3.671468e-08 1.070095e-08
2.264096e-07 -1.031192e-07 6.499766e-08 -3.623656e-08 -2.740420e-09 9.864975e-09
1.769731e-07 -1.167316e-07 1.173681e-07 -1.449274e-08 4.216708e-08 -1.059839e-07
1.877294e-07 -1.526329e-07 1.656031e-07 -4.672002e-08 1.179852e-09 -8.136603e-08
2.087289e-07 -1.391668e-07 1.236445e-07 -2.369163e-09 -2.229553e-09 -1.941205e-08
1.308189e-07 -4.132677e-08 8.729530e-08 -5.512729e-08 3.510787e-09 -1.074275e-07
1.717858e-07 -7.027904e-08 1.115835e-07 -7.980274e-08 6.249999e-08 -1.550946e-07
1.362014e-07 -7.347187e-08 1.469178e-07 -6.302790e-08 4.900080e-08 -6.611072e-08
1.969581e-07 -7.345969e-08 1.292769e-07 -6.634731e-08 4.951431e-08 -2.396993e-08
2.376758e-07 -1.409044e-08 8.788783e-08 -1.679115e-07 3.719551e-08 -7.935526e-08
8.292999e-08 -2.664643e-08 7.610968e-08 -8.083805e-08 5.086477e-08 -1.368185e-07
1.254890e-07 -4.378352e-08 1.437763e-07 -5.760669e-08 4.696747e-08 -6.028585e-08
1.197945e-07 -3.678540e-08 1.188276e-07 -4.375769e-08 2.519096e-08 -4.897429e-08
1.559870e-07 -6.854127e-08 1.164610e-07 -6.244731e-08 5.802674e-08 -5.574376e-08
2.434143e-07 -3.438343e-08 4.543804e-08 -6.245409e-08 1.848494e-08 -4.169891e-08
1.441043e-07 -3.426926e-08 1.161382e-07 -5.847479e-08 2.483166e-08 -7.961252e-08
1.404500e-07 -5.049784e-08 3.471845e-07 -5.075825e-08 -1.019572e-07 -2.358651e-08
1.784247e-07 -8.055790e-08 1.580372e-07 -3.500316e-08 -1.921953e-08 -2.471730e-08
2.149235e-07 -1.147904e-07 1.579741e-07 -1.454329e-08 -2.193693e-08 -2.036596e-08
1.504974e-07 -1.148466e-07 1.348553e-07 -6.086009e-08 2.882424e-08 -7.179988e-08
2.196353e-07 -1.771436e-07 1.497454e-07 -1.097490e-07 5.346664e-08 -1.108369e-07
1.964315e-07 -1.405367e-07 1.948173e-07 -7.936708e-08 2.845943e-09 -1.902576e-08
2.705947e-07 -1.661455e-07 1.337594e-07 -8.537740e-08 6.701791e-08 -9.078818e-08
2.551948e-07 -1.792308e-07 3.100313e-07 -6.893524e-08 1.046064e-07 -9.935162e-08
3.020611e-07 -1.538531e-07 1.471285e-07 -1.034227e-07 6.901905e-08 -5.052431e-08
2.411962e-07 -1.279477e-07 1.296667e-07 -1.061169e-07 2.984278e-08 -1.149356e-07
1.262556e-07 -1.695461e-07 4.502630e-07 -6.532571e-08 1.069147e-07 -2.650526e-07
1.624049e-07 -2.206923e-07 4.442992e-07 -5.370077e-08 1.295410e-07 -2.576676e-07
2.900267e-07 -2.017552e-07 4.413326e-07 -1.353510e-07 1.258447e-07 -2.705001e-07
2.137393e-07 -2.191916e-07 4.957649e-07 -8.985433e-08 2.145362e-07 -3.554655e-07
3.428243e-07 -1.771139e-07 3.175241e-07 -1.192698e-07 6.639697e-08 -3.289080e-07
3.306961e-07 -1.886607e-07 3.354489e-07 -1.313224e-07 1.143907e-07 -2.688922e-07
2.913062e-07 -2.386922e-07 3.293695e-07 -1.807261e-07 5.869664e-08 -3.468064e-07
4.637405e-07 -2.409105e-07 3.033153e-07 -1.759662e-07 5.088815e-08 -3.138743e-07
1.358670e-07 -8.243989e-08 3.129757e-07 -5.673640e-08 1.405083e-07 -4.000091e-07
1.150937e-07 -1.205506e-07 2.099435e-07 -2.041910e-08 1.598040e-07 -3.452857e-07
2.045164e-07 -7.754888e-08 2.325295e-07 -8.319317e-08 1.353932e-07 -2.924116e-07
9.501904e-08 -8.922552e-08 2.333356e-07 -2.295212e-08 1.871836e-07 -3.441942e-07
9.170641e-08 -7.109393e-08 2.794370e-07 -2.326833e-08 2.213089e-07 -3.525446e-07
6.361583e-08 -9.512830e-08 2.218101e-07 -5.137216e-08 1.819581e-07 -4.042550e-07
3.200222e-07 -2.425983e-08 2.333630e-07 -1.872260e-07 1.529587e-07 -3.475401e-07
2.218188e-07 -1.480774e-07 1.698918e-07 -1.206046e-07 9.597718e-08 -9.951179e-08
2.171427e-07 -1.510207e-07 3.419236e-07 -1.243400e-07 7.032694e-08 -1.371188e-07
2.996036e-07 -1.343956e-07 1.112805e-07 -1.621047e-07 4.005416e-08 -3.753574e-08
2.936584e-07 -1.683532e-07 1.561340e-07 -1.455039e-07 8.499655e-08 -4.445894e-08
1.606765e-07 -1.471724e-07 2.027551e-07 -1.152858e-07 9.036598e-08 -1.191457e-07
3.419482e-07 -1.365917e-07 1.811083e-07 -1.606678e-07 4.574803e-08 1.924890e-08
2.049762e-07 -1.646025e-07 1.680928e-07 -4.632843e-08 6.891682e-08 -3.029853e-08
2.353245e-07 -1.775278e-07 2.009691e-07 -1.223563e-07 9.821274e-08 -7.571538e-08
1.738799e-07 -1.060093e-07 1.180709e-07 -9.127335e-08 1.382330e-07 -8.059905e-08
1.485367e-07 -1.037425e-07 2.249343e-07 -6.334902e-08 6.540663e-09 -3.368221e-08
1.407314e-07 -5.540867e-08 2.640482e-07 -9.892439e-08 1.743825e-07 -2.127388e-08
1.753028e-07 -9.512175e-08 1.593514e-07 -1.288554e-07 9.467760e-08 -2.515259e-08
2.463809e-07 -1.957591e-07 2.419142e-07 -1.482552e-07 1.663859e-08 -5.450831e-08
2.338794e-07 -1.827634e-07 4.271148e-07 -1.434431e-07 -3.480173e-08 -8.977313e-08
2.432054e-07 -2.534604e-07 3.408198e-07 -1.733161e-07 5.478581e-08 -7.636538e-08
3.021941e-07 -2.645328e-07 2.214797e-07 -1.773209e-07 6.220754e-09 -1.868902e-08
3.286901e-07 -6.672558e-08 -4.086246e-08 -8.024820e-08 5.934897e-08 -8.565916e-08
3.270132e-07 -4.607344e-08 8.836272e-08 -8.329270e-08 -1.059686e-07 -1.116705e-07
3.355223e-07 -8.342262e-08 -7.691671e-09 -4.250414e-08 -4.464945e-08 -1.942891e-07
4.594876e-07 -6.078449e-08 -2.051372e-08 -1.040024e-07 -4.945040e-08 -1.568234e-07
2.902623e-07 -1.847491e-07 2.174028e-07 -1.723413e-07 9.417775e-08 -1.532345e-07
4.295207e-07 -2.771634e-07 2.900299e-07 -1.992456e-07 1.358254e-07 -2.415509e-07
2.899427e-07 -1.913912e-07 2.963051e-07 -1.708843e-07 1.192176e-07 -1.587504e-07
3.097064e-07 -2.558090e-07 3.106020e-07 -1.192447e-07 1.153716e-07 -1.854741e-07
4.552771e-07 -2.567364e-07 2.321079e-07 -1.655642e-07 1.479844e-07 -1.774519e-07
4.328784e-07 -1.921351e-07 2.327432e-07 -1.441834e-07 1.333166e-07 -1.912193e-07
4.099396e-07 -2.483720e-07 3.224153e-07 -1.816295e-07 9.079858e-08 -2.351208e-07
3.457591e-07 -2.623791e-07 3.321741e-07 -1.378811e-07 8.928386e-08 -2.035760e-07
3.960660e-07 -2.951446e-07 3.361811e-07 -1.736519e-07 1.381618e-07 -2.331217e-07
2.443912e-07 -8.648996e-08 3.484336e-07 -1.777094e-07 1.024847e-07 -3.271890e-07
2.459972e-07 -1.007805e-07 2.688291e-07 -1.718272e-07 7.816007e-08 -2.550423e-07
3.094451e-07 -1.376789e-07 3.338438e-07 -1.819033e-07 1.378184e-07 -3.496096e-07
2.928413e-07 -1.604940e-07 2.951828e-07 -1.503726e-07 8.084336e-08 -2.180032e-07
3.111050e-07 -1.664511e-07 2.908881e-07 -1.423422e-07 1.081151e-07 -3.139861e-07
4.250809e-07 -1.601372e-07 2.571457e-07 -1.822477e-07 1.103736e-07 -2.591500e-07
3.129550e-07 -1.501401e-07 4.905373e-07 -1.855352e-07 1.599643e-07 -3.132276e-07
2.403290e-07 -1.064572e-07 8.764420e-08 -9.275649e-08 1.419357e-07 -6.471717e-08
2.244897e-07 -5.923820e-08 1.449345e-07 -8.559362e-08 1.981244e-07 -4.346508e-08
2.074661e-07 -9.739379e-08 2.662184e-07 -1.113743e-07 1.846565e-07 -4.550337e-08
2.356560e-07 -9.457296e-08 1.324277e-07 -1.367618e-07 8.825266e-08 -6.549018e-09
1.584921e-07 -7.823537e-08 2.410465e-07 -1.019623e-08 5.236779e-08 -3.139061e-07
1.954462e-07 -7.665214e-08 3.910723e-07 -2.528993e-08 -7.220556e-08 -4.296002e-07
1.733527e-07 -5.515581e-08 2.404618e-07 -3.252480e-08 5.552665e-08 -3.143436e-07
1.897800e-07 -5.626332e-08 4.638834e-07 -2.189635e-08 -1.008897e-07 -4.388698e-07
1.891816e-07 -6.924464e-08 3.908058e-07 -2.487965e-08 -6.970674e-08 -4.321029e-07
1.850999e-07 -4.564592e-08 6.658806e-07 -4.831057e-08 2.229149e-07 -4.012990e-07
1.906636e-07 -5.585752e-08 4.208818e-07 -2.412938e-08 -9.807900e-08 -4.276453e-07
1.674933e-07 -4.456338e-08 3.758612e-07 -2.232374e-08 9.611212e-08 -2.575000e-07
1.969237e-07 -3.843395e-08 3.699880e-07 -3.743102e-08 1.479499e-07 -4.441504e-07
1.424193e-07 -8.234594e-08 4.195836e-07 -6.411570e-08 1.566903e-07 -2.735582e-07
1.246767e-07 -8.968937e-08 3.419484e-07 -3.805111e-08 1.495441e-07 -2.127047e-07
1.586434e-07 -8.745274e-08 4.674777e-07 -5.452000e-08 1.170977e-07 -3.094144e-07
2.469193e-07 -8.196076e-08 3.347483e-07 -9.513792e-08 1.538113e-07 -2.977151e-07
2.664301e-07 -1.435161e-07 4.304794e-07 -1.153132e-07 1.111634e-07 -2.544856e-07
1.887576e-07 -1.484434e-07 4.991694e-07 -8.227734e-08 1.912343e-07 -3.474661e-07
1.721856e-07 -8.308345e-08 4.344586e-07 -7.070082e-08 1.437901e-07 -3.128994e-07
1.597756e-07 -8.418921e-08 4.498626e-07 -1.142017e-07 1.561697e-07 -4.515498e-07
2.269743e-07 -1.248666e-07 5.453870e-07 -1.326379e-07 1.964445e-07 -5.568673e-07
1.619102e-07 -1.252049e-07 4.944175e-07 -1.275694e-07 2.235692e-07 -3.978315e-07
2.861746e-07 -1.150104e-07 4.206602e-07 -1.817033e-07 1.977871e-07 -4.115158e-07
3.748598e-07 -1.579493e-10 4.189273e-07 -3.140269e-07 2.445402e-07 -5.017692e-07
7.610692e-08 -8.877088e-08 4.273951e-07 -1.494070e-07 2.032422e-07 -4.390445e-07
1.406978e-07 -1.008740e-07 4.311215e-07 -1.091639e-07 1.938635e-07 -3.611570e-07
2.534782e-07 -1.042464e-07 4.616446e-07 -2.149665e-07 1.478735e-07 -3.976931e-07
3.092955e-07 -1.325926e-07 5.380211e-07 -2.233662e-07 2.217655e-07 -5.541260e-07
3.122595e-07 -1.828059e-07 4.687120e-07 -2.574651e-07 1.187712e-07 -3.752333e-07
3.180005e-07 -2.031379e-07 5.654136e-07 -2.405562e-07 2.224562e-07 -5.727534e-07
3.219012e-07 -2.400334e-07 1.050687e-06 -2.424905e-07 2.186474e-07 -5.288657e-07
4.457098e-07 -2.338866e-07 4.596464e-07 -2.700812e-07 2.025017e-07 -4.515704e-07
3.605691e-07 -1.969608e-07 4.584886e-07 -2.553261e-07 1.804022e-07 -4.965878e-07
1.437279e-07 -8.807837e-08 5.150430e-07 -9.531414e-08 1.966104e-07 -3.420855e-07
1.966870e-07 -9.810288e-08 5.090605e-07 -1.045827e-07 2.227152e-07 -4.278819e-07
2.721079e-07 -8.026760e-08 4.930009e-07 -1.531856e-07 2.045000e-07 -4.954912e-07
1.751787e-07 -8.533043e-08 5.927699e-07 -1.151703e-07 1.575763e-07 -4.606361e-07
1.463638e-07 -9.381252e-08 6.616352e-07 -8.092235e-08 6.485856e-08 -4.304858e-07
1.309555e-07 -1.874016e-07 7.749547e-07 -1.250257e-07 1.369600e-07 -4.266364e-07
2.942382e-07 -2.091320e-07 7.120799e-07 -1.832215e-07 8.480466e-08 -4.253044e-07
1.495347e-07 6.824350e-08 8.633093e-07 -3.210312e-07 3.997778e-07 -8.202618e-07
1.615195e-07 -1.773370e-08 7.764111e-07 -2.398045e-07 3.494348e-07 -7.404476e-07
2.102955e-07 -1.000682e-07 9.387135e-07 -3.979952e-07 4.312727e-07 -8.941824e-07
1.281817e-07 -1.245976e-07 8.358886e-07 -3.524606e-07 3.094527e-07 -7.028554e-07
1.443665e-07 -1.837867e-07 9.928455e-07 -3.278510e-07 3.821052e-07 -8.136988e-07
2.919840e-07 -1.264150e-07 8.836937e-07 -4.345326e-07 4.222415e-07 -8.048740e-07
2.143228e-07 -1.419752e-07 1.099643e-06 -3.992003e-07 4.393442e-07 -8.682599e-07
1.998470e-07 -2.261249e-07 7.144271e-07 -2.866110e-07 2.368268e-07 -4.246133e-07
2.078638e-07 -2.341966e-07 9.361180e-07 -2.909987e-07 1.946772e-07 -5.153148e-07
3.019169e-07 -2.170118e-07 6.640267e-07 -3.768633e-07 2.534495e-07 -4.108857e-07
3.121235e-07 -2.527814e-07 5.183789e-07 -3.820959e-07 1.458499e-07 -3.824296e-07
2.246725e-07 -2.694861e-07 9.459328e-07 -3.605738e-07 3.533918e-07 -8.818482e-07
2.105396e-07 -2.434825e-07 1.074070e-06 -3.439548e-07 2.774244e-07 -9.785843e-07
3.252665e-07 -1.893852e-07 9.942261e-07 -4.497431e-07 3.067116e-07 -9.419511e-07
3.468389e-07 -3.263044e-07 1.198182e-06 -4.818822e-07 3.013545e-07 -1.020310e-06
1.387426e-07 -4.550645e-07 1.226040e-06 -2.328807e-07 3.991260e-07 -9.370519e-07
1.792230e-07 -2.915014e-07 1.226789e-06 -3.176980e-07 3.492209e-07 -9.182940e-07
1.931236e-07 -3.070150e-07 1.228765e-06 -4.254349e-07 9.866553e-07 -9.593953e-07
2.332718e-07 -5.377039e-07 1.649093e-06 -3.260392e-07 4.467930e-07 -1.100560e-06
2.650436e-07 -2.788024e-07 6.925703e-07 -3.237308e-07 2.891750e-07 -4.402193e-07
2.385881e-07 -2.538628e-07 9.356738e-07 -3.100883e-07 2.055981e-07 -5.213521e-07
1.928611e-07 -3.735796e-07 1.232417e-06 -3.854720e-07 1.414821e-07 -5.377168e-07
3.396538e-07 -3.725995e-07 7.386397e-07 -4.207191e-07 1.713190e-07 -3.571594e-07
1.519282e-07 -8.628698e-08 3.862376e-07 -1.705229e-07 3.750002e-07 -4.057879e-07
1.039528e-07 -6.487500e-08 5.290201e-07 -1.215223e-07 1.367263e-07 -3.172880e-07
9.335503e-08 -2.849194e-08 5.602030e-07 -1.712858e-07 4.075046e-07 -2.925903e-07
1.765743e-07 -9.169870e-09 2.985907e-07 -2.688766e-07 2.488505e-07 -2.918214e-07
5.615895e-08 -1.432026e-08 8.008565e-07 -1.977886e-07 3.067299e-07 -8.218824e-07
8.223994e-08 -9.334180e-08 8.165904e-07 -1.339406e-07 3.436164e-07 -7.828125e-07
6.185865e-09 -1.995586e-09 7.136707e-07 -2.524751e-07 3.097503e-07 -6.748807e-07
2.064100e-08 -2.390457e-08 6.835263e-07 -1.512669e-07 4.254098e-07 -6.802448e-07
-2.125490e-08 -4.246540e-08 6.703814e-07 -1.000851e-07 3.581563e-07 -6.460493e-07
-1.055315e-07 -6.513319e-08 7.023426e-07 -1.664353e-07 3.520247e-07 -7.247914e-07
6.494750e-08 7.740492e-08 7.044035e-07 -3.348438e-07 2.581583e-07 -6.551521e-07
7.399750e-08 -7.861813e-08 8.801894e-07 -2.035080e-07 3.075320e-07 -7.836570e-07
9.117414e-08 -1.201133e-07 7.663793e-07 -1.380141e-07 3.815518e-07 -7.712215e-07
1.108433e-07 -8.447034e-08 8.140244e-07 -3.240355e-07 3.681776e-07 -7.248166e-07
6.775688e-09 -1.639171e-07 8.839294e-07 -2.329597e-07 3.537702e-07 -7.033397e-07
7.367430e-08 -1.040853e-07 8.159481e-07 -2.976229e-07 3.657382e-07 -7.307704e-07
6.728760e-08 -1.100090e-07 9.611022e-07 -2.894071e-07 3.766900e-07 -7.171793e-07
1.659190e-07 -5.000755e-09 9.741504e-07 -3.916646e-07 4.955489e-07 -8.436532e-07
1.802831e-07 -7.049474e-08 5.877555e-07 -2.349519e-07 2.693545e-07 -3.438171e-07
1.338434e-07 -1.079858e-07 8.484848e-07 -2.863455e-07 3.193625e-07 -3.639345e-07
1.393781e-07 -1.111142e-07 8.551876e-07 -2.882469e-07 3.387603e-07 -3.812915e-07
2.080873e-07 -7.306028e-08 3.893393e-07 -3.395982e-07 2.352081e-07 -2.206217e-07
2.566195e-07 -1.095242e-07 8.134985e-07 -2.905755e-08 2.495573e-07 -1.058782e-06
3.509011e-07 7.810488e-08 5.005517e-07 -1.786340e-07 6.391824e-07 -1.202039e-06
3.743680e-07 -9.706991e-08 1.081856e-06 -6.713039e-08 1.226872e-07 -1.319058e-06
4.087639e-07 -2.329612e-07 5.649168e-07 -7.751355e-08 3.906946e-07 -1.318810e-06
1.407659e-07 -2.253974e-07 6.337068e-07 -2.285745e-07 2.671318e-07 -5.165689e-07
4.252380e-07 -2.134537e-07 5.248687e-07 -3.320748e-07 2.923231e-07 -4.199151e-07
1.590438e-07 -3.019757e-07 5.242003e-07 -1.692623e-07 2.308397e-07 -3.442214e-07
2.621005e-07 -2.703241e-07 4.828713e-07 -2.969976e-07 2.156745e-07 -4.245914e-07
6.741719e-08 -7.821720e-08 1.165712e-06 -1.962074e-07 4.958828e-07 -8.079974e-07
1.088974e-07 -1.477590e-07 1.087081e-06 -1.517634e-07 5.325343e-07 -8.013817e-07
1.039794e-07 -1.450547e-07 1.233671e-06 -1.914881e-07 3.901066e-07 -8.937149e-07
1.614827e-07 -1.377701e-07 1.066433e-06 -2.996955e-07 5.059395e-07 -8.497351e-07
1.686659e-07 -2.373985e-07 1.155983e-06 -2.994872e-07 4.484726e-07 -8.199263e-07
2.670264e-07 -2.371336e-07 1.350191e-06 -3.469849e-07 7.368459e-07 -1.135286e-06
2.019389e-07 -3.243358e-08 1.031794e-06 -3.265695e-07 6.724075e-07 -9.909360e-07
1.519966e-07 -7.715208e-08 3.565755e-07 -2.130488e-07 3.493486e-07 -4.282361e-07
1.522674e-07 -1.915038e-08 3.468666e-07 -2.179340e-07 3.961639e-07 -4.347634e-07
1.080541e-07 -8.363051e-08 5.404046e-07 -2.759986e-07 4.076800e-07 -4.641332e-07
2.206881e-07 -1.197809e-09 4.091897e-07 -3.724656e-07 1.701327e-07 -2.006064e-07
8.366297e-08 8.689391e-08 9.227582e-07 -3.303026e-07 3.164108e-07 -7.701352e-07
5.705067e-08 -3.471059e-08 9.581280e-07 -2.260067e-07 3.836763e-07 -7.814905e-07
1.112614e-07 6.924170e-08 8.963880e-07 -4.002621e-07 2.819823e-07 -7.950846e-07
5.329059e-08 -1.020268e-07 1.044287e-06 -2.650886e-07 2.974408e-07 -8.925662e-07
8.224168e-08 -9.616456e-08 1.313716e-06 -3.076102e-07 2.005627e-07 -7.998972e-07
3.263981e-07 -5.858894e-09 1.049961e-06 -4.814083e-07 3.808376e-07 -9.095041e-07
1.090063e-07 -5.183322e-08 1.050206e-06 -3.414585e-07 3.826107e-07 -9.229899e-07
2.703840e-09 6.549919e-08 7.662261e-07 -2.346212e-07 3.208757e-07 -8.213142e-07
-1.424732e-08 1.079052e-07 6.134614e-07 -1.776861e-07 3.780897e-07 -7.888529e-07
2.092529e-08 1.133081e-07 6.847531e-07 -2.047250e-07 4.663291e-07 -7.146081e-07
9.286875e-08 1.262361e-07 5.454172e-07 -2.687675e-07 4.148943e-07 -7.502929e-07
1.508197e-07 3.133285e-07 4.553299e-07 -4.007196e-07 3.569702e-07 -7.710262e-07
-8.678924e-08 1.378264e-07 5.043494e-07 -1.963728e-07 3.421472e-07 -7.577979e-07
-1.762045e-08 1.066553e-07 6.284315e-07 -1.599564e-07 3.597970e-07 -6.560330e-07
1.892877e-08 5.119017e-10 9.278656e-07 -2.383750e-07 3.011351e-07 -7.699547e-07
1.195149e-08 -1.210175e-08 8.280132e-07 -1.803926e-07 2.190433e-07 -6.867549e-07
9.180637e-08 -5.917231e-08 9.270380e-07 -2.834623e-07 2.725906e-07 -7.544860e-07
1.244631e-07 1.239374e-08 9.015315e-07 -3.333476e-07 3.040723e-07 -7.855556e-07
1.133443e-07 -4.955964e-09 1.098336e-06 -3.194279e-07 4.468377e-07 -9.082921e-07
1.325536e-07 -4.082152e-08 9.075939e-07 -3.146688e-07 3.057428e-07 -8.045491e-07
1.555522e-07 -1.229725e-10 7.075840e-07 -3.455303e-07 3.215239e-07 -8.256367e-07
3.889359e-08 -1.215987e-08 1.091046e-06 -2.579749e-07 3.399254e-07 -7.499091e-07
4.405777e-08 3.044676e-08 1.069311e-06 -2.259204e-07 4.761911e-07 -7.651772e-07
5.551918e-08 -1.361466e-08 1.037714e-06 -2.368423e-07 3.488229e-07 -8.604152e-07
5.758603e-08 -1.402673e-08 1.003535e-06 -2.308116e-07 3.388195e-07 -8.513017e-07
1.249941e-07 2.189986e-08 1.177458e-06 -3.145098e-07 -5.902570e-08 -6.592221e-07
1.201690e-07 7.625933e-09 9.129796e-07 -3.228966e-07 2.054726e-08 -6.081799e-07
8.272051e-08 -3.023895e-09 1.199022e-06 -2.993980e-07 2.074633e-07 -7.939734e-07
2.577280e-07 -6.350328e-08 7.203921e-07 -4.571905e-07 2.227724e-07 -9.070027e-07
2.825756e-07 -1.427109e-07 1.263258e-06 -4.804967e-07 9.254204e-08 -7.904011e-07
3.353220e-07 -2.833146e-08 9.155964e-07 -5.622816e-07 3.160527e-07 -1.017276e-06
3.485307e-07 1.165425e-07 1.223468e-06 -7.430956e-07 3.854865e-08 -8.889301e-07
-3.970292e-07 -1.630575e-07 1.794973e-06 -2.741393e-07 4.048693e-07 -1.610054e-06
-6.199207e-07 -1.666748e-07 2.201141e-06 -3.034025e-07 4.393641e-07 -1.431877e-06
-4.658374e-07 -1.016648e-07 1.631189e-06 -4.043978e-07 1.066563e-06 -2.542807e-06
-3.004638e-07 4.374866e-08 2.213316e-06 -7.010577e-07 6.512090e-07 -2.210985e-06
1.219757e-07 2.740636e-07 4.977361e-07 -4.889502e-07 7.002419e-07 -4.981275e-07
4.396025e-08 2.620971e-07 9.570266e-07 -5.496446e-07 7.222109e-07 -7.255613e-07
-8.554244e-09 2.717321e-07 1.141534e-06 -5.991584e-07 6.755680e-07 -5.984471e-07
4.003205e-09 2.839181e-07 4.333197e-07 -6.634793e-07 7.524287e-07 -3.796023e-07
-1.494487e-07 1.083919e-07 1.320651e-06 -8.059074e-08 7.541094e-07 -9.498255e-07
-9.379086e-08 6.237490e-08 1.107577e-06 -4.709750e-08 6.026106e-07 -1.007899e-06
-2.584326e-07 1.283146e-07 1.203272e-06 -1.676194e-07 7.826177e-07 -7.962025e-07
-1.241885e-07 1.022980e-07 1.109780e-06 -5.353750e-08 8.832595e-07 -8.042703e-07
-1.535409e-07 1.258362e-07 7.676563e-07 -2.581417e-08 6.151441e-07 -6.611703e-07
-3.397443e-07 1.444595e-07 9.888752e-07 -1.472819e-07 6.972877e-07 -8.253747e-07
-8.699513e-08 3.596028e-07 9.782385e-07 -4.018072e-07 6.604181e-07 -8.103931e-07
-5.192905e-08 2.269524e-07 1.191009e-06 -2.165004e-07 8.368336e-07 -9.401604e-07
4.287365e-08 2.187056e-07 9.880964e-07 -2.353757e-07 6.080023e-07 -9.105625e-07
-2.116976e-07 1.763540e-07 1.387553e-06 -3.106085e-07 8.434107e-07 -9.828178e-07
-1.885827e-07 1.951582e-07 1.412873e-06 -3.319568e-07 6.057597e-07 -6.552128e-07
-7.925935e-08 2.522195e-07 9.916567e-07 -4.110432e-07 6.957677e-07 -7.927334e-07
6.471152e-08 2.897402e-07 1.153467e-06 -4.885771e-07 6.177617e-07 -6.291034e-07
-2.117047e-07 1.770830e-07 1.680522e-06 -3.104840e-07 8.914528e-07 -9.836394e-07
-1.118174e-09 8.885989e-08 5.931648e-07 -1.755319e-07 7.344398e-07 -5.310122e-07
1.243154e-07 4.079437e-07 4.475012e-07 -3.872510e-07 6.832249e-07 -5.451491e-07
-2.527626e-08 1.285041e-07 5.022654e-07 -1.573191e-07 6.280424e-07 -5.507376e-07
-2.872743e-08 1.559015e-07 5.928110e-07 -1.726625e-07 8.883728e-07 -5.271137e-07
2.352390e-07 5.852570e-08 6.129304e-07 -4.515851e-07 1.204975e-07 -8.454121e-07
2.372454e-07 2.697296e-08 9.467326e-07 -4.435935e-07 4.097203e-07 -1.028350e-06
2.553135e-07 -1.589783e-07 7.133148e-07 -5.550795e-07 2.829930e-08 -8.401335e-07
2.541227e-07 -2.977377e-07 1.356983e-06 -5.303876e-07 2.370179e-07 -9.326573e-07
-9.701296e-08 1.111905e-07 5.932028e-07 -2.744870e-07 6.834125e-07 -5.544748e-07
-1.243714e-07 2.488597e-07 7.582694e-07 -4.769398e-07 7.421367e-07 -5.588087e-07
6.726644e-09 1.678996e-07 6.371865e-07 -4.263194e-07 7.377851e-07 -6.503802e-07
7.270302e-08 2.771690e-07 7.569421e-07 -5.686533e-07 6.001840e-07 -3.911905e-07
-5.668152e-08 2.032220e-07 7.136412e-07 -3.917561e-07 6.968611e-07 -4.662193e-07
-8.437668e-08 1.878928e-07 1.116526e-06 -4.318016e-07 6.319276e-07 -7.080395e-07
-1.035874e-07 2.592968e-07 7.860145e-07 -5.103782e-07 6.291932e-07 -5.181088e-07
2.271921e-07 1.779713e-07 6.368419e-07 -2.892690e-07 7.409325e-07 -6.542856e-07
-7.445547e-08 1.200988e-07 8.786812e-07 -4.342223e-07 7.879706e-07 -6.676228e-07
2.121601e-07 3.927892e-08 4.345326e-07 -3.587875e-07 4.468879e-07 -1.481966e-06
1.877273e-07 2.923820e-08 3.856361e-07 -4.235981e-07 -7.272981e-08 -1.584344e-06
1.824676e-07 1.146578e-08 1.909267e-07 -4.342917e-07 -5.772742e-09 -1.535834e-06
5.105771e-07 3.458116e-07 -2.769679e-07 -8.049495e-07 4.008270e-07 -1.704304e-06
-3.042387e-07 2.485217e-08 1.262623e-06 -1.376510e-07 2.543044e-07 -1.655034e-06
-3.048140e-07 2.281808e-07 2.790354e-06 -1.665242e-07 1.787151e-06 -2.089231e-06
-3.202178e-07 1.762189e-08 2.325160e-06 -2.439755e-07 -2.056220e-07 -2.331626e-06
-1.810296e-07 2.854758e-07 1.334830e-06 -5.203059e-07 3.047288e-07 -2.323024e-06
-1.703845e-07 2.090405e-08 2.067393e-06 -3.760339e-08 1.543184e-06 -1.204746e-06
-1.526561e-07 7.611684e-08 1.646545e-06 1.595005e-08 1.303821e-06 -1.135420e-06
-9.489635e-08 9.014823e-08 2.350944e-06 5.074857e-08 1.130540e-06 -1.446609e-06
-3.586919e-07 3.866577e-08 1.864811e-06 -8.356970e-08 1.290140e-06 -1.057567e-06
-3.869370e-07 -6.773311e-08 1.932295e-06 -2.579851e-08 1.297319e-06 -1.076034e-06
-2.189931e-07 1.437699e-08 1.331435e-06 -1.454340e-07 2.098106e-06 -2.011391e-06
-1.180543e-07 3.100599e-07 4.624113e-07 2.779991e-08 2.189997e-06 -1.979874e-06
2.048642e-07 -2.212376e-07 1.649479e-06 -2.923617e-07 4.971320e-07 -1.603437e-06
1.618885e-07 -2.654896e-07 1.867745e-06 -3.477381e-07 5.985106e-07 -1.585469e-06
5.947859e-08 -2.606921e-07 2.292980e-06 -3.715671e-07 4.980156e-07 -1.695297e-06
5.095234e-07 -2.511479e-08 1.654579e-06 -7.828186e-07 8.557879e-07 -1.757219e-06
-1.373937e-07 5.485790e-08 1.412606e-06 -1.373655e-08 8.504986e-07 -9.091832e-07
-2.621011e-08 -4.700129e-08 1.354006e-06 1.783378e-08 9.283841e-07 -8.310539e-07
-1.674142e-07 -2.773759e-08 1.540743e-06 -6.439472e-08 1.047583e-06 -7.632432e-07
-2.177590e-07 -1.246629e-08 1.406690e-06 -1.328846e-07 9.967263e-07 -8.645138e-07
-2.096452e-07 2.032529e-07 1.285324e-06 -1.750385e-07 1.061704e-06 -8.813831e-07
-2.499245e-07 6.857616e-08 1.381725e-06 -5.878276e-08 8.489221e-07 -5.364997e-07
-1.944702e-07 9.057475e-09 8.564956e-07 -4.220137e-08 6.574418e-07 -5.570073e-07
-7.046432e-08 2.807341e-07 1.095235e-06 -1.391828e-07 1.027291e-06 -9.720289e-07
-6.281245e-08 1.811283e-07 1.093123e-06 8.153964e-09 1.287139e-06 -1.021027e-06
-1.821074e-07 1.948634e-07 1.296677e-06 -2.440629e-07 1.077204e-06 -8.494858e-07
-3.082185e-07 1.065953e-07 1.364852e-06 -1.308584e-07 1.211132e-06 -1.093196e-06
-3.049780e-07 1.179479e-07 2.199948e-06 -1.220734e-07 1.412960e-06 -1.035981e-06
-1.514510e-07 1.583873e-07 1.440517e-06 -2.022018e-07 1.206341e-06 -7.241290e-07
-1.826611e-07 2.108172e-07 1.156566e-06 -2.449432e-07 1.237411e-06 -8.907799e-07
-1.930428e-07 -2.070711e-07 1.970950e-06 1.070675e-07 1.689419e-06 -1.250844e-06
-1.023106e-07 -4.852729e-07 2.886576e-06 2.008616e-07 1.733491e-06 -1.334375e-06
-3.226573e-07 -2.540388e-07 2.153478e-06 -1.257752e-09 1.708979e-06 -1.054325e-06
-8.102342e-08 -1.032921e-07 2.952372e-06 3.241015e-07 1.302434e-06 -1.561602e-06
8.018538e-08 5.969878e-08 7.905030e-07 1.067769e-07 2.663702e-06 -2.057731e-06
6.818795e-08 -6.110084e-07 2.460682e-06 -8.622636e-08 2.622779e-06 -2.339379e-06
-3.181162e-07 -5.238291e-07 2.600615e-06 -9.389020e-10 1.620638e-06 -1.007723e-06
-3.320236e-07 9.606909e-08 1.233801e-06 -1.468912e-07 1.263715e-06 -1.108132e-06
-4.433313e-07 1.644195e-08 2.341320e-06 -2.429726e-07 1.407844e-06 -1.013800e-06
-2.957010e-07 6.278099e-08 1.593690e-06 -3.256839e-07 1.212742e-06 -6.674857e-07
-4.359671e-07 4.871144e-08 1.519653e-06 -3.778166e-07 1.174428e-06 -8.494944e-07
-2.124692e-07 -1.183968e-07 1.626507e-06 -1.363519e-07 1.053377e-06 -8.296113e-07
-3.705758e-07 1.159770e-07 1.561529e-06 -2.950590e-07 1.210643e-06 -7.233090e-07
-3.704383e-07 -2.535774e-07 1.309145e-06 -2.587258e-07 6.916291e-07 -6.302364e-07
-3.798164e-07 -5.450448e-08 1.717142e-06 -3.891237e-07 1.042327e-06 -7.189262e-07
-2.566699e-07 1.662966e-07 1.318566e-06 -6.556015e-07 1.157732e-06 -8.613456e-07
-4.251576e-07 1.257091e-07 2.471736e-06 -7.388505e-07 1.188291e-06 -8.502690e-07
-5.403078e-07 2.467711e-07 1.526914e-06 -7.537479e-07 1.268188e-06 -1.201710e-06
-6.545831e-07 3.991067e-07 1.809409e-06 -8.958434e-07 9.691798e-07 -1.196905e-06
-3.310616e-08 -8.594442e-08 1.383393e-06 -1.052706e-09 1.297159e-06 -7.065899e-07
-1.187655e-07 1.150349e-07 9.911390e-07 4.840553e-08 9.317247e-07 -4.749931e-07
-1.269146e-07 -4.867612e-08 1.036323e-06 1.125263e-11 9.177607e-07 -4.960182e-07
-4.220068e-08 1.185227e-07 1.365040e-06 -1.315351e-07 1.154107e-06 -6.920140e-07
7.332870e-09 7.556701e-07 1.040403e-06 -3.166166e-07 1.433179e-06 -5.457825e-07
-5.051140e-08 5.663741e-07 1.172756e-06 -2.962230e-07 1.269284e-06 -6.174787e-07
-1.503553e-07 6.347995e-07 1.304125e-06 -4.612574e-07 1.347044e-06 -7.196081e-07
-1.402732e-07 5.419015e-07 1.306777e-06 -3.486028e-07 1.303341e-06 -6.082591e-07
-1.356035e-07 5.842666e-07 6.232958e-07 -3.630383e-07 1.533323e-06 -6.646878e-07
-2.835072e-07 7.133580e-07 8.089783e-07 -5.413751e-07 1.254509e-06 -6.847492e-07
-2.308356e-07 6.377069e-07 1.277136e-06 -4.763236e-07 1.259871e-06 -9.149419e-07
2.337940e-08 3.267822e-08 1.387625e-06 -1.736888e-07 1.246377e-06 -3.764876e-07
-3.221227e-08 -4.877349e-08 1.463162e-06 -1.798325e-07 1.240923e-06 -5.036590e-07
-1.701083e-07 4.461709e-08 1.459312e-06 -2.210360e-07 1.278613e-06 -5.808380e-07
-4.654118e-09 2.475396e-08 1.646704e-06 -1.341281e-07 1.387310e-06 -4.030795e-07
-3.225607e-08 -3.082237e-08 1.163771e-06 -9.075850e-08 8.671811e-07 -1.626309e-07
-1.446194e-07 1.160093e-07 1.342960e-06 -1.142666e-07 1.060956e-06 -2.879302e-07
-1.281630e-07 5.309266e-07 1.135335e-06 -3.654078e-07 1.165626e-06 -5.293972e-07
-4.329262e-07 -6.626103e-07 2.854963e-06 -1.878229e-07 1.527985e-06 -1.456673e-06
-3.661204e-07 -1.757388e-07 1.489342e-06 -4.101939e-07 2.556371e-06 -1.575702e-06
-3.706226e-07 -7.943772e-07 3.346904e-06 -5.197270e-07 2.568836e-06 -1.739823e-06
-7.486081e-07 -5.101565e-07 3.999934e-06 -5.990310e-07 2.134918e-06 -1.680173e-06
-5.716198e-08 -1.248908e-08 2.440517e-06 -7.318443e-08 1.832539e-06 -8.149499e-07
-7.449914e-08 -1.452169e-07 2.454561e-06 -1.108739e-07 1.896631e-06 -9.920007e-07
-1.385428e-07 -1.821303e-07 2.444972e-06 -1.920650e-07 1.776160e-06 -8.477725e-07
-1.790490e-07 -2.274477e-07 2.581318e-06 -2.869291e-07 1.826208e-06 -9.170464e-07
-3.539498e-07 -1.730385e-07 2.468049e-06 -1.529158e-07 1.891493e-06 -1.067302e-06
-2.842842e-08 2.692636e-08 2.745534e-06 -4.762965e-07 2.256158e-06 -1.933651e-06
-1.333366e-07 6.429085e-07 7.056487e-07 -3.815772e-07 2.621963e-06 -1.358109e-06
-9.566127e-09 -7.086893e-07 2.415450e-06 -2.236325e-07 1.689766e-06 -1.090169e-06
-2.877828e-07 -2.468530e-07 2.851683e-06 -4.220437e-07 2.650135e-06 -1.652319e-06
1.590742e-08 -1.495512e-07 1.716211e-06 -3.603895e-07 2.201524e-06 -1.311837e-06
-2.091516e-07 -2.701039e-07 7.009789e-07 -5.744110e-07 2.857342e-06 -7.763334e-07
-1.847270e-07 -3.941642e-07 2.816777e-06 -3.431290e-07 2.359826e-06 -1.217385e-06
-2.562880e-08 3.159798e-07 2.393637e-06 -3.880667e-07 2.811615e-06 -1.420725e-06
-1.024575e-07 -3.223787e-07 2.386601e-06 -6.628547e-07 2.881137e-06 -1.395511e-06
-5.662518e-07 -1.341413e-08 2.416523e-06 -4.042095e-07 2.652213e-06 -7.698278e-07
-3.254612e-07 1.215692e-07 2.659847e-06 -6.981341e-07 2.887415e-06 -1.539798e-06
-8.049771e-08 8.899595e-07 1.048604e-06 -3.479640e-07 1.353703e-06 -3.659691e-07
-1.544971e-07 9.081305e-07 1.040221e-06 -1.438464e-07 1.318908e-06 -3.069884e-07
-2.879893e-07 9.292459e-07 1.135820e-06 -3.601791e-07 1.412763e-06 -3.661137e-07
-3.925548e-07 8.633673e-07 1.057937e-06 -2.667400e-07 1.331600e-06 -2.261311e-07
-4.118480e-07 8.837857e-07 1.331453e-06 -2.796151e-07 1.249591e-06 -2.135530e-07
-4.047110e-07 1.070569e-06 1.182401e-06 -4.863244e-07 1.554535e-06 -1.723865e-07
-2.857372e-07 8.936993e-07 8.837978e-07 -3.411292e-07 1.784469e-06 -3.524910e-07
-9.380784e-08 -3.280379e-08 1.385445e-06 -1.275961e-07 1.106798e-06 -1.811447e-07
-9.754806e-08 5.758000e-08 1.174109e-06 -1.845640e-08 9.070266e-07 -8.769464e-08
-1.083283e-07 7.434037e-08 1.355917e-06 -9.848675e-08 1.094001e-06 -2.110143e-07
-3.194018e-07 9.688041e-08 1.381207e-06 -1.958945e-07 1.016213e-06 -2.668770e-07
-3.246210e-07 7.800523e-07 1.246730e-06 -2.450552e-07 1.215221e-06 -2.401460e-07
-2.310131e-07 2.014219e-07 1.206625e-06 1.503031e-08 1.020526e-06 -7.950355e-08
-1.441140e-07 -7.309633e-08 9.633020e-07 -2.547715e-08 7.288707e-07 -4.392744e-08
-1.165638e-07 -3.675017e-08 2.217972e-06 -1.011623e-07 1.572331e-06 -6.144993e-07
-1.953642e-07 -8.765782e-08 2.811888e-06 1.237250e-07 1.556884e-06 -6.091341e-07
-4.103363e-07 -2.008051e-08 2.428183e-06 -1.052312e-07 1.650874e-06 -4.165932e-07
-3.124157e-07 6.199840e-08 2.850305e-06 6.968638e-08 1.425408e-06 -6.642626e-07
-3.121015e-07 6.282460e-07 3.906766e-07 -5.672124e-08 2.793770e-06 -1.370866e-06
-3.225656e-07 7.492363e-08 3.452282e-06 -2.299115e-07 2.284497e-06 -1.923248e-06
-4.476896e-07 -3.344123e-08 2.455741e-06 -7.206462e-08 1.632484e-06 -4.197072e-07
-6.126536e-07 2.261132e-07 1.438420e-06 -1.793865e-07 8.763879e-07 1.685167e-08
-6.381046e-07 4.815605e-07 1.221919e-06 -1.509936e-07 8.005838e-07 9.111159e-08
-6.934827e-07 4.872479e-07 1.412282e-06 -1.612140e-07 8.347794e-07 -3.857078e-09
-8.264781e-07 6.058508e-07 1.797544e-06 -2.684622e-07 1.189111e-06 6.924095e-08
-7.052857e-07 9.080914e-07 1.268894e-06 -2.367069e-07 1.387465e-06 -2.581471e-07
-5.679842e-07 9.158233e-07 1.453361e-06 -2.755380e-07 1.348241e-06 -3.221416e-08
-7.876839e-07 1.238106e-06 1.361940e-06 -4.264151e-07 1.728459e-06 -8.993113e-08
-6.120355e-07 1.104556e-06 1.449026e-06 -3.871291e-07 1.539009e-06 -2.922974e-07
-7.907154e-07 -1.171555e-07 3.037052e-06 -9.846875e-09 1.591543e-06 -5.024256e-07
-7.943303e-07 6.440554e-07 1.366534e-06 -8.628289e-08 3.075231e-06 -4.244503e-07
-8.171314e-07 1.569198e-07 4.119700e-06 -2.005895e-07 2.800574e-06 -5.970340e-07
-1.298479e-06 3.171273e-07 4.123307e-06 -2.468247e-07 2.688566e-06 -7.569446e-07
-7.553141e-07 9.187764e-07 1.309839e-06 -2.373940e-07 1.416610e-06 -3.039565e-07
-8.647137e-07 9.122151e-07 1.536639e-06 -2.049607e-07 1.397884e-06 -9.193439e-08
-1.040440e-06 1.031261e-06 1.578650e-06 -1.994288e-07 1.559923e-06 -2.616659e-07
-1.291806e-06 1.219676e-06 1.204444e-06 -3.258769e-07 1.574229e-06 -6.264899e-07
-4.534697e-07 1.330990e-07 1.690308e-06 -7.902858e-08 7.428956e-07 -1.835201e-07
-4.907781e-07 3.166122e-07 1.418124e-06 -1.109794e-07 7.746703e-07 -7.994360e-08
-4.225906e-07 2.853459e-08 1.147381e-06 -2.110338e-07 4.867578e-07 -2.217788e-07
-5.525450e-07 1.857361e-07 1.725134e-06 -1.772978e-07 7.955264e-07 -2.182846e-07
8.169627e-08 1.067327e-06 8.309299e-07 1.565287e-07 1.323280e-06 -2.173996e-07
-1.943940e-07 1.173586e-06 8.504265e-07 2.173862e-07 1.370318e-06 -2.107645e-07
-7.403780e-08 1.226519e-06 8.897700e-07 8.158570e-08 1.293146e-06 1.163932e-07
-2.217821e-07 1.316994e-06 1.434331e-07 8.666113e-08 1.444882e-06 -2.599966e-07
1.509721e-07 -2.471347e-07 1.494655e-06 -1.484000e-07 2.055138e-06 3.396529e-07
1.013015e-07 -1.933942e-07 1.430683e-06 -1.578031e-07 1.829271e-06 6.072025e-07
1.284532e-07 4.732814e-07 -1.637754e-07 -3.080165e-07 3.590432e-06 4.148727e-07
-1.133803e-07 3.152446e-07 1.564930e-06 -1.120267e-07 3.163720e-06 8.846843e-07
-2.346673e-07 2.661506e-07 1.097752e-06 -3.642836e-08 8.777278e-07 -1.908057e-07
-2.350276e-07 4.746843e-07 9.540559e-07 -2.079817e-08 8.617303e-07 -1.771055e-07
-4.839676e-07 6.043319e-07 1.183730e-06 -4.123904e-07 1.100851e-06 -3.492597e-07
-3.704832e-07 -1.553164e-08 1.137204e-06 -1.597029e-07 8.858770e-07 -1.837288e-07
-1.211978e-07 1.170888e-07 1.209356e-06 -1.297493e-08 8.426155e-07 -3.037906e-07
-1.245196e-07 2.684687e-07 1.033150e-06 -4.425987e-08 9.108168e-07 -2.728819e-07
-1.622488e-07 1.172967e-07 1.045691e-06 3.150714e-08 8.856896e-07 -2.623121e-07
-1.576049e-07 -2.433657e-08 9.664189e-07 4.761171e-08 6.750744e-07 -2.772826e-07
4.732861e-08 5.460180e-08 1.053580e-06 -1.151604e-07 6.756856e-07 1.005965e-07
-1.024761e-08 1.345531e-07 1.330782e-06 -1.080712e-07 7.127147e-07 5.196264e-08
-1.664240e-07 3.861326e-08 1.272016e-06 -2.263926e-08 6.435876e-07 -1.529764e-08
8.059455e-08 4.721835e-08 1.220297e-06 -7.885864e-08 6.102593e-07 5.497801e-08
8.054460e-08 -4.209173e-09 6.262055e-07 -6.735404e-08 3.509347e-07 1.554261e-07
-3.697193e-08 1.377540e-07 1.076028e-06 -9.443715e-08 6.181919e-07 2.356721e-08
-1.438750e-07 2.093881e-07 1.217179e-06 -8.899985e-08 7.544527e-07 -7.864100e-08
3.226792e-08 1.629196e-07 1.160133e-06 -1.223601e-07 1.208895e-06 -1.326621e-07
-2.551389e-08 3.516914e-07 1.110247e-06 -1.392650e-07 1.384409e-06 -2.575735e-07
-3.739934e-08 3.506548e-07 9.308771e-07 -1.323358e-07 1.378802e-06 2.228340e-08
-1.387319e-07 3.486648e-07 1.257363e-06 -1.158790e-07 1.392842e-06 -2.154396e-07
-1.693562e-07 1.490652e-07 1.069397e-06 -3.339172e-08 1.596450e-06 -3.078511e-07
-7.373441e-08 3.077909e-07 1.287073e-06 -1.746285e-07 1.360530e-06 -3.470776e-08
-6.460520e-08 4.556864e-07 9.774596e-07 -1.251646e-07 1.295837e-06 -6.291513e-09
-2.694091e-08 2.760381e-08 1.033375e-06 -7.456488e-08 5.341286e-07 1.630522e-07
-1.187110e-07 1.542498e-07 8.776120e-07 -5.430076e-08 4.382980e-07 2.394454e-07
4.491860e-10 1.450120e-07 8.055129e-07 -1.265595e-08 4.742669e-07 9.464157e-08
-1.720076e-07 1.528366e-07 9.970669e-07 -4.444791e-08 4.351149e-07 2.174870e-07
-1.629756e-07 3.628468e-07 8.861684e-07 -9.019340e-08 5.675640e-07 2.021011e-07
-1.166817e-07 1.085136e-07 1.009082e-06 7.200767e-09 4.837269e-07 1.220254e-07
-2.598713e-08 3.517473e-08 4.960193e-07 4.148388e-08 2.883437e-07 1.851430e-07
-5.528214e-09 1.578006e-07 1.267446e-06 -1.275954e-07 1.017412e-06 -5.088213e-08
-4.804100e-08 6.926502e-08 1.314400e-06 -1.147456e-07 8.471740e-07 7.535555e-09
-1.449043e-07 1.526270e-07 1.399336e-06 -8.979564e-08 1.026407e-06 2.546216e-08
-1.310476e-08 1.472604e-07 1.115502e-06 -6.168604e-08 9.783078e-07 7.469087e-08
-9.626961e-09 4.293220e-07 5.734201e-07 -1.283826e-07 1.357441e-06 -1.286643e-07
-4.482456e-08 1.984573e-07 1.376285e-06 -2.243536e-07 1.347713e-06 -1.941375e-07
-1.564140e-07 -7.633661e-08 1.365682e-06 -3.568808e-08 1.134889e-06 4.585992e-09
-2.162053e-07 5.635399e-07 5.479983e-07 1.950099e-08 2.394966e-07 1.818162e-07
-2.061519e-07 5.836776e-07 3.983618e-07 1.200146e-07 5.406500e-07 1.724351e-07
-1.968432e-07 6.153140e-07 4.942909e-07 1.620158e-07 4.543476e-07 1.383575e-07
-2.733686e-07 6.849865e-07 2.755200e-07 1.232074e-07 4.799637e-07 2.737385e-07
-1.846419e-07 2.587676e-07 5.630463e-07 -1.403867e-08 3.638015e-07 2.269005e-07
-1.844812e-07 3.709891e-07 5.708282e-07 -3.994630e-08 3.775755e-07 2.249336e-07
-2.424292e-07 3.514050e-07 4.923312e-07 7.676145e-08 2.719831e-07 2.909764e-07
-1.983783e-07 4.229800e-07 5.122392e-07 -3.407971e-09 3.491325e-07 1.507733e-07
-2.307189e-07 4.609438e-07 5.083048e-07 -3.441214e-08 5.089223e-07 2.177789e-07
-3.726941e-07 4.188024e-07 7.450848e-07 4.296279e-08 5.025267e-07 2.341812e-07
-2.432173e-07 3.479011e-07 6.847852e-07 7.842755e-08 4.287553e-07 2.218586e-07
-4.008011e-08 6.356317e-07 4.765885e-07 1.767443e-07 2.110345e-07 2.307867e-09
-1.070127e-07 5.361830e-07 3.931700e-07 9.089036e-09 3.273707e-07 9.184020e-08
-1.291964e-08 4.502571e-07 5.088375e-07 2.036675e-07 2.769311e-07 -7.265337e-08
-9.513564e-08 6.743779e-07 1.328789e-07 8.631812e-08 4.406973e-07 1.084345e-07
-3.471102e-07 4.810387e-07 4.945735e-07 1.479550e-07 1.591151e-07 3.484421e-07
-3.477391e-07 6.061962e-07 4.028026e-07 1.166183e-07 4.709706e-07 3.561695e-07
-4.124357e-07 5.701854e-07 6.736410e-07 1.795919e-07 4.344689e-07 3.017457e-07
-4.683208e-07 6.157652e-07 6.410642e-07 2.271107e-07 3.272972e-07 3.632223e-07
-2.747273e-07 7.645260e-07 5.945173e-07 3.127136e-09 3.298357e-07 2.590781e-07
-3.682126e-07 3.593799e-07 7.794448e-07 2.035276e-07 4.735841e-07 2.244538e-07
-3.696205e-07 9.470214e-07 8.698298e-07 2.518790e-07 2.419625e-07 2.031822e-07
-4.111047e-07 7.313360e-07 6.952938e-07 1.365201e-07 4.363163e-07 3.036613e-07
-1.486265e-07 2.605795e-07 7.109477e-07 -5.488806e-08 4.684486e-07 1.518365e-07
-1.666454e-07 4.360448e-07 6.339891e-07 -7.445856e-08 4.785877e-07 1.780035e-07
-1.486944e-07 4.261693e-07 5.422663e-07 1.598915e-08 5.175855e-07 2.475154e-07
-2.341671e-07 4.232022e-07 6.521981e-07 4.563047e-08 4.891236e-07 2.478305e-07
-2.509389e-07 1.938202e-07 7.600965e-07 1.145959e-07 5.645318e-07 2.022268e-07
-3.278873e-07 4.086639e-07 7.678741e-07 4.567909e-08 5.100541e-07 2.441545e-07
-2.629247e-07 5.078645e-07 6.400880e-07 1.260853e-07 4.220022e-07 1.793591e-07
-7.865626e-08 2.379823e-07 5.119301e-07 3.738193e-09 3.344854e-07 4.026169e-09
-5.652557e-08 4.518125e-08 4.800476e-07 2.451413e-08 4.464145e-07 -3.643506e-08
-5.198070e-08 -3.174395e-08 3.837357e-07 4.267455e-08 1.587670e-07 -6.152901e-08
-9.068019e-08 3.764278e-07 3.692644e-07 -1.010809e-08 3.520460e-07 -1.705806e-08
-3.779765e-07 1.073571e-07 1.311978e-06 -3.385888e-07 7.860204e-07 7.737339e-07
-4.276601e-07 2.476424e-08 1.562927e-06 -1.769749e-07 6.021434e-07 7.140003e-07
-5.069483e-07 4.485957e-07 5.696950e-07 -2.283721e-07 1.262989e-06 1.049870e-06
-5.127628e-07 2.206272e-07 2.423459e-06 -1.919642e-07 9.207410e-07 1.104947e-06
-2.183014e-07 2.277227e-07 7.886229e-07 6.281665e-08 3.418510e-07 1.994186e-07
-2.185194e-07 -2.793283e-08 6.930791e-07 3.145652e-08 1.214595e-07 1.538712e-07
-2.070141e-07 2.318745e-07 7.337999e-07 1.379593e-07 3.738450e-07 1.762519e-07
-2.672424e-07 3.495327e-07 7.002622e-07 1.237576e-07 3.919410e-07 2.214998e-07
-1.263232e-07 1.537005e-07 5.698255e-07 -5.614228e-08 3.975578e-07 2.768311e-07
-1.425981e-07 2.511831e-07 6.528089e-07 -6.031128e-08 4.013070e-07 2.916617e-07
-1.812647e-07 1.453423e-07 6.562093e-07 -1.090168e-08 3.852717e-07 2.024874e-07
-1.393184e-07 1.609837e-07 6.590189e-07 -9.257443e-08 3.130197e-07 2.230325e-07
-1.367373e-07 -1.132029e-08 5.318349e-07 -5.711567e-08 1.581642e-07 2.657835e-07
-1.150160e-07 2.208778e-07 6.551985e-07 4.570477e-08 4.070777e-07 3.175606e-07
-2.341232e-07 3.721205e-07 6.282775e-07 -1.583877e-08 4.260864e-07 2.448251e-07
-1.518091e-07 2.077864e-07 5.380350e-07 2.861055e-09 3.064280e-07 1.830541e-07
-1.140056e-07 1.568685e-07 5.104842e-07 -2.171948e-08 1.650053e-07 1.176688e-07
-1.756294e-07 2.393605e-07 4.419209e-07 3.065506e-08 2.989396e-07 1.077103e-07
-1.581602e-07 2.468585e-07 3.725070e-07 1.904317e-08 2.219923e-07 2.478839e-07
-1.957855e-07 2.162645e-07 6.340900e-07 5.297392e-08 2.984755e-07 1.647391e-07
-3.121446e-07 2.202939e-07 7.506513e-07 7.639257e-08 3.226589e-07 2.203468e-07
-1.839367e-07 2.417451e-07 5.420157e-07 1.968332e-08 3.914821e-07 1.349625e-07
-1.109033e-07 1.206685e-07 6.955180e-07 -2.368313e-08 3.671088e-07 1.026167e-07
-6.799176e-08 4.238692e-08 7.054904e-07 -4.790864e-08 1.418571e-07 1.046794e-08
-1.580086e-07 1.198671e-07 7.484734e-07 -1.502431e-08 3.623598e-07 2.152939e-07
-7.147833e-08 1.198036e-07 6.198596e-07 -1.678881e-08 3.590063e-07 2.031746e-07
-1.458597e-07 1.414282e-07 3.772620e-07 6.192887e-08 5.246669e-07 6.755713e-08
-1.788498e-07 4.944337e-08 1.011428e-06 3.276823e-09 5.199439e-07 1.166388e-08
-1.974272e-07 -4.035305e-08 8.486221e-07 7.630642e-08 3.823292e-07 1.678879e-07
-9.725253e-08 7.644056e-08 5.855500e-07 -2.916746e-08 3.162078e-07 2.402911e-07
-4.278006e-08 3.850781e-08 5.090087e-07 -7.535832e-08 1.786371e-07 1.208421e-07
-1.105158e-07 3.490710e-08 4.761664e-07 -5.370424e-08 1.563668e-07 1.208956e-07
-1.793659e-07 3.159812e-08 5.279327e-07 -3.348029e-08 1.684890e-07 1.193744e-07
-1.855817e-07 1.423236e-07 5.906317e-07 -2.391911e-08 2.650313e-07 1.400083e-07
-7.362349e-08 6.483211e-08 5.961689e-07 -1.440893e-08 2.870146e-07 1.008153e-07
-8.571101e-08 -4.423826e-08 5.533034e-07 -6.394155e-08 1.535802e-07 7.561223e-08
-1.618854e-07 2.213787e-07 4.100669e-07 6.867641e-08 2.570203e-07 4.551762e-08
-9.420973e-08 2.647934e-07 5.251496e-07 1.249069e-07 1.862206e-07 -4.479035e-08
-2.415078e-07 2.723180e-07 5.488805e-07 1.381360e-07 2.042502e-07 4.453295e-08
-2.481275e-07 3.102746e-07 5.165082e-07 1.822234e-07 3.179408e-07 2.973828e-08
-1.912172e-07 2.071547e-07 3.517922e-07 5.404532e-08 8.237027e-09 1.123390e-07
-1.774744e-07 2.663092e-07 5.188363e-07 8.618595e-08 1.440765e-07 1.629282e-07
-1.266992e-07 2.645303e-07 3.471044e-07 1.111386e-07 -3.936693e-08 -4.867369e-09
-2.395089e-07 2.767226e-07 4.399387e-07 1.646240e-07 -2.908177e-09 8.007261e-08
-1.873210e-07 2.378191e-07 4.101203e-07 4.264089e-08 2.559272e-07 4.611308e-08
-2.348291e-07 2.785698e-07 5.026235e-07 7.031291e-08 1.904611e-07 3.063889e-08
-2.010745e-07 3.246562e-07 4.904898e-07 1.134641e-07 3.208521e-07 1.023934e-07
-2.399415e-07 2.619981e-07 4.776042e-07 1.902975e-07 3.551542e-07 7.839109e-08
-1.668575e-07 2.064015e-07 3.506243e-07 8.111279e-08 1.010567e-08 1.039903e-07
-2.410682e-07 2.004259e-07 6.168532e-07 1.031079e-07 3.816611e-08 5.253224e-08
-2.713744e-07 2.560418e-07 3.050524e-07 1.740801e-07 -5.828256e-08 1.297357e-07
-2.491952e-07 2.576197e-07 5.664971e-07 1.453769e-07 1.447897e-07 3.230106e-08
-8.946939e-08 3.113510e-07 2.472444e-07 -4.372693e-08 2.151103e-07 1.198731e-07
-1.373678e-07 3.657465e-07 3.567955e-07 -2.381395e-08 1.310048e-07 1.227127e-07
-8.870146e-08 2.156224e-07 2.970296e-07 1.460662e-07 2.510910e-07 8.032719e-08
-1.358116e-07 4.747081e-07 3.007983e-07 7.371494e-08 1.699478e-07 1.411576e-07
-1.051545e-07 5.301663e-08 8.700808e-07 -1.447793e-07 9.011033e-08 1.986199e-07
-1.581014e-07 8.387566e-08 8.970141e-07 -4.019822e-08 6.076248e-07 2.710847e-07
-1.563701e-07 -4.314648e-09 7.443055e-07 -8.293014e-08 1.959102e-07 1.173047e-07
-1.030344e-07 1.468601e-07 6.119745e-07 1.074824e-08 4.884873e-07 3.559903e-07
-1.172500e-07 4.156567e-08 9.841360e-07 -2.938746e-08 5.597519e-07 3.618162e-07
-1.611533e-07 4.724725e-08 3.371679e-07 -9.305398e-08 4.237516e-08 2.239501e-07
-1.582745e-07 1.546873e-07 8.564592e-07 -5.982517e-08 5.680507e-07 2.632975e-07
-1.369057e-07 7.459001e-08 7.211259e-07 -2.565751e-08 3.260681e-07 1.392617e-07
-1.522643e-07 1.073426e-07 9.254032e-07 -6.577648e-08 2.325938e-07 3.172483e-07
-8.033734e-08 1.304812e-07 3.529381e-07 -4.062096e-08 9.611479e-08 -7.717019e-09
-8.295449e-08 1.716594e-07 3.950636e-07 -8.758071e-08 1.490552e-07 3.887361e-08
-9.864345e-08 1.684793e-07 1.455312e-07 -4.058754e-08 2.330212e-07 1.056585e-07
-7.882613e-08 1.645470e-07 3.717675e-07 1.685307e-08 1.749772e-07 -1.092528e-08
-9.061068e-08 -2.195053e-08 4.785555e-07 6.397405e-08 1.927884e-07 -1.179987e-08
-1.465575e-07 1.841188e-07 4.604971e-07 -3.499203e-08 1.479029e-07 6.342484e-08
-1.414380e-07 2.460354e-07 2.230560e-07 -9.793594e-09 1.493412e-07 9.893247e-08
-3.714947e-08 7.019944e-08 2.073933e-07 -7.570213e-08 5.195600e-08 1.094709e-07
-5.095148e-08 1.088129e-07 3.522928e-07 -1.095302e-07 5.272743e-08 1.817015e-07
-6.425090e-08 5.818212e-08 2.331811e-07 -2.166476e-08 4.271117e-08 6.676475e-08
-4.858495e-08 8.026936e-08 2.594315e-07 -1.190283e-07 -7.583342e-08 8.708331e-08
-3.489952e-08 -1.687531e-08 2.505080e-07 -1.127715e-07 -1.139289e-07 9.874307e-08
1.625998e-08 1.598474e-07 2.744085e-07 -1.138552e-08 4.543108e-08 1.611972e-07
-1.134606e-07 1.859229e-07 2.323964e-07 2.524910e-08 5.793872e-08 8.550013e-08
-3.030835e-08 9.399977e-08 2.847068e-07 -4.601486e-08 8.680084e-08 -2.062319e-08
-3.229763e-08 -1.893618e-08 3.102912e-07 -1.928751e-08 1.663552e-07 -5.826328e-08
-3.602216e-08 -3.463069e-08 1.871940e-07 -3.515999e-08 -7.920364e-08 -9.248738e-08
-7.323309e-08 1.760301e-07 2.716394e-07 -3.771784e-08 9.206125e-08 -4.939467e-08
-2.133046e-09 2.150095e-07 1.361696e-07 1.861486e-08 1.044347e-07 1.975297e-08
-1.048295e-07 2.054517e-07 3.450660e-07 5.250232e-08 1.541501e-07 -6.618690e-08
-4.653717e-08 1.268968e-07 3.154614e-07 2.701886e-08 9.283915e-08 -5.122593e-08
-6.517193e-08 3.314135e-07 6.166350e-08 4.541000e-08 5.014365e-08 1.794178e-08
-1.168973e-07 7.378715e-08 2.793372e-07 1.305745e-08 1.098392e-08 4.507379e-08
-1.385823e-07 5.880175e-08 3.629749e-07 1.404483e-11 7.336266e-08 8.242922e-08
-1.071696e-07 1.443421e-07 2.389400e-07 7.673258e-08 -4.082037e-08 5.951177e-08
-1.361643e-07 1.691269e-07 2.253540e-07 5.504247e-08 -5.565645e-09 -2.663744e-08
-1.368920e-07 1.766122e-07 2.202604e-07 5.848325e-08 6.857560e-08 4.876680e-08
-2.035408e-07 1.560589e-07 4.251463e-07 9.842165e-08 8.297834e-08 6.931566e-08
-1.079950e-07 1.533359e-07 3.899064e-07 7.745588e-08 7.182822e-08 3.520547e-08
-4.910498e-08 2.587230e-08 2.776804e-07 -1.055992e-08 8.457779e-08 -7.491245e-08
-6.760940e-08 -1.990372e-08 3.436642e-07 -2.190448e-08 3.490378e-08 -1.086003e-07
-7.065370e-08 2.330137e-08 2.777948e-07 2.758224e-08 8.517617e-08 -7.204081e-08
-4.993209e-08 2.472437e-08 1.163998e-07 6.321158e-09 1.212052e-07 -4.572730e-08
-6.695075e-08 5.689041e-08 1.404096e-07 1.827280e-08 8.921860e-08 -4.467598e-08
-7.661820e-08 -9.037137e-09 4.079685e-07 -1.159139e-08 1.235477e-07 -6.232092e-08
-7.639660e-08 -1.401760e-07 4.095279e-07 5.934126e-08 8.058329e-08 -6.364505e-08
-3.390755e-08 1.790740e-08 1.735984e-07 -2.585381e-08 3.886855e-08 2.264303e-08
-5.699297e-08 -1.401637e-09 1.241690e-07 -3.794575e-08 1.113277e-08 -3.085173e-08
-4.651811e-08 -7.856278e-10 1.521917e-07 -4.123580e-08 -4.139529e-08 -3.951214e-08
-6.796613e-08 -1.064522e-08 1.491398e-07 3.054026e-09 -9.539851e-09 -4.946429e-08
-8.180483e-08 3.017115e-08 1.847369e-07 4.312781e-08 2.862316e-08 -9.868102e-09
1.319384e-08 2.211150e-08 1.831538e-07 1.925273e-08 3.291460e-08 -7.940982e-09
-3.279846e-08 -6.201828e-08 1.847606e-07 -4.301196e-08 -4.170844e-08 -6.069986e-08
-9.997337e-08 2.148695e-08 2.131367e-07 4.754246e-08 9.508118e-09 -1.703991e-08
-1.080150e-07 -2.484287e-08 1.810468e-07 2.457123e-08 -4.870996e-08 -2.700376e-08
-1.068522e-07 6.384813e-08 1.565680e-07 7.229109e-08 -3.722187e-08 -9.237202e-08
-8.334982e-08 5.537530e-08 1.257720e-07 7.264867e-08 -7.810900e-08 -2.806891e-08
-8.443791e-08 9.673208e-08 3.044070e-07 7.955895e-08 7.534928e-08 -3.203220e-08
-1.358817e-07 4.188376e-08 3.374672e-07 1.328701e-07 1.718432e-08 1.855611e-08
-1.042916e-07 7.366980e-08 2.072102e-07 8.331962e-08 -3.771009e-09 -2.987769e-08
-6.160780e-08 7.764973e-09 3.078341e-08 -2.052081e-08 -6.380524e-08 -6.661158e-08
-6.178858e-08 1.750035e-08 7.326384e-08 -2.976953e-08 -5.957115e-08 -6.975918e-08
-2.092037e-08 9.865534e-10 4.436647e-08 6.570668e-09 -8.081696e-08 -9.018081e-08
-6.456457e-08 1.092455e-08 3.830861e-08 -3.407040e-08 -1.194359e-07 -1.132560e-07
-5.273023e-08 -3.312462e-08 4.317093e-08 -3.755461e-08 -1.213550e-07 -1.211469e-07
2.682658e-09 5.508419e-08 7.528312e-08 3.260337e-08 -4.258466e-08 -5.464394e-08
-7.116774e-08 8.007674e-08 6.405722e-08 4.230933e-08 -3.921546e-08 -8.344540e-08
-5.941495e-08 -1.715045e-08 2.652386e-07 -6.249866e-08 4.995060e-08 -2.248896e-08
-7.834865e-08 9.015613e-09 3.291262e-07 -4.439787e-08 -1.816615e-08 -9.875435e-09
-7.586417e-08 6.032353e-08 9.838310e-08 -3.201949e-08 1.101086e-07 4.435512e-09
-6.962867e-08 -4.074755e-09 3.771603e-07 -2.669468e-08 1.066337e-07 4.787733e-08
-8.043090e-08 1.307124e-07 6.748936e-08 1.003616e-07 -1.204596e-07 -9.897746e-08
-6.912407e-08 1.124175e-07 1.179548e-07 9.579623e-08 -7.028840e-08 -1.348365e-07
-1.334638e-07 7.609528e-08 2.038394e-07 1.494082e-07 -1.198255e-07 -1.093611e-07
-1.157379e-07 1.192365e-07 3.478959e-08 1.781026e-07 -9.047344e-08 -1.058687e-07
-2.914432e-08 1.347708e-08 8.720795e-08 -1.417869e-08 -5.417296e-08 -1.350819e-07
-1.215748e-08 -4.458346e-08 1.179969e-07 -2.292052e-08 -2.418140e-08 -1.596710e-07
-1.076021e-08 -3.829118e-08 5.370918e-08 -1.753617e-08 -1.182884e-07 -1.714637e-07
-4.766838e-08 6.621031e-08 1.007272e-07 5.905511e-09 -2.511922e-08 -1.115767e-07
-1.213765e-08 1.455702e-07 -6.536861e-09 4.786567e-08 -6.952571e-08 -1.082444e-07
-7.241442e-08 1.184063e-07 7.322823e-08 8.833058e-08 -6.661937e-08 -1.129789e-07
-4.181546e-08 1.112902e-07 7.077748e-08 1.812100e-08 -7.509330e-08 -1.222472e-07
-4.363341e-08 2.212639e-07 -1.519039e-08 8.839793e-08 -1.044799e-07 -7.481470e-08
-5.938754e-08 3.279728e-08 9.693380e-09 -2.858676e-08 -1.229950e-07 -1.449151e-07
-5.643240e-08 3.879909e-08 5.674708e-08 -4.052602e-08 -1.364452e-07 -1.641282e-07
-3.263812e-08 9.876148e-08 -8.289004e-09 1.367078e-08 -8.755985e-08 -1.187660e-07
-6.139854e-08 3.847503e-08 1.006826e-07 -2.798540e-08 -1.250602e-07 -1.429419e-07
-6.720191e-08 1.286355e-07 3.310973e-08 4.229953e-08 -1.293091e-07 -1.263612e-07
-7.253314e-08 8.497188e-08 5.821246e-08 4.954660e-09 -1.236024e-07 -1.477066e-07
-7.956841e-08 8.556941e-08 1.438548e-07 -1.806419e-08 -1.768406e-07 -1.371533e-07
-1.114605e-07 7.060689e-08 3.339439e-08 2.147524e-08 -9.254459e-08 -1.144646e-07
-1.101145e-07 1.059403e-07 7.592750e-08 4.813317e-09 -9.323412e-08 -1.079771e-07
-8.336837e-08 7.038425e-08 4.870760e-08 4.624080e-08 -1.112222e-07 -1.352101e-07
-8.356189e-08 1.011530e-07 5.080223e-08 5.224787e-08 -5.010455e-08 -1.105104e-07
-7.759728e-08 7.302161e-08 1.154844e-07 5.015892e-08 -6.522731e-08 -7.292852e-08
-5.575628e-08 1.270355e-07 2.106702e-08 9.016188e-08 -6.091206e-08 -9.689436e-08
-8.096522e-08 1.066835e-07 1.168569e-07 6.013748e-08 -7.305811e-08 -1.591578e-07
-6.750218e-08 3.987670e-09 3.463057e-08 -2.041114e-08 -1.121110e-07 -6.572646e-08
-6.408080e-08 1.131310e-08 1.030734e-07 -3.091528e-08 -1.379564e-07 -8.115464e-08
-6.999805e-08 8.950166e-09 7.941809e-08 -2.031401e-08 -1.760688e-07 -1.111036e-07
-3.852188e-08 3.094612e-09 1.004049e-07 3.300432e-09 -1.571369e-07 -8.539853e-08
-4.293368e-08 1.202703e-08 8.608262e-08 1.539856e-08 -1.606152e-07 -7.205304e-08
-3.597521e-08 2.381615e-08 8.475223e-08 5.401719e-09 -1.364068e-07 -1.013852e-07
-6.161413e-08 -1.170607e-08 1.097195e-07 -2.513093e-08 -1.608482e-07 -1.274215e-07
-6.983695e-08 1.998915e-08 8.863209e-08 -2.135132e-08 -1.543128e-07 -1.210964e-07
-6.647959e-08 -3.584588e-09 5.248663e-08 -2.490495e-08 -1.807508e-07 -1.439813e-07
-4.076781e-08 1.922130e-08 8.062321e-08 8.098873e-09 -1.382624e-07 -1.207119e-07
-6.372190e-08 1.981458e-08 6.723466e-08 -1.465256e-08 -1.220989e-07 -1.031367e-07
-7.749349e-08 1.609374e-08 1.079157e-07 1.641504e-09 -1.453386e-07 -1.048108e-07
-4.795398e-08 7.091152e-08 7.766772e-08 4.190353e-08 -1.817338e-07 -1.328562e-07
-3.709686e-08 6.352704e-08 5.882078e-08 4.066600e-08 -1.553770e-07 -1.572895e-07
-1.064212e-07 5.335010e-08 8.421656e-08 1.230679e-08 -1.622555e-07 -1.080178e-07
-1.047172e-07 5.677338e-08 8.691221e-08 4.600049e-09 -1.340553e-07 -1.116931e-07
-3.264761e-08 6.311195e-08 3.631641e-08 5.674379e-08 -1.432926e-07 -1.260488e-07
-2.757644e-08 6.232901e-08 4.199562e-08 5.476056e-08 -1.640484e-07 -1.037119e-07
-3.357058e-08 6.284444e-08 2.921057e-08 5.311762e-08 -2.016541e-07 -1.597932e-07
-1.358890e-07 1.203825e-07 5.149789e-08 7.399151e-08 -1.656538e-07 -1.416250e-07
-4.163380e-08 6.834777e-08 3.927225e-08 6.039790e-08 -1.281448e-07 -9.376348e-08
-5.611012e-08 8.037944e-08 3.157488e-08 -2.729550e-10 -1.842599e-07 -1.257128e-07
-5.688328e-08 3.617013e-08 5.446228e-08 2.490128e-08 -2.054757e-07 -1.348091e-07
-5.328098e-08 7.441177e-08 5.998411e-08 1.197551e-08 -1.796907e-07 -1.405086e-07
-4.611656e-08 1.508015e-07 -1.554964e-08 5.474031e-08 -2.247314e-07 -1.243386e-07
-9.782794e-08 -9.565484e-09 1.033014e-07 -2.750793e-08 -1.752943e-07 -1.248333e-07
-9.967089e-08 -3.737419e-09 1.206905e-07 -3.867638e-08 -1.783209e-07 -1.236668e-07
-5.338800e-08 1.125327e-08 7.358118e-08 1.284266e-08 -1.803386e-07 -1.022862e-07
-6.344395e-08 3.395473e-08 5.661755e-08 9.314177e-10 -1.662635e-07 -1.301382e-07
-6.980090e-08 4.537699e-08 4.295643e-08 3.791958e-09 -1.474609e-07 -1.076654e-07
-8.027738e-08 3.336469e-08 1.515055e-07 1.816689e-08 -1.448573e-07 -8.369105e-08
-5.353608e-08 1.338720e-08 1.538573e-07 1.672094e-08 -1.530479e-07 -9.666481e-08
-6.980556e-08 -2.741815e-08 8.372975e-08 -5.500332e-08 -1.544310e-07 -1.110988e-07
-7.198859e-08 -2.170390e-08 1.128161e-07 -6.576451e-08 -1.649660e-07 -9.167209e-08
-4.727633e-08 -2.986396e-08 7.809141e-08 -3.577765e-08 -1.589207e-07 -9.706831e-08
-6.960132e-08 -2.611689e-08 6.765418e-08 -6.560632e-08 -2.041774e-07 -1.172045e-07
-6.712809e-08 -4.077595e-08 8.240231e-08 -6.512049e-08 -1.933597e-07 -1.250854e-07
-4.191486e-08 1.585320e-08 6.473720e-08 -2.728945e-08 -1.320951e-07 -8.639723e-08
-6.278151e-08 1.467711e-08 7.663847e-08 -1.706896e-08 -1.437091e-07 -7.821624e-08
-7.324729e-08 -2.696237e-08 1.170487e-07 -5.123966e-08 -1.646174e-07 -1.442710e-07
-7.551180e-08 -2.343011e-08 1.313501e-07 -6.142361e-08 -1.597597e-07 -1.399088e-07
-7.542979e-08 -2.331611e-08 1.034663e-07 -5.162883e-08 -1.099374e-07 -1.070501e-07
-3.333075e-08 -2.293100e-08 1.185453e-07 -1.841724e-08 -1.274204e-07 -1.324568e-07
-2.902775e-08 -6.946689e-08 1.682860e-07 -1.092884e-08 -1.298567e-07 -1.154915e-07
-7.734016e-08 -1.252681e-08 1.707743e-07 -5.554767e-08 -1.417603e-07 -1.063085e-07
-8.047069e-08 4.444236e-09 1.601079e-07 -5.214766e-08 -1.519443e-07 -1.003518e-07
-8.559257e-08 3.184247e-08 1.080958e-07 3.927813e-08 -1.942028e-07 -1.029224e-07
-8.508110e-08 1.259302e-08 1.502034e-07 5.070837e-08 -2.306241e-07 -1.097613e-07
-4.790489e-08 5.630321e-08 2.463290e-08 9.131487e-08 -2.164655e-07 -1.050457e-07
-5.305208e-08 4.784401e-08 1.643711e-07 9.791391e-08 -2.183470e-07 -1.032563e-07
1.667002e-08 -5.807635e-09 1.050652e-07 6.036438e-08 -1.100945e-07 -7.780635e-08
-2.808723e-09 1.425241e-08 4.423628e-08 7.223153e-08 -8.597620e-08 -1.123270e-07
-5.840872e-09 7.958794e-08 2.304877e-08 9.321066e-08 -1.558297e-07 -1.653595e-07
7.914329e-08 1.240118e-09 4.186486e-08 1.249837e-07 -9.094370e-08 -1.074073e-07
-8.292406e-08 -2.282695e-08 1.093808e-07 -5.628336e-08 -1.621683e-07 -1.309204e-07
-7.662643e-08 -6.102182e-08 1.404691e-07 -5.340333e-08 -1.409487e-07 -1.492337e-07
-7.559094e-08 -4.294194e-08 8.007515e-08 -4.722216e-08 -1.909605e-07 -1.516968e-07
-1.003313e-07 2.571033e-08 8.344905e-08 -3.865923e-08 -1.184711e-07 -9.920043e-08
-7.540329e-08 6.223904e-08 1.220791e-07 6.896239e-08 -7.574448e-08 -7.897726e-08
-1.537788e-08 6.747217e-08 3.095616e-08 1.040123e-07 -1.716060e-07 -1.529210e-07
-3.353021e-08 1.315931e-07 7.043562e-08 1.522226e-07 -1.176306e-07 -9.433888e-08
-1.357762e-08 1.486069e-07 4.477955e-08 1.787159e-07 -5.712511e-08 -7.174655e-08
-5.939610e-08 -3.126618e-09 1.168124e-07 -4.262804e-08 -7.814408e-08 -8.532838e-08
-6.175232e-08 1.213244e-08 5.263128e-08 -2.631426e-08 -1.536406e-08 -4.884661e-08
-5.357925e-08 -5.919974e-08 9.798850e-08 -3.619351e-08 -4.166885e-08 -8.384477e-08
-1.932333e-08 -3.375219e-08 8.673373e-08 9.890823e-09 -2.146794e-08 -8.390507e-08
-6.144589e-08 1.180453e-08 9.359427e-08 -3.555840e-08 -4.408334e-08 -4.180095e-08
-2.413373e-08 1.584713e-08 3.856699e-08 1.081497e-08 -6.723913e-08 -9.980746e-08
-1.847267e-08 -5.792088e-08 3.892541e-08 -9.473817e-10 1.562209e-08 -6.005898e-08
-6.448121e-08 7.099682e-09 5.448094e-08 -3.939540e-08 -6.756689e-08 -5.824455e-08
-6.201441e-08 1.683579e-08 -1.220157e-09 -2.710124e-08 -4.059455e-09 -5.638647e-08
-6.739003e-08 9.065803e-09 1.271784e-08 7.772509e-09 -1.532258e-07 -1.238548e-07
-7.965007e-08 2.418157e-08 2.778339e-08 -6.780218e-11 -1.629654e-07 -1.379813e-07
-3.008509e-08 2.303668e-08 -4.434103e-11 3.334079e-08 -1.571138e-07 -1.195095e-07
-3.216533e-08 3.457803e-08 -7.271115e-09 2.722892e-08 -1.470353e-07 -1.340781e-07
-3.407509e-08 3.633560e-08 -2.260129e-08 2.862030e-08 -1.457805e-07 -1.260948e-07
-6.396910e-08 3.349375e-08 1.785708e-08 4.073185e-08 -1.530490e-07 -1.309332e-07
-4.256017e-08 2.323809e-08 1.765890e-08 3.407899e-08 -1.597870e-07 -1.457341e-07
-4.761377e-08 -1.040438e-08 1.189838e-08 -1.010226e-08 -1.618059e-07 -1.420841e-07
-5.901754e-08 -6.162040e-09 2.847531e-08 -1.648359e-08 -1.663060e-07 -1.453810e-07
-4.604967e-08 -6.162039e-09 1.595924e-08 -7.520856e-09 -1.386439e-07 -1.270888e-07
-2.550581e-08 -6.162043e-09 2.035734e-08 6.503485e-09 -1.481662e-07 -1.373020e-07
-4.080321e-08 -4.176212e-09 2.999097e-08 2.628453e-08 -1.548606e-07 -1.515801e-07
-2.772448e-08 4.709909e-09 3.053909e-08 1.523023e-08 -1.611277e-07 -1.421697e-07
-4.695464e-08 -1.233629e-08 3.855536e-08 -5.130083e-09 -1.508438e-07 -1.213797e-07
-4.534967e-08 -6.834860e-09 7.122015e-09 -1.343951e-08 -1.436433e-07 -1.140734e-07
-5.697323e-08 -1.425468e-09 1.695516e-08 -1.983380e-08 -1.438374e-07 -1.117598e-07
-3.305719e-08 -7.285920e-09 6.494351e-09 -5.874574e-09 -1.454872e-07 -1.141591e-07
-5.862927e-08 -6.284763e-09 1.307912e-08 -2.269040e-08 -1.647295e-07 -1.254551e-07
-5.228176e-08 -1.832624e-08 2.118516e-08 -2.713818e-08 -1.594389e-07 -1.326302e-07
-3.212910e-08 1.113300e-08 -2.759597e-09 -2.124209e-09 -1.404675e-07 -1.102523e-07
-3.639885e-08 4.393987e-09 4.637084e-10 3.617125e-09 -1.444039e-07 -1.050459e-07
-9.680318e-08 1.630126e-08 5.572549e-08 -4.833086e-09 -1.734882e-07 -1.277732e-07
-8.433316e-08 1.786794e-08 4.707706e-08 -3.654750e-09 -1.619766e-07 -1.326711e-07
-5.352405e-08 2.186698e-08 1.854232e-08 2.621063e-08 -1.499347e-07 -1.297195e-07
-2.914106e-08 2.366201e-08 1.661535e-08 1.498506e-08 -1.609496e-07 -1.172732e-07
-4.564864e-08 3.308462e-08 3.165228e-08 1.396047e-08 -1.878168e-07 -1.463401e-07
-9.289720e-08 5.123548e-08 4.225069e-08 2.441388e-08 -1.700745e-07 -1.171674e-07
-4.860850e-08 2.141932e-08 2.594937e-08 2.517790e-08 -1.474902e-07 -1.117734e-07
-6.097178e-08 -2.187065e-08 4.408506e-08 -3.657480e-08 -1.524003e-07 -1.094692e-07
-6.117390e-08 -6.054771e-09 4.579670e-08 -2.433748e-08 -1.564411e-07 -1.280280e-07
-6.168884e-08 -5.204123e-09 1.768417e-08 -3.124889e-08 -1.771228e-07 -1.297215e-07
-3.736366e-08 -7.333018e-09 2.972697e-08 -1.465918e-08 -1.617624e-07 -1.120393e-07
-3.737181e-08 -1.596467e-09 3.767891e-08 -3.840985e-10 -1.549908e-07 -9.640433e-08
-3.342495e-08 1.081677e-09 4.586814e-08 -3.769311e-09 -1.347324e-07 -1.150708e-07
-5.689332e-08 -2.949002e-08 4.981521e-08 -3.122794e-08 -1.608290e-07 -1.441060e-07
-6.423804e-08 -1.590556e-08 6.380694e-08 -3.423464e-08 -1.784928e-07 -1.552827e-07
-6.906560e-08 1.452450e-08 1.875217e-08 -2.005621e-08 -1.765125e-07 -1.462017e-07
-2.052788e-08 -1.562975e-08 5.121792e-08 -1.040923e-08 -1.598141e-07 -1.459803e-07
-7.540275e-08 -1.591430e-08 4.396803e-08 -3.501739e-08 -1.425616e-07 -1.215064e-07
-9.134074e-08 2.264074e-08 7.584864e-08 -2.570164e-08 -1.776400e-07 -1.291869e-07
-7.677097e-08 3.756841e-08 5.314605e-08 -9.864817e-09 -1.831995e-07 -1.425203e-07
-3.903387e-08 1.567760e-08 5.475636e-08 -9.761587e-11 -1.750258e-07 -1.601765e-07
-5.705719e-08 1.167617e-08 3.642925e-08 3.553405e-08 -1.236592e-07 -1.254866e-07
-3.040789e-08 3.771765e-08 6.812237e-09 6.191142e-08 -1.719122e-07 -1.772127e-07
-4.811385e-08 5.914763e-08 1.645582e-08 7.966619e-08 -1.500360e-07 -1.388078e-07
-2.860104e-08 5.586986e-08 3.416247e-08 9.832665e-08 -1.091615e-07 -1.139776e-07
-5.677894e-08 1.891032e-08 1.850031e-08 2.895602e-08 -1.731864e-07 -1.255742e-07
-5.643335e-08 5.694816e-09 5.056191e-08 3.444481e-08 -1.936107e-07 -1.300156e-07
-2.215389e-08 2.792551e-08 -2.856183e-08 6.604200e-08 -1.611068e-07 -1.205094e-07
-4.278712e-08 3.739060e-08 1.586778e-08 7.301436e-08 -1.817399e-07 -1.394686e-07
-4.304382e-08 -2.983894e-09 2.681430e-08 6.718882e-09 -1.533575e-07 -1.276510e-07
-4.894181e-08 -1.964771e-08 2.165982e-08 -4.499454e-09 -1.678216e-07 -1.338895e-07
-3.370543e-08 8.829036e-09 -3.145450e-09 1.796046e-08 -1.490270e-07 -1.094636e-07
-2.247104e-08 -1.287331e-08 1.332734e-08 1.913678e-08 -1.445859e-07 -1.237179e-07
-4.770658e-08 1.728710e-08 -4.153054e-09 -6.549396e-09 -1.750211e-07 -1.397950e-07
-5.185702e-08 1.479471e-08 8.995668e-09 1.149658e-08 -1.810072e-07 -1.554640e-07
-4.019054e-08 2.438480e-08 8.620785e-09 -4.359309e-10 -1.820532e-07 -1.529155e-07
-4.621901e-08 2.953970e-08 -6.821617e-09 5.295567e-09 -1.881863e-07 -1.429420e-07
-4.262434e-08 1.479142e-08 2.791016e-08 2.953932e-09 -1.318938e-07 -1.231281e-07
-4.552914e-08 -2.713990e-08 2.236685e-08 1.568243e-08 -1.103209e-07 -1.273685e-07
-3.819305e-08 -7.583247e-09 2.449658e-08 3.169971e-09 -1.268679e-07 -1.196007e-07
-3.461923e-08 2.320382e-08 -1.512030e-09 2.284398e-08 -9.951154e-08 -1.233976e-07
-6.933424e-08 -9.182042e-10 3.074334e-08 -2.836272e-08 -1.830985e-07 -1.363015e-07
-6.460456e-08 -1.236097e-08 1.968664e-08 -3.073208e-08 -1.689708e-07 -1.391499e-07
-6.531159e-08 -1.789480e-08 2.009560e-08 -3.435564e-08 -1.929741e-07 -1.416724e-07
-7.384643e-08 -8.560097e-09 2.891292e-08 -2.743046e-08 -1.839011e-07 -1.350797e-07
-2.332330e-08 1.496394e-08 2.418963e-08 1.783375e-08 -1.359776e-07 -1.191234e-07
1.582814e-08 3.212295e-08 5.422891e-09 7.989463e-08 -1.300864e-07 -1.551702e-07
-4.386881e-08 4.468832e-08 8.270074e-09 3.422648e-08 -1.400318e-07 -1.434354e-07
-1.022084e-08 3.649840e-08 8.928627e-10 5.252845e-08 -1.802738e-07 -1.726307e-07
2.489001e-08 1.373453e-08 8.876232e-09 7.510678e-08 -1.436442e-07 -1.469255e-07
-5.255576e-08 2.316707e-08 9.967521e-09 1.963413e-08 -1.292861e-07 -1.390694e-07
-8.754503e-09 7.036852e-08 1.493460e-08 6.585518e-08 -1.583249e-07 -1.631660e-07
6.538533e-09 1.550356e-08 8.658984e-09 7.366184e-08 -1.398692e-07 -1.372973e-07
8.796485e-09 2.374313e-08 9.140356e-09 6.930726e-08 -1.266962e-07 -1.452045e-07
-3.621118e-08 1.151810e-08 -2.363351e-08 2.361970e-08 -1.452386e-07 -1.447865e-07
-3.634542e-08 1.300941e-08 1.625696e-08 2.127222e-08 -1.766982e-07 -1.441395e-07
-3.659123e-09 3.476910e-08 -2.617757e-08 5.077033e-08 -1.606191e-07 -1.442846e-07
-2.101287e-08 6.499819e-08 -3.897190e-08 4.987522e-08 -1.588953e-07 -1.293664e-07
-2.359539e-08 1.941483e-08 -1.758828e-08 3.772265e-08 -1.299680e-07 -1.160520e-07
-1.375255e-08 2.868156e-08 -1.468503e-08 4.830346e-08 -1.619754e-07 -1.681213e-07
-2.897762e-08 3.906916e-08 -1.264465e-08 5.674963e-08 -1.542280e-07 -1.527344e-07
7.473883e-09 5.130565e-08 -4.431565e-08 7.846538e-08 -1.261743e-07 -1.171014e-07
-2.944495e-08 2.285942e-08 -1.386256e-08 3.637539e-08 -1.396146e-07 -1.000926e-07
-1.722035e-08 3.126936e-08 -1.202117e-08 4.698957e-08 -1.713750e-07 -1.519402e-07
5.137351e-08 3.576897e-08 -5.017143e-08 7.343837e-08 -1.370626e-07 -1.116353e-07
3.248767e-08 4.651093e-08 -5.028668e-08 7.351592e-08 -1.421280e-07 -1.185485e-07
-4.138627e-09 -1.040438e-08 5.706268e-09 1.548535e-08 -1.416142e-07 -1.288540e-07
-5.111887e-09 -1.233629e-08 -4.283412e-09 1.791987e-08 -1.326546e-07 -1.320137e-07
-4.813839e-09 1.011490e-08 2.926237e-09 3.461383e-08 -1.571249e-07 -1.655639e-07
3.259487e-08 -5.422459e-09 -6.241368e-09 3.461963e-08 -1.435433e-07 -1.555109e-07
-3.388314e-08 -1.040437e-08 7.873110e-09 -2.787429e-09 -1.330732e-07 -1.242204e-07
-3.324527e-08 -1.083677e-08 -1.928509e-08 -3.032099e-09 -1.176156e-07 -1.116995e-07
-3.235884e-08 -2.311618e-08 3.445164e-09 -1.669404e-09 -1.254404e-07 -1.253935e-07
-3.543345e-08 -1.154446e-08 -1.897024e-08 -7.925957e-10 -1.320508e-07 -1.168242e-07
-3.533568e-08 -1.233629e-08 -2.038250e-08 -3.507083e-10 -1.161579e-07 -1.152357e-07
-1.979920e-08 -2.065733e-08 -7.372805e-09 4.415434e-09 -1.247178e-07 -1.288550e-07
-3.296611e-08 -1.281141e-08 -1.365902e-08 7.005481e-10 -1.309279e-07 -1.129844e-07
-2.738509e-08 -1.233629e-08 -4.235288e-09 5.671961e-09 -1.269298e-07 -1.268597e-07
-2.575628e-08 -2.100114e-08 -1.737788e-08 1.326748e-09 -1.151342e-07 -1.176130e-07
-4.087132e-08 3.127547e-09 -1.534236e-08 -6.758682e-09 -1.578299e-07 -1.233072e-07
-4.491114e-08 1.064185e-09 -6.243983e-09 -1.762549e-09 -1.535488e-07 -1.216365e-07
-3.999038e-08 8.550168e-09 -5.966785e-09 -8.955141e-09 -1.550302e-07 -1.203915e-07
-4.043932e-08 6.372758e-09 -9.056629e-09 -1.137299e-08 -1.599749e-07 -1.216162e-07
-4.265134e-09 1.850740e-09 -1.022888e-08 1.462891e-08 -1.351682e-07 -1.018600e-07
-6.525314e-09 -6.425344e-09 -2.715505e-09 1.896082e-08 -1.333825e-07 -1.030338e-07
-1.106958e-08 4.745120e-09 -9.336991e-09 1.614314e-08 -1.349653e-07 -1.086324e-07
2.580065e-09 1.423974e-08 -3.512908e-08 2.806188e-08 -1.337318e-07 -1.012485e-07
7.894823e-08 -1.886362e-08 -2.498837e-08 1.193353e-08 3.798745e-09 2.058231e-08
8.055876e-08 -1.883262e-08 -2.731790e-08 1.218284e-08 3.991101e-09 2.330846e-08
8.003120e-08 -1.917512e-08 -2.724178e-08 1.266989e-08 4.102092e-09 2.301461e-08
8.066476e-08 -1.924440e-08 -2.604970e-08 1.314710e-08 3.959431e-09 2.158365e-08
8.073678e-08 -1.857233e-08 -2.479956e-08 1.120015e-08 4.174847e-09 1.976646e-08
8.119119e-08 -1.847614e-08 -2.702840e-08 1.167353e-08 4.338897e-09 2.274267e-08
8.280550e-08 -1.849491e-08 -2.622471e-08 1.183659e-08 4.342466e-09 2.115033e-08
8.431387e-08 -1.897576e-08 -2.647489e-08 1.141100e-08 3.989740e-09 2.071105e-08
7.740009e-08 -1.674599e-08 -2.538245e-08 1.282580e-08 3.943450e-09 2.187702e-08
7.843193e-08 -1.827955e-08 -2.623096e-08 1.200842e-08 5.128659e-09 2.282342e-08
7.602581e-08 -1.644880e-08 -2.650757e-08 1.430297e-08 4.712004e-09 2.370189e-08
7.604906e-08 -1.584117e-08 -2.654111e-08 1.455637e-08 4.655502e-09 2.362178e-08
7.839231e-08 -1.669816e-08 -2.501214e-08 1.249447e-08 4.350653e-09 2.106484e-08
8.015734e-08 -1.821143e-08 -2.565881e-08 1.165454e-08 5.339962e-09 2.162874e-08
8.184706e-08 -1.593804e-08 -2.493511e-08 1.490591e-08 4.051122e-09 1.964174e-08
8.076215e-08 -1.649405e-08 -2.579410e-08 1.370162e-08 4.801051e-09 2.174805e-08
7.999506e-08 -1.919106e-08 -2.456081e-08 1.064302e-08 3.763358e-09 1.961426e-08
8.012344e-08 -1.924654e-08 -2.500726e-08 1.051119e-08 3.459479e-09 1.962561e-08
8.088888e-08 -1.869393e-08 -2.545400e-08 9.528573e-09 4.132621e-09 1.954386e-08
8.090195e-08 -1.965848e-08 -2.556287e-08 9.566761e-09 3.570669e-09 1.950965e-08
8.131501e-08 -1.919106e-08 -2.407607e-08 1.098608e-08 3.972787e-09 2.041418e-08
8.375637e-08 -1.965885e-08 -2.640658e-08 1.142849e-08 3.365947e-09 2.198114e-08
8.083712e-08 -1.912714e-08 -2.499552e-08 1.152686e-08 3.424145e-09 2.110557e-08
8.258937e-08 -1.915799e-08 -2.707200e-08 1.058292e-08 3.910531e-09 2.289936e-08
8.374190e-08 -1.916619e-08 -2.626543e-08 1.038918e-08 4.014701e-09 2.186709e-08
7.914810e-08 -1.965848e-08 -2.497442e-08 9.895329e-09 3.955606e-09 2.138274e-08
8.335198e-08 -1.950510e-08 -2.669501e-08 1.156882e-08 3.343827e-09 2.235499e-08
8.258212e-08 -1.914763e-08 -2.497598e-08 1.102731e-08 3.719135e-09 2.058992e-08
8.263254e-08 -1.965848e-08 -2.496478e-08 1.007091e-08 3.954562e-09 2.056126e-08
1.100510e-07 2.786802e-08 7.597245e-07 -8.259011e-08 5.212886e-07 4.127257e-08
1.035063e-07 9.330134e-08 1.224546e-06 -8.980666e-08 7.187697e-07 -1.153948e-08
1.234093e-07 -9.221866e-08 9.952971e-07 -7.085868e-08 4.806187e-07 5.364772e-08
1.374282e-07 4.196140e-08 6.031951e-07 -1.326652e-09 3.576622e-07 9.534228e-08
-1.451404e-07 2.219302e-08 1.077157e-06 -4.102177e-08 5.227754e-07 1.555431e-07
-1.771610e-07 7.921425e-08 1.417088e-06 -2.659674e-08 6.782069e-07 1.402062e-07
-1.651727e-07 4.692310e-08 6.712927e-07 -1.208020e-08 3.369906e-07 6.349821e-08
-2.463822e-07 1.392050e-07 1.290816e-06 -1.989006e-08 5.776744e-07 6.905980e-08
-1.239760e-07 1.596377e-07 1.334972e-06 -9.565713e-08 1.215239e-06 -7.742620e-08
-1.131867e-07 4.606764e-07 9.045555e-07 -1.542721e-07 1.276019e-06 -7.264525e-08
-1.141135e-07 3.085416e-07 1.280685e-06 -1.686167e-07 1.363411e-06 -5.093190e-08
-2.420741e-07 1.732848e-07 1.604965e-06 -3.705510e-08 1.359097e-06 -4.819812e-08
-1.262060e-08 1.647587e-07 1.146314e-06 -1.320041e-07 1.218894e-06 6.409586e-08
-7.699527e-08 2.823768e-07 1.278984e-06 -8.672621e-08 1.477381e-06 -9.821689e-08
-1.791858e-08 2.237386e-07 9.894644e-07 -1.391841e-07 1.290039e-06 1.673410e-08
-1.265479e-08 3.102138e-07 1.105590e-06 -1.643461e-07 1.427876e-06 -3.797177e-08
-1.525248e-08 4.669331e-07 1.100490e-06 -1.971494e-07 1.402386e-06 -2.328232e-08
-1.905029e-07 2.920932e-07 1.115330e-06 -8.725526e-09 1.385149e-06 1.460202e-07
-7.064722e-08 4.560699e-07 1.169026e-06 -1.755586e-07 1.524836e-06 -5.317402e-08
-6.681441e-08 4.529043e-07 6.510878e-07 -1.077589e-07 1.230927e-06 1.457946e-07
-8.408058e-08 1.744079e-07 1.275720e-06 -2.036880e-08 1.380722e-06 1.416039e-08
-1.163341e-07 6.726757e-08 1.360890e-06 -7.271581e-08 9.710674e-07 -7.888319e-07
-1.225527e-07 1.057030e-08 1.166883e-06 -5.311055e-08 7.864374e-07 -7.098791e-07
7.842012e-08 2.667119e-07 1.024465e-06 -3.020633e-07 8.351550e-07 -6.783753e-07
-1.445458e-07 2.617453e-08 1.040319e-06 -5.579988e-08 8.600073e-07 -6.806424e-07
-2.344433e-07 8.579001e-08 1.354801e-06 -1.527273e-07 9.207210e-07 -8.288084e-07
-2.373243e-07 3.054591e-08 1.113382e-06 -1.400753e-07 7.364110e-07 -7.890867e-07
-2.461447e-07 5.182653e-08 1.474263e-06 -1.792680e-07 8.428642e-07 -8.672321e-07
-1.126101e-07 2.547123e-07 1.166327e-06 -3.642209e-07 7.893034e-07 -7.121258e-07
-2.053165e-07 1.571908e-07 1.488439e-06 -2.923191e-07 1.064457e-06 -1.075048e-06
-2.412826e-07 1.579998e-07 1.381618e-06 -3.085488e-07 1.061591e-06 -1.223203e-06
-2.198993e-07 7.991038e-08 1.740473e-06 -2.875392e-07 9.950675e-07 -1.099314e-06
-3.301838e-07 6.377583e-08 1.921617e-06 -3.354293e-07 1.002820e-06 -9.995569e-07
-8.534639e-08 1.496688e-07 1.371012e-06 -3.147984e-07 8.880836e-07 -7.349629e-07
-1.344764e-07 1.505790e-07 1.427836e-06 -3.249758e-07 8.957743e-07 -8.574030e-07
-2.978086e-07 1.225356e-07 2.041221e-06 -3.926622e-07 8.977914e-07 -8.573568e-07
-4.498399e-08 2.463076e-07 1.445928e-06 -5.711792e-07 6.121899e-07 -5.218153e-07
-2.759805e-07 1.062841e-07 2.474900e-06 1.156403e-07 1.156379e-06 -1.448460e-06
-3.150961e-07 -1.255602e-07 2.793864e-06 2.111798e-07 1.163329e-06 -1.442308e-06
-7.129291e-08 -8.413074e-08 2.347377e-06 -7.183850e-08 2.853498e-06 -2.159930e-06
8.178144e-09 4.478286e-07 3.212060e-06 3.130401e-07 1.888421e-06 -2.438248e-06
-2.927475e-07 -3.085311e-08 2.051152e-06 -1.543550e-07 1.504612e-06 -1.249764e-06
-3.639486e-07 -1.121591e-07 2.415249e-06 -7.668400e-08 1.356764e-06 -1.152083e-06
-3.542563e-07 3.046871e-07 1.105901e-06 -1.292741e-08 2.446820e-06 -1.001062e-06
-4.199145e-07 1.443409e-08 2.745028e-06 -1.516885e-07 2.088983e-06 -1.209721e-06
-2.221659e-07 6.773289e-07 1.188266e-06 -4.547753e-07 1.407860e-06 -5.434409e-07
-2.193035e-07 6.629747e-07 1.557190e-06 -4.483107e-07 1.428068e-06 -6.004415e-07
-2.471861e-07 8.119597e-07 1.144314e-06 -4.658601e-07 1.454997e-06 -4.917595e-07
-3.099313e-07 9.282463e-07 1.263002e-06 -4.320270e-07 1.645282e-06 -5.546623e-07
-3.095628e-07 7.484122e-07 1.164141e-06 -5.350648e-07 1.364000e-06 -3.984244e-07
-3.008564e-07 7.345908e-07 1.518376e-06 -5.335490e-07 1.395970e-06 -4.635675e-07
-3.492884e-07 8.814015e-07 1.282277e-06 -3.706231e-07 1.639980e-06 -5.763037e-07
-4.583147e-07 1.043837e-06 1.629525e-06 -5.255776e-07 1.401646e-06 -3.238619e-07
1.029461e-07 -3.180210e-08 1.406286e-06 -1.426424e-07 1.248447e-06 -3.354133e-07
7.716098e-08 -5.837463e-08 9.552582e-07 -1.077697e-07 8.804711e-07 -1.571315e-07
6.056832e-08 2.535802e-07 1.217672e-06 -3.170417e-07 1.174740e-06 -4.033419e-07
5.429198e-08 -1.133886e-07 1.450022e-06 -6.151951e-08 1.096333e-06 -1.419686e-07
-3.028244e-07 -1.164144e-08 1.513152e-06 -2.184863e-07 1.159299e-06 -4.456586e-07
-3.293306e-07 -3.824837e-08 1.069758e-06 -1.834108e-07 7.909985e-07 -2.632061e-07
-3.423930e-07 3.528259e-07 1.575210e-06 -2.937736e-07 1.259846e-06 -4.828181e-07
-3.052971e-07 2.564450e-07 1.708652e-06 -2.858707e-07 1.227051e-06 -4.062519e-07
-3.726556e-07 -9.350874e-08 2.668208e-06 -2.734687e-07 1.790229e-06 -7.077255e-07
-3.415384e-07 6.331184e-07 1.224451e-06 -4.272480e-07 2.724681e-06 -9.669463e-07
-3.495623e-07 1.590471e-07 3.416678e-06 -3.543765e-07 2.667015e-06 -1.041677e-06
-5.092792e-07 1.415028e-07 3.852121e-06 -2.997051e-07 2.533384e-06 -7.496647e-07
-1.268947e-07 -2.476257e-08 2.213188e-06 -1.062945e-07 1.762521e-06 -5.013390e-07
-7.509385e-08 6.706530e-07 1.069223e-06 -3.192773e-07 2.694055e-06 -9.658537e-07
-4.379696e-07 4.549703e-07 2.177558e-06 1.613602e-08 2.474224e-06 -1.641026e-07
-3.051227e-07 5.154490e-07 3.028449e-06 -8.435895e-08 3.023700e-06 -1.453166e-06
7.772189e-08 -2.500857e-08 -2.575893e-08 1.288310e-08 6.257984e-09 3.359560e-08
7.735789e-08 -2.447252e-08 -2.662540e-08 1.317254e-08 6.488552e-09 3.442891e-08
7.889947e-08 -2.449360e-08 -2.590016e-08 1.144602e-08 7.007676e-09 3.300192e-08
7.905723e-08 -2.524547e-08 -2.698128e-08 1.221333e-08 6.052296e-09 3.362338e-08
8.155859e-08 -2.504847e-08 -2.498464e-08 1.385003e-08 6.529326e-09 3.547175e-08
8.073684e-08 -2.452959e-08 -2.582629e-08 1.396709e-08 6.668338e-09 3.636649e-08
8.078200e-08 -2.528093e-08 -2.598090e-08 1.308913e-08 6.267671e-09 3.564680e-08
8.479528e-08 -2.454401e-08 -2.877681e-08 1.571289e-08 6.079881e-09 3.887086e-08
7.117371e-08 -2.169744e-08 -2.462538e-08 1.497248e-08 7.375900e-09 3.467477e-08
7.161380e-08 -2.244971e-08 -2.604311e-08 1.464571e-08 8.422641e-09 3.497925e-08
7.166795e-08 -2.130505e-08 -2.567220e-08 1.499809e-08 7.540583e-09 3.463901e-08
7.166177e-08 -2.168528e-08 -2.593260e-08 1.494664e-08 7.953530e-09 3.468276e-08
7.365637e-08 -2.271768e-08 -2.495930e-08 1.638689e-08 6.791470e-09 3.554682e-08
7.965040e-08 -2.178082e-08 -2.770247e-08 1.937710e-08 7.167608e-09 3.660491e-08
7.653539e-08 -2.363290e-08 -2.687134e-08 1.549126e-08 8.205837e-09 3.794478e-08
7.650164e-08 -2.258985e-08 -2.673182e-08 1.808492e-08 7.808339e-09 3.667794e-08
7.687719e-08 -2.178694e-08 -2.628006e-08 1.951846e-08 7.186551e-09 3.531285e-08
8.386254e-08 -2.356263e-08 -2.734564e-08 1.625747e-08 8.129184e-09 3.786629e-08
7.965967e-08 -2.256247e-08 -2.629455e-08 2.034830e-08 6.986170e-09 3.550248e-08
7.845478e-08 -2.408114e-08 -2.624956e-08 1.481827e-08 7.629131e-09 3.507999e-08
8.354990e-08 -2.369880e-08 -2.784420e-08 1.661192e-08 7.813943e-09 3.831129e-08
7.145277e-08 -3.070100e-08 -2.568118e-08 1.363643e-08 8.809602e-09 5.424564e-08
7.156743e-08 -3.120512e-08 -2.598484e-08 1.361988e-08 8.384319e-09 5.415201e-08
7.537786e-08 -3.100896e-08 -2.842523e-08 1.217358e-08 7.860761e-09 5.288374e-08
7.490059e-08 -3.102929e-08 -2.753405e-08 1.235163e-08 9.264673e-09 5.087776e-08
7.722145e-08 -3.077250e-08 -2.631017e-08 1.425997e-08 9.290455e-09 5.545506e-08
7.727542e-08 -3.127103e-08 -2.665044e-08 1.418547e-08 8.830926e-09 5.531273e-08
7.716249e-08 -3.062161e-08 -2.930587e-08 1.631844e-08 9.269883e-09 6.133864e-08
8.458843e-08 -3.089017e-08 -3.053471e-08 1.344640e-08 8.692364e-09 5.586842e-08
7.454085e-08 -2.816384e-08 -2.636140e-08 1.714475e-08 9.343514e-09 5.495960e-08
7.873261e-08 -2.940072e-08 -2.838373e-08 1.380254e-08 1.094530e-08 6.011704e-08
8.168133e-08 -2.807623e-08 -2.729038e-08 1.769410e-08 9.727497e-09 5.606602e-08
8.304242e-08 -2.826472e-08 -3.065234e-08 1.822514e-08 1.067785e-08 5.540965e-08
6.603361e-08 -2.823099e-08 -2.604403e-08 1.792430e-08 9.152055e-09 5.786570e-08
6.869126e-08 -2.950913e-08 -2.825177e-08 1.522425e-08 1.086839e-08 6.239223e-08
6.412895e-08 -2.791268e-08 -2.699695e-08 1.999241e-08 9.198973e-09 6.044434e-08
6.375837e-08 -2.798477e-08 -2.811468e-08 1.831518e-08 9.877972e-09 6.195937e-08
8.041154e-08 -3.902812e-08 -2.788142e-08 1.150003e-08 1.068980e-08 8.664301e-08
8.035921e-08 -3.920323e-08 -2.825834e-08 1.161262e-08 1.040005e-08 8.678396e-08
7.933544e-08 -3.843636e-08 -3.205687e-08 1.523471e-08 1.036877e-08 9.493662e-08
9.147542e-08 -4.000044e-08 -3.282269e-08 1.142637e-08 8.966471e-09 8.827825e-08
6.528649e-08 -3.902125e-08 -2.818425e-08 1.200846e-08 1.069053e-08 8.270027e-08
6.759908e-08 -3.741532e-08 -3.259336e-08 9.781655e-09 9.709492e-09 7.893885e-08
6.714918e-08 -3.954201e-08 -2.924971e-08 1.003254e-08 9.822542e-09 8.129594e-08
6.644614e-08 -3.570877e-08 -3.130651e-08 9.968750e-09 1.036195e-08 8.006154e-08
6.672901e-08 -3.905808e-08 -3.213226e-08 1.112445e-08 8.582528e-09 8.038999e-08
7.235915e-08 -3.928663e-08 -3.094026e-08 1.121363e-08 9.828840e-09 8.197818e-08
6.760433e-08 -3.724765e-08 -3.115571e-08 1.024667e-08 1.103392e-08 7.920752e-08
7.023774e-08 -3.922735e-08 -2.804161e-08 1.214846e-08 1.046226e-08 8.458275e-08
7.064105e-08 -4.009319e-08 -3.301640e-08 1.003443e-08 8.380343e-09 7.991614e-08
6.581647e-08 -3.679815e-08 -2.944723e-08 1.969971e-08 1.155173e-08 8.573399e-08
7.181033e-08 -3.819079e-08 -3.343821e-08 1.327852e-08 1.390993e-08 9.688821e-08
6.647818e-08 -3.836195e-08 -2.996888e-08 1.930472e-08 1.179969e-08 9.308972e-08
6.704861e-08 -3.848015e-08 -3.310267e-08 2.208300e-08 1.317395e-08 8.987550e-08
7.246775e-08 -3.683661e-08 -2.877877e-08 1.951460e-08 1.147637e-08 8.289031e-08
8.155946e-08 -3.832227e-08 -3.269136e-08 1.262156e-08 1.388871e-08 9.365532e-08
8.536339e-08 -3.853900e-08 -3.062239e-08 2.135705e-08 1.322466e-08 8.220463e-08
8.513300e-08 -3.705398e-08 -3.557988e-08 2.182183e-08 1.247980e-08 8.338705e-08
7.992677e-08 -5.418977e-08 -2.576160e-08 1.816308e-08 1.125283e-08 1.205921e-07
8.047259e-08 -5.600700e-08 -2.891959e-08 1.731276e-08 1.772840e-08 1.192868e-07
8.884562e-08 -6.073924e-08 -3.124207e-08 1.614241e-08 1.288755e-08 1.133170e-07
1.014702e-07 -6.254166e-08 -3.492002e-08 2.069017e-08 9.597776e-09 1.291055e-07
8.019105e-08 -5.255020e-08 -2.522127e-08 1.300297e-08 1.272323e-08 1.194907e-07
7.978470e-08 -5.455661e-08 -2.902834e-08 1.395659e-08 1.794724e-08 1.176856e-07
9.677898e-08 -5.630266e-08 -3.249618e-08 1.379633e-08 1.396855e-08 1.270786e-07
1.102613e-07 -5.994712e-08 -3.400227e-08 1.406694e-08 1.631455e-08 1.271390e-07
6.044970e-08 -4.636025e-08 -2.762746e-08 1.704842e-08 1.146759e-08 1.115896e-07
6.491463e-08 -4.947669e-08 -3.232690e-08 1.272798e-08 7.639072e-09 1.064827e-07
6.036471e-08 -4.433925e-08 -3.175933e-08 1.669396e-08 1.226092e-08 1.048229e-07
6.138782e-08 -4.838367e-08 -3.071531e-08 2.124287e-08 1.238271e-08 1.072221e-07
8.077091e-08 -4.621188e-08 -2.711091e-08 1.530937e-08 1.068402e-08 1.203001e-07
9.174782e-08 -4.938864e-08 -3.058839e-08 1.020341e-08 7.246191e-09 1.169330e-07
9.574733e-08 -4.857379e-08 -2.474873e-08 2.102929e-08 1.289279e-08 1.237260e-07
1.000177e-07 -4.849850e-08 -3.647113e-08 2.430852e-08 9.590380e-09 1.271802e-07
5.016413e-08 -4.060130e-08 -2.383258e-08 1.313459e-08 1.945516e-08 1.215188e-07
5.356647e-08 -4.174573e-08 -2.522823e-08 9.568476e-09 2.104826e-08 1.230288e-07
5.403970e-08 -4.043236e-08 -2.648167e-08 1.195939e-08 2.250684e-08 1.177635e-07
5.508819e-08 -4.449385e-08 -2.646131e-08 1.690180e-08 2.289029e-08 1.179289e-07
6.369554e-08 -4.703825e-08 -2.510697e-08 2.018731e-08 1.576166e-08 1.298038e-07
9.114325e-08 -4.519734e-08 -3.409389e-08 3.543369e-08 1.899219e-08 1.333084e-07
7.410747e-08 -5.307329e-08 -2.792630e-08 1.587750e-08 2.014268e-08 1.351392e-07
7.453042e-08 -4.195020e-08 -2.803299e-08 2.401972e-08 1.945444e-08 1.355445e-07
7.627637e-08 -4.463127e-08 -2.871343e-08 3.490597e-08 2.091601e-08 1.272980e-07
1.041722e-07 -5.302232e-08 -2.865241e-08 1.787897e-08 1.957064e-08 1.312988e-07
9.057175e-08 -4.573047e-08 -2.889358e-08 3.377006e-08 1.499134e-08 1.335804e-07
7.638495e-08 -5.312262e-08 -2.818088e-08 1.539446e-08 1.932785e-08 1.175427e-07
1.073146e-07 -5.298113e-08 -3.400288e-08 1.827895e-08 1.939763e-08 1.317417e-07
6.903202e-08 -6.506161e-08 -6.520014e-09 1.712190e-08 1.167271e-08 1.650670e-07
7.621989e-08 -6.744470e-08 -2.177821e-08 1.964088e-08 2.133197e-08 1.395155e-07
9.155709e-08 -7.344193e-08 -3.287614e-08 1.529483e-08 1.301035e-08 1.306041e-07
1.030421e-07 -7.422126e-08 -2.822675e-08 1.783237e-08 1.076570e-08 1.527278e-07
6.849736e-08 -6.475968e-08 -7.337824e-09 1.685022e-08 1.187059e-08 1.640297e-07
7.711040e-08 -6.696494e-08 -2.236428e-08 1.885463e-08 2.136434e-08 1.389785e-07
8.500934e-08 -6.815214e-08 -2.655438e-08 1.730686e-08 1.467078e-08 1.484920e-07
1.068712e-07 -7.583755e-08 -2.844442e-08 1.403093e-08 2.156154e-08 1.614161e-07
5.348255e-08 -5.416138e-08 -1.934395e-08 3.028904e-08 1.648942e-08 1.491984e-07
4.852775e-08 -5.323985e-08 -1.558968e-08 3.283787e-08 1.913145e-08 1.497337e-07
7.741216e-08 -5.249203e-08 -3.690034e-08 4.298530e-08 2.026369e-08 1.372245e-07
7.875683e-08 -5.274808e-08 -4.436266e-08 2.229856e-08 1.611707e-08 1.181895e-07
2.387690e-08 -4.869893e-08 -8.335490e-09 1.171335e-08 4.054423e-09 1.514236e-07
2.036789e-08 -4.746265e-08 -5.347978e-09 1.537882e-08 7.389859e-09 1.520164e-07
1.972871e-08 -4.850190e-08 -4.670972e-09 1.229801e-08 7.552970e-09 1.500570e-07
1.805225e-08 -4.778852e-08 -1.355630e-08 1.402189e-08 5.557930e-09 1.544287e-07
7.256368e-08 -5.350177e-08 -1.256198e-08 1.004420e-08 1.290874e-08 1.628953e-07
7.198583e-08 -5.292907e-08 -1.427664e-08 1.119202e-08 1.406298e-08 1.617982e-07
7.366477e-08 -5.828588e-08 -2.302107e-08 2.078307e-08 2.187874e-08 1.407246e-07
1.075737e-07 -6.465891e-08 -2.769412e-08 1.044767e-08 2.796848e-08 1.582207e-07
2.036509e-08 -5.365124e-08 -1.596689e-09 1.356394e-08 1.420288e-08 1.585030e-07
1.475274e-08 -4.800593e-08 -4.263505e-09 6.741278e-09 2.643640e-08 1.827880e-07
2.688449e-08 -6.192134e-08 -8.397282e-10 8.083579e-09 1.576038e-08 1.628003e-07
1.264699e-08 -4.030611e-08 5.062776e-10 1.926068e-08 2.653074e-08 1.773407e-07
1.122520e-08 -5.231636e-08 4.226328e-10 1.166233e-08 2.799142e-08 1.777007e-07
6.250766e-08 -6.003593e-08 -2.707348e-09 1.669754e-08 1.984787e-08 1.751474e-07
1.583817e-08 -4.445717e-08 -2.772523e-09 1.997503e-08 2.220239e-08 1.801081e-07
3.737434e-08 -5.408078e-08 -4.755640e-09 1.837846e-08 1.338772e-08 1.559393e-07
4.217917e-08 -6.354793e-08 -5.052498e-09 5.985130e-09 2.293198e-08 1.824370e-07
9.238561e-08 -8.122425e-08 1.168259e-08 2.697560e-08 1.925419e-09 1.574302e-07
9.959129e-08 -8.253256e-08 1.343485e-08 2.558213e-08 -7.569676e-09 1.225370e-07
1.365501e-07 -9.844838e-08 3.012804e-09 -1.967419e-09 8.117210e-09 1.703433e-07
1.559203e-07 -1.065931e-07 3.112307e-09 2.085620e-08 1.380372e-08 1.359930e-07
7.949478e-08 -7.970805e-08 8.141842e-10 1.018575e-08 1.529773e-08 1.693777e-07
8.302603e-08 -8.380257e-08 4.071600e-09 2.935978e-09 6.625358e-09 1.352084e-07
1.476274e-07 -1.024849e-07 1.254537e-08 -6.933433e-09 -1.354324e-08 1.705070e-07
1.554589e-07 -1.408911e-07 -1.791614e-09 5.507815e-09 2.739519e-08 1.758883e-07
7.648354e-08 -4.618507e-08 7.541381e-10 2.631978e-08 -1.178954e-09 1.708410e-07
1.230425e-07 -7.975003e-08 -1.343944e-08 -4.128418e-10 2.067544e-08 1.898096e-07
1.283085e-07 -5.447316e-08 -6.958724e-09 3.622458e-08 7.875669e-09 1.710523e-07
1.360986e-07 -6.520912e-08 -1.039825e-08 4.092788e-08 1.823687e-08 1.584745e-07
2.815906e-08 -4.623236e-08 2.413441e-08 2.915000e-08 2.093262e-10 1.758702e-07
7.081046e-08 -8.127726e-08 1.460220e-08 -1.094682e-08 2.075535e-08 2.142949e-07
2.754791e-08 -3.876002e-08 1.438515e-08 2.817288e-08 2.224626e-08 2.202869e-07
2.767386e-08 -5.155017e-08 1.558492e-08 2.814062e-08 2.464053e-08 2.198372e-07
-1.050647e-08 -5.273455e-08 3.010171e-08 1.090574e-08 -7.333746e-09 1.660805e-07
-7.725775e-09 -5.233788e-08 3.846129e-08 7.694656e-09 -2.229767e-10 1.611007e-07
2.260103e-08 -5.805678e-08 2.090440e-08 6.028962e-10 -1.074526e-08 1.564514e-07
-8.730623e-09 -4.887718e-08 2.087059e-08 5.680012e-09 -9.954728e-09 1.587537e-07
7.035827e-08 -5.279841e-08 1.716165e-08 6.991004e-09 -5.737255e-09 1.709224e-07
7.408902e-08 -5.239544e-08 2.453341e-08 3.700166e-09 1.470533e-09 1.650995e-07
1.393418e-07 -8.840425e-08 1.633684e-08 -2.143475e-09 -2.167898e-08 1.707420e-07
8.645013e-08 -5.695987e-08 1.054231e-08 -8.716282e-09 -6.554085e-09 1.409490e-07
1.091806e-07 -1.128517e-07 6.359421e-08 -1.135353e-08 -9.048968e-09 1.311707e-07
1.143308e-07 -1.075794e-07 7.370242e-08 -1.833879e-08 1.941370e-08 1.177338e-07
1.399274e-07 -1.296294e-07 7.676430e-08 -3.161108e-08 9.758106e-09 9.627460e-08
1.690124e-07 -1.546905e-07 7.295407e-08 -3.605559e-08 -2.639993e-08 1.278703e-07
1.235183e-07 -1.251676e-07 6.544616e-08 -6.597624e-09 -3.343931e-09 1.204413e-07
1.272755e-07 -1.219782e-07 7.563600e-08 -1.152590e-08 2.471346e-08 1.073014e-07
1.543998e-07 -1.349793e-07 8.129099e-08 -3.804406e-08 -1.355621e-08 1.272630e-07
1.610181e-07 -1.909585e-07 8.971563e-08 -1.187826e-08 2.768532e-09 1.353972e-07
6.836443e-09 -6.975736e-08 8.650747e-08 1.238917e-08 3.787750e-09 1.046078e-07
2.944950e-08 -8.813519e-08 8.273809e-08 -8.914539e-09 -6.271221e-09 8.388404e-08
-9.345588e-09 -7.680359e-08 8.671502e-08 3.213048e-08 -1.570065e-08 7.666282e-08
-1.368415e-08 -7.290135e-08 9.340187e-08 1.123990e-08 1.034605e-08 7.658190e-08
1.041429e-07 -6.526696e-08 5.276751e-08 -1.378071e-08 -1.114225e-08 1.237703e-07
1.421003e-07 -7.895079e-08 5.326284e-08 -4.225222e-08 -1.573711e-08 1.001348e-07
1.600839e-07 -6.925557e-08 6.258293e-08 -1.508361e-08 1.156697e-09 1.132732e-07
1.675690e-07 -1.027685e-07 4.356462e-08 -2.285357e-08 -2.934324e-08 1.152107e-07
1.143200e-07 -6.209126e-08 4.325661e-08 1.045326e-09 2.155726e-09 1.362573e-07
1.096867e-07 -5.808975e-08 4.020218e-08 2.179120e-08 4.146270e-09 1.252754e-07
1.099708e-07 -7.267420e-08 6.613235e-08 2.351285e-08 9.463054e-09 1.209624e-07
1.657155e-07 -9.808786e-08 6.688932e-08 9.725873e-09 1.864059e-08 1.419849e-07
3.596996e-08 -6.212385e-08 8.086813e-08 5.302399e-09 4.780230e-09 1.383053e-07
5.250599e-08 -7.308846e-08 1.160329e-07 7.825572e-09 2.885571e-08 1.883227e-07
4.876060e-08 -8.653330e-08 8.698534e-08 -3.627838e-09 -4.634557e-09 1.473725e-07
3.089741e-08 -5.813853e-08 1.066787e-07 1.011177e-08 1.957164e-08 1.638908e-07
3.399549e-08 -5.798452e-08 1.062102e-07 2.525085e-08 2.524753e-08 1.638480e-07
1.294984e-07 -8.210137e-08 9.213966e-08 1.965083e-08 7.219889e-10 1.681041e-07
5.547585e-08 -4.635086e-08 1.154228e-07 3.142281e-08 3.010167e-08 1.859682e-07
8.989939e-08 -6.100995e-08 5.663953e-08 3.677326e-08 -4.691911e-09 1.209708e-07
1.107540e-07 -9.341068e-08 9.189513e-08 4.645452e-09 6.255817e-09 1.771404e-07
1.318474e-07 -9.832804e-08 1.198446e-07 6.488782e-09 3.120859e-08 -6.199044e-08
8.465037e-08 -1.280418e-07 1.068723e-07 5.554701e-08 9.737058e-09 -3.581189e-08
1.122536e-07 -1.147722e-07 1.351782e-07 2.125292e-08 2.940360e-08 -9.380506e-08
2.004378e-07 -1.112942e-07 6.569796e-08 1.164923e-09 4.139553e-08 -1.075219e-07
5.826682e-08 -4.679860e-08 1.308412e-07 -2.575758e-08 -2.765030e-09 -8.033287e-09
1.802974e-08 -8.005405e-08 1.219307e-07 2.683255e-08 -2.403373e-08 1.140864e-08
1.242348e-08 -5.503803e-08 1.761506e-07 8.594051e-10 4.912285e-08 7.581610e-09
4.131465e-08 -3.917019e-08 1.016576e-07 -3.511831e-08 4.166471e-08 -3.961090e-08
2.060533e-07 -4.912084e-08 8.060850e-08 -2.548583e-08 2.424947e-09 3.720386e-08
2.049700e-07 -4.627135e-08 1.103955e-07 -2.113510e-08 -1.818258e-08 3.609264e-08
2.301998e-07 -9.783421e-08 1.146330e-07 8.895668e-09 3.353894e-08 -4.299349e-08
3.357062e-07 -9.029541e-08 5.854807e-08 -3.616709e-08 4.705825e-08 -9.077702e-09
1.476543e-07 -4.809014e-08 1.130672e-07 -2.835094e-08 1.214544e-08 -5.250420e-08
1.644724e-07 -4.803562e-08 1.480505e-07 -3.501843e-08 1.240982e-08 -5.473569e-09
1.661995e-07 -7.921129e-08 1.536555e-07 -4.224951e-08 -6.919896e-09 -2.504996e-08
1.539381e-07 -3.935831e-08 1.499530e-07 -3.735154e-08 -1.532223e-09 -1.683820e-08
1.562661e-07 -4.485916e-08 1.439288e-07 -2.650970e-08 1.194725e-08 -1.810797e-08
2.065804e-07 -6.722026e-08 1.547324e-07 -1.921411e-08 3.405028e-09 -1.071507e-08
1.647901e-07 -3.778518e-08 1.547139e-07 -2.921051e-08 1.733154e-09 -7.882709e-09
1.969631e-07 -4.845715e-08 1.371461e-07 -8.956946e-09 -1.298111e-08 -4.127700e-08
1.972454e-07 -7.713043e-08 1.482441e-07 -2.884759e-08 1.179864e-08 -2.691118e-09
2.463674e-07 -1.057033e-07 9.570176e-08 -4.824471e-08 8.428549e-09 1.172333e-08
3.117751e-07 -1.166797e-07 -2.695014e-08 -1.861825e-08 4.542454e-08 -1.053667e-07
3.829576e-07 -1.511878e-07 -1.604286e-08 -3.820685e-08 -2.056169e-08 -6.479257e-09
3.140360e-07 -1.523632e-07 5.659838e-08 -2.069667e-08 -2.349499e-08 -8.666377e-08
2.404916e-07 -1.156505e-07 1.166677e-07 -5.737413e-08 4.326085e-08 2.477676e-08
2.444430e-07 -1.177620e-07 1.246631e-07 -7.261217e-08 3.934649e-08 -4.515552e-08
3.782288e-07 -1.437261e-07 2.588214e-08 -7.508107e-08 9.338668e-08 -6.132642e-09
2.965872e-07 -1.339958e-07 4.362888e-08 -4.419017e-08 7.566559e-08 -1.134873e-07
2.640888e-07 -7.389383e-08 3.098939e-07 -1.677338e-07 1.645424e-07 -3.352585e-07
2.521738e-07 -9.548467e-08 3.710842e-07 -1.402402e-07 1.996880e-07 -3.277205e-07
2.534911e-07 -9.388295e-08 4.129598e-07 -1.712058e-07 2.120325e-07 -3.880024e-07
3.598225e-07 -7.833876e-08 2.610418e-07 -2.226742e-07 1.357390e-07 -3.190536e-07
9.911807e-08 -8.980701e-08 3.437409e-07 -8.479050e-08 2.065243e-07 -3.574580e-07
7.641938e-08 -1.118997e-07 3.936698e-07 -5.438130e-08 2.440846e-07 -3.624682e-07
3.201717e-07 -4.804608e-08 2.789118e-07 -1.870730e-07 2.023446e-07 -3.431377e-07
8.091891e-08 -1.219625e-07 2.807972e-07 -4.912879e-08 2.111428e-07 -3.668590e-07
3.438291e-07 -1.496543e-07 4.742672e-07 -2.229779e-07 1.807651e-07 -4.497227e-07
3.429675e-07 -1.501728e-07 4.654102e-07 -2.239400e-07 1.623976e-07 -5.081563e-07
4.004659e-07 -1.829303e-07 4.746735e-07 -2.702493e-07 1.747379e-07 -4.493501e-07
4.208873e-07 -2.491152e-07 5.488008e-07 -2.701420e-07 2.084872e-07 -4.925932e-07
3.236514e-07 -1.506273e-07 3.889211e-07 -2.172049e-07 9.544796e-08 -2.661486e-07
2.984082e-07 -1.477874e-07 4.720967e-07 -2.161436e-07 7.408050e-08 -3.187367e-07
2.668245e-07 -2.257725e-07 5.181702e-07 -2.697797e-07 1.371770e-07 -2.980410e-07
3.982860e-07 -2.544603e-07 3.063503e-07 -2.382509e-07 5.520288e-08 -2.689717e-07
1.480752e-07 -7.872966e-08 6.299454e-07 -8.893361e-08 1.054748e-07 -4.067006e-07
2.264912e-07 -1.109160e-07 6.357957e-07 -1.698312e-07 1.120324e-07 -3.452219e-07
1.320046e-07 -5.317137e-08 6.796451e-07 -7.657573e-08 2.048204e-07 -3.559824e-07
1.276634e-07 -7.883616e-08 7.679730e-07 -9.796976e-08 1.170524e-07 -3.567464e-07
2.497046e-07 -7.053823e-08 4.105160e-07 -1.484129e-07 1.594885e-07 -3.629045e-07
3.293818e-07 -1.248409e-07 3.918920e-07 -2.113639e-07 1.912910e-07 -3.255994e-07
3.569984e-07 -7.447591e-08 4.280959e-07 -1.360677e-07 1.456455e-07 -3.728943e-07
3.687360e-07 -1.370172e-07 4.860204e-07 -1.469392e-07 1.918190e-07 -4.002786e-07
1.683506e-07 -3.699897e-08 9.444940e-07 -3.821441e-07 3.869027e-07 -8.217495e-07
9.730725e-08 -5.310029e-08 1.040438e-06 -3.453370e-07 3.975145e-07 -8.827246e-07
2.664745e-07 -4.643650e-10 1.037015e-06 -5.015005e-07 4.061277e-07 -8.705749e-07
2.807764e-07 -2.247763e-07 1.183485e-06 -5.164447e-07 4.424970e-07 -9.164306e-07
2.077755e-07 4.375506e-09 8.917825e-07 -4.317130e-07 3.709552e-07 -7.683669e-07
1.331761e-07 -1.455844e-08 9.746553e-07 -3.917550e-07 3.871107e-07 -8.331244e-07
9.741846e-08 -1.603894e-07 1.159390e-06 -4.682462e-07 4.137338e-07 -8.479227e-07
1.798527e-07 -1.584333e-07 9.153966e-07 -4.972969e-07 3.744760e-07 -8.650015e-07
1.576351e-08 5.780650e-08 7.183649e-07 -1.995138e-07 4.364586e-07 -7.119769e-07
-3.545205e-08 1.052730e-07 7.290161e-07 -1.525645e-07 5.046314e-07 -7.368577e-07
1.134644e-07 1.860367e-07 6.273057e-07 -2.622373e-07 3.847562e-07 -5.721235e-07
-4.447333e-08 2.251936e-08 6.358911e-07 -9.254978e-08 4.784037e-07 -6.356977e-07
8.602314e-08 8.322410e-08 6.568211e-07 -3.216040e-07 3.464787e-07 -7.227042e-07
5.181340e-08 1.299369e-07 6.830604e-07 -2.720594e-07 4.163907e-07 -7.310236e-07
5.250516e-08 1.391056e-07 5.209466e-07 -3.164516e-07 3.769228e-07 -8.066341e-07
8.017593e-08 1.403514e-07 3.909527e-07 -3.287776e-07 2.589578e-07 -6.716715e-07
1.571934e-07 -1.693103e-09 8.876906e-07 -3.780664e-07 3.920427e-07 -7.835787e-07
1.492161e-07 -1.266026e-08 7.149980e-07 -3.984542e-07 3.406841e-07 -8.340058e-07
1.220382e-07 -4.734175e-08 9.089212e-07 -3.674860e-07 3.198995e-07 -8.055506e-07
1.697235e-07 -2.771295e-08 9.332205e-07 -4.330417e-07 4.400775e-07 -8.578509e-07
7.288237e-08 -1.208982e-07 9.641615e-07 -2.512020e-07 3.445846e-07 -6.635339e-07
7.130213e-08 -1.425083e-07 7.698203e-07 -2.709005e-07 2.738831e-07 -7.033753e-07
1.742705e-07 -5.976363e-08 9.571968e-07 -4.149993e-07 4.500535e-07 -8.435119e-07
8.454750e-08 -1.577525e-07 9.235595e-07 -3.212264e-07 3.228643e-07 -7.232174e-07
1.120531e-07 -7.630357e-08 1.066156e-06 -2.251347e-07 3.844635e-07 -7.494091e-07
1.811323e-07 -7.046377e-08 1.146486e-06 -3.040120e-07 3.190922e-07 -6.720763e-07
1.870780e-07 -9.067870e-08 9.137845e-07 -3.061890e-07 7.687799e-08 -5.697169e-07
1.875797e-07 -3.416469e-08 7.158851e-07 -3.008432e-07 5.439245e-07 -5.215095e-07
1.204114e-07 -7.098894e-08 1.167048e-06 -3.035098e-07 4.903320e-07 -7.927304e-07
2.243565e-07 -5.602779e-08 1.209977e-06 -3.877514e-07 4.251662e-07 -7.245188e-07
2.232766e-07 -2.827505e-08 1.061417e-06 -3.881468e-07 6.589402e-07 -6.799034e-07
2.679590e-07 -2.232528e-07 1.531116e-06 -3.842145e-07 6.680812e-07 -8.251522e-07
-2.154255e-07 2.679775e-07 3.748162e-07 7.659424e-08 2.413995e-07 2.929751e-07
-2.164751e-07 3.091391e-07 4.555003e-07 9.597104e-08 4.301869e-07 2.924805e-07
-2.899049e-07 3.268086e-07 6.381118e-07 1.458574e-07 3.393926e-07 2.827971e-07
-3.122077e-07 4.154815e-07 6.227633e-07 1.692521e-07 2.335866e-07 3.183803e-07
-2.044132e-07 3.041304e-07 4.709900e-07 3.483027e-08 3.361375e-07 1.082830e-07
-2.060583e-07 3.300145e-07 5.049520e-07 6.999098e-08 5.145454e-07 1.075724e-07
-1.860645e-07 3.947120e-07 5.249764e-07 1.455910e-07 3.929812e-07 8.486528e-08
-3.066371e-07 4.929665e-07 5.380312e-07 1.204764e-07 4.703574e-07 1.430639e-07
-1.192668e-07 2.515471e-07 4.635265e-07 2.748589e-08 4.804559e-07 2.437101e-07
-1.891985e-07 8.676235e-08 7.478261e-07 1.427040e-07 4.097309e-07 2.353296e-07
-1.795369e-07 2.603658e-07 8.109037e-07 9.320715e-08 6.139571e-07 1.490210e-07
-1.581332e-07 5.023684e-07 7.927805e-07 1.738495e-07 5.494770e-07 1.136396e-07
-1.882221e-07 2.501607e-07 7.134204e-07 4.212445e-08 4.708120e-07 1.808081e-07
-2.792778e-07 8.744624e-08 9.491881e-07 1.668764e-07 3.763721e-07 2.166910e-07
-2.522791e-07 4.920484e-07 6.444250e-07 2.714328e-07 4.252084e-07 2.318355e-07
-3.135256e-07 3.584228e-07 8.010981e-07 1.799577e-07 5.466699e-07 2.958282e-07
-1.047022e-07 8.423544e-08 5.720612e-07 -6.847628e-08 2.211974e-07 1.420058e-07
-7.119775e-08 -4.159858e-08 4.259010e-07 -7.808996e-08 5.317867e-08 1.809088e-07
-2.472323e-07 6.833138e-08 5.560443e-07 -9.348364e-08 1.733198e-07 1.497233e-07
-1.347648e-07 -3.077682e-08 5.589540e-07 -6.324604e-08 1.847878e-07 1.689306e-07
-1.686083e-07 6.356985e-08 6.686709e-07 3.984726e-08 2.817091e-07 1.962562e-07
-1.632829e-07 -5.763535e-08 4.579518e-07 8.057704e-09 1.034038e-07 1.760391e-07
-1.624529e-07 7.016579e-08 5.628572e-07 2.765941e-08 2.815603e-07 1.856947e-07
-2.920214e-07 9.214396e-08 6.847277e-07 6.931475e-08 3.459357e-07 1.897824e-07
-6.239136e-09 1.239316e-07 4.936925e-08 5.435429e-08 1.710660e-07 -1.195786e-08
-2.306662e-08 -7.940819e-08 1.652480e-07 1.185182e-07 1.925297e-07 1.368775e-09
-2.358840e-08 1.258119e-07 1.651914e-07 7.341923e-08 2.045531e-07 1.544311e-09
-2.026277e-08 2.388001e-07 -6.840449e-08 9.445575e-08 3.261311e-07 9.504331e-09
-3.613633e-08 1.195465e-07 3.511719e-07 1.192947e-07 1.013386e-07 -1.258041e-07
-5.225080e-08 -3.289245e-08 4.926003e-07 1.789745e-07 4.703089e-08 -7.040104e-08
-4.856542e-08 2.308686e-07 2.205730e-07 2.114768e-07 1.566626e-07 -6.696896e-08
-5.431415e-08 1.404078e-07 4.231437e-07 1.851593e-07 1.907831e-07 -7.731557e-08
-6.036712e-08 4.316161e-09 2.155984e-07 3.502097e-08 1.054110e-08 -8.200523e-09
-5.484237e-08 -7.519796e-08 1.402327e-07 1.581257e-08 -7.803893e-08 -1.420467e-08
-5.103083e-08 2.389249e-08 1.621826e-07 4.673836e-08 2.694168e-08 4.139290e-08
-1.012623e-07 1.426302e-08 2.281334e-07 7.677557e-08 5.806446e-08 2.939068e-08
-3.783301e-08 3.278370e-08 2.154974e-07 -9.060192e-08 -8.828054e-08 6.918272e-10
-1.578067e-08 -4.988857e-08 1.764332e-07 -9.696307e-08 -1.685108e-07 2.409115e-08
-1.613153e-07 -1.007686e-08 2.223406e-07 -7.208693e-08 -1.145443e-07 -8.436409e-09
-3.847140e-08 -1.371430e-08 2.308205e-07 -1.138611e-07 -1.172366e-07 4.008379e-08
-7.094916e-08 1.238201e-07 1.488203e-07 1.516624e-07 -9.150519e-08 -7.496350e-09
-7.198318e-08 1.574438e-07 8.385441e-08 1.608842e-07 1.723731e-08 6.085840e-08
-9.627656e-08 1.211990e-07 1.859619e-07 1.908882e-07 2.617415e-08 4.592422e-08
-7.177417e-08 1.719285e-07 2.525436e-07 2.281165e-07 -7.944670e-08 -1.080067e-08
-1.131492e-07 1.796446e-07 1.846201e-07 9.915860e-08 -4.071340e-08 -8.614751e-08
-9.917842e-08 1.992449e-07 8.074152e-08 1.163633e-07 5.349731e-08 -2.854562e-08
-3.612465e-08 2.248540e-07 2.476586e-07 1.572074e-07 -2.573651e-08 -1.421336e-07
-1.318332e-07 2.400770e-07 2.093595e-07 1.780743e-07 -2.117367e-08 -6.565769e-08
-7.784675e-08 6.796254e-09 9.376165e-08 -3.201131e-08 -1.485163e-07 -1.243681e-07
-6.772134e-08 -8.190242e-09 5.910945e-08 -4.004613e-08 -2.009365e-07 -1.061445e-07
-9.768972e-08 -6.702514e-09 8.015775e-08 -3.003136e-08 -1.886603e-07 -1.119093e-07
-6.687379e-08 -1.028981e-08 5.029266e-08 -3.893127e-08 -1.602420e-07 -1.430347e-07
-4.326119e-08 -1.670297e-09 9.802834e-08 2.761874e-09 -1.306117e-07 -1.114519e-07
-3.848580e-08 -1.625084e-08 5.164903e-08 -6.727696e-09 -1.825646e-07 -1.062854e-07
-2.810279e-08 2.624974e-08 5.248805e-08 1.828767e-08 -1.382793e-07 -6.619593e-08
-2.747483e-08 1.109175e-08 7.542915e-08 2.591787e-08 -1.367147e-07 -7.714429e-08
-6.042502e-08 3.232488e-08 3.103924e-08 -1.034532e-08 -1.166482e-07 -1.161536e-07
-7.181901e-08 1.683497e-08 6.446664e-08 5.898614e-09 -1.382533e-07 -1.124317e-07
-7.024718e-08 8.467558e-08 6.016103e-08 1.637658e-08 -1.116958e-07 -1.455805e-07
-6.156320e-08 1.131205e-07 3.296336e-08 5.205089e-08 -1.213777e-07 -1.245646e-07
-2.697503e-08 6.974524e-08 -1.216375e-08 2.648937e-08 -1.158425e-07 -1.043437e-07
-3.248074e-08 5.768771e-08 4.202691e-08 3.639310e-08 -1.187716e-07 -8.992390e-08
-3.794366e-08 6.414715e-08 4.341801e-08 4.654628e-08 -1.219210e-07 -9.311517e-08
-3.814651e-08 1.185907e-07 -2.409825e-08 6.559096e-08 -9.916901e-08 -1.081511e-07
-8.383806e-08 7.281124e-08 2.733860e-08 6.057807e-08 -7.716318e-08 -1.164159e-07
-8.454787e-08 7.378841e-08 1.078752e-07 6.318638e-08 -6.034122e-08 -1.115622e-07
-9.352250e-08 1.235158e-07 2.460840e-08 1.024551e-07 -4.852331e-08 -1.245515e-07
-1.146679e-07 7.403998e-08 1.232800e-07 5.985654e-08 -5.349819e-08 -8.958790e-08
-1.015255e-07 4.792177e-08 1.375267e-07 3.138361e-08 -1.749672e-07 -1.406520e-07
-7.190852e-08 6.881527e-08 4.055508e-08 5.637257e-08 -1.263211e-07 -9.000741e-08
-5.988620e-08 1.169180e-07 5.685269e-08 9.940098e-08 -1.746377e-07 -1.624356e-07
-8.711037e-08 1.190733e-07 6.894963e-08 9.992979e-08 -1.664899e-07 -1.378170e-07
-4.383298e-08 1.119636e-08 2.254971e-08 1.490080e-08 -1.517461e-07 -1.359484e-07
-3.772571e-08 1.280354e-08 9.728800e-08 1.819775e-08 -1.782488e-07 -1.748989e-07
-5.567313e-08 3.707851e-08 6.474209e-08 2.831799e-08 -1.832831e-07 -1.497108e-07
-3.399282e-08 6.318598e-08 6.133593e-09 5.263289e-08 -1.641900e-07 -1.235597e-07
-7.095092e-08 2.420306e-08 3.578918e-08 1.491889e-08 -1.746365e-07 -1.088985e-07
-7.245524e-08 2.918587e-08 1.008781e-07 1.789925e-08 -2.019184e-07 -1.418611e-07
3.325376e-09 3.297907e-08 8.814741e-09 5.168718e-08 -1.659687e-07 -1.338157e-07
-3.516119e-08 5.938764e-08 2.630104e-08 5.054463e-08 -1.876137e-07 -1.360102e-07
-6.170320e-08 -2.060796e-08 3.239066e-08 -4.683493e-08 -1.956720e-07 -1.379734e-07
-7.463669e-08 -6.388777e-09 3.910154e-08 -3.547577e-08 -1.858695e-07 -1.291281e-07
-5.914718e-08 -1.597413e-08 3.972129e-08 -5.073694e-08 -1.861143e-07 -1.245272e-07
-5.978462e-08 -2.664934e-08 3.218496e-08 -5.427206e-08 -1.974621e-07 -1.267314e-07
-1.673264e-08 -2.488028e-08 4.194682e-08 -1.342421e-08 -1.578421e-07 -1.089877e-07
-3.266677e-08 -7.208197e-09 4.827873e-08 -2.274800e-09 -1.471934e-07 -1.008753e-07
-4.184722e-08 -3.025193e-08 3.675788e-08 -2.548525e-08 -1.640430e-07 -1.144775e-07
-2.402521e-08 -1.416505e-09 6.842616e-09 -1.634371e-09 -1.465479e-07 -9.121763e-08
-4.553413e-08 -2.663503e-08 9.209772e-08 -2.303419e-08 -1.424548e-07 -1.490731e-07
-4.774065e-08 4.779480e-09 4.542304e-08 -2.324823e-08 -1.295741e-07 -1.598715e-07
-5.048747e-08 3.067923e-09 1.282262e-07 -1.778500e-08 -1.452061e-07 -1.675424e-07
-2.704253e-08 -1.201187e-08 1.031085e-07 -1.065270e-08 -1.253620e-07 -1.717598e-07
-7.173461e-08 -2.687224e-08 7.321985e-08 -4.349095e-08 -1.318399e-07 -1.240122e-07
-1.006043e-07 1.174540e-08 2.184195e-08 -4.586905e-08 -1.054109e-07 -1.000325e-07
-7.541833e-08 -2.224317e-08 5.876443e-08 -4.038457e-08 -1.244870e-07 -1.313561e-07
-9.209546e-08 1.301789e-08 1.856694e-08 -2.950546e-08 -1.349743e-07 -1.051334e-07
-9.648709e-08 4.482857e-09 -4.986407e-09 -4.887596e-08 -9.142758e-08 -9.495801e-08
-5.480366e-08 -1.458267e-08 4.757849e-08 -2.403017e-08 -1.179117e-07 -1.328320e-07
-9.983152e-08 6.389077e-09 4.485491e-08 -3.747693e-08 -1.285415e-07 -1.051555e-07
-7.553184e-08 4.685481e-09 1.110403e-08 -3.140546e-08 -1.252162e-07 -1.194268e-07
-7.408258e-08 -1.941468e-08 2.053679e-08 -3.525756e-08 -9.810981e-08 -1.060149e-07
SCALARS stress double 6
LOOKUP_TABLE default
-2.284479e+09 -2.084485e+09 -2.244488e+09 7.041483e+02 1.816686e+02 2.728401e+02
-1.999145e+09 -1.799153e+09 -1.959155e+09 5.555169e+02 6.396014e+01 3.066775e+02
-2.500960e+09 -2.300966e+09 -2.460969e+09 7.123804e+02 9.930689e+01 1.999645e+02
-2.884869e+09 -2.684874e+09 -2.844878e+09 4.548607e+02 9.385726e+01 1.528968e+02
-2.548692e+09 -2.348698e+09 -2.508701e+09 2.555112e+02 6.357720e+01 9.077084e+01
-3.787943e+09 -3.587927e+09 -3.747954e+09 -4.439850e+03 -3.642119e+03 1.919949e+03
-4.091955e+09 -3.891949e+09 -4.051966e+09 -3.533051e+03 -1.508388e+03 8.173928e+02
-3.398641e+09 -3.198625e+09 -3.358649e+09 -4.933117e+03 -5.270334e+03 2.881395e+03
-4.282825e+09 -4.082803e+09 -4.242832e+09 -4.009285e+03 -1.865241e+03 1.993117e+03
-4.089164e+09 -3.889150e+09 -4.049171e+09 2.664497e+03 1.956738e+03 1.012683e+03
-3.045578e+09 -2.845568e+09 -3.005583e+09 2.297993e+03 2.319660e+03 1.277484e+03
-3.938884e+09 -3.738873e+09 -3.898891e+09 1.370118e+03 1.253608e+03 1.006396e+03
-3.894654e+09 -3.694642e+09 -3.854660e+09 2.114606e+03 1.595957e+03 8.637578e+02
-4.245914e+09 -4.046021e+09 -4.206002e+09 1.025139e+04 -9.734989e+02 -5.969260e+03
-3.782099e+09 -3.582084e+09 -3.742105e+09 5.738072e+02 -5.272171e+02 -1.104786e+03
-4.006065e+09 -3.806160e+09 -3.966154e+09 1.728805e+03 8.184412e+02 -2.411416e+03
-4.799501e+09 -4.599617e+09 -4.759587e+09 -2.006916e+03 4.411620e+03 -4.006330e+03
-4.027075e+09 -3.827185e+09 -3.987163e+09 -6.419846e+02 1.275567e+03 -7.043831e+03
-4.266183e+09 -4.066282e+09 -4.226277e+09 1.986146e+03 -1.581778e+03 -1.614983e+03
-4.824681e+09 -4.624786e+09 -4.784774e+09 1.601189e+03 -1.031716e+03 -2.746510e+03
-4.660271e+09 -4.460370e+09 -4.620366e+09 2.027318e+03 -1.773675e+03 7.993898e+02
-2.842347e+09 -2.642359e+09 -2.802360e+09 -2.187891e+02 -9.724338e+01 5.316906e+02
-2.334165e+09 -2.134177e+09 -2.294178e+09 -4.154758e+02 -2.334834e+02 1.101451e+03
-2.688902e+09 -2.488914e+09 -2.648915e+09 -4.751032e+02 -1.280311e+02 8.746081e+02
-3.517618e+09 -3.317620e+09 -3.477625e+09 2.493437e+02 2.850022e+01 2.535493e+01
-3.191522e+09 -2.991526e+09 -3.151531e+09 -7.153666e+02 -7.228671e+01 3.409218e+02
-2.754567e+09 -2.554570e+09 -2.714575e+09 2.271832e+02 1.424073e+01 1.715567e+01
-3.058848e+09 -2.858851e+09 -3.018855e+09 1.118485e+02 7.549032e+00 1.494487e+01
-3.513690e+09 -3.313693e+09 -3.473697e+09 3.069044e+02 1.936163e+01 1.929877e+01
-3.956135e+09 -3.756137e+09 -3.916142e+09 2.917559e+02 2.287788e+01 2.940686e+01
-3.989146e+09 -3.789149e+09 -3.949153e+09 1.477435e+02 4.526045e+01 -1.996919e+01
-3.801944e+09 -3.601955e+09 -3.761957e+09 -5.331670e+02 -8.548896e+01 6.552528e+02
-3.646713e+09 -3.446725e+09 -3.606726e+09 -3.614209e+02 -5.366342e+01 4.747207e+02
-2.942614e+09 -2.742627e+09 -2.902628e+09 -5.772309e+02 -2.119623e+02 1.073107e+03
-4.305424e+09 -4.105343e+09 -4.265401e+09 2.363948e+04 8.886969e+03 2.292364e+03
-3.623905e+09 -3.423918e+09 -3.583920e+09 -4.804230e+02 -2.353375e+02 7.618056e+02
-3.304405e+09 -3.104417e+09 -3.264419e+09 -3.976273e+02 -2.751624e+01 8.086742e+02
-2.614091e+09 -2.414103e+09 -2.574104e+09 -4.462109e+02 -1.490394e+01 6.185859e+02
-4.817347e+09 -4.617312e+09 -4.777352e+09 1.657612e+03 1.965919e+03 -3.244028e+02
-4.818931e+09 -4.618903e+09 -4.778936e+09 5.026125e+02 1.055082e+03 -1.015951e+02
-4.474113e+09 -4.274077e+09 -4.434118e+09 2.571322e+03 2.978470e+03 4.685100e+02
-4.647772e+09 -4.447744e+09 -4.607778e+09 1.230145e+03 1.556273e+03 1.266466e+02
-1.765597e+09 -1.565591e+09 -1.725603e+09 3.398244e+03 -1.074561e+04 -7.218128e+03
-2.625067e+09 -2.425069e+09 -2.585086e+09 1.239929e+04 -1.058583e+04 -8.173454e+03
-3.584267e+09 -3.384264e+09 -3.544276e+09 -2.589574e+03 -1.130846e+03 1.354348e+03
-4.103692e+09 -3.903691e+09 -4.063701e+09 -2.427268e+03 -5.821266e+02 6.558410e+02
-4.261058e+09 -4.061056e+09 -4.221069e+09 -3.666320e+03 -1.414250e+03 1.308755e+03
-4.815798e+09 -4.615796e+09 -4.775809e+09 -3.528298e+03 -3.444701e+02 -2.937574e+02
-4.774202e+09 -4.574201e+09 -4.734211e+09 -2.228410e+03 -1.245706e+02 5.452515e+02
-4.822459e+09 -4.622455e+09 -4.782469e+09 -2.464009e+03 -1.093664e+02 9.436821e+02
-2.424641e+09 -2.224649e+09 -2.384652e+09 1.158719e+03 1.114765e+02 5.305513e+02
-2.455686e+09 -2.255693e+09 -2.415696e+09 8.811108e+02 3.358163e+02 4.382500e+02
-2.493215e+09 -2.293223e+09 -2.453225e+09 6.677888e+02 2.967831e+02 3.213481e+02
-3.636989e+09 -3.437016e+09 -3.597035e+09 5.857751e+03 -6.519773e+03 -2.136568e+03
-1.778567e+09 -1.578575e+09 -1.738578e+09 8.775122e+02 1.474172e+02 5.463120e+02
-1.961616e+09 -1.761623e+09 -1.921626e+09 7.073812e+02 2.792379e+02 4.001529e+02
-2.022689e+09 -1.822697e+09 -1.982699e+09 7.997194e+02 2.304107e+02 4.848360e+02
-1.819775e+09 -1.619783e+09 -1.779785e+09 5.544474e+02 2.108399e+02 3.015126e+02
-3.253950e+09 -3.053957e+09 -3.213960e+09 8.232644e+02 1.251586e+02 2.174475e+02
-1.817019e+09 -1.617026e+09 -1.777028e+09 2.870326e+02 8.921336e+01 1.727821e+01
-2.802643e+09 -2.602650e+09 -2.762653e+09 3.797723e+02 -2.218827e+01 2.043169e+02
-2.543611e+09 -2.343618e+09 -2.503621e+09 3.729923e+02 2.017535e+02 2.016513e+02
-2.967039e+09 -2.767047e+09 -2.927049e+09 2.833352e+02 9.098476e+01 1.467227e+01
-2.461848e+09 -2.261854e+09 -2.421857e+09 1.684178e+02 8.580404e+01 1.189734e+02
-2.058117e+09 -1.858124e+09 -2.018126e+09 1.386863e+02 -1.201054e+01 9.768479e+01
-3.103970e+09 -2.903976e+09 -3.063979e+09 5.522399e+02 1.491081e+02 1.982087e+02
-3.530086e+09 -3.330086e+09 -3.490107e+09 1.212572e+03 -6.300411e+03 -5.552855e+02
-3.158891e+09 -2.958897e+09 -3.118900e+09 2.819825e+02 1.475956e+02 3.069107e+01
-2.384002e+09 -2.184009e+09 -2.344011e+09 3.438363e+02 2.994370e+02 9.881553e+01
-4.284393e+09 -4.084489e+09 -4.244476e+09 -8.898294e+03 1.333392e+03 -6.170118e+03
-3.273033e+09 -3.073101e+09 -3.233091e+09 -7.171887e+03 5.074456e+03 -1.376358e+04
-3.564531e+09 -3.364550e+09 -3.524570e+09 1.962061e+03 -7.611090e+03 -1.322057e+02
-3.244188e+09 -3.044189e+09 -3.204195e+09 1.359353e+03 4.014234e+02 4.607254e+02
-4.683007e+09 -4.483011e+09 -4.643016e+09 -9.224277e+02 -2.495546e+01 1.583001e+02
-4.817435e+09 -4.617439e+09 -4.777444e+09 -8.463832e+02 1.671620e+01 6.512881e+01
-4.640771e+09 -4.440775e+09 -4.600779e+09 -4.305480e+02 -2.859702e+01 1.057618e+02
-4.809565e+09 -4.609569e+09 -4.769573e+09 -4.321566e+02 3.442558e+01 7.441918e+00
-2.236581e+09 -2.036605e+09 -2.196606e+09 7.930529e+03 -1.056705e+04 -1.396712e+04
-2.205843e+09 -2.005866e+09 -2.165871e+09 7.595928e+03 -1.335168e+04 -1.209209e+04
-2.786883e+09 -2.586929e+09 -2.746933e+09 1.014295e+04 -7.070643e+03 -6.606850e+03
-2.910561e+09 -2.710586e+09 -2.870602e+09 9.095089e+03 -7.082177e+03 -2.384016e+03
-2.866163e+09 -2.666203e+09 -2.826204e+09 1.126419e+04 -8.683729e+03 -1.084184e+04
-2.931759e+09 -2.731804e+09 -2.891796e+09 1.455518e+04 -8.661827e+03 -1.157440e+04
-3.077800e+09 -2.877833e+09 -3.037844e+09 9.872125e+03 -8.548645e+03 -1.578759e+03
-2.187988e+09 -1.987996e+09 -2.147999e+09 -1.429394e+03 -4.193188e+02 7.965579e+02
-3.861810e+09 -3.661798e+09 -3.821818e+09 1.488982e+03 -1.506360e+03 -1.094285e+03
-3.432265e+09 -3.232253e+09 -3.392272e+09 1.615969e+03 -1.940745e+03 -1.240224e+03
-4.000277e+09 -3.800265e+09 -3.960285e+09 9.138134e+02 -1.051345e+03 -1.022973e+03
-3.426838e+09 -3.226827e+09 -3.386845e+09 1.521908e+03 -2.534538e+03 -9.324880e+02
-2.089302e+09 -1.889311e+09 -2.049313e+09 -7.879328e+02 -2.804714e+02 5.047453e+02
-3.851941e+09 -3.651930e+09 -3.811950e+09 1.470205e+03 -2.143323e+03 -6.255095e+02
-3.998754e+09 -3.798743e+09 -3.958761e+09 1.084862e+03 -1.396998e+03 -4.865408e+02
-4.066467e+09 -3.866456e+09 -4.026475e+09 7.247860e+02 -1.438933e+03 -6.083783e+02
-3.326182e+09 -3.126171e+09 -3.286188e+09 7.198205e+02 -1.662380e+03 -1.107917e+03
-2.453233e+09 -2.253223e+09 -2.413237e+09 1.017602e+01 -2.704092e+03 -8.369832e+02
-3.119584e+09 -2.919573e+09 -3.079590e+09 8.556592e+02 -2.976522e+03 -1.088258e+03
-2.737168e+09 -2.537157e+09 -2.697172e+09 5.817784e+02 -1.608872e+03 -9.359230e+02
-4.817559e+09 -4.617571e+09 -4.777575e+09 2.822295e+03 -1.562119e+02 5.271825e+02
-4.819371e+09 -4.619381e+09 -4.779385e+09 2.005838e+03 -1.353622e+02 2.482228e+02
-4.474325e+09 -4.274338e+09 -4.434342e+09 2.582020e+03 -2.659756e+02 9.656245e+02
-4.288324e+09 -4.088335e+09 -4.248339e+09 1.770431e+03 3.272897e+02 4.485909e+02
-4.653098e+09 -4.453070e+09 -4.613108e+09 5.074054e+03 -2.674509e+03 -1.397708e+03
-4.655042e+09 -4.455017e+09 -4.615050e+09 2.700864e+03 -8.934409e+02 -8.789267e+02
-4.825388e+09 -4.625362e+09 -4.785397e+09 3.071246e+03 -1.213072e+03 -1.443920e+02
-4.824631e+09 -4.624601e+09 -4.784640e+09 4.387866e+03 -1.276307e+03 -1.193602e+03
-2.861772e+09 -2.661778e+09 -2.821781e+09 -2.076838e+02 -9.090384e+01 -4.347665e+00
-3.627955e+09 -3.427946e+09 -3.587960e+09 -9.973790e+02 1.608204e+03 -3.717441e+02
-3.377420e+09 -3.177410e+09 -3.337424e+09 -4.996589e+02 1.049518e+03 -5.403905e+02
-4.044346e+09 -3.844336e+09 -4.004350e+09 -3.383956e+02 4.764514e+02 -2.926674e+02
-3.976643e+09 -3.776633e+09 -3.936647e+09 -5.449730e+02 7.070223e+02 -1.721423e+02
-4.371918e+09 -4.171908e+09 -4.331922e+09 -2.639784e+02 3.816448e+02 -1.106840e+02
-3.373921e+09 -3.173912e+09 -3.333925e+09 -5.087879e+02 1.536406e+03 -5.512638e+02
-3.861808e+09 -3.661798e+09 -3.821812e+09 -3.602235e+02 8.531748e+02 -2.332146e+02
-4.081216e+09 -3.881215e+09 -4.041223e+09 1.653569e+03 2.313585e+02 5.502284e+02
-3.681585e+09 -3.481590e+09 -3.641593e+09 -1.660406e+02 -7.088187e+01 2.619752e+01
-4.064983e+09 -3.864983e+09 -4.024990e+09 1.142135e+03 3.172109e+02 2.293993e+02
-4.234179e+09 -4.034179e+09 -4.194185e+09 1.085794e+03 1.537585e+02 5.850553e+01
-4.656272e+09 -4.456272e+09 -4.616279e+09 1.390096e+03 1.105007e+02 2.239666e+02
-4.654397e+09 -4.454377e+09 -4.614403e+09 -2.725882e+03 1.645012e+03 -8.056992e+02
-4.656901e+09 -4.456880e+09 -4.616906e+09 -2.187642e+03 1.137277e+03 -4.617583e+02
-4.657009e+09 -4.456992e+09 -4.617014e+09 -1.559503e+03 8.051819e+02 -5.893799e+02
-4.828417e+09 -4.628398e+09 -4.788421e+09 -1.601141e+03 7.842941e+02 1.444942e+02
-4.825588e+09 -4.625567e+09 -4.785594e+09 -2.378893e+03 7.820618e+02 -7.724700e+02
-3.278341e+09 -3.078364e+09 -3.238379e+09 -2.561640e+04 1.715067e+04 -1.344311e+04
-2.141788e+09 -1.941815e+09 -2.101810e+09 -8.986043e+03 1.375901e+04 -1.122926e+04
-2.549201e+09 -2.349233e+09 -2.509233e+09 -1.245347e+04 8.492872e+03 1.369204e+02
-2.883587e+09 -2.683614e+09 -2.843629e+09 -1.190296e+04 9.113459e+03 -9.755862e+03
-2.663486e+09 -2.463477e+09 -2.623489e+09 -7.223568e+01 7.827850e+02 1.003059e+02
-3.537324e+09 -3.337362e+09 -3.497370e+09 -2.192590e+04 9.902344e+03 -1.100409e+04
-2.839984e+09 -2.640010e+09 -2.800026e+09 -1.273262e+04 1.028520e+04 -9.358065e+03
-2.929908e+09 -2.729944e+09 -2.889947e+09 -6.674133e+03 6.460709e+03 -4.044351e+03
-4.300469e+09 -4.100464e+09 -4.260489e+09 -6.561163e+03 3.082877e+03 -1.905064e+03
-4.032170e+09 -3.832163e+09 -3.992186e+09 -4.100748e+03 3.432897e+03 -1.464718e+03
-4.222309e+09 -4.022302e+09 -4.182323e+09 -4.009111e+03 2.738255e+03 -8.149291e+02
-4.821366e+09 -4.621358e+09 -4.781385e+09 -7.581585e+03 1.312086e+03 -3.783428e+02
-4.663365e+09 -4.463360e+09 -4.623387e+09 -6.584676e+03 1.842626e+03 -7.366167e+01
-4.815751e+09 -4.615757e+09 -4.775767e+09 -6.162794e+03 -1.211349e+03 2.069381e+02
-4.628243e+09 -4.428249e+09 -4.588262e+09 -8.851500e+03 -1.070146e+03 1.794454e+03
-4.299792e+09 -4.099797e+09 -4.259807e+09 -6.467069e+03 -1.627480e+03 1.280622e+03
-4.302027e+09 -4.102031e+09 -4.262044e+09 -8.472947e+03 -2.010583e+03 2.102176e+03
-4.302807e+09 -4.102844e+09 -4.262849e+09 6.272490e+03 9.151097e+02 4.903088e+03
-4.304557e+09 -4.104600e+09 -4.264599e+09 6.158411e+03 3.896259e+02 6.502474e+03
-4.303935e+09 -4.103977e+09 -4.263980e+09 3.013377e+03 2.203034e+02 5.302968e+03
-4.133364e+09 -3.933406e+09 -4.093408e+09 5.384654e+03 -2.146447e+02 6.750084e+03
-4.125903e+09 -3.925914e+09 -4.085922e+09 6.254280e+03 8.115550e+02 2.303720e+03
-4.302529e+09 -4.102544e+09 -4.262553e+09 9.221555e+03 1.421702e+03 3.128976e+03
-4.812429e+09 -4.612445e+09 -4.772455e+09 8.682240e+03 -2.717191e+01 1.163460e+03
-4.812368e+09 -4.612381e+09 -4.772388e+09 6.203047e+03 1.553308e+01 1.156455e+03
-4.656432e+09 -4.456443e+09 -4.616451e+09 6.552249e+03 3.977819e+02 1.281538e+03
-4.662524e+09 -4.462536e+09 -4.622547e+09 8.053188e+03 4.640841e+02 1.546120e+03
-4.648106e+09 -4.448163e+09 -4.608088e+09 -6.156482e+04 8.593730e+03 -1.166899e+04
-4.308567e+09 -4.108667e+09 -4.268493e+09 -5.800590e+04 4.350823e+03 -1.462797e+04
-4.308013e+09 -4.108105e+09 -4.268004e+09 -6.099163e+04 -1.972324e+03 -1.561136e+02
-4.136942e+09 -3.937044e+09 -4.096902e+09 -5.895787e+04 1.457722e+04 -2.674062e+04
-4.656257e+09 -4.456264e+09 -4.616268e+09 -1.233185e+03 -1.771617e+02 1.123488e+02
-2.201094e+09 -2.001095e+09 -2.161100e+09 1.326490e+03 4.178991e+02 4.362455e+02
-4.275004e+09 -4.075013e+09 -4.235016e+09 -1.155556e+03 -1.213221e+02 2.925503e+02
-1.627755e+09 -1.427755e+09 -1.587761e+09 -9.218005e+01 -9.434664e+03 -2.670823e+02
-4.006147e+09 -3.806156e+09 -3.966158e+09 -7.423278e+02 1.304268e+01 3.050922e+02
-4.275106e+09 -4.075115e+09 -4.235118e+09 -8.139997e+02 -9.392194e+01 1.767942e+02
-3.114469e+09 -2.914481e+09 -3.074482e+09 4.266512e+02 5.756834e+01 6.176753e+02
-2.852462e+09 -2.652475e+09 -2.812476e+09 3.848474e+02 1.444110e+02 9.464918e+02
-2.917788e+09 -2.717800e+09 -2.877801e+09 2.120917e+02 4.269080e+01 2.325504e+02
-2.093665e+09 -1.893677e+09 -2.053678e+09 1.351051e+02 -3.799800e+01 6.150236e+02
-2.958815e+09 -2.758827e+09 -2.918828e+09 3.287475e+02 -2.848774e+00 6.051661e+02
-1.685985e+09 -1.485986e+09 -1.645991e+09 1.311621e+03 6.184389e+02 7.382954e+02
-2.158401e+09 -1.958412e+09 -2.118413e+09 2.551569e+02 3.447645e+01 5.848954e+02
-4.095975e+09 -3.895976e+09 -4.055983e+09 1.475755e+03 1.822841e+02 3.501108e+02
-4.825949e+09 -4.625949e+09 -4.785957e+09 1.813798e+03 -3.403905e+01 1.752051e+02
-4.169992e+09 -3.969993e+09 -4.129998e+09 7.130974e+02 9.400625e+01 8.941443e+01
-3.779013e+09 -3.579014e+09 -3.739020e+09 8.746231e+02 1.720872e+02 1.655011e+02
-4.603602e+09 -4.403602e+09 -4.563608e+09 7.204629e+02 2.418835e+01 1.334008e+02
-4.825367e+09 -4.625368e+09 -4.785374e+09 9.058131e+02 1.059454e+02 9.907729e+01
-3.956316e+09 -3.756303e+09 -3.916319e+09 -6.137345e+02 6.847896e+02 -8.141138e+02
-2.940193e+09 -2.740181e+09 -2.900195e+09 2.626098e+02 5.685789e+02 -1.178667e+03
-3.663594e+09 -3.463582e+09 -3.623597e+09 -3.781077e+02 2.486946e+02 -7.788990e+02
-3.832574e+09 -3.632562e+09 -3.792579e+09 -1.225540e+03 1.276384e+03 -6.034029e+02
-3.932523e+09 -3.732509e+09 -3.892527e+09 -6.331092e+02 6.754051e+02 -9.051557e+02
-1.585257e+09 -1.385249e+09 -1.545259e+09 -7.762313e+02 -6.167045e+03 -3.293417e+03
-3.626354e+09 -3.426341e+09 -3.586357e+09 -6.576091e+02 1.355902e+02 -7.552392e+02
-2.953973e+09 -2.753962e+09 -2.913975e+09 -4.378305e+02 1.650698e+03 -1.095304e+03
-3.098593e+09 -2.898581e+09 -3.058596e+09 -8.492884e+02 2.329204e+03 -1.213000e+03
-4.647314e+09 -4.447280e+09 -4.607332e+09 3.875875e+04 8.448607e+01 -1.957721e+03
-4.129048e+09 -3.929020e+09 -4.089064e+09 3.908215e+04 -9.215957e+03 -6.700638e+03
-4.130231e+09 -3.930184e+09 -4.090214e+09 4.726516e+04 -9.486030e+03 -4.781767e+03
-1.683901e+09 -1.483908e+09 -1.643911e+09 1.375657e+03 5.590716e+02 9.878915e+02
-3.009460e+09 -2.809473e+09 -2.969474e+09 -6.960834e+02 -1.147869e+02 1.497537e+03
-3.205538e+09 -3.005552e+09 -3.165554e+09 -5.429261e+02 9.749804e+01 1.766428e+03
-4.992570e+09 -4.792554e+09 -4.952575e+09 -1.403108e+03 3.399443e+02 -3.138706e+02
-3.573872e+09 -3.373886e+09 -3.533887e+09 -2.979546e+02 6.462940e+01 1.099652e+03
-3.970782e+09 -3.770797e+09 -3.930799e+09 -4.555165e+02 -4.196599e+02 9.704097e+02
-2.856571e+09 -2.656584e+09 -2.816585e+09 -4.322020e+02 -1.297466e+02 1.323119e+03
-3.821471e+09 -3.621541e+09 -3.781540e+09 -1.093681e+04 3.531280e+03 4.171060e+02
-4.138461e+09 -3.938444e+09 -4.098474e+09 7.038669e+03 -3.646450e+03 -3.128619e+03
-4.620868e+09 -4.420957e+09 -4.580958e+09 -1.151861e+04 2.464435e+03 -7.611948e+02
-4.813835e+09 -4.613929e+09 -4.773920e+09 -1.077069e+04 2.368107e+03 -3.165303e+03
-3.717756e+09 -3.517843e+09 -3.677827e+09 -1.388609e+04 1.786725e+03 -1.390458e+03
-4.072386e+09 -3.872473e+09 -4.032451e+09 -2.136036e+04 -6.390093e+03 -4.773708e+02
-4.255540e+09 -4.055642e+09 -4.215625e+09 -1.188874e+04 1.209098e+03 -5.946048e+03
-4.602956e+09 -4.403034e+09 -4.563035e+09 -2.471816e+04 3.645136e+03 2.063872e+03
-4.219686e+09 -4.019762e+09 -4.179754e+09 -1.707968e+04 3.310340e+03 -1.067607e+04
-4.304900e+09 -4.104957e+09 -4.263978e+09 4.595072e+04 8.995669e+04 1.008252e+05
-4.304231e+09 -4.104162e+09 -4.263267e+09 7.477498e+03 1.167121e+05 2.858117e+04
-4.649920e+09 -4.449872e+09 -4.609011e+09 4.156564e+04 4.778694e+04 6.487964e+04
-4.135392e+09 -3.935298e+09 -4.094379e+09 5.308517e+04 1.088383e+05 6.608218e+04
-3.063891e+09 -2.863963e+09 -3.023962e+09 9.456832e+03 -4.753654e+03 -1.093126e+04
-2.080443e+09 -1.880492e+09 -2.040486e+09 3.857176e+03 -2.735592e+03 -4.158905e+03
-2.390454e+09 -2.190496e+09 -2.350485e+09 5.816321e+03 -8.914463e+03 -6.330938e+03
-2.600654e+09 -2.400704e+09 -2.560705e+09 4.014701e+03 -3.928269e+03 -3.455232e+03
-4.164007e+09 -3.963993e+09 -4.124011e+09 -1.010819e+03 8.587120e+02 -5.505987e+02
-2.637792e+09 -2.437798e+09 -2.597801e+09 -1.031178e+03 -9.105348e+01 5.544458e+02
-2.635251e+09 -2.435256e+09 -2.595259e+09 -3.455143e+02 -1.387955e+02 1.529616e+02
-1.811756e+09 -1.611761e+09 -1.771764e+09 -4.832122e+02 -8.307072e+01 2.447303e+02
-1.785479e+09 -1.585484e+09 -1.745488e+09 -4.156943e+02 -9.442210e+01 8.766378e+01
-2.826909e+09 -2.626973e+09 -2.786959e+09 1.369046e+04 -7.108584e+03 -1.339521e+04
-2.702504e+09 -2.502564e+09 -2.662562e+09 5.786246e+03 -5.803141e+03 -4.643033e+03
-3.287028e+09 -3.087095e+09 -3.247085e+09 1.631531e+04 -1.827719e+03 -4.661067e+03
-4.822690e+09 -4.622670e+09 -4.782700e+09 -4.199617e+03 -1.121452e+03 -2.613369e+02
-4.801666e+09 -4.601648e+09 -4.761677e+09 -4.170977e+03 -2.778620e+02 7.136607e+02
-4.627767e+09 -4.427743e+09 -4.587778e+09 -6.397026e+03 -1.860698e+03 1.039585e+03
-4.022923e+09 -3.822904e+09 -3.982932e+09 -4.247960e+03 -3.851736e+03 1.375698e+03
-4.296416e+09 -4.096392e+09 -4.256425e+09 -8.074891e+03 -3.804686e+03 2.062843e+03
-3.876320e+09 -3.676299e+09 -3.836330e+09 -8.410462e+03 -4.259048e+03 1.913176e+03
-1.887643e+09 -1.687634e+09 -1.847647e+09 4.150331e+03 -1.017381e+04 -3.877079e+03
-1.589940e+09 -1.389947e+09 -1.549950e+09 -5.208949e+02 -1.010421e+02 1.352622e+02
-4.234295e+09 -4.034283e+09 -4.194304e+09 2.127182e+03 -1.708031e+03 -8.120393e+02
-4.427099e+09 -4.227087e+09 -4.387106e+09 6.840133e+02 -9.560009e+02 -8.215967e+01
-3.020440e+09 -2.820429e+09 -2.980445e+09 9.099433e+02 -1.657141e+03 -1.111034e+03
-3.125011e+09 -2.924999e+09 -3.085017e+09 7.159846e+02 -2.708700e+03 -1.676927e+03
-3.809042e+09 -3.609030e+09 -3.769052e+09 2.213922e+03 -2.137060e+03 -1.395359e+03
-3.389947e+09 -3.189935e+09 -3.349956e+09 2.149531e+03 -4.001700e+03 -2.832194e+03
-3.153971e+09 -2.953959e+09 -3.113977e+09 1.229166e+03 -3.120750e+03 -2.102623e+03
-1.991392e+09 -1.791387e+09 -1.951396e+09 1.121332e+03 1.085464e+03 9.138942e+02
-1.857843e+09 -1.657838e+09 -1.817846e+09 5.811415e+02 4.936244e+02 6.277361e+02
-2.088611e+09 -1.888600e+09 -2.048612e+09 -5.190911e+02 2.247260e+03 -1.232992e+03
-2.613595e+09 -2.413589e+09 -2.573599e+09 1.006787e+03 1.393556e+03 1.282849e+03
-2.741742e+09 -2.541737e+09 -2.701746e+09 1.452422e+02 3.033391e+02 8.609761e+02
-1.615326e+09 -1.415321e+09 -1.575330e+09 3.773812e+02 6.459929e+02 9.228783e+02
-2.660145e+09 -2.460139e+09 -2.620149e+09 2.596962e+02 8.138202e+02 1.325036e+03
-2.979539e+09 -2.779533e+09 -2.939544e+09 6.583001e+02 7.088783e+02 8.994462e+02
-4.644707e+09 -4.444732e+09 -4.604738e+09 7.528871e+03 7.892162e+02 2.735648e+03
-4.473880e+09 -4.273910e+09 -4.433917e+09 8.980832e+03 9.630849e+02 3.857331e+03
-4.646038e+09 -4.446068e+09 -4.606073e+09 5.374319e+03 3.723751e+02 2.160314e+03
-1.630203e+09 -1.430217e+09 -1.590217e+09 -2.298399e+02 -3.988813e+02 3.352083e+03
-4.817724e+09 -4.617750e+09 -4.777756e+09 6.282394e+03 1.319385e+03 1.376137e+03
-4.446550e+09 -4.246554e+09 -4.406558e+09 -1.776571e+02 -3.234874e+01 1.669771e+01
-3.972533e+09 -3.772538e+09 -3.932541e+09 -3.080675e+02 -5.620373e+01 5.105888e+01
-3.542046e+09 -3.342050e+09 -3.502054e+09 -3.198202e+02 -5.274994e+01 6.301873e+01
-3.530276e+09 -3.330280e+09 -3.490284e+09 -3.038753e+02 -5.700491e+01 6.027684e+01
-3.887847e+09 -3.687851e+09 -3.847855e+09 -1.002516e+02 -5.491621e+01 1.891063e+01
-3.977679e+09 -3.777684e+09 -3.937687e+09 -3.200502e+02 -7.592984e+01 7.219459e+01
-3.693162e+09 -3.493167e+09 -3.653170e+09 -1.646038e+02 -2.308828e+01 6.117469e+01
-3.761684e+09 -3.561688e+09 -3.721692e+09 -1.147730e+02 -3.592868e+01 6.395614e+01
-2.312140e+09 -2.112142e+09 -2.272153e+09 2.929776e+03 -1.099946e+04 -6.606254e+03
-1.775554e+09 -1.575549e+09 -1.735556e+09 -1.685404e+02 -1.071890e+04 -4.997650e+03
-2.515642e+09 -2.315642e+09 -2.475653e+09 4.339229e+03 -1.130008e+04 -6.853798e+03
-2.266001e+09 -2.065998e+09 -2.226015e+09 9.227851e+03 -1.355478e+04 -7.990561e+03
-2.751176e+09 -2.551178e+09 -2.711198e+09 1.135811e+04 -1.229027e+04 -8.959271e+03
-1.952318e+09 -1.752320e+09 -1.912327e+09 3.104478e+03 -1.389328e+04 -8.654603e+03
-2.021492e+09 -1.821492e+09 -1.981503e+09 3.700687e+03 -8.635612e+03 -2.024056e+03
-1.782024e+09 -1.582019e+09 -1.742026e+09 1.807385e+01 -1.018383e+04 -4.474997e+03
-4.820279e+09 -4.620284e+09 -4.780312e+09 -2.319843e+04 6.302817e+02 -7.477854e+02
-4.647472e+09 -4.447489e+09 -4.607516e+09 -3.038575e+04 1.401186e+03 -2.510591e+03
-4.649203e+09 -4.449214e+09 -4.609238e+09 -2.322646e+04 2.297388e+03 -1.850312e+03
-4.132025e+09 -3.932025e+09 -4.092054e+09 -3.163700e+04 9.396565e+03 -6.143483e+03
-4.313842e+09 -4.113883e+09 -4.273886e+09 -1.505974e+04 -2.961921e+03 5.223000e+03
-4.321652e+09 -4.121681e+09 -4.281687e+09 -1.136224e+04 -1.973255e+03 3.207964e+03
-4.641523e+09 -4.441621e+09 -4.601605e+09 6.621801e+03 -7.966092e+02 -2.521007e+03
-4.647085e+09 -4.447174e+09 -4.607176e+09 8.926791e+03 -1.101759e+03 5.751490e+02
-4.815225e+09 -4.615321e+09 -4.775311e+09 9.490827e+03 -2.399575e+03 -2.102620e+03
-4.248975e+09 -4.049063e+09 -4.209043e+09 1.833697e+04 -4.014117e+03 -9.715456e+03
-4.223402e+09 -4.023491e+09 -4.183492e+09 8.938790e+03 -1.218462e+03 -8.405653e+02
-2.843475e+09 -2.643471e+09 -2.803480e+09 1.364812e+03 7.948939e+02 6.669467e+02
-3.226761e+09 -3.026757e+09 -3.186767e+09 2.144431e+03 1.362910e+03 1.107111e+03
-2.826836e+09 -2.626833e+09 -2.786842e+09 2.241481e+03 1.253832e+03 8.968161e+02
-2.746676e+09 -2.546673e+09 -2.706681e+09 1.051443e+03 6.238652e+02 5.875357e+02
-3.103085e+09 -2.903102e+09 -3.063117e+09 -8.424581e+03 9.239911e+03 -4.337394e+03
-2.453536e+09 -2.253552e+09 -2.413564e+09 -7.349891e+03 9.603970e+03 -7.767127e+03
-3.017599e+09 -2.817607e+09 -2.977622e+09 -1.073792e+04 1.159118e+04 -7.600203e+03
-3.235512e+09 -3.035520e+09 -3.195543e+09 -1.815139e+04 1.408117e+04 -1.085017e+04
-2.080464e+09 -1.880476e+09 -2.040482e+09 -8.618684e+03 1.617629e+04 -1.079286e+04
-2.461853e+09 -2.261871e+09 -2.421881e+09 -9.872004e+03 1.018217e+04 -2.486921e+03
-3.513339e+09 -3.313356e+09 -3.473372e+09 -1.896951e+04 9.491495e+03 -1.026394e+04
-2.701957e+09 -2.501953e+09 -2.661973e+09 1.150036e+04 -1.221680e+04 -1.041109e+04
-3.489652e+09 -3.289649e+09 -3.449674e+09 1.209037e+04 -9.780916e+03 -6.391910e+03
-3.914660e+09 -3.714658e+09 -3.874690e+09 1.901610e+04 -6.363032e+03 -4.985997e+03
-3.399411e+09 -3.199413e+09 -3.359438e+09 1.031046e+04 -8.593660e+03 -7.828885e+03
-4.257635e+09 -4.057633e+09 -4.217656e+09 -6.395864e+03 3.509926e+03 -1.548734e+03
-1.888367e+09 -1.688356e+09 -1.848367e+09 -9.703170e+02 -5.916470e+03 -3.976205e+03
-3.454202e+09 -3.254191e+09 -3.414220e+09 1.226549e+04 -9.752547e+03 -6.153559e+03
-1.664141e+09 -1.464132e+09 -1.624142e+09 1.439879e+02 1.564956e+03 2.909463e+02
-4.980049e+09 -4.780054e+09 -4.940057e+09 5.031796e+02 7.635622e-01 -4.359038e-01
-2.843529e+09 -2.643521e+09 -2.803544e+09 8.805425e+03 -9.615906e+03 -6.065049e+03
-2.497515e+09 -2.297511e+09 -2.457520e+09 1.133877e+03 7.202218e+02 9.735191e+02
-2.810764e+09 -2.610760e+09 -2.770769e+09 1.537174e+03 1.090261e+03 1.136291e+03
-2.158304e+09 -1.958301e+09 -2.118308e+09 8.251444e+02 6.162021e+02 5.445284e+02
-2.804375e+09 -2.604371e+09 -2.764380e+09 5.714950e+02 4.263129e+02 7.925389e+02
-2.789178e+09 -2.589168e+09 -2.749184e+09 1.754678e+03 -4.312848e+03 -1.642938e+03
-3.234548e+09 -3.034530e+09 -3.194552e+09 -3.172779e+02 5.264836e+03 -6.869789e+02
-2.682570e+09 -2.482563e+09 -2.642579e+09 1.152329e+03 -5.790071e+03 -1.499145e+03
-2.203320e+09 -2.003313e+09 -2.163325e+09 7.975611e+02 -5.880846e+03 -2.348488e+03
-1.897264e+09 -1.697254e+09 -1.857265e+09 -6.690309e+02 1.149579e+03 4.607079e+02
-4.155406e+09 -3.955392e+09 -4.115411e+09 2.765585e+03 1.386133e+03 3.966220e+02
-4.305095e+09 -4.105080e+09 -4.265101e+09 2.506272e+03 1.685331e+03 3.480058e+02
-4.677476e+09 -4.477458e+09 -4.637483e+09 3.517738e+03 1.012256e+03 5.044873e+02
-3.942977e+09 -3.742962e+09 -3.902985e+09 5.236543e+03 3.130399e+03 1.583721e+03
-1.652258e+09 -1.452249e+09 -1.612259e+09 1.064495e+02 1.613607e+03 -9.355179e+01
-3.407384e+09 -3.207366e+09 -3.367388e+09 1.380614e+03 5.063960e+03 2.806624e+02
-4.570170e+09 -4.370155e+09 -4.530176e+09 4.350259e+03 1.281108e+03 6.810101e+02
-4.232644e+09 -4.032635e+09 -4.192655e+09 -2.661624e+03 2.546949e+03 -8.569173e+02
-1.585513e+09 -1.385511e+09 -1.545516e+09 -2.219258e+02 1.008250e+04 -4.353721e+03
-4.815541e+09 -4.615531e+09 -4.775554e+09 -4.661204e+03 1.249155e+03 -4.576038e+02
-4.815043e+09 -4.615033e+09 -4.775053e+09 -2.546777e+03 8.500124e+02 -1.202653e+02
-4.025819e+09 -3.825809e+09 -3.985828e+09 -2.452011e+03 2.840615e+03 -1.434320e+03
-4.020567e+09 -3.820558e+09 -3.980577e+09 -2.844988e+03 2.967623e+03 -5.442817e+02
-4.610761e+09 -4.410773e+09 -4.570775e+09 -6.073979e+01 -8.724657e+01 1.422638e+02
-4.932518e+09 -4.732531e+09 -4.892532e+09 -7.567851e+01 1.665203e+00 4.278778e+01
-4.405351e+09 -4.205364e+09 -4.365366e+09 -2.989125e+02 1.148622e+01 3.322412e+02
-3.723503e+09 -3.523516e+09 -3.683517e+09 -1.693109e+02 3.035805e+01 5.132301e+02
-3.366138e+09 -3.166150e+09 -3.326151e+09 -9.262722e+01 -8.131710e+01 3.490450e+02
-4.001015e+09 -3.801028e+09 -3.961030e+09 1.553150e+02 -1.927662e+02 7.013299e+02
-4.373111e+09 -4.173123e+09 -4.333125e+09 -8.471034e+01 -2.504359e+01 1.544803e+02
-4.410669e+09 -4.210682e+09 -4.370684e+09 -8.794633e+01 -1.241974e+02 3.311921e+02
-4.237819e+09 -4.037832e+09 -4.197834e+09 -1.923845e+02 6.365855e+01 3.501837e+02
-1.949664e+09 -1.749662e+09 -1.909670e+09 -1.769454e+03 -2.108194e+03 2.452922e+03
-2.056183e+09 -1.856182e+09 -2.016189e+09 -1.190847e+03 -6.011292e+02 1.306144e+03
-1.762334e+09 -1.562332e+09 -1.722339e+09 -9.602221e+02 -1.684381e+03 1.726997e+03
-1.772298e+09 -1.572298e+09 -1.732304e+09 -1.181926e+03 -1.040705e+03 1.274550e+03
-3.649946e+09 -3.449941e+09 -3.609951e+09 1.124474e+03 7.122631e+02 6.646972e+02
-3.198304e+09 -2.998299e+09 -3.158310e+09 1.595494e+03 1.375681e+03 9.177296e+02
-4.025965e+09 -3.825960e+09 -3.985972e+09 2.590104e+03 1.009237e+03 1.156048e+03
-4.230256e+09 -4.030251e+09 -4.190263e+09 2.818912e+03 4.918654e+02 9.687813e+02
-3.729323e+09 -3.529318e+09 -3.689331e+09 3.541599e+03 1.360480e+03 1.129403e+03
-3.688990e+09 -3.488986e+09 -3.648998e+09 2.759842e+03 1.456708e+03 9.840741e+02
-3.359931e+09 -3.159925e+09 -3.319938e+09 2.428158e+03 1.838745e+03 1.083148e+03
-4.644642e+09 -4.444599e+09 -4.604648e+09 -4.480742e+03 2.231012e+03 8.954960e+02
-4.643932e+09 -4.443898e+09 -4.603936e+09 -5.312432e+03 2.230205e+03 9.943352e+01
-4.818300e+09 -4.618255e+09 -4.778303e+09 -5.561518e+03 2.244957e+03 -3.507270e+02
-4.817206e+09 -4.617173e+09 -4.777212e+09 -4.260564e+03 1.753242e+03 -1.880344e+02
-4.139696e+09 -3.939702e+09 -4.099717e+09 -1.199434e+04 -2.688915e+03 3.337540e+03
-4.132874e+09 -3.932878e+09 -4.092891e+09 -8.456161e+03 -2.139053e+03 2.139516e+03
-4.303681e+09 -4.103683e+09 -4.263697e+09 -8.701189e+03 -2.010923e+03 1.646438e+03
-4.647093e+09 -4.447095e+09 -4.607112e+09 -1.031263e+04 -1.164142e+03 1.066569e+03
-2.678832e+09 -2.478834e+09 -2.638839e+09 1.104277e+02 3.690475e+01 1.351340e+02
-3.815459e+09 -3.615460e+09 -3.775465e+09 2.607324e+02 2.645212e+01 6.557969e+01
-1.683860e+09 -1.483854e+09 -1.643862e+09 -1.326847e+01 8.219167e+03 -3.741233e+03
-3.159903e+09 -2.959904e+09 -3.119909e+09 4.530852e+02 4.927433e+01 7.435658e+01
-2.852436e+09 -2.652437e+09 -2.812442e+09 1.059091e+02 5.163262e+01 4.787746e+01
-3.668600e+09 -3.468602e+09 -3.628607e+09 4.756870e+02 1.296777e+02 4.812426e+01
-3.558843e+09 -3.358844e+09 -3.518849e+09 1.945280e+02 -1.267153e+01 9.491322e+01
-4.561284e+09 -4.361298e+09 -4.521300e+09 1.030350e+02 3.175268e+01 2.818629e+02
-4.053493e+09 -3.853508e+09 -4.013509e+09 3.031382e+02 -3.565205e+02 1.023212e+03
-3.350002e+09 -3.149993e+09 -3.310009e+09 -2.409184e+03 3.413253e+03 -1.536565e+03
-3.448658e+09 -3.248648e+09 -3.408663e+09 5.674572e+02 6.656881e+02 4.835683e+02
-4.282898e+09 -4.082913e+09 -4.242915e+09 4.591941e+02 2.611477e+01 5.340649e+02
-3.999946e+09 -3.799959e+09 -3.959961e+09 -1.891145e+01 2.514387e+02 7.244999e+02
-4.090287e+09 -3.890300e+09 -4.050302e+09 4.998111e+02 -8.981152e+01 4.859477e+02
-4.641841e+09 -4.441855e+09 -4.601857e+09 9.571503e+02 3.779077e+02 2.891512e+02
-4.470698e+09 -4.270712e+09 -4.430714e+09 6.698355e+02 8.994827e+01 6.351012e+02
-2.747647e+09 -2.547652e+09 -2.707656e+09 9.150951e+02 2.315773e+02 2.261161e+02
-1.689982e+09 -1.489979e+09 -1.649985e+09 -2.717739e+01 1.072879e+04 -6.110201e+03
-3.371730e+09 -3.171735e+09 -3.331738e+09 5.573330e+02 4.403724e+01 1.313306e+02
-1.751565e+09 -1.551577e+09 -1.711578e+09 -1.251492e+02 -5.242633e+01 5.476309e+02
-1.560437e+09 -1.360449e+09 -1.520450e+09 -5.378349e+01 -2.494245e+01 2.765486e+02
-2.720726e+09 -2.520738e+09 -2.680739e+09 1.434510e+01 -6.368250e+01 1.558627e+02
-1.855764e+09 -1.655776e+09 -1.815777e+09 -9.427358e+01 -3.096240e+01 2.279128e+02
-2.039465e+09 -1.839477e+09 -1.999477e+09 -2.191928e+02 -1.704098e+02 5.575526e+02
-1.763232e+09 -1.563244e+09 -1.723245e+09 -1.812977e+02 -1.342052e+02 7.684270e+02
-2.469039e+09 -2.269051e+09 -2.429052e+09 -2.645755e+02 -4.406067e+01 5.576085e+02
-2.562944e+09 -2.362956e+09 -2.522957e+09 -2.474917e+02 -8.899542e+01 7.676809e+02
-4.130200e+09 -3.930168e+09 -4.090204e+09 1.228596e+03 5.517554e+03 -6.038428e+02
-4.644210e+09 -4.444167e+09 -4.604215e+09 1.382701e+03 2.811013e+03 -4.898583e+02
-4.302757e+09 -4.102711e+09 -4.262757e+09 3.410174e+03 7.896776e+03 1.731294e+01
-4.475882e+09 -4.275847e+09 -4.435888e+09 3.438436e+03 3.570874e+03 1.344263e+02
-4.304003e+09 -4.103963e+09 -4.264007e+09 4.656684e+03 6.410186e+03 6.949531e+02
-4.132666e+09 -3.932624e+09 -4.092667e+09 3.320813e+03 6.923784e+03 1.367643e+03
-4.652264e+09 -4.452273e+09 -4.612276e+09 1.269340e+03 2.148957e+01 1.033599e+02
-2.919514e+09 -2.719519e+09 -2.879523e+09 9.316904e+02 8.798497e+01 3.733822e+02
-2.562339e+09 -2.362345e+09 -2.522348e+09 8.438040e+02 2.566590e+02 2.549110e+02
-3.279406e+09 -3.079411e+09 -3.239415e+09 1.006227e+03 7.991802e+00 2.869436e+02
-2.476578e+09 -2.276583e+09 -2.436587e+09 8.221573e+02 1.434129e+02 2.132005e+02
-2.716311e+09 -2.516316e+09 -2.676319e+09 1.053068e+03 1.576793e+02 4.485661e+02
-2.524676e+09 -2.324681e+09 -2.484685e+09 9.620532e+02 2.397535e+02 3.833165e+02
-4.566928e+09 -4.366931e+09 -4.526935e+09 3.779122e+02 7.455183e+01 9.383908e+01
-4.153902e+09 -3.953905e+09 -4.113909e+09 3.285981e+02 -2.899050e+01 5.934717e+01
-4.578263e+09 -4.378265e+09 -4.538270e+09 6.793572e+02 5.575935e+01 1.707980e+01
-4.923701e+09 -4.723704e+09 -4.883708e+09 5.203658e+02 -1.179666e+01 1.425018e+00
-4.744752e+09 -4.544755e+09 -4.704759e+09 3.954476e+02 2.152210e+01 -2.949171e+01
-3.944455e+09 -3.744457e+09 -3.904462e+09 4.325696e+02 3.030701e+01 -1.556268e+01
-2.553866e+09 -2.353858e+09 -2.513875e+09 -4.643754e+03 6.228729e+03 -2.696423e+03
-4.118100e+09 -3.918106e+09 -4.078112e+09 -3.246731e+03 -8.653276e+02 5.353876e+02
-4.831594e+09 -4.631599e+09 -4.791604e+09 -2.195872e+03 -1.500655e+02 1.551047e+02
-4.804565e+09 -4.604571e+09 -4.764578e+09 -3.348240e+03 -9.761323e+01 3.983081e+02
-2.074818e+09 -1.874815e+09 -2.034824e+09 -3.033415e+03 -3.243263e+03 3.346267e+03
-1.971448e+09 -1.771443e+09 -1.931452e+09 -2.184760e+03 -3.298467e+03 2.753094e+03
-2.080765e+09 -1.880761e+09 -2.040771e+09 -2.668048e+03 -5.517901e+03 4.259235e+03
-1.888971e+09 -1.688965e+09 -1.848975e+09 -2.626291e+03 -5.100266e+03 4.178072e+03
-1.770297e+09 -1.570294e+09 -1.730301e+09 -1.347986e+03 -3.868896e+03 2.956501e+03
-2.571161e+09 -2.371157e+09 -2.531168e+09 -4.181138e+03 -3.598072e+03 3.147984e+03
-4.646190e+09 -4.446195e+09 -4.606200e+09 2.175234e+03 1.573692e+02 2.582230e+02
-4.647405e+09 -4.447410e+09 -4.607415e+09 1.789264e+03 1.278017e+02 3.115139e+02
-4.646461e+09 -4.446467e+09 -4.606471e+09 1.529895e+03 1.052545e+02 1.886345e+02
-4.818269e+09 -4.618275e+09 -4.778279e+09 1.601087e+03 -9.890743e+01 1.325422e+02
-2.668456e+09 -2.468459e+09 -2.628474e+09 2.178051e+03 -8.805651e+03 -3.399640e+03
-3.296604e+09 -3.096611e+09 -3.256632e+09 1.475802e+04 -8.009289e+03 -7.203035e+03
-3.238114e+09 -3.038105e+09 -3.198126e+09 -6.360993e+03 7.677415e+03 -3.640067e+03
-2.326755e+09 -2.126760e+09 -2.286773e+09 7.118203e+03 -9.996046e+03 -7.483894e+03
-2.112486e+09 -1.912491e+09 -2.072500e+09 2.936510e+03 -9.268013e+03 -4.102822e+03
-3.129590e+09 -2.929593e+09 -3.089619e+09 1.293921e+04 -8.991542e+03 -6.480299e+03
-3.295391e+09 -3.095386e+09 -3.255407e+09 2.666389e+03 -7.161864e+03 -1.125941e+03
-3.704212e+09 -3.504204e+09 -3.664226e+09 2.455243e+03 -3.856488e+03 8.397983e+02
-4.494432e+09 -4.294428e+09 -4.454453e+09 4.111331e+03 -2.302713e+03 -3.236581e+02
-4.002165e+09 -3.802160e+09 -3.962182e+09 2.306220e+03 -3.718665e+03 -1.074832e+03
-4.660381e+09 -4.460375e+09 -4.620403e+09 3.239565e+03 -2.233265e+03 -3.717474e+02
-3.676579e+09 -3.476577e+09 -3.636599e+09 1.021142e+03 -5.172697e+03 -7.197206e+02
-4.414887e+09 -4.214883e+09 -4.374909e+09 1.993279e+03 -3.359684e+03 -4.425977e+02
-4.304162e+09 -4.104213e+09 -4.264206e+09 1.200675e+04 1.093091e+03 6.479050e+03
-4.476191e+09 -4.276250e+09 -4.436245e+09 1.401305e+04 1.354335e+03 7.656540e+03
-4.471471e+09 -4.271528e+09 -4.431519e+09 1.984743e+04 -9.044579e+02 4.851319e+03
-4.639461e+09 -4.439507e+09 -4.599513e+09 2.033266e+04 2.405891e+03 2.971281e+03
-4.990301e+09 -4.790458e+09 -4.950214e+09 -5.779269e+03 -1.611892e+00 -3.186522e+03
-4.295467e+09 -4.095413e+09 -4.255149e+09 -7.824275e+04 3.164825e+04 -3.680490e+04
-4.641494e+09 -4.441420e+09 -4.601270e+09 -7.428200e+04 4.776816e+04 -1.051202e+04
-4.813524e+09 -4.613411e+09 -4.773145e+09 -6.147621e+04 2.377617e+04 3.079273e+04
-4.645285e+09 -4.445124e+09 -4.604791e+09 -5.807712e+04 4.879021e+04 -1.298265e+04
-2.638335e+09 -2.438328e+09 -2.598340e+09 -1.162812e+03 4.147105e+03 -1.490895e+03
-3.332317e+09 -3.132309e+09 -3.292326e+09 -2.064389e+03 4.597822e+03 -1.855766e+03
-2.092444e+09 -1.892438e+09 -2.052449e+09 -1.747358e+03 5.998719e+03 -2.154084e+03
-1.776829e+09 -1.576821e+09 -1.736832e+09 -1.470139e+03 6.538929e+03 -2.756777e+03
-1.770049e+09 -1.570041e+09 -1.730051e+09 -8.980918e+02 4.556698e+03 -1.675437e+03
-2.128140e+09 -1.928132e+09 -2.088143e+09 -9.237909e+02 4.789354e+03 -1.545747e+03
-3.838353e+09 -3.638321e+09 -3.798360e+09 -4.247809e+03 -5.647096e+03 1.346532e+03
-4.254521e+09 -4.054491e+09 -4.214529e+09 -4.632353e+03 -4.685925e+03 1.250821e+03
-4.044281e+09 -3.844246e+09 -4.004286e+09 -3.855715e+03 -5.467512e+03 2.574572e+02
-4.816091e+09 -4.616054e+09 -4.776098e+09 -2.950398e+03 -2.800531e+03 1.461870e+03
-4.636516e+09 -4.436446e+09 -4.596506e+09 1.288081e+04 -2.468543e+03 -8.960654e+01
-4.628274e+09 -4.428215e+09 -4.588272e+09 1.981675e+04 -2.535263e+03 8.688684e+02
-4.288437e+09 -4.088378e+09 -4.248441e+09 1.433586e+04 -6.580468e+03 -2.094983e+03
-4.118424e+09 -3.918369e+09 -4.078427e+09 1.774532e+04 -1.049505e+04 -2.761414e+03
-4.123690e+09 -3.923614e+09 -4.083672e+09 2.137631e+04 -9.858833e+03 -4.092574e+03
-4.860746e+09 -4.660749e+09 -4.820754e+09 -6.466632e+02 3.795166e+01 2.000272e+01
-4.681011e+09 -4.481014e+09 -4.641020e+09 -1.220170e+03 -7.045585e+01 1.814658e+02
-4.662261e+09 -4.462264e+09 -4.622269e+09 -5.782625e+02 -2.662404e+01 1.436076e+02
-4.339160e+09 -4.139163e+09 -4.299168e+09 -1.216493e+03 -1.180782e+02 1.442638e+02
-1.706009e+09 -1.506029e+09 -1.666007e+09 -9.527597e+01 -6.601543e+03 -1.844096e+04
-3.997036e+09 -3.797040e+09 -3.957044e+09 -6.226615e+02 -1.705385e+02 1.657094e+02
-2.486539e+09 -2.286526e+09 -2.446542e+09 1.388577e+03 3.751747e+03 1.112174e+03
-2.119367e+09 -1.919356e+09 -2.079369e+09 1.014091e+03 3.199425e+03 1.130245e+03
-3.055019e+09 -2.855007e+09 -3.015024e+09 1.705483e+03 4.941309e+03 1.427018e+03
-3.190056e+09 -2.990042e+09 -3.150060e+09 2.541201e+03 3.863242e+03 8.464738e+02
-2.518421e+09 -2.318409e+09 -2.478424e+09 1.556181e+03 3.496634e+03 1.589774e+03
-1.590900e+09 -1.390906e+09 -1.550901e+09 -2.809235e+02 6.772726e+03 -1.497886e+02
-4.050966e+09 -3.850971e+09 -4.010975e+09 -8.330300e+02 -1.459709e+02 8.697364e+01
-4.653483e+09 -4.453489e+09 -4.613493e+09 -8.285546e+02 -1.268329e+02 5.913014e+01
-4.622004e+09 -4.422010e+09 -4.582014e+09 -1.039248e+03 -2.189537e+02 2.302411e+01
-4.659956e+09 -4.459962e+09 -4.619965e+09 -5.974893e+02 -1.654407e+02 7.135323e+01
-4.799612e+09 -4.599618e+09 -4.759622e+09 -1.078756e+03 -9.938924e+01 -6.988261e+01
-4.829120e+09 -4.629125e+09 -4.789129e+09 -6.199181e+02 -9.476952e+01 -6.290531e+01
-3.933364e+09 -3.733363e+09 -3.893373e+09 -2.941919e+03 -9.683442e+02 1.299708e+03
-4.430553e+09 -4.230552e+09 -4.390561e+09 -1.015421e+03 -1.612138e+02 3.538601e+02
-3.727374e+09 -3.527373e+09 -3.687382e+09 -1.259231e+03 -5.182153e+02 9.964331e+02
-4.157107e+09 -3.957103e+09 -4.117115e+09 -1.039859e+03 -1.286851e+02 1.154768e+03
-4.747601e+09 -4.547601e+09 -4.707610e+09 -1.713954e+03 -1.443552e+02 6.274338e+02
-4.486301e+09 -4.286299e+09 -4.446309e+09 -1.822021e+03 -3.825231e+02 2.896682e+02
-3.078079e+09 -2.878148e+09 -3.038137e+09 3.119368e+03 -2.833970e+03 -5.861852e+02
-3.554173e+09 -3.354179e+09 -3.514182e+09 8.295169e+02 9.527158e+01 2.481695e+02
-3.962115e+09 -3.762257e+09 -3.922123e+09 4.803241e+03 -2.131845e+03 4.560353e+03
-3.789844e+09 -3.589851e+09 -3.749855e+09 1.689108e+03 2.054932e+02 3.929522e+02
-3.961268e+09 -3.761276e+09 -3.921279e+09 1.454080e+03 1.331812e+02 4.211568e+02
-4.277417e+09 -4.077424e+09 -4.237427e+09 1.327771e+03 1.797216e+02 4.241960e+02
-3.383968e+09 -3.183976e+09 -3.343979e+09 1.067806e+03 1.525748e+02 5.668222e+02
-1.781980e+09 -1.582005e+09 -1.741987e+09 4.655260e+03 3.124807e+03 -1.297123e+04
-2.549696e+09 -2.349753e+09 -2.509728e+09 -1.428854e+03 2.539797e+03 -9.834329e+03
-1.766860e+09 -1.566895e+09 -1.726898e+09 -3.659541e+03 -4.323243e+02 -1.555960e+04
-1.957953e+09 -1.757996e+09 -1.917991e+09 -2.634965e+03 3.242088e+03 -1.484110e+04
-4.311869e+09 -4.111879e+09 -4.271892e+09 1.115703e+04 8.072452e+02 2.008276e+03
-4.629963e+09 -4.430091e+09 -4.590030e+09 -1.207942e+04 6.415424e+03 -8.118423e+03
-4.139365e+09 -3.939378e+09 -4.099391e+09 1.205946e+04 1.581716e+03 4.363935e+03
-4.309614e+09 -4.109627e+09 -4.269639e+09 1.297881e+04 2.183887e+03 3.636349e+03
-4.655103e+09 -4.455113e+09 -4.615127e+09 1.115925e+04 8.509742e+02 1.555700e+03
-3.343879e+09 -3.143970e+09 -3.303924e+09 1.304394e+04 -6.625062e+02 -8.533694e+03
-2.206419e+09 -2.006421e+09 -2.166426e+09 1.872958e+02 1.526230e+01 3.630744e+00
-2.823656e+09 -2.623659e+09 -2.783663e+09 1.067827e+02 2.003518e+01 -9.117574e+00
-2.293353e+09 -2.093356e+09 -2.253360e+09 1.133940e+02 -1.034741e+01 -1.393530e+01
-2.960171e+09 -2.760174e+09 -2.920178e+09 2.069772e+02 -1.521764e+01 1.475528e+01
-2.688588e+09 -2.488591e+09 -2.648595e+09 1.130790e+02 3.634679e+01 9.999299e+00
-1.630206e+09 -1.430197e+09 -1.590207e+09 1.964980e+02 7.299411e+02 6.465043e+02
-2.132824e+09 -1.932831e+09 -2.092834e+09 1.049729e+03 2.271021e+02 4.420115e+02
-3.084011e+09 -2.884018e+09 -3.044021e+09 6.262320e+02 3.130482e+02 4.180167e+02
-2.876779e+09 -2.676785e+09 -2.836788e+09 7.564501e+02 1.966244e+02 1.690134e+02
-4.795292e+09 -4.595296e+09 -4.755300e+09 6.732531e+02 7.073095e+01 -7.546085e+01
-4.018332e+09 -3.818337e+09 -3.978341e+09 5.860631e+02 -4.249124e+01 1.395147e+02
-3.894047e+09 -3.694035e+09 -3.854052e+09 1.630213e+03 1.317843e+03 4.737991e+02
-4.258021e+09 -4.058026e+09 -4.218030e+09 9.420529e+02 1.012714e+02 1.442082e+02
-4.054076e+09 -3.854082e+09 -4.014086e+09 9.935356e+02 2.635473e+02 1.069303e+02
-4.245723e+09 -4.045727e+09 -4.205731e+09 8.249775e+02 1.318448e+02 -3.623154e+01
-4.052235e+09 -3.852239e+09 -4.012243e+09 8.232298e+02 1.354390e+02 6.458279e+01
-1.581563e+09 -1.381554e+09 -1.541563e+09 2.960456e+02 4.612621e+03 9.100659e+02
-2.622642e+09 -2.422647e+09 -2.582651e+09 1.244305e+03 3.151166e+02 3.605968e+02
-2.189210e+09 -1.989215e+09 -2.149219e+09 1.266387e+03 2.470596e+02 3.303291e+02
-1.884652e+09 -1.684656e+09 -1.844660e+09 1.147920e+03 1.886499e+02 4.469504e+02
-4.819445e+09 -4.619471e+09 -4.779475e+09 -6.362132e+01 9.032187e+02 1.138214e+03
-3.589638e+09 -3.389642e+09 -3.549646e+09 1.298305e+03 2.805541e+02 3.957637e+02
-2.128908e+09 -1.928913e+09 -2.088916e+09 6.971936e+02 1.110309e+02 1.853510e+02
-3.036134e+09 -2.836140e+09 -2.996143e+09 6.797936e+02 1.737680e+02 2.052987e+02
-3.043127e+09 -2.843133e+09 -3.003136e+09 1.255692e+03 2.086425e+02 4.310337e+02
-3.380881e+09 -3.180885e+09 -3.340889e+09 1.075037e+03 2.262718e+02 1.705406e+02
-2.199795e+09 -1.999799e+09 -2.159803e+09 4.629245e+02 6.784170e+01 9.428795e+01
-1.578501e+09 -1.378499e+09 -1.538506e+09 -1.549884e+03 -3.625694e+03 2.938948e+03
-1.765831e+09 -1.565829e+09 -1.725836e+09 -2.193197e+03 -2.981075e+03 2.512778e+03
-2.326768e+09 -2.126766e+09 -2.286775e+09 -1.774186e+03 -1.926006e+03 2.123254e+03
-2.074405e+09 -1.874403e+09 -2.034411e+09 -2.331029e+03 -2.109925e+03 2.489399e+03
-2.561722e+09 -2.361720e+09 -2.521729e+09 -3.578037e+03 -2.519011e+03 2.522494e+03
-1.959629e+09 -1.759628e+09 -1.919634e+09 -1.813516e+03 -1.727225e+03 1.686511e+03
-1.575743e+09 -1.375742e+09 -1.535748e+09 -1.506614e+03 -2.399770e+03 2.433994e+03
-4.824705e+09 -4.624693e+09 -4.784721e+09 7.057692e+03 -1.904937e+03 -3.817568e+02
-4.658477e+09 -4.458470e+09 -4.618495e+09 4.458176e+03 -2.311256e+03 1.683351e+01
-4.653989e+09 -4.453981e+09 -4.614010e+09 8.599012e+03 -2.107902e+03 -8.057088e+02
-4.273568e+09 -4.073560e+09 -4.233585e+09 4.478375e+03 -3.516758e+03 -1.351072e+03
-4.633414e+09 -4.433520e+09 -4.593498e+09 -3.992190e+03 -6.364636e+02 1.382685e+03
-4.269079e+09 -4.069071e+09 -4.229097e+09 8.687692e+03 -3.904496e+03 -2.052371e+03
-3.190366e+09 -2.990363e+09 -3.150373e+09 2.233095e+03 1.271690e+03 9.953791e+02
-3.893281e+09 -3.693278e+09 -3.853289e+09 2.953199e+03 1.106258e+03 8.715987e+02
-3.757945e+09 -3.557941e+09 -3.717952e+09 2.766225e+03 1.253204e+03 7.939641e+02
-1.883827e+09 -1.683821e+09 -1.843835e+09 -5.796322e+03 1.292271e+04 -8.655769e+03
-3.585851e+09 -3.385849e+09 -3.545860e+09 3.063670e+03 1.448472e+03 1.277966e+03
-3.123424e+09 -2.923420e+09 -3.083432e+09 3.035311e+03 2.368675e+03 1.591558e+03
-1.670703e+09 -1.470708e+09 -1.630710e+09 -1.755802e+02 -1.016432e+04 -5.961868e+03
-2.573502e+09 -2.373521e+09 -2.533533e+09 9.877930e+03 -7.313623e+03 -9.349071e+03
-2.418344e+09 -2.218368e+09 -2.378369e+09 2.459574e+03 -6.388074e+03 -6.054446e+03
-2.710347e+09 -2.510365e+09 -2.670376e+09 2.885547e+03 -1.008577e+04 7.998649e+02
-3.135584e+09 -2.935616e+09 -3.095629e+09 1.901675e+03 -8.293542e+03 -5.014929e+03
-2.199899e+09 -1.999940e+09 -2.159938e+09 -4.827463e+02 3.574186e+03 -2.197720e+03
-2.053710e+09 -1.853756e+09 -2.013748e+09 7.096086e+02 -3.384113e+03 -5.128715e+03
-2.603339e+09 -2.403388e+09 -2.563385e+09 -5.856242e+02 -8.521431e+02 2.400778e+02
-2.698863e+09 -2.498916e+09 -2.658910e+09 -6.074581e+03 1.370699e+03 -4.781393e+03
-1.953545e+09 -1.753564e+09 -1.913558e+09 4.894125e+02 5.299931e+03 -4.496442e+03
-2.880874e+09 -2.680946e+09 -2.840945e+09 -6.010920e+02 2.070763e+01 -6.001211e+03
-2.765087e+09 -2.565150e+09 -2.725145e+09 1.132462e+03 9.454545e+02 -2.902938e+03
-2.350690e+09 -2.150739e+09 -2.310733e+09 -1.097573e+03 -1.375137e+03 -1.541964e+04
-2.663959e+09 -2.464006e+09 -2.624002e+09 -3.754178e+03 7.138792e+01 -5.160633e+03
-4.133374e+09 -3.933367e+09 -4.093384e+09 -1.914106e+03 2.196431e+03 -2.018457e+02
-3.855724e+09 -3.655718e+09 -3.815735e+09 -1.829823e+03 3.304950e+03 -3.306903e+02
-3.668605e+09 -3.468598e+09 -3.628617e+09 -1.605352e+03 3.745250e+03 -1.065010e+03
-2.640083e+09 -2.440075e+09 -2.600088e+09 -5.237459e+02 4.353061e+03 -5.223288e+02
-3.213087e+09 -3.013080e+09 -3.173096e+09 -1.454092e+03 4.707537e+03 -1.292644e+03
-2.789974e+09 -2.589966e+09 -2.749980e+09 -8.361485e+02 3.742335e+03 -2.105962e+02
-3.550102e+09 -3.350094e+09 -3.510110e+09 -4.994581e+02 3.514462e+03 -1.769879e+02
-4.258083e+09 -4.058063e+09 -4.218088e+09 1.619852e+03 2.532824e+03 3.617554e+02
-3.371018e+09 -3.171005e+09 -3.331026e+09 3.013328e+03 -4.234773e+03 -2.694001e+03
-4.475413e+09 -4.275390e+09 -4.435419e+09 2.420052e+03 2.656476e+03 5.531260e+02
-4.630182e+09 -4.430161e+09 -4.590188e+09 2.981168e+03 1.507174e+03 5.331935e+02
-4.084321e+09 -3.884299e+09 -4.044327e+09 3.227132e+03 2.912907e+03 1.247165e+03
-4.818645e+09 -4.618621e+09 -4.778650e+09 1.884843e+03 1.596886e+03 1.051311e+03
-1.686637e+09 -1.486643e+09 -1.646646e+09 1.259733e+03 4.159874e+02 4.619791e+02
-2.744368e+09 -2.544375e+09 -2.704378e+09 6.860466e+02 2.234379e+02 3.564117e+02
-3.451000e+09 -3.251007e+09 -3.411010e+09 4.481871e+02 2.069941e+02 2.127111e+02
-2.373267e+09 -2.173275e+09 -2.333277e+09 8.255353e+02 3.156792e+02 3.196579e+02
-1.881664e+09 -1.681672e+09 -1.841674e+09 2.341893e+02 1.525639e+02 4.717503e+01
-3.054364e+09 -2.854372e+09 -3.014374e+09 4.896079e+02 1.075366e+02 1.622930e+02
-2.958684e+09 -2.758677e+09 -2.918696e+09 -5.119629e+03 8.403115e+03 -3.941742e+03
-1.785202e+09 -1.585191e+09 -1.745203e+09 5.447004e+02 2.644112e+03 7.837466e+02
-2.461890e+09 -2.261903e+09 -2.421904e+09 -5.659174e+02 -2.459429e+02 1.483399e+03
-2.091752e+09 -1.891764e+09 -2.051765e+09 -6.321015e+02 -2.539232e+02 1.778923e+03
-2.211375e+09 -2.011387e+09 -2.171388e+09 -1.034381e+03 -3.228406e+02 1.598386e+03
-2.067529e+09 -1.867542e+09 -2.027543e+09 -3.056379e+02 -5.231958e+01 1.996856e+03
-1.890434e+09 -1.690447e+09 -1.850447e+09 -5.853372e+02 -3.658218e+02 1.842810e+03
-2.701565e+09 -2.501579e+09 -2.661580e+09 -5.824321e+02 -2.558686e+02 1.739154e+03
-1.787850e+09 -1.587880e+09 -1.747885e+09 5.274790e+03 -8.656766e+03 -1.809797e+04
-1.804926e+09 -1.604934e+09 -1.764916e+09 7.569000e+03 -9.539713e+03 -6.968608e+03
-2.115942e+09 -1.915970e+09 -2.075948e+09 1.220494e+04 -1.421166e+04 -1.880789e+04
-2.541565e+09 -2.341584e+09 -2.501590e+09 1.357604e+04 -1.120228e+04 -1.327316e+04
-2.324113e+09 -2.124149e+09 -2.284144e+09 6.875673e+03 -7.528824e+03 -6.160599e+03
-4.740386e+09 -4.540431e+09 -4.700450e+09 -5.755882e+03 1.313560e+03 1.829656e+03
-2.550540e+09 -2.350582e+09 -2.510578e+09 1.528121e+04 -7.397738e+03 -9.547146e+03
-3.650715e+09 -3.450714e+09 -3.610725e+09 -2.679533e+03 -1.257672e+03 1.406785e+03
-3.127344e+09 -2.927345e+09 -3.087353e+09 -2.656036e+03 -1.384153e+03 1.480820e+03
-3.267438e+09 -3.067438e+09 -3.227447e+09 -2.716963e+03 -1.216238e+03 1.387860e+03
-2.246468e+09 -2.046474e+09 -2.206481e+09 -4.352079e+03 9.639865e+03 -7.275128e+03
-2.921224e+09 -2.721223e+09 -2.881232e+09 -2.719983e+03 -1.102057e+03 1.243933e+03
-2.975048e+09 -2.775046e+09 -2.935058e+09 -3.752311e+03 -2.752945e+03 3.216767e+03
-3.166110e+09 -2.966109e+09 -3.126120e+09 -4.182755e+03 -2.408164e+03 2.124756e+03
-3.338929e+09 -3.138930e+09 -3.298939e+09 -3.388992e+03 -1.505325e+03 2.183839e+03
-3.758948e+09 -3.558954e+09 -3.718958e+09 1.237144e+03 1.996751e+02 3.778873e+02
-2.786170e+09 -2.586176e+09 -2.746179e+09 1.248348e+03 2.065053e+02 6.074241e+02
-3.961917e+09 -3.761905e+09 -3.921930e+09 1.079106e+04 4.493327e+03 3.103549e+03
-2.707238e+09 -2.507245e+09 -2.667248e+09 1.148503e+03 2.938754e+02 5.330998e+02
-3.437192e+09 -3.237198e+09 -3.397202e+09 1.367003e+03 4.084758e+02 4.021977e+02
-3.382912e+09 -3.182919e+09 -3.342923e+09 1.609093e+03 1.910107e+02 5.335829e+02
-3.101303e+09 -2.901310e+09 -3.061313e+09 1.590915e+03 2.117070e+02 8.022068e+02
-4.567070e+09 -4.367062e+09 -4.527082e+09 -2.120789e+03 1.239506e+03 -1.544912e+02
-4.916362e+09 -4.716342e+09 -4.876370e+09 7.513530e+02 -2.799944e-06 -2.086870e+02
-3.585303e+09 -3.385300e+09 -3.545311e+09 -9.611663e+02 -5.717031e+02 7.850574e+02
-3.196457e+09 -2.996455e+09 -3.156464e+09 -1.314930e+03 -7.180951e+02 1.280376e+03
-4.078102e+09 -3.878102e+09 -4.038111e+09 -1.282769e+03 -3.321701e+02 6.845768e+02
-3.872555e+09 -3.672551e+09 -3.832563e+09 -9.351628e+02 -3.962059e+02 8.069465e+02
-3.280240e+09 -3.080239e+09 -3.240248e+09 -1.315716e+03 -7.359389e+02 1.006705e+03
-4.645571e+09 -4.445613e+09 -4.605597e+09 4.377912e+04 -3.827772e+02 -2.819232e+03
-4.131523e+09 -3.931555e+09 -4.091562e+09 4.378955e+04 -8.016603e+03 -6.637414e+03
-4.647616e+09 -4.447669e+09 -4.607674e+09 3.864388e+04 3.208649e+02 -2.815073e+03
-4.305423e+09 -4.105462e+09 -4.265464e+09 3.242435e+04 -7.184004e+03 -4.858213e+03
-4.476405e+09 -4.276360e+09 -4.436409e+09 -4.170563e+03 -6.741346e+03 4.400440e+02
-3.520383e+09 -3.320385e+09 -3.480390e+09 4.685438e+01 3.959288e+01 1.219183e+01
-4.305103e+09 -4.105061e+09 -4.265111e+09 -1.748457e+03 -7.444399e+03 -9.383784e+02
-4.131092e+09 -3.931043e+09 -4.091094e+09 -1.605757e+03 -8.898441e+03 -2.987000e+02
-4.131068e+09 -3.931016e+09 -4.091069e+09 1.439903e+03 -8.928407e+03 7.945172e+02
-4.650345e+09 -4.450349e+09 -4.610381e+09 1.821332e+04 -3.269796e+03 -6.464268e+01
-4.226190e+09 -4.026200e+09 -4.186224e+09 1.063876e+04 -4.722872e+03 -2.204747e+03
-4.005267e+09 -3.805276e+09 -3.965299e+09 9.151176e+03 -5.523451e+03 -3.160369e+03
-4.266387e+09 -4.066399e+09 -4.226427e+09 1.596429e+04 -6.513944e+03 -4.365308e+03
-4.046884e+09 -3.846901e+09 -4.006925e+09 1.643430e+04 -8.188807e+03 -3.884834e+03
-2.152058e+09 -1.952104e+09 -2.112094e+09 -1.047776e+04 1.091217e+04 -8.728372e+03
-3.274424e+09 -3.074424e+09 -3.234432e+09 -1.926825e+03 -1.038926e+03 1.531289e+03
-3.666422e+09 -3.466421e+09 -3.626431e+09 -3.153496e+03 -1.446277e+03 1.151346e+03
-3.881683e+09 -3.681683e+09 -3.841692e+09 -2.569205e+03 -6.348386e+02 9.205938e+02
-3.271178e+09 -3.071177e+09 -3.231186e+09 -2.727891e+03 -2.080337e+03 1.828235e+03
-3.238794e+09 -3.038792e+09 -3.198801e+09 -7.512691e+02 -2.526279e+02 1.504930e+03
-3.616373e+09 -3.416371e+09 -3.576380e+09 -1.821518e+03 -6.605866e+02 8.574545e+02
-4.800188e+09 -4.600248e+09 -4.760255e+09 -2.702546e+04 4.659468e+03 -6.307869e+03
-3.934787e+09 -3.734858e+09 -3.894853e+09 -2.553421e+04 6.465983e+03 -1.031974e+04
-4.223101e+09 -4.023179e+09 -4.183171e+09 -2.427506e+04 3.515301e+03 -7.545020e+03
-3.701886e+09 -3.501967e+09 -3.661942e+09 -1.355423e+04 2.672316e+03 -9.139047e+03
-3.966969e+09 -3.767031e+09 -3.927039e+09 -1.276285e+04 3.906341e+03 -3.483917e+03
-3.791482e+09 -3.591543e+09 -3.751541e+09 -1.468270e+04 5.568458e+03 -4.658219e+03
-3.719043e+09 -3.519051e+09 -3.679054e+09 3.108650e+02 7.774413e+01 -1.990163e+01
-4.094247e+09 -3.894255e+09 -4.054258e+09 5.971718e+02 1.635454e+01 1.211567e+02
-4.014822e+09 -3.814831e+09 -3.974833e+09 3.572643e+02 8.024206e-01 1.085859e+02
-3.543447e+09 -3.343455e+09 -3.503457e+09 6.681655e+02 2.319292e+02 1.759396e+02
-2.809586e+09 -2.609594e+09 -2.769597e+09 7.770564e+02 2.562018e+02 6.265384e+02
-3.039529e+09 -2.839538e+09 -2.999540e+09 1.027188e+03 4.016824e+02 4.734363e+02
-4.664352e+09 -4.464358e+09 -4.624363e+09 -2.091403e+03 -1.577158e+02 3.347993e+02
-4.808320e+09 -4.608326e+09 -4.768332e+09 -2.791227e+03 -4.540642e+02 1.662116e+02
-4.285986e+09 -4.085994e+09 -4.246000e+09 -3.667848e+03 -4.327259e+02 7.763125e+02
-4.123303e+09 -3.923311e+09 -4.083317e+09 -3.550093e+03 -2.290841e+02 9.597590e+02
-4.121854e+09 -3.921860e+09 -4.081866e+09 -2.909672e+03 -2.662961e+02 8.565745e+02
-4.798911e+09 -4.599026e+09 -4.758994e+09 -2.563203e+03 -2.872103e+03 -3.790111e+03
-4.818417e+09 -4.618515e+09 -4.778505e+09 -6.042129e+03 -6.928342e+01 -1.567816e+03
-4.071753e+09 -3.871847e+09 -4.031828e+09 -8.384589e+03 -3.003396e+01 -2.713441e+03
-4.980491e+09 -4.780494e+09 -4.940499e+09 2.093983e+02 3.481102e+01 -6.203322e-01
-3.143320e+09 -2.943402e+09 -3.103392e+09 -1.291651e+04 1.549762e+03 -1.251990e+04
-1.885816e+09 -1.685809e+09 -1.845822e+09 -3.289965e+03 9.715339e+03 -5.315160e+03
-4.652916e+09 -4.453013e+09 -4.613012e+09 -5.432673e+03 1.924702e+03 1.782720e+03
-4.015751e+09 -3.815844e+09 -3.975828e+09 8.018461e+02 -3.757040e+03 2.015239e+03
-4.818535e+09 -4.618500e+09 -4.778540e+09 -1.380732e+03 2.156481e+03 -1.780482e+02
-4.820763e+09 -4.620735e+09 -4.780768e+09 -1.327962e+03 1.143180e+03 -1.562215e+02
-4.647576e+09 -4.447548e+09 -4.607580e+09 -1.991216e+03 1.521693e+03 2.903213e+02
-4.304878e+09 -4.104935e+09 -4.264872e+09 -6.154833e+04 2.308134e+02 1.932733e+02
-4.648285e+09 -4.448294e+09 -4.608289e+09 -5.722746e+04 4.010672e+03 6.593838e+02
-4.305267e+09 -4.105302e+09 -4.265237e+09 -7.483504e+04 3.095546e+03 2.586329e+03
-4.648148e+09 -4.448152e+09 -4.608112e+09 -6.547553e+04 5.554042e+03 -8.295034e+03
-2.577947e+09 -2.377933e+09 -2.537950e+09 2.148006e+03 4.499025e+03 9.329217e+02
-2.680338e+09 -2.480326e+09 -2.640341e+09 4.994304e+02 2.327211e+03 5.589526e+02
-2.075778e+09 -1.875766e+09 -2.035779e+09 1.742168e+03 4.881523e+03 1.773665e+03
-1.582787e+09 -1.382782e+09 -1.542789e+09 -1.221483e+03 -4.964226e+03 3.804962e+03
-2.448496e+09 -2.248483e+09 -2.408499e+09 1.624956e+03 4.610297e+03 1.051408e+03
-2.654406e+09 -2.454392e+09 -2.614409e+09 1.896133e+03 4.332753e+03 1.138397e+03
-3.968861e+09 -3.768854e+09 -3.928867e+09 7.668905e+02 5.652592e+02 5.372781e+02
-3.521897e+09 -3.321890e+09 -3.481902e+09 4.136394e+02 2.934098e+02 8.343386e+02
-3.125745e+09 -2.925738e+09 -3.085751e+09 1.396049e+03 1.404998e+03 7.956791e+02
-2.680935e+09 -2.480929e+09 -2.640940e+09 1.215161e+03 1.350831e+03 1.198466e+03
-2.975149e+09 -2.775141e+09 -2.935153e+09 2.066213e+03 1.879576e+03 1.586063e+03
-3.703329e+09 -3.503321e+09 -3.663335e+09 1.650927e+03 1.640105e+03 1.027345e+03
-3.756141e+09 -3.556134e+09 -3.716148e+09 2.280574e+03 1.167494e+03 9.338762e+02
-4.133703e+09 -3.933797e+09 -4.092911e+09 5.615119e+04 6.289886e+03 1.383194e+05
-4.819588e+09 -4.619693e+09 -4.779226e+09 6.213797e+04 6.011022e+04 4.134783e+04
-4.648191e+09 -4.448282e+09 -4.607785e+09 7.024338e+04 3.711029e+04 4.764862e+04
-4.992820e+09 -4.792789e+09 -4.952825e+09 2.325223e+03 2.501990e+02 -9.131143e+01
-4.305535e+09 -4.105532e+09 -4.264953e+09 8.397710e+04 5.099981e+04 7.858033e+04
-3.497549e+09 -3.297543e+09 -3.457558e+09 -2.737693e+03 -9.913885e+02 1.645906e+03
-4.146919e+09 -3.946978e+09 -4.106955e+09 -3.904931e+04 -3.005758e+02 -4.673695e+01
-2.570562e+09 -2.370556e+09 -2.530568e+09 -1.782791e+03 -1.981780e+03 2.562674e+03
-2.904026e+09 -2.704018e+09 -2.864032e+09 -1.130088e+02 -5.966977e+02 2.116681e+03
-3.980532e+09 -3.780523e+09 -3.940541e+09 -1.329305e+03 -9.757906e+02 1.353046e+03
-3.682856e+09 -3.482848e+09 -3.642864e+09 -5.013277e+02 -3.645221e+02 1.414712e+03
-4.477481e+09 -4.277374e+09 -4.437408e+09 4.751121e+04 -3.868825e+03 -1.100371e+04
-4.137222e+09 -3.937123e+09 -4.097193e+09 2.165756e+04 -9.743529e+03 -3.769192e+03
-4.480449e+09 -4.280358e+09 -4.440400e+09 3.041300e+04 -4.507101e+03 5.729010e+03
-4.823687e+09 -4.623584e+09 -4.783637e+09 2.183168e+04 -1.331755e+03 1.085953e+04
-4.315209e+09 -4.115084e+09 -4.275104e+09 1.106921e+04 -7.704839e+03 -2.235982e+03
-4.825429e+09 -4.625316e+09 -4.785367e+09 1.591015e+04 -4.722138e+03 -6.917384e+03
-4.584600e+09 -4.384610e+09 -4.544612e+09 -5.116200e+02 -9.424941e+01 1.316621e+02
-4.018018e+09 -3.818000e+09 -3.978022e+09 -8.006466e+02 1.813989e+03 -3.510043e+02
-4.823868e+09 -4.623845e+09 -4.783873e+09 -1.247324e+03 1.049463e+03 -7.039882e+02
-4.826808e+09 -4.626788e+09 -4.786813e+09 -1.130144e+03 4.807469e+02 -6.786417e+02
-4.655562e+09 -4.455539e+09 -4.615567e+09 -1.081355e+03 1.183767e+03 -2.270810e+02
-4.824945e+09 -4.624924e+09 -4.784949e+09 -9.354527e+02 7.149064e+02 3.298058e+02
-4.298435e+09 -4.098337e+09 -4.257853e+09 5.393328e+04 -8.278981e+04 -2.691434e+04
-4.303997e+09 -4.103849e+09 -4.263546e+09 1.207688e+04 -5.183072e+04 -2.319630e+04
-3.789551e+09 -3.589553e+09 -3.749558e+09 6.850165e+01 2.374166e+01 -2.467035e+01
-4.136287e+09 -3.936128e+09 -4.095902e+09 3.085890e+04 -7.489386e+04 -2.521967e+04
-4.130927e+09 -3.930826e+09 -4.090453e+09 7.437133e+04 -1.075844e+05 -6.391882e+04
-2.782138e+09 -2.582146e+09 -2.742163e+09 1.477477e+04 -1.203122e+04 -1.062822e+04
-3.418859e+09 -3.218878e+09 -3.378897e+09 2.049633e+04 -1.203626e+04 -1.026636e+04
-3.708668e+09 -3.508687e+09 -3.668702e+09 1.967492e+04 -8.709154e+03 -6.652366e+03
-3.755412e+09 -3.555445e+09 -3.715454e+09 1.838171e+04 -8.041846e+03 -8.069213e+03
-4.151137e+09 -3.951249e+09 -4.111134e+09 4.224204e+04 8.577973e+03 -4.984808e+03
-2.658384e+09 -2.458397e+09 -2.618408e+09 1.581380e+04 -9.525970e+03 -7.747495e+03
-4.820361e+09 -4.620319e+09 -4.780368e+09 3.059200e+03 -1.376413e+03 -2.440721e+02
-4.818577e+09 -4.618523e+09 -4.778581e+09 2.727605e+03 -2.976208e+03 -4.987331e+02
-4.132111e+09 -3.932060e+09 -4.092113e+09 5.161436e+03 -9.277537e+03 -6.044814e+02
-4.645278e+09 -4.445224e+09 -4.605283e+09 9.726497e+02 -3.849984e+03 1.707172e+02
-4.649064e+09 -4.449023e+09 -4.609072e+09 2.279338e+03 -1.674681e+03 2.287888e+02
-4.004191e+09 -3.804203e+09 -3.964205e+09 8.076692e+02 1.984570e+02 4.404703e+02
-4.199817e+09 -3.999828e+09 -4.159830e+09 1.139766e+03 1.157303e+02 4.655815e+02
-3.843812e+09 -3.643823e+09 -3.803825e+09 1.058764e+03 2.288730e+02 5.479413e+02
-3.824127e+09 -3.624138e+09 -3.784140e+09 8.908199e+02 1.465197e+02 3.707120e+02
-3.633246e+09 -3.433258e+09 -3.593259e+09 9.751772e+02 2.418636e+02 8.475323e+02
-4.992717e+09 -4.792726e+09 -4.952728e+09 -4.525504e+02 1.169212e+02 5.673534e+01
-3.217864e+09 -3.017875e+09 -3.177877e+09 8.316221e+02 1.862988e+02 7.173650e+02
-3.060149e+09 -2.860155e+09 -3.020158e+09 -2.370382e+02 -6.049974e+01 1.644677e+01
-3.845320e+09 -3.645326e+09 -3.805329e+09 -3.039451e+02 -8.067778e+01 4.233327e+01
-4.149065e+09 -3.949071e+09 -4.109074e+09 -3.363926e+02 -5.809106e+01 4.634367e+00
-2.861710e+09 -2.661716e+09 -2.821719e+09 -4.297504e+02 -3.896991e+01 1.938451e+02
-2.852957e+09 -2.652964e+09 -2.812967e+09 -1.586072e+02 -1.061973e+02 -2.484848e+01
-3.835951e+09 -3.635957e+09 -3.795960e+09 -3.428272e+02 -1.919524e+02 -7.551146e+00
-3.534398e+09 -3.334404e+09 -3.494407e+09 -2.223726e+02 -1.006939e+02 -4.119699e+01
-1.577405e+09 -1.377403e+09 -1.537410e+09 1.499444e+03 2.239501e+03 1.634479e+03
-2.343620e+09 -2.143615e+09 -2.303625e+09 1.682013e+03 1.768111e+03 1.271922e+03
-2.469653e+09 -2.269648e+09 -2.429658e+09 2.512718e+03 2.357489e+03 1.620421e+03
-2.582911e+09 -2.382907e+09 -2.542917e+09 2.898975e+03 2.182407e+03 1.620729e+03
-1.772554e+09 -1.572550e+09 -1.732557e+09 1.258365e+03 2.549549e+03 1.672244e+03
-1.577406e+09 -1.377402e+09 -1.537409e+09 1.523012e+03 2.692988e+03 1.840685e+03
-4.656064e+09 -4.455957e+09 -4.615892e+09 6.821160e+04 1.688339e+04 1.638342e+04
-4.140052e+09 -3.939929e+09 -4.099888e+09 5.678537e+04 1.097190e+04 -7.833627e+02
-4.477492e+09 -4.277361e+09 -4.437330e+09 3.376561e+04 9.987900e+03 1.047631e+04
-4.992338e+09 -4.792226e+09 -4.952216e+09 3.847244e+04 -1.400288e+04 7.094536e+03
-4.819879e+09 -4.619809e+09 -4.779816e+09 5.550902e+04 6.412417e+03 -9.681576e+02
-4.133417e+09 -3.933353e+09 -4.093358e+09 5.681389e+04 4.152118e+03 1.261225e+03
-4.305872e+09 -4.105769e+09 -4.265808e+09 4.746453e+04 9.331834e+02 4.232433e+03
-4.837612e+09 -4.637719e+09 -4.797601e+09 4.419764e+04 -1.058267e+04 -1.323254e+04
-4.083148e+09 -3.883150e+09 -4.043157e+09 -1.662316e+03 -1.129887e+02 6.755994e+02
-4.198842e+09 -3.998844e+09 -4.158850e+09 -9.046584e+02 -1.442485e+02 1.081421e+02
-3.871767e+09 -3.671770e+09 -3.831776e+09 -1.101049e+03 -2.881902e+02 2.493773e+02
-4.818625e+09 -4.618627e+09 -4.778634e+09 -1.721857e+03 5.858249e+00 1.689656e+02
-4.793933e+09 -4.593935e+09 -4.753941e+09 -8.767160e+02 3.607701e+01 1.100515e+02
-4.623021e+09 -4.423023e+09 -4.583029e+09 -9.048040e+02 2.794477e+01 2.560694e+02
-4.132000e+09 -3.931998e+09 -4.092010e+09 5.022331e+03 1.427262e+03 9.311988e+02
-4.818467e+09 -4.618464e+09 -4.778477e+09 5.131598e+03 8.214472e+02 -1.036974e+02
-4.820239e+09 -4.620237e+09 -4.780247e+09 3.353391e+03 4.699419e+02 -1.845889e+02
-4.648422e+09 -4.448421e+09 -4.608430e+09 3.466092e+03 5.307274e+02 3.470366e+02
-4.634834e+09 -4.434824e+09 -4.594842e+09 6.227156e+03 1.145519e+03 1.054994e+03
-4.161136e+09 -3.961126e+09 -4.121144e+09 4.349165e+03 2.218830e+03 1.132132e+03
-4.610221e+09 -4.410212e+09 -4.570230e+09 4.816896e+03 7.503719e+02 5.407221e+02
-4.794972e+09 -4.594962e+09 -4.754980e+09 4.445281e+03 3.432228e+02 5.760820e+02
-4.701796e+09 -4.501785e+09 -4.661804e+09 4.505424e+03 9.715121e+02 -7.843214e+01
-4.819026e+09 -4.619000e+09 -4.779035e+09 5.339454e+03 -9.442974e+02 -1.125510e+03
-4.057982e+09 -3.857959e+09 -4.017991e+09 3.326774e+03 -3.205490e+03 -1.437848e+03
-4.056793e+09 -3.856768e+09 -4.016802e+09 4.762560e+03 -3.945825e+03 -1.766079e+03
-4.217396e+09 -4.017375e+09 -4.177405e+09 3.058033e+03 -2.785386e+03 -1.435044e+03
-4.820148e+09 -4.620180e+09 -4.779474e+09 7.019970e+04 -2.582245e+04 2.677917e+04
-4.771750e+09 -4.571730e+09 -4.731759e+09 3.521524e+03 -6.283599e+02 -1.170230e+03
-4.601405e+09 -4.401384e+09 -4.561414e+09 3.373767e+03 -1.062320e+03 -1.157891e+03
-2.749208e+09 -2.549282e+09 -2.709248e+09 2.792476e+03 -1.969931e+03 1.693610e+03
-1.823159e+09 -1.623175e+09 -1.783165e+09 7.768903e+03 -4.299145e+03 -1.179905e+04
-2.781319e+09 -2.581393e+09 -2.741372e+09 1.934988e+04 -5.863895e+03 1.517908e+03
-3.400543e+09 -3.200605e+09 -3.360603e+09 2.413303e+04 -7.415194e+03 -1.286896e+04
-3.173824e+09 -2.973904e+09 -3.133872e+09 1.695499e+04 -2.962116e+03 -7.092195e+03
-3.700364e+09 -3.500426e+09 -3.660412e+09 1.856860e+04 -4.547638e+03 -4.082062e+03
-3.748278e+09 -3.548365e+09 -3.708341e+09 1.581084e+04 -5.234774e+03 -4.605248e+03
-4.647999e+09 -4.448167e+09 -4.607487e+09 2.218824e+04 1.223940e+04 6.332097e+04
-4.162607e+09 -3.962600e+09 -4.122615e+09 3.787892e+03 1.147616e+03 8.459597e+02
-4.992103e+09 -4.792031e+09 -4.951289e+09 5.551651e+04 1.584954e+04 1.461722e+04
-4.015330e+09 -3.815320e+09 -3.975338e+09 4.772903e+03 2.298995e+03 1.518332e+03
-4.027272e+09 -3.827264e+09 -3.987279e+09 4.250315e+03 1.468847e+03 1.509654e+03
-3.876299e+09 -3.676290e+09 -3.836306e+09 3.175938e+03 1.491786e+03 8.552916e+02
-3.937517e+09 -3.737508e+09 -3.897523e+09 1.912634e+03 1.061595e+03 8.799162e+02
-4.504369e+09 -4.304358e+09 -4.464376e+09 3.837969e+03 8.071724e+02 6.661073e+02
-4.475014e+09 -4.275030e+09 -4.435033e+09 -1.898965e+03 2.956053e+02 1.004451e+03
-4.818247e+09 -4.618263e+09 -4.778266e+09 -2.142426e+03 1.579129e+02 5.849548e+02
-4.819457e+09 -4.619470e+09 -4.779473e+09 -1.672999e+03 7.423585e+01 2.610307e+02
-4.304889e+09 -4.104902e+09 -4.264905e+09 -1.401116e+03 -2.842196e+02 5.681606e+02
-4.063342e+09 -3.863349e+09 -4.023353e+09 -1.234134e+03 -2.557484e+02 2.286789e+02
-4.654852e+09 -4.454860e+09 -4.614864e+09 -1.398958e+03 -2.827831e+02 1.329482e+02
-4.274670e+09 -4.074676e+09 -4.234679e+09 -8.279747e+02 -6.790092e+01 9.805804e+01
-4.040642e+09 -3.840649e+09 -4.000652e+09 -1.060634e+03 -2.054441e+02 1.556228e+02
-4.825129e+09 -4.625135e+09 -4.785139e+09 -7.413690e+02 -1.020662e+02 -5.830482e+01
-4.822432e+09 -4.622439e+09 -4.782442e+09 -1.269247e+03 -1.518186e+02 -5.123265e+01
-4.629724e+09 -4.429731e+09 -4.589735e+09 -1.251894e+03 -2.355136e+02 4.926025e+01
-4.260657e+09 -4.060714e+09 -4.220723e+09 2.199762e+04 -8.843507e+03 -7.430981e+03
-4.041812e+09 -3.841872e+09 -4.001881e+09 2.264554e+04 -6.504339e+03 -8.150463e+03
-4.832893e+09 -4.632932e+09 -4.792953e+09 1.641991e+04 -1.014171e+03 1.618893e+03
-4.823549e+09 -4.623605e+09 -4.783609e+09 2.578543e+04 -1.763704e+02 5.660848e+02
-4.274867e+09 -4.074903e+09 -4.234918e+09 2.141691e+04 -9.411206e+03 -4.435523e+03
-4.056261e+09 -3.856296e+09 -4.016314e+09 1.881877e+04 -7.445946e+03 -6.900414e+03
-4.980492e+09 -4.780494e+09 -4.940499e+09 2.407252e+02 -7.823289e+00 3.476686e+00
-2.206281e+09 -2.006283e+09 -2.166288e+09 1.586467e+02 3.704185e+01 -3.334110e+01
-4.652167e+09 -4.452213e+09 -4.612221e+09 2.503792e+04 -4.626626e+03 -9.116184e+02
-4.303874e+09 -4.103854e+09 -4.263884e+09 1.035744e+04 4.607891e+03 2.276850e+03
-4.133073e+09 -3.933055e+09 -4.093084e+09 1.148115e+04 5.715679e+03 2.325141e+03
-4.303949e+09 -4.103932e+09 -4.263961e+09 1.177918e+04 4.985564e+03 2.153079e+03
-4.303351e+09 -4.103338e+09 -4.263362e+09 9.631078e+03 3.390410e+03 2.084656e+03
-4.304402e+09 -4.104361e+09 -4.264408e+09 1.384535e+04 7.192008e+03 2.308389e+03
-4.647301e+09 -4.447273e+09 -4.607310e+09 9.849986e+03 2.439779e+03 1.393436e+03
-4.647804e+09 -4.447771e+09 -4.607811e+09 1.057713e+04 2.372597e+03 6.687521e+02
-4.819735e+09 -4.619704e+09 -4.779743e+09 1.001079e+04 2.920413e+03 -7.496738e+01
-4.050764e+09 -3.850773e+09 -4.010775e+09 -1.891652e+02 -1.123047e+02 2.229873e+00
-2.635571e+09 -2.435561e+09 -2.595580e+09 3.786551e+03 -6.907442e+03 -3.893722e+03
-4.521996e+09 -4.321998e+09 -4.482003e+09 1.026367e+02 1.479802e+01 -4.916900e+00
-3.123946e+09 -2.923939e+09 -3.083958e+09 3.014774e+03 -5.924385e+03 -2.242218e+03
-2.810973e+09 -2.610965e+09 -2.770984e+09 3.532634e+03 -7.125431e+03 -3.130085e+03
-2.804381e+09 -2.604378e+09 -2.764394e+09 2.442298e+03 -7.507260e+03 -2.692878e+03
-3.241416e+09 -3.041408e+09 -3.201429e+09 6.413937e+03 -9.031632e+03 -5.140398e+03
-3.491081e+09 -3.291071e+09 -3.451094e+09 7.789501e+03 -7.605371e+03 -4.913961e+03
-4.306964e+09 -4.106957e+09 -4.265561e+09 3.539772e+03 4.311668e+04 -1.143650e+04
-4.070629e+09 -3.870607e+09 -4.030634e+09 1.458606e+02 3.243694e+03 -1.272490e+02
-3.995317e+09 -3.795298e+09 -3.955321e+09 -2.934985e+02 2.020390e+03 -5.716639e+01
-4.992122e+09 -4.792126e+09 -4.951099e+09 2.094261e+04 1.420720e+04 2.545586e+04
-4.652864e+09 -4.452841e+09 -4.612870e+09 -5.665743e+02 2.052609e+03 -1.224261e+02
-4.069128e+09 -3.869105e+09 -4.029133e+09 -8.895666e+02 2.839030e+03 -4.343634e+02
-4.284847e+09 -4.084827e+09 -4.244852e+09 -8.079196e+02 2.313254e+03 -3.065924e+02
-4.824162e+09 -4.624159e+09 -4.784187e+09 6.776514e+03 -1.674314e+03 -4.476736e+01
-4.006714e+09 -3.806711e+09 -3.966737e+09 6.577078e+03 -4.400763e+03 -2.231852e+03
-4.222991e+09 -4.022989e+09 -4.183014e+09 7.253209e+03 -3.603690e+03 -1.390763e+03
-4.661680e+09 -4.461682e+09 -4.621712e+09 1.058747e+04 -2.767679e+03 -2.444710e+02
-4.993799e+09 -4.793755e+09 -4.952690e+09 9.579042e+03 2.195981e+04 8.817066e+03
-4.047459e+09 -3.847452e+09 -4.007479e+09 8.447884e+03 -5.169956e+03 -2.686208e+03
-4.272153e+09 -4.072148e+09 -4.232174e+09 7.047792e+03 -3.472461e+03 -1.747132e+03
-4.132045e+09 -3.932040e+09 -4.092055e+09 6.239984e+03 1.886551e+03 1.070031e+03
-4.633762e+09 -4.433756e+09 -4.593773e+09 5.757012e+03 1.451590e+03 4.476234e+02
-4.256544e+09 -4.056538e+09 -4.216552e+09 4.435331e+03 1.439862e+03 1.059719e+03
-4.270152e+09 -4.070147e+09 -4.230161e+09 3.957333e+03 1.270753e+03 1.237371e+03
-4.263520e+09 -4.063506e+09 -4.223531e+09 4.765288e+03 -2.306591e+03 -1.745134e+03
-4.645738e+09 -4.445723e+09 -4.605750e+09 4.696998e+03 -1.300758e+03 -7.738121e+02
-4.817902e+09 -4.617887e+09 -4.777913e+09 4.362265e+03 -6.636014e+02 -9.584336e+02
-4.811120e+09 -4.611106e+09 -4.771129e+09 2.094389e+03 -3.802250e+02 -6.333488e+02
-4.218701e+09 -4.018687e+09 -4.178709e+09 2.281442e+03 -1.151574e+03 -6.296502e+02
-4.008505e+09 -3.808493e+09 -3.968514e+09 2.368705e+03 -1.647666e+03 -9.223471e+02
-4.634617e+09 -4.434603e+09 -4.594625e+09 2.277015e+03 -6.284125e+02 -8.823096e+02
-4.622753e+09 -4.422737e+09 -4.582758e+09 2.013498e+03 8.949983e+02 6.635758e+02
-3.997418e+09 -3.797402e+09 -3.957422e+09 2.691550e+03 1.657577e+03 3.509438e+02
-4.290217e+09 -4.090198e+09 -4.250224e+09 4.150835e+03 3.110993e+03 5.447001e+02
-4.865467e+09 -4.665449e+09 -4.825474e+09 3.887741e+03 3.763308e+02 7.758232e+02
-4.318543e+09 -4.118526e+09 -4.278550e+09 3.848678e+03 2.347013e+03 8.524460e+02
-4.102912e+09 -3.902894e+09 -4.062919e+09 3.688249e+03 2.615865e+03 1.510915e+03
-4.239563e+09 -4.039542e+09 -4.199568e+09 2.931242e+03 2.937037e+03 3.846157e+02
-4.311414e+09 -4.111517e+09 -4.271449e+09 1.177638e+04 1.687845e+03 6.024178e+03
-4.137435e+09 -3.937530e+09 -4.097486e+09 1.423983e+04 -2.862563e+03 2.585010e+03
-4.480666e+09 -4.280757e+09 -4.440735e+09 1.906943e+04 4.215872e+03 5.279064e+03
-4.650096e+09 -4.450193e+09 -4.610171e+09 2.377632e+03 6.511477e+02 5.571064e+02
-4.012761e+09 -3.812776e+09 -3.972778e+09 -4.143651e+02 2.217762e+02 8.850940e+02
-4.359411e+09 -4.159424e+09 -4.319426e+09 -4.887127e+02 -7.038014e+01 5.535840e+02
-4.647128e+09 -4.447141e+09 -4.607144e+09 -1.959983e+03 -2.706218e+01 4.219617e+02
-4.820312e+09 -4.620323e+09 -4.780326e+09 -1.817494e+03 7.187095e+01 3.432138e+02
-4.818754e+09 -4.618768e+09 -4.778772e+09 -2.605277e+03 1.067247e+02 7.700591e+02
-2.077632e+09 -1.877627e+09 -2.037636e+09 -3.391987e+02 -4.511786e+02 1.584431e+03
-2.705024e+09 -2.505019e+09 -2.665030e+09 1.115397e+02 -7.223756e+02 1.845432e+03
-2.736613e+09 -2.536605e+09 -2.696619e+09 -3.123653e+03 -3.068496e+03 2.554166e+03
-2.788052e+09 -2.588044e+09 -2.748057e+09 -1.282813e+03 -2.256267e+03 2.914971e+03
-1.833923e+09 -1.633918e+09 -1.793927e+09 2.178925e+02 -7.693597e+02 1.979488e+03
-2.943401e+09 -2.743394e+09 -2.903407e+09 -7.911311e+02 -1.353839e+03 1.699611e+03
-1.857411e+09 -1.657410e+09 -1.817417e+09 -9.770082e+02 -9.502536e+02 1.307733e+03
-1.851360e+09 -1.651350e+09 -1.811361e+09 -1.325246e+03 -1.687503e+03 -2.175710e+03
-1.921858e+09 -1.721849e+09 -1.881860e+09 4.601061e+02 -4.528111e+02 -4.148610e+02
-2.099926e+09 -1.899912e+09 -2.059926e+09 5.977289e+02 -4.126967e+03 -1.783935e+03
-2.665384e+09 -2.465367e+09 -2.625387e+09 -7.271062e+02 -4.342295e+03 -2.148106e+03
-2.975793e+09 -2.775777e+09 -2.935798e+09 1.419867e+03 -3.631241e+03 -1.982781e+03
-2.599881e+09 -2.399868e+09 -2.559886e+09 5.299053e+02 -3.905819e+03 -2.428312e+03
-4.238738e+09 -4.038728e+09 -4.198743e+09 -9.975827e+02 5.777894e+02 -1.351929e+02
-2.751113e+09 -2.551103e+09 -2.711115e+09 -4.235130e+02 1.129747e+03 -5.527482e+02
-3.525906e+09 -3.325895e+09 -3.485910e+09 -1.111611e+03 1.368335e+03 -9.904913e+02
-3.364398e+09 -3.164389e+09 -3.324402e+09 -1.056040e+03 1.517882e+03 -1.186947e+03
-3.963752e+09 -3.763741e+09 -3.923757e+09 -9.802890e+02 8.684112e+02 -4.567705e+02
-4.646454e+09 -4.446428e+09 -4.606470e+09 -3.322825e+04 1.331474e+03 -1.213967e+02
-4.131825e+09 -3.931801e+09 -4.091834e+09 -2.695452e+04 5.197226e+03 -3.534231e+03
-4.132065e+09 -3.932025e+09 -4.092069e+09 -2.757547e+04 9.008220e+03 -3.225804e+03
-4.131946e+09 -3.931919e+09 -4.091961e+09 -2.315167e+04 8.400378e+03 -4.847230e+03
-4.670725e+09 -4.470743e+09 -4.630752e+09 -7.787225e+03 -2.073241e+02 2.107447e+03
-1.579740e+09 -1.379750e+09 -1.539745e+09 -3.647536e+02 -5.927568e+03 -7.796406e+03
-4.633233e+09 -4.433246e+09 -4.593253e+09 -6.907027e+03 -4.944154e+02 1.526779e+03
-1.605521e+09 -1.405511e+09 -1.565522e+09 -9.556259e+01 -1.172034e+03 -6.843900e+02
-4.798578e+09 -4.598593e+09 -4.758600e+09 -6.387273e+03 -1.074697e+02 1.229017e+03
-4.842432e+09 -4.642450e+09 -4.802459e+09 -8.615682e+03 2.333965e+02 1.326715e+03
-4.808336e+09 -4.608307e+09 -4.768346e+09 -5.308379e+03 -1.426929e+03 1.301045e+03
-4.293769e+09 -4.093742e+09 -4.253779e+09 -6.493788e+03 -4.878386e+03 8.818950e+02
-3.998536e+09 -3.798514e+09 -3.958544e+09 -2.495264e+03 -2.262303e+03 1.674834e+03
-4.206978e+09 -4.006954e+09 -4.166987e+09 -6.369269e+03 -4.215434e+03 1.576127e+03
-4.812242e+09 -4.612218e+09 -4.772253e+09 -7.032894e+03 -1.150470e+03 1.610758e+03
-4.044146e+09 -3.844121e+09 -4.004156e+09 -6.213624e+03 -4.462962e+03 2.560534e+03
-3.780364e+09 -3.580346e+09 -3.740373e+09 -4.097323e+03 -3.735885e+03 6.342675e+02
-4.544801e+09 -4.344790e+09 -4.504808e+09 -1.415950e+03 1.066590e+03 -4.821048e+02
-4.907900e+09 -4.707889e+09 -4.867906e+09 -2.065259e+03 4.304181e+02 -1.747465e+02
-3.746902e+09 -3.546891e+09 -3.706906e+09 -3.851123e+02 9.597026e+02 -5.078654e+02
-4.306665e+09 -4.106683e+09 -4.265309e+09 -3.111729e+03 4.551219e+04 3.382669e+04
-3.918665e+09 -3.718656e+09 -3.878672e+09 -1.436816e+03 1.755096e+03 -7.678682e+02
-4.722720e+09 -4.522709e+09 -4.682726e+09 -1.586680e+03 3.671410e+02 -2.625501e+02
-4.822477e+09 -4.622501e+09 -4.782509e+09 -8.068128e+03 -1.209915e+02 1.512438e+03
-4.133174e+09 -3.933194e+09 -4.093199e+09 -4.792049e+03 -1.481583e+03 2.319748e+03
-4.819247e+09 -4.619272e+09 -4.779278e+09 -6.481304e+03 -3.115757e+02 1.771233e+03
-4.303410e+09 -4.103431e+09 -4.263436e+09 -5.388784e+03 -6.061482e+02 2.542585e+03
-1.583560e+09 -1.383556e+09 -1.543563e+09 9.485695e+02 1.956230e+03 1.233428e+03
-2.503988e+09 -2.303985e+09 -2.463994e+09 1.333026e+03 8.705216e+02 9.406005e+02
-1.924852e+09 -1.724848e+09 -1.884856e+09 1.335380e+02 2.996646e+02 7.574221e+02
-2.060048e+09 -1.860045e+09 -2.020052e+09 1.094901e+03 5.770279e+02 8.806840e+02
-2.090169e+09 -1.890164e+09 -2.050172e+09 9.654064e+02 8.826016e+02 7.247039e+02
-1.758325e+09 -1.558320e+09 -1.718328e+09 1.559076e+03 1.673574e+03 1.517004e+03
-1.766125e+09 -1.566122e+09 -1.726129e+09 1.030105e+03 9.320563e+02 8.817785e+02
-4.818885e+09 -4.618881e+09 -4.778901e+09 -9.589510e+03 -1.612667e+03 5.611297e+01
-4.821224e+09 -4.621221e+09 -4.781237e+09 -6.278435e+03 -1.043374e+03 -7.643765e+01
-4.647334e+09 -4.447328e+09 -4.607350e+09 -8.967681e+03 -2.090920e+03 1.090873e+03
-4.626199e+09 -4.426193e+09 -4.586211e+09 -7.156609e+03 -9.196931e+02 6.584207e+02
-4.283242e+09 -4.083238e+09 -4.243256e+09 -6.134742e+03 -1.933402e+03 2.069692e+03
-3.608158e+09 -3.408153e+09 -3.568166e+09 -1.769676e+03 -1.016147e+03 1.294884e+03
-3.301573e+09 -3.101569e+09 -3.261581e+09 -2.291644e+03 -1.579449e+03 1.901719e+03
-3.962570e+09 -3.762544e+09 -3.921445e+09 2.687253e+03 8.705239e+04 1.629018e+05
-3.591373e+09 -3.391367e+09 -3.551382e+09 -3.490726e+03 -1.788609e+03 2.609388e+03
-4.303477e+09 -4.103559e+09 -4.262293e+09 3.920074e+03 -8.441864e+03 -1.031877e+05
-3.907573e+09 -3.707586e+09 -3.867588e+09 -8.728072e+02 -2.540766e+02 8.617871e+02
-3.759155e+09 -3.559168e+09 -3.719171e+09 -5.416003e+02 -2.709467e+01 1.092576e+03
-3.677625e+09 -3.477639e+09 -3.637641e+09 -7.634828e+02 -2.102631e+02 1.231076e+03
-3.436198e+09 -3.236211e+09 -3.396213e+09 -1.089232e+03 -3.915150e+02 1.343575e+03
-3.132603e+09 -2.932616e+09 -3.092617e+09 -8.027082e+02 -4.892833e+02 1.049081e+03
-3.239978e+09 -3.039991e+09 -3.199994e+09 -7.025042e+02 -1.818385e+02 1.850953e+03
-2.970677e+09 -2.770687e+09 -2.930690e+09 -1.105291e+03 -3.040891e+02 1.212431e+03
-4.948892e+09 -4.748896e+09 -4.908900e+09 -1.184326e+02 1.553207e+01 4.855622e+00
-3.374574e+09 -3.174585e+09 -3.334587e+09 -1.195712e+03 -5.672911e+02 1.056826e+03
-3.768418e+09 -3.568430e+09 -3.728433e+09 -9.526813e+02 -2.726413e+02 8.522231e+02
-3.727889e+09 -3.527901e+09 -3.687903e+09 -1.164741e+03 -2.749479e+02 8.745536e+02
-4.386861e+09 -4.186865e+09 -4.346869e+09 -4.710496e+01 -2.064972e+00 3.298012e+01
-3.186299e+09 -2.986311e+09 -3.146314e+09 -1.193618e+03 -2.989527e+02 1.695459e+03
-3.450684e+09 -3.250688e+09 -3.410692e+09 -7.122978e+01 6.513090e+00 6.871582e+01
-3.080179e+09 -2.880227e+09 -3.040238e+09 -1.843425e+04 7.048687e+03 -1.011188e+04
-2.829726e+09 -2.629759e+09 -2.789763e+09 -1.774271e+04 7.574653e+03 -8.347854e+03
-3.784067e+09 -3.584145e+09 -3.744124e+09 -2.326587e+04 5.559018e+02 -2.122563e+03
-2.990305e+09 -2.790365e+09 -2.950346e+09 -1.399090e+04 1.249538e+03 -2.464316e+03
-3.738779e+09 -3.538831e+09 -3.698828e+09 -2.094670e+04 5.233861e+03 -3.043790e+03
-3.341530e+09 -3.141610e+09 -3.301583e+09 -1.517286e+04 2.186709e+03 -1.683338e+04
-3.304954e+09 -3.104983e+09 -3.264977e+09 -2.710449e+04 1.052875e+04 -1.328653e+04
-3.399783e+09 -3.199799e+09 -3.359820e+09 1.292548e+04 -8.893095e+03 -5.827759e+03
-3.535128e+09 -3.335126e+09 -3.495156e+09 1.876542e+04 -7.965330e+03 -4.201146e+03
-3.370426e+09 -3.170432e+09 -3.330454e+09 1.504094e+04 -1.065066e+04 -8.038288e+03
-4.991669e+09 -4.791694e+09 -4.951698e+09 -1.570135e+03 -4.115398e+01 7.776520e+02
-3.174973e+09 -2.974984e+09 -3.135000e+09 1.721991e+04 -1.496523e+04 -1.228982e+04
-2.111167e+09 -1.911170e+09 -2.071174e+09 -4.879565e+02 -1.808037e+02 1.852989e+02
-3.708346e+09 -3.508350e+09 -3.668372e+09 1.536940e+04 -8.727499e+03 -5.558704e+03
-3.753792e+09 -3.553804e+09 -3.713832e+09 2.419843e+04 -8.016312e+03 -4.774416e+03
-4.813223e+09 -4.613224e+09 -4.773230e+09 9.609424e+02 -1.052489e+01 4.759169e+01
-3.962115e+09 -3.762117e+09 -3.922122e+09 5.037380e+02 9.347022e+01 2.867615e+01
-4.991747e+09 -4.791779e+09 -4.951784e+09 -1.036903e+03 -8.398586e+01 1.185490e+03
-4.255452e+09 -4.055454e+09 -4.215459e+09 6.447845e+02 -4.447325e+01 1.344654e+02
-4.034921e+09 -3.834923e+09 -3.994928e+09 5.429161e+02 -5.311625e+01 7.144667e+01
-4.640669e+09 -4.440671e+09 -4.600676e+09 8.699109e+02 -1.028875e+01 1.912690e+02
-4.473032e+09 -4.272928e+09 -4.432947e+09 2.860788e+04 9.253926e+03 -4.431594e+02
-4.297162e+09 -4.097085e+09 -4.257125e+09 3.858727e+04 5.560360e+03 3.015634e+03
-4.469307e+09 -4.269198e+09 -4.429190e+09 3.474770e+04 1.588666e+03 -7.254342e+03
-4.126058e+09 -3.925966e+09 -4.085978e+09 3.832267e+04 -2.976462e+03 -1.328768e+04
-4.304950e+09 -4.104879e+09 -4.264877e+09 6.697865e+04 -1.180432e+02 -4.522392e+03
-4.650153e+09 -4.450077e+09 -4.610008e+09 6.316113e+04 1.982868e+04 1.009220e+04
-4.648829e+09 -4.448784e+09 -4.608580e+09 8.384972e+04 1.541767e+04 5.103175e+03
-4.821798e+09 -4.621731e+09 -4.781585e+09 8.002430e+04 -1.842527e+02 2.553119e+04
-4.820462e+09 -4.620434e+09 -4.780394e+09 7.156960e+04 -3.797897e+03 2.033584e+04
-4.647038e+09 -4.447039e+09 -4.607050e+09 5.845956e+03 9.647827e+02 7.817069e+02
-4.818817e+09 -4.618817e+09 -4.778830e+09 5.951467e+03 1.255311e+03 1.831916e+02
-4.824735e+09 -4.624736e+09 -4.784751e+09 8.966111e+03 1.273626e+03 2.361265e+02
-4.481499e+09 -4.281503e+09 -4.441517e+09 8.992088e+03 1.602839e+03 1.358983e+03
-4.215866e+09 -4.015855e+09 -4.175878e+09 -5.152402e+03 -2.812824e+03 1.747585e+03
-4.806775e+09 -4.606762e+09 -4.766786e+09 -6.420915e+03 -7.431809e+02 9.548836e+02
-4.302644e+09 -4.102630e+09 -4.262658e+09 -8.113052e+03 -2.559670e+03 1.895816e+03
-4.044092e+09 -3.844080e+09 -4.004103e+09 -6.594143e+03 -3.089632e+03 1.507434e+03
-4.292884e+09 -4.092864e+09 -4.252895e+09 -7.902984e+03 -5.364718e+03 2.876228e+03
-4.819607e+09 -4.619556e+09 -4.779612e+09 8.376047e+03 -2.254506e+03 -2.142484e+02
-4.821675e+09 -4.621606e+09 -4.781670e+09 1.000962e+04 -7.272690e+02 -6.968836e+02
-3.298479e+09 -3.098577e+09 -3.258535e+09 3.964852e+03 2.869418e+03 -1.323634e+04
-2.635714e+09 -2.435772e+09 -2.595769e+09 1.169581e+04 -6.767265e+03 -1.205629e+04
-2.312609e+09 -2.112675e+09 -2.272662e+09 -3.660100e+03 -2.423152e+03 -8.901766e+03
-3.412936e+09 -3.213023e+09 -3.373006e+09 1.693152e+04 -3.028848e+03 -1.303330e+04
-2.984322e+09 -2.784401e+09 -2.944385e+09 7.603535e+03 -2.381736e+03 1.812154e+03
-2.980284e+09 -2.780356e+09 -2.940344e+09 9.975548e+03 -5.009564e+03 -1.521100e+02
-2.157527e+09 -1.957585e+09 -2.117575e+09 1.077592e+04 3.917495e+01 -8.075614e+03
-3.061075e+09 -2.861155e+09 -3.021123e+09 2.407687e+03 4.885759e+03 1.138465e+03
-3.171488e+09 -2.971558e+09 -3.131542e+09 1.557814e+04 -1.269693e+03 -3.308206e+03
-3.975480e+09 -3.775469e+09 -3.935489e+09 -3.673930e+03 -1.774374e+03 1.629063e+03
-4.466851e+09 -4.266841e+09 -4.426864e+09 -6.552010e+03 -2.113542e+03 1.266862e+03
-4.645876e+09 -4.445863e+09 -4.605889e+09 -8.152536e+03 -2.049184e+03 8.609774e+02
-4.196045e+09 -3.996037e+09 -4.156056e+09 -5.676299e+03 -1.825998e+03 1.463940e+03
-4.497822e+09 -4.297812e+09 -4.457831e+09 -3.019351e+03 -5.737772e+02 8.884894e+02
-4.810181e+09 -4.610170e+09 -4.770191e+09 -4.062038e+03 -1.150865e+03 4.595830e+02
-4.209566e+09 -4.009557e+09 -4.169575e+09 -4.138905e+03 -1.694593e+03 1.374290e+03
-4.476880e+09 -4.276962e+09 -4.436930e+09 3.340315e+04 -5.926467e+03 -8.416818e+03
-4.820069e+09 -4.620130e+09 -4.780124e+09 3.430353e+04 6.418289e+02 2.317669e+03
-4.818909e+09 -4.618980e+09 -4.778934e+09 4.869761e+04 -4.398356e+02 8.040001e+03
-2.708770e+09 -2.508766e+09 -2.668777e+09 -1.027099e+03 -5.314280e+02 1.790233e+03
-2.030489e+09 -1.830484e+09 -1.990493e+09 -4.109303e+02 -1.101618e+03 1.538835e+03
-2.382799e+09 -2.182797e+09 -2.342806e+09 -1.278189e+03 -1.297574e+03 1.814831e+03
-2.054626e+09 -1.854624e+09 -2.014631e+09 -9.488371e+02 -9.151123e+02 1.349876e+03
-2.477878e+09 -2.277876e+09 -2.437885e+09 -1.095704e+03 -1.012964e+03 1.332701e+03
-2.118648e+09 -1.918646e+09 -2.078654e+09 -2.758696e+02 -2.090304e+02 1.108882e+03
-1.774433e+09 -1.574429e+09 -1.734437e+09 -8.752864e+02 -1.289073e+03 1.828181e+03
-1.585626e+09 -1.385624e+09 -1.545631e+09 -3.035133e+02 -5.942284e+02 1.177401e+03
-4.819926e+09 -4.619949e+09 -4.779969e+09 -2.924950e+04 5.899477e+02 -3.172470e+02
-4.302002e+09 -4.102017e+09 -4.262031e+09 -3.930824e+04 7.156469e+03 -8.513813e+03
-4.302324e+09 -4.102331e+09 -4.262354e+09 -3.354655e+04 5.846969e+03 -6.414292e+03
-1.981976e+09 -1.782008e+09 -1.942003e+09 9.631644e+03 -7.995544e+03 -1.803970e+04
-2.644772e+09 -2.444805e+09 -2.604811e+09 2.117656e+04 -3.010253e+03 -5.413361e+03
-3.356656e+09 -3.156706e+09 -3.316713e+09 1.681761e+04 -7.177038e+03 -6.737794e+03
-2.491105e+09 -2.291139e+09 -2.451137e+09 9.938927e+03 -7.139019e+03 -8.268148e+03
-2.767177e+09 -2.567221e+09 -2.727214e+09 2.199121e+04 -7.035907e+03 -1.414906e+03
-2.116784e+09 -1.916805e+09 -2.076809e+09 1.355117e+04 -1.101173e+04 -1.145463e+04
-2.220011e+09 -2.020030e+09 -2.180027e+09 1.806425e+04 -9.457945e+03 -1.774971e+04
-3.162643e+09 -2.962672e+09 -3.122681e+09 2.114283e+04 -1.282306e+04 -1.419022e+04
-2.932959e+09 -2.732991e+09 -2.893002e+09 1.775305e+04 -8.581530e+03 -5.627419e+03
-4.132774e+09 -3.932750e+09 -4.092788e+09 -3.386030e+04 9.770903e+03 -6.109183e+03
-4.135372e+09 -3.935329e+09 -4.095363e+09 -4.360397e+04 1.059584e+04 -4.892347e+03
-4.649263e+09 -4.449230e+09 -4.609232e+09 -4.800485e+04 4.000251e+03 -2.257836e+03
-4.646547e+09 -4.446536e+09 -4.606558e+09 -4.496644e+04 -5.884799e+02 -1.960836e+02
-4.659140e+09 -4.459141e+09 -4.619158e+09 1.253577e+04 5.877840e+02 1.989766e+03
-4.643590e+09 -4.443593e+09 -4.603612e+09 1.740098e+04 1.119483e+03 2.282028e+03
-4.481575e+09 -4.281582e+09 -4.441598e+09 1.437459e+04 1.861471e+03 2.424858e+03
-4.298096e+09 -4.098104e+09 -4.258123e+09 1.645277e+04 1.809101e+03 2.118782e+03
-4.655141e+09 -4.455142e+09 -4.615164e+09 1.547838e+04 1.344038e+03 1.744001e+03
-4.005238e+09 -3.805207e+09 -3.965246e+09 1.442618e+03 -5.544955e+03 -1.270244e+03
-4.303606e+09 -4.103640e+09 -4.263643e+09 -1.202188e+03 -2.177812e+02 4.675896e+03
-4.996246e+09 -4.796217e+09 -4.956255e+09 -1.386500e+03 -9.619725e+02 1.027917e+02
-4.271268e+09 -4.071240e+09 -4.231276e+09 1.960748e+03 -4.126110e+03 -1.005498e+03
-4.275958e+09 -4.075932e+09 -4.235966e+09 2.978784e+03 -3.527047e+03 -1.000536e+03
-4.058204e+09 -3.858176e+09 -4.018212e+09 2.583140e+03 -3.941482e+03 -1.247079e+03
-3.319505e+09 -3.119517e+09 -3.279518e+09 -2.087363e+02 -8.183176e+01 4.164992e+02
-3.416405e+09 -3.216418e+09 -3.376419e+09 -1.265977e+02 -1.405222e+02 6.614267e+02
-3.736624e+09 -3.536636e+09 -3.696637e+09 -1.982211e+02 3.376495e+01 3.826823e+02
-3.657214e+09 -3.457228e+09 -3.617229e+09 6.026240e+01 -9.649887e+01 8.041904e+02
-3.673392e+09 -3.473404e+09 -3.633405e+09 -1.280268e+02 -1.674603e+00 2.032409e+02
-3.289376e+09 -3.089388e+09 -3.249390e+09 -7.777300e+01 -2.672650e+01 7.350386e+02
-4.569389e+09 -4.369403e+09 -4.529406e+09 -2.096513e+02 -3.708250e+01 5.453244e+02
-4.119200e+09 -3.919215e+09 -4.079217e+09 -4.179594e+02 -4.436074e+01 7.137286e+02
-4.226156e+09 -4.026171e+09 -4.186173e+09 -2.099156e+02 -3.912688e+01 6.319906e+02
-4.648577e+09 -4.448732e+09 -4.608653e+09 1.929187e+03 -2.493340e+04 -7.295421e+02
-4.032611e+09 -3.832623e+09 -3.992625e+09 -8.584148e+02 5.928910e+01 4.854598e+02
-3.898523e+09 -3.698527e+09 -3.858531e+09 2.940237e+02 1.115132e+02 6.694311e+00
-2.849852e+09 -2.649857e+09 -2.809860e+09 3.299527e+02 1.972501e+01 1.196078e+02
-3.593612e+09 -3.393616e+09 -3.553620e+09 2.672208e+02 6.610094e+01 5.539497e+01
-2.170677e+09 -1.970675e+09 -2.130682e+09 -3.746292e+02 -1.586747e+02 8.427175e+02
-2.574016e+09 -2.374020e+09 -2.534024e+09 3.200791e+02 1.181847e+02 7.756790e+01
-2.820354e+09 -2.620358e+09 -2.780362e+09 1.536454e+02 4.997713e+01 -1.356554e+01
-2.796458e+09 -2.596462e+09 -2.756466e+09 7.036563e+01 3.038914e+01 3.497663e+01
-3.526058e+09 -3.326061e+09 -3.486065e+09 1.506110e+02 4.662658e+01 -2.260751e+01
-1.867177e+09 -1.667189e+09 -1.827189e+09 9.521980e+01 -1.826022e+01 2.603084e+02
-2.663853e+09 -2.463865e+09 -2.623866e+09 -9.349538e+01 -4.542092e+00 8.378395e+02
-3.006960e+09 -2.806973e+09 -2.966974e+09 5.311702e-01 2.081399e+02 7.689593e+02
-2.430540e+09 -2.230552e+09 -2.390553e+09 -6.235987e+01 4.248649e-01 7.126381e+02
-2.399403e+09 -2.199416e+09 -2.359417e+09 1.389926e-01 -1.038631e+02 1.172122e+03
-1.843076e+09 -1.643088e+09 -1.803089e+09 -8.170793e-01 1.421822e+02 7.916103e+02
-2.882353e+09 -2.682335e+09 -2.842358e+09 9.236217e+01 -3.629798e+03 -6.843802e+02
-1.969832e+09 -1.769818e+09 -1.929833e+09 7.488168e+03 -1.262089e+04 -3.008818e+02
-3.107259e+09 -2.907234e+09 -3.067265e+09 2.179265e+03 -8.610106e+03 -2.794892e+02
-4.132750e+09 -3.932775e+09 -4.092778e+09 -1.640914e+03 -1.221132e+03 3.097782e+03
-2.716800e+09 -2.516779e+09 -2.676805e+09 -1.221712e+03 -8.907503e+03 7.081881e+02
-2.787351e+09 -2.587330e+09 -2.747354e+09 5.803549e+02 -9.643357e+03 -8.172304e+01
-3.259230e+09 -3.059204e+09 -3.219233e+09 -5.749768e+02 -7.478971e+03 -1.051175e+02
-3.026022e+09 -2.826040e+09 -2.986059e+09 1.850777e+04 -9.678835e+03 -9.540180e+03
-1.758382e+09 -1.558388e+09 -1.718393e+09 2.741362e+03 -1.172603e+04 -7.621855e+03
-3.961069e+09 -3.761088e+09 -3.921092e+09 -2.460778e+03 -4.839437e+02 2.500070e+03
-3.404331e+09 -3.204369e+09 -3.364382e+09 2.429855e+04 -1.001872e+04 -1.163902e+04
-3.143975e+09 -2.943998e+09 -3.104011e+09 2.025683e+04 -9.386802e+03 -9.377568e+03
-1.596238e+09 -1.396239e+09 -1.556242e+09 8.939705e+02 -1.292903e+04 -6.090633e+03
-2.469580e+09 -2.269589e+09 -2.429600e+09 -7.140035e+03 1.039604e+04 -3.910698e+03
-4.131841e+09 -3.931865e+09 -4.091869e+09 -3.185773e+03 2.532346e+02 3.350029e+03
-3.400682e+09 -3.200690e+09 -3.360708e+09 -6.885579e+03 1.074038e+04 -4.762880e+03
-2.440421e+09 -2.240428e+09 -2.400441e+09 -5.178371e+03 1.082624e+04 -6.228127e+03
-2.769820e+09 -2.569838e+09 -2.729844e+09 1.778909e+04 -9.483457e+03 -7.361770e+03
-2.215425e+09 -2.015436e+09 -2.175444e+09 5.625349e+03 -1.049376e+04 -3.799153e+03
-3.011508e+09 -2.811535e+09 -2.971544e+09 2.117611e+04 -7.487583e+03 -6.609975e+03
-3.182167e+09 -2.982205e+09 -3.142216e+09 1.001973e+04 -9.569676e+03 -7.189879e+03
-3.181513e+09 -2.981532e+09 -3.141552e+09 1.125905e+04 -1.065268e+04 -7.291669e+03
-4.282459e+09 -4.082457e+09 -4.242485e+09 -1.002901e+04 4.704301e+03 -2.540818e+03
-4.992131e+09 -4.792081e+09 -4.952040e+09 -6.821699e+04 5.870099e+03 -4.364162e+03
-4.293428e+09 -4.093421e+09 -4.253445e+09 -7.811627e+03 3.567946e+03 -1.668796e+03
-3.838047e+09 -3.638059e+09 -3.798060e+09 3.340014e+01 -1.241454e+01 1.476256e+02
-3.859408e+09 -3.659404e+09 -3.819430e+09 -7.036420e+03 4.500971e+03 -2.018589e+03
-4.826989e+09 -4.626986e+09 -4.787015e+09 -1.157654e+04 1.733600e+03 -2.159349e+02
-4.653152e+09 -4.453147e+09 -4.613177e+09 -1.101332e+04 2.695077e+03 -1.247396e+02
-2.795486e+09 -2.595499e+09 -2.755501e+09 -2.276042e+02 -3.585285e+02 1.789713e+03
-4.132896e+09 -3.932910e+09 -4.092831e+09 -7.184990e+04 1.215224e+04 6.163200e+03
-1.758477e+09 -1.558489e+09 -1.718490e+09 -2.534339e+02 -1.623921e+01 1.614398e+03
-1.876924e+09 -1.676937e+09 -1.836938e+09 -1.496851e+02 -4.446238e+01 1.978826e+03
-2.022545e+09 -1.822557e+09 -1.982557e+09 8.822320e+01 1.497580e+02 9.714657e+02
-2.492123e+09 -2.292136e+09 -2.452137e+09 9.065247e+01 1.647734e+01 1.590452e+03
-1.567872e+09 -1.367884e+09 -1.527885e+09 7.938735e+01 5.828817e+01 1.630613e+03
-2.086776e+09 -1.886788e+09 -2.046789e+09 2.222140e+02 -3.583478e+00 1.903369e+03
-2.581558e+09 -2.381572e+09 -2.541572e+09 -3.673568e+01 7.216468e+01 1.633572e+03
-2.166224e+09 -1.966256e+09 -2.126244e+09 -1.667174e+03 7.492494e+02 -1.010785e+04
-3.753367e+09 -3.553464e+09 -3.713427e+09 1.326866e+04 2.450979e+03 -3.948489e+02
-2.416925e+09 -2.216978e+09 -2.376971e+09 9.996332e+02 -1.312190e+03 -1.607028e+04
-2.423528e+09 -2.223581e+09 -2.383579e+09 -1.156346e+02 1.308702e+03 -1.737976e+04
-1.803011e+09 -1.603032e+09 -1.763015e+09 -2.398025e+03 -1.794265e+03 -8.833256e+03
-2.583982e+09 -2.383971e+09 -2.543985e+09 7.666873e+02 -2.184589e+03 -2.514381e+03
-2.816599e+09 -2.616587e+09 -2.776603e+09 9.854104e+02 -8.870594e+02 -2.063399e+03
-2.803506e+09 -2.603493e+09 -2.763511e+09 1.984276e+03 -3.049934e+03 -1.767835e+03
-3.797306e+09 -3.597289e+09 -3.757312e+09 1.720293e+03 -1.155211e+03 -1.324052e+03
-4.109363e+09 -3.909347e+09 -4.069370e+09 1.682069e+03 -1.084715e+03 -1.204351e+03
-3.759329e+09 -3.559312e+09 -3.719336e+09 8.329492e+02 -1.059697e+03 -2.235692e+03
-3.536028e+09 -3.336013e+09 -3.496034e+09 1.241616e+02 -8.226984e+02 -1.699127e+03
-4.819878e+09 -4.619878e+09 -4.779892e+09 -7.223003e+03 -9.430169e+02 -8.159038e+01
-4.820765e+09 -4.620765e+09 -4.780777e+09 -4.584464e+03 -8.318208e+02 -4.292839e+01
-4.646976e+09 -4.446976e+09 -4.606987e+09 -4.612017e+03 -6.891024e+02 5.151943e+02
-4.007974e+09 -3.807974e+09 -3.967983e+09 -2.170991e+03 -3.872556e+02 1.021490e+03
-4.727828e+09 -4.527827e+09 -4.687836e+09 -8.119653e+02 -1.820814e+02 2.677837e+02
-3.827699e+09 -3.627698e+09 -3.787707e+09 -5.493896e+02 -1.297170e+02 6.196287e+02
-4.487119e+09 -4.287119e+09 -4.447127e+09 -4.341149e+02 -6.444912e+01 4.516878e+02
-3.614079e+09 -3.414079e+09 -3.574087e+09 -8.152090e+02 -3.018436e+02 7.520382e+02
-3.695859e+09 -3.495859e+09 -3.655867e+09 -1.326775e+03 -5.106636e+02 7.315196e+02
-4.102586e+09 -3.902587e+09 -4.062594e+09 -8.509106e+02 -1.263299e+02 2.246602e+02
-4.158271e+09 -3.958275e+09 -4.118279e+09 -7.052753e+02 -6.426611e+01 1.021316e+02
-3.920117e+09 -3.720122e+09 -3.880126e+09 -5.041944e+02 -1.189568e+01 5.553052e+01
-4.543143e+09 -4.343148e+09 -4.503152e+09 -7.359789e+02 -2.528137e+01 -4.557871e+01
-3.287039e+09 -3.087043e+09 -3.247047e+09 -2.337702e+02 -6.016485e+01 5.636327e+00
-3.473950e+09 -3.273954e+09 -3.433958e+09 -4.692044e+02 -7.948487e+01 1.634156e+02
-3.200568e+09 -3.000573e+09 -3.160576e+09 -2.023890e+02 -6.075296e+01 5.603078e+01
-3.308617e+09 -3.108622e+09 -3.268626e+09 -2.219095e+02 -9.261038e+00 5.592988e+01
-3.462119e+09 -3.262124e+09 -3.422127e+09 -5.133981e+02 -1.327905e+02 9.509528e+01
-3.742838e+09 -3.542841e+09 -3.702845e+09 -3.917547e+02 -3.939907e+01 1.903350e+02
-4.819204e+09 -4.619252e+09 -4.779110e+09 -7.667855e+04 2.062329e+04 -2.774982e+03
-2.538157e+09 -2.338160e+09 -2.498165e+09 -5.117495e+02 -1.401074e+02 2.855212e+02
-2.581175e+09 -2.381178e+09 -2.541183e+09 -1.388223e+02 -6.200505e+01 2.741453e+02
-3.776459e+09 -3.576462e+09 -3.736467e+09 -3.744749e+02 3.099307e+01 3.762557e+02
-2.770363e+09 -2.570367e+09 -2.730371e+09 -1.236199e+02 -5.688462e+01 1.525582e+02
-3.460770e+09 -3.260773e+09 -3.420778e+09 -2.435096e+02 3.971963e-01 2.254608e+02
-1.889120e+09 -1.689164e+09 -1.849162e+09 -9.966270e+02 -2.406707e+03 -8.181367e+03
-1.579739e+09 -1.379751e+09 -1.539753e+09 -3.397419e+02 -7.370874e+03 -1.418580e+04
-4.644755e+09 -4.444831e+09 -4.604729e+09 6.414252e+04 7.248423e+03 7.401265e+03
-4.644634e+09 -4.444682e+09 -4.604654e+09 5.986265e+04 -2.209001e+03 7.455569e+03
-4.817215e+09 -4.617250e+09 -4.777218e+09 6.153845e+04 1.080604e+04 6.053964e+03
-4.654646e+09 -4.454518e+09 -4.614502e+09 -4.738075e+04 2.878136e+04 2.227855e+03
-4.671280e+09 -4.471133e+09 -4.630955e+09 -3.150274e+04 4.627868e+04 -3.732884e+03
-4.327582e+09 -4.127403e+09 -4.287180e+09 -2.965597e+04 2.757153e+04 -1.464202e+04
-4.826325e+09 -4.626171e+09 -4.786089e+09 -3.958808e+04 9.080472e+03 2.455411e+04
-4.304094e+09 -4.104043e+09 -4.264099e+09 6.896766e+03 -5.411965e+03 -6.636895e+02
-4.650563e+09 -4.450526e+09 -4.610570e+09 7.315533e+03 -2.502810e+03 4.205543e+02
-4.304783e+09 -4.104738e+09 -4.264791e+09 1.104665e+04 -8.909532e+03 -4.113394e+03
-4.821441e+09 -4.621403e+09 -4.781449e+09 5.969814e+03 -1.323483e+03 -1.620379e+02
-4.650098e+09 -4.450060e+09 -4.610107e+09 4.886294e+03 -1.970942e+03 -3.497333e+02
-4.649207e+09 -4.449164e+09 -4.609212e+09 4.379409e+03 -2.251418e+03 7.017671e+02
-4.826311e+09 -4.626356e+09 -4.786361e+09 -2.121474e+04 -1.315257e+03 3.286656e+02
-4.325674e+09 -4.125741e+09 -4.285728e+09 -2.426099e+04 -3.779450e+03 8.081104e+03
-4.318436e+09 -4.118493e+09 -4.278489e+09 -2.999203e+04 -5.159253e+03 1.243810e+04
-4.822274e+09 -4.622323e+09 -4.782324e+09 -2.893137e+04 -2.118773e+03 5.434269e+03
-4.143052e+09 -3.943107e+09 -4.103097e+09 -2.050883e+04 -1.279861e+03 4.021449e+03
-4.303751e+09 -4.103750e+09 -4.263776e+09 -1.982960e+04 -6.029257e+03 4.524670e+03
-4.312153e+09 -4.112163e+09 -4.272185e+09 -2.139111e+04 -5.685213e+03 5.973837e+03
-4.649026e+09 -4.449029e+09 -4.609052e+09 -2.263583e+04 -5.533061e+02 2.465685e+03
-4.134425e+09 -3.934433e+09 -4.094455e+09 -2.199172e+04 -5.456956e+03 7.216884e+03
-3.152081e+09 -2.952092e+09 -3.112094e+09 -1.059674e+03 -1.711891e+02 1.136450e+03
-1.637654e+09 -1.437653e+09 -1.597659e+09 -2.742192e+02 -2.361479e+02 9.361431e+02
-2.722511e+09 -2.522521e+09 -2.682524e+09 -1.271391e+03 -1.680798e+02 1.172684e+03
-2.454128e+09 -2.254138e+09 -2.414140e+09 -7.236164e+02 -2.639764e+02 5.778702e+02
-2.819474e+09 -2.619484e+09 -2.779486e+09 -6.200088e+02 -1.406398e+02 4.405848e+02
-2.570148e+09 -2.370158e+09 -2.530161e+09 -1.549205e+03 -3.104416e+02 7.440098e+02
-2.654016e+09 -2.454027e+09 -2.614029e+09 -1.240376e+03 -4.350525e+02 1.194295e+03
-2.466924e+09 -2.266934e+09 -2.426937e+09 -1.053690e+03 -2.988760e+02 9.232491e+02
-2.088201e+09 -1.888211e+09 -2.048213e+09 -1.031394e+03 -3.256588e+02 9.149738e+02
-4.050702e+09 -3.850695e+09 -4.010708e+09 1.294893e+03 6.977282e+02 4.794810e+02
-4.643394e+09 -4.443397e+09 -4.603405e+09 -3.865788e+03 -6.193599e+02 6.296600e+02
-4.818080e+09 -4.618082e+09 -4.778091e+09 -3.788633e+03 -5.464489e+02 -1.184714e+02
-4.818517e+09 -4.618518e+09 -4.778530e+09 -5.320479e+03 -4.086661e+02 9.287926e+02
-4.303306e+09 -4.103307e+09 -4.263318e+09 -3.613484e+03 -4.806154e+02 9.316341e+02
-4.641360e+09 -4.441364e+09 -4.601373e+09 -4.504889e+03 -4.754620e+02 5.477526e+02
-4.645302e+09 -4.445321e+09 -4.605324e+09 -2.197785e+03 -9.077625e+01 1.310295e+03
-4.301923e+09 -4.101945e+09 -4.261950e+09 -4.128873e+03 -5.561015e+02 2.233086e+03
-4.818236e+09 -4.618254e+09 -4.778259e+09 -2.700607e+03 -6.543153e+02 5.127363e+02
-4.302395e+09 -4.102413e+09 -4.262418e+09 -3.068045e+03 -3.893179e+02 1.728865e+03
-4.505142e+09 -4.305147e+09 -4.465151e+09 1.548061e+02 8.062782e+01 3.047198e+01
-4.637865e+09 -4.437870e+09 -4.597874e+09 1.040755e+03 2.387700e+02 -2.631345e+00
-4.148935e+09 -3.948940e+09 -4.108943e+09 3.752819e+02 1.265581e+00 2.120668e+01
-3.808413e+09 -3.608417e+09 -3.768421e+09 5.558073e+02 4.529887e+01 1.635645e+02
-4.263910e+09 -4.063916e+09 -4.223920e+09 9.131102e+02 1.219433e+02 2.577208e+02
-4.037302e+09 -3.837308e+09 -3.997311e+09 3.360140e+02 6.601472e+01 -5.376007e+01
-4.992654e+09 -4.792659e+09 -4.952663e+09 3.653796e+02 -9.768124e+01 4.095984e+01
-4.992089e+09 -4.792099e+09 -4.952053e+09 -6.906171e+04 4.042297e+03 -6.198448e+03
-4.664235e+09 -4.464248e+09 -4.624250e+09 -7.109354e+02 -4.647740e+01 -7.604993e+00
-4.049989e+09 -3.849999e+09 -4.010001e+09 -6.623713e+02 4.559060e+01 3.374210e+02
-4.649895e+09 -4.449906e+09 -4.609909e+09 -7.601643e+02 -3.169666e+01 -1.471693e+02
-4.198277e+09 -3.998288e+09 -4.158290e+09 -4.606563e+02 -6.678730e+01 1.079400e+02
-4.048130e+09 -3.848142e+09 -4.008143e+09 -2.793980e+02 -4.258475e+01 1.214277e+02
-4.989797e+09 -4.789808e+09 -4.949810e+09 -3.541765e+02 8.557531e+01 3.503594e+00
-4.127056e+09 -3.927068e+09 -4.087070e+09 -4.127371e+02 -4.203133e+01 1.292782e+02
-4.821218e+09 -4.621229e+09 -4.781231e+09 -6.823602e+02 -1.869843e+02 4.965515e+01
-3.035610e+09 -2.835621e+09 -2.995623e+09 -5.860538e+01 -5.786950e+01 1.276475e+02
-2.917157e+09 -2.717170e+09 -2.877171e+09 -3.115546e+02 -2.389149e+02 7.744647e+02
-4.043431e+09 -3.843445e+09 -4.003446e+09 -4.643656e+02 -2.134714e+02 4.641928e+02
-3.680361e+09 -3.480373e+09 -3.640375e+09 -7.782803e+02 -7.136597e+01 8.474625e+02
-3.091365e+09 -2.891369e+09 -3.051373e+09 3.283972e+02 -3.605926e+01 5.320856e+01
-2.118955e+09 -1.918959e+09 -2.078963e+09 3.029903e+02 4.479637e+01 7.897511e+01
-1.904798e+09 -1.704802e+09 -1.864806e+09 9.743419e+01 2.131143e+01 7.053425e+01
-4.303552e+09 -4.103467e+09 -4.263540e+09 -7.366513e+03 -1.165106e+04 8.199019e+02
-4.303901e+09 -4.103839e+09 -4.263892e+09 -1.381096e+04 -1.210907e+04 2.088178e+03
-4.132430e+09 -3.932351e+09 -4.092409e+09 -1.590282e+04 -8.109725e+03 -1.319313e+03
-4.646959e+09 -4.446885e+09 -4.606957e+09 -1.852574e+04 -2.046308e+03 1.208003e+03
-4.313840e+09 -4.113964e+09 -4.273148e+09 -2.428190e+04 3.612290e+04 -9.386406e+04
-4.819069e+09 -4.619132e+09 -4.778082e+09 -2.755086e+03 -5.205618e+04 -4.183531e+04
-4.302630e+09 -4.102663e+09 -4.261827e+09 4.577392e+04 -4.526501e+04 -8.098117e+04
-4.646946e+09 -4.446973e+09 -4.606095e+09 -3.405518e+04 1.407060e+04 -7.161985e+04
-4.634596e+09 -4.434601e+09 -4.594609e+09 -4.204761e+03 -6.517803e+02 7.106125e+02
-4.300161e+09 -4.100164e+09 -4.260173e+09 -3.867282e+03 -6.798971e+02 8.526677e+02
-4.298127e+09 -4.098131e+09 -4.258140e+09 -4.503881e+03 -7.727713e+02 1.113788e+03
-4.128682e+09 -3.928686e+09 -4.088695e+09 -4.408201e+03 -5.543937e+02 1.694734e+03
-4.151055e+09 -3.951049e+09 -4.111070e+09 -2.746075e+03 2.969585e+03 -6.116249e+02
-3.789320e+09 -3.589312e+09 -3.749335e+09 -4.565499e+03 3.792933e+03 -1.353611e+03
-4.646775e+09 -4.446765e+09 -4.606788e+09 -4.772038e+03 1.642237e+03 -5.876921e+02
-4.524417e+09 -4.324415e+09 -4.484438e+09 -1.270453e+03 2.349496e+03 -1.191609e+02
-4.643944e+09 -4.443935e+09 -4.603963e+09 -7.269253e+03 1.865620e+03 -1.864555e+02
-4.822448e+09 -4.622440e+09 -4.782463e+09 -3.779062e+03 1.260205e+03 -1.258970e+02
-4.189936e+09 -3.989935e+09 -4.149959e+09 -3.910884e+03 4.103593e+03 -1.325303e+03
-4.997173e+09 -4.797170e+09 -4.957195e+09 -3.204570e+03 7.484818e+02 -4.225780e+02
-3.003949e+09 -2.803984e+09 -2.963996e+09 -4.335125e+03 1.048582e+04 -3.432805e+03
-2.723579e+09 -2.523600e+09 -2.683609e+09 -5.108071e+03 9.367818e+03 -4.359074e+03
-2.213354e+09 -2.013376e+09 -2.173382e+09 -5.167733e+03 9.816909e+03 -5.860916e+03
-2.210389e+09 -2.010420e+09 -2.170422e+09 -1.393421e+03 8.137625e+03 1.595300e+03
-3.221726e+09 -3.021771e+09 -3.181779e+09 -1.998737e+03 8.801770e+03 -5.496430e+03
-4.817423e+09 -4.617322e+09 -4.776967e+09 6.556881e+04 -2.476657e+04 2.530357e+03
-4.636021e+09 -4.435961e+09 -4.595690e+09 8.380197e+04 -5.849365e+04 -1.852597e+04
-4.123702e+09 -3.923544e+09 -4.083165e+09 2.058724e+04 -9.741356e+04 -5.242039e+03
-4.660838e+09 -4.460814e+09 -4.620854e+09 1.185680e+04 -2.902360e+03 -1.465423e+03
-4.657830e+09 -4.457651e+09 -4.617586e+09 1.025043e+04 -4.619389e+04 -1.691029e+04
-4.485159e+09 -4.284993e+09 -4.444927e+09 2.335185e+03 -2.867971e+04 6.011855e+03
-4.475077e+09 -4.274901e+09 -4.434819e+09 1.614998e+04 -4.370899e+04 -4.280095e+03
-4.305195e+09 -4.105255e+09 -4.265162e+09 -5.952314e+04 -1.314989e+03 -4.147275e+03
-3.787901e+09 -3.587903e+09 -3.747908e+09 1.120814e+02 4.179931e+01 -1.061747e+01
-4.482323e+09 -4.282166e+09 -4.441853e+09 -3.540704e+03 -6.583413e+04 6.472337e+03
-4.485168e+09 -4.285000e+09 -4.444790e+09 -3.625496e+04 -8.727069e+03 1.994316e+04
-3.971342e+09 -3.771163e+09 -3.930924e+09 -7.494800e+03 -8.844587e+04 2.697773e+04
-4.316570e+09 -4.116421e+09 -4.275580e+09 -3.235088e+04 1.154982e+05 -8.147445e+03
-4.647490e+09 -4.447422e+09 -4.606588e+09 7.726838e+03 7.212532e+04 3.949905e+04
-4.642431e+09 -4.442305e+09 -4.601787e+09 6.210144e+04 5.342079e+04 3.784981e+04
-4.821498e+09 -4.621323e+09 -4.780804e+09 -3.812079e+03 5.356773e+04 -3.558131e+04
-4.814363e+09 -4.614223e+09 -4.773753e+09 3.709714e+04 6.948136e+04 2.996763e+04
-4.647970e+09 -4.447967e+09 -4.607990e+09 -4.250832e+04 1.198058e+03 3.183253e+03
-4.303899e+09 -4.103864e+09 -4.263895e+09 -4.106757e+04 -1.086292e+04 4.242407e+03
-4.647340e+09 -4.447312e+09 -4.607341e+09 -5.065012e+04 3.944844e+03 3.112010e+03
-4.133207e+09 -3.933193e+09 -4.093212e+09 -5.136333e+04 -7.816624e+03 1.182299e+04
-4.131247e+09 -3.931266e+09 -4.091277e+09 1.183449e+04 1.480630e+03 5.213924e+03
-4.644316e+09 -4.444336e+09 -4.604344e+09 8.224746e+03 5.364460e+02 1.417711e+03
-4.295273e+09 -4.095291e+09 -4.255298e+09 7.703479e+03 9.343996e+02 2.552117e+03
-4.125963e+09 -3.925979e+09 -4.085988e+09 8.772023e+03 8.340075e+02 3.747692e+03
-4.638507e+09 -4.438524e+09 -4.598534e+09 7.733334e+03 2.126755e+02 1.847012e+03
-4.309897e+09 -4.109913e+09 -4.269925e+09 1.146309e+04 1.181292e+03 2.893612e+03
-3.955431e+09 -3.755445e+09 -3.915452e+09 7.205370e+03 1.563259e+03 3.055190e+03
-4.816741e+09 -4.616700e+09 -4.776746e+09 -3.325490e+03 3.268649e+03 1.589294e+02
-4.813065e+09 -4.613010e+09 -4.773066e+09 -9.000509e+03 5.944359e+03 2.988287e+02
-4.469834e+09 -4.269779e+09 -4.429830e+09 -7.175333e+03 5.008376e+03 3.862332e+02
-4.645090e+09 -4.445045e+09 -4.605091e+09 -1.371575e+03 3.004646e+03 1.196419e+02
-4.135527e+09 -3.935468e+09 -4.095522e+09 -3.971000e+03 7.558145e+03 -5.985661e+02
-1.588350e+09 -1.388351e+09 -1.548357e+09 -8.573750e+02 -6.763675e+02 8.827387e+02
-4.648845e+09 -4.448789e+09 -4.608848e+09 -2.364604e+03 3.312486e+03 1.638806e+02
-4.646486e+09 -4.446629e+09 -4.606278e+09 -5.426573e+04 -1.546885e+04 3.163591e+04
-4.304499e+09 -4.104650e+09 -4.263879e+09 -3.994309e+04 -3.807740e+04 7.368098e+04
-4.304571e+09 -4.104657e+09 -4.264259e+09 -6.761166e+04 -2.279773e+04 6.062169e+04
-4.133330e+09 -3.933448e+09 -4.092892e+09 -6.109364e+04 -1.050108e+05 1.139576e+05
-3.379244e+09 -3.179224e+09 -3.339251e+09 2.887926e+03 -6.555149e+03 -2.846379e+03
-2.827050e+09 -2.627033e+09 -2.787053e+09 2.220559e+03 -5.588484e+03 -2.698511e+03
-4.995701e+09 -4.795679e+09 -4.955712e+09 6.490177e+03 -1.485776e+03 -8.237343e+02
-3.782013e+09 -3.581991e+09 -3.742020e+09 3.221120e+03 -2.868600e+03 -1.358885e+03
-2.559549e+09 -2.359536e+09 -2.519555e+09 2.969620e+03 -5.155115e+03 -2.616269e+03
-4.309107e+09 -4.109002e+09 -4.268894e+09 6.176101e+04 3.408271e+04 1.500813e+04
-4.827678e+09 -4.627580e+09 -4.787434e+09 6.605109e+04 -8.377073e+03 -5.055944e+02
-4.303551e+09 -4.103488e+09 -4.263221e+09 9.515864e+04 3.590454e+04 2.992378e+04
-4.305882e+09 -4.105872e+09 -4.265608e+09 8.664680e+04 3.841168e+04 2.279568e+04
-4.134159e+09 -3.934077e+09 -4.094033e+09 6.470339e+04 2.646215e+04 1.158166e+04
-4.691377e+09 -4.491371e+09 -4.651384e+09 1.343093e+03 2.614167e+02 3.527302e+02
-4.445009e+09 -4.245005e+09 -4.405018e+09 -1.167781e+03 -3.518204e+02 6.249951e+02
-4.691379e+09 -4.491372e+09 -4.651384e+09 1.090653e+03 2.615767e+02 7.029208e+01
-3.895570e+09 -3.695562e+09 -3.855576e+09 9.966757e+02 3.587187e+02 9.734748e+02
-3.558040e+09 -3.358035e+09 -3.518046e+09 5.767762e+02 3.223892e+02 5.475965e+02
-1.764480e+09 -1.564476e+09 -1.724483e+09 1.190124e+03 1.534690e+03 9.789210e+02
-3.600882e+09 -3.400874e+09 -3.560887e+09 9.899890e+02 6.363478e+02 7.822068e+02
-3.069752e+09 -2.869755e+09 -3.029760e+09 -2.880803e+02 -6.488761e+01 2.513406e+02
-2.909112e+09 -2.709104e+09 -2.869117e+09 -2.551773e+01 2.842336e+03 -4.774235e+02
-4.062256e+09 -3.862247e+09 -4.022262e+09 -1.873764e+02 1.415781e+03 -6.992758e+01
-3.583136e+09 -3.383127e+09 -3.543142e+09 -8.232480e+02 2.395023e+03 -4.470800e+02
-3.145187e+09 -2.945178e+09 -3.105193e+09 -1.451059e+03 3.318474e+03 -8.732766e+02
-3.741045e+09 -3.541036e+09 -3.701053e+09 -1.127175e+03 2.509571e+03 -9.765545e+02
-4.302731e+09 -4.102735e+09 -4.262741e+09 2.229748e+03 2.689473e+02 3.941829e+02
-4.480996e+09 -4.281000e+09 -4.441004e+09 1.345192e+03 7.481422e+01 1.853577e+02
-4.824229e+09 -4.624233e+09 -4.784237e+09 1.312518e+03 -8.487787e+01 1.051669e+02
-4.304173e+09 -4.104177e+09 -4.264182e+09 1.788455e+03 1.988386e+02 2.239207e+02
-4.651759e+09 -4.451763e+09 -4.611767e+09 1.365761e+03 6.463586e+01 8.348158e+01
-4.647516e+09 -4.447493e+09 -4.607528e+09 3.359248e+04 1.378219e+03 1.270360e+03
-4.647399e+09 -4.447353e+09 -4.607392e+09 4.428115e+04 -2.634963e+03 2.956484e+03
-4.133049e+09 -3.933026e+09 -4.093045e+09 4.180415e+04 2.125945e+03 -1.164181e+03
-4.647164e+09 -4.447145e+09 -4.607176e+09 4.075607e+04 -9.279405e+02 3.198786e+03
-4.303805e+09 -4.103806e+09 -4.263817e+09 5.845434e+03 1.105135e+03 1.134475e+03
-4.818604e+09 -4.618602e+09 -4.778618e+09 8.613915e+03 3.649583e+02 1.230070e+03
-4.987143e+09 -4.787113e+09 -4.947151e+09 -2.491379e+03 -1.491959e+03 2.042483e+02
-4.132351e+09 -3.932351e+09 -4.092363e+09 5.747871e+03 1.388057e+03 1.156658e+03
-4.818374e+09 -4.618373e+09 -4.778386e+09 5.815401e+03 4.336007e+02 7.991262e+02
-4.645881e+09 -4.445881e+09 -4.605894e+09 5.883820e+03 1.285151e+03 8.342638e+02
-4.818273e+09 -4.618388e+09 -4.778287e+09 -3.755794e+04 9.055793e+03 -1.397715e+04
-4.651240e+09 -4.451332e+09 -4.611218e+09 -6.117619e+04 9.228035e+03 -1.211394e+04
-4.822876e+09 -4.622975e+09 -4.782877e+09 -5.087763e+04 4.889088e+03 -1.516559e+04
-1.580301e+09 -1.380295e+09 -1.540304e+09 5.732913e+02 2.760452e+03 1.529839e+03
-4.308570e+09 -4.108703e+09 -4.268525e+09 -2.560435e+04 2.939311e+03 -3.107712e+04
-4.646086e+09 -4.446192e+09 -4.606100e+09 -4.352533e+04 6.918946e+03 -1.277185e+04
-4.133774e+09 -3.933772e+09 -4.093782e+09 3.466007e+03 7.015911e+02 1.231461e+03
-4.646919e+09 -4.446916e+09 -4.606930e+09 5.081853e+03 8.395431e+02 4.879937e+02
-4.818512e+09 -4.618507e+09 -4.778523e+09 6.183332e+03 1.170050e+03 -7.706475e+01
-4.819856e+09 -4.619852e+09 -4.779865e+09 4.661279e+03 1.745890e+02 7.151082e+02
-4.647680e+09 -4.447681e+09 -4.607690e+09 4.314046e+03 7.191468e+02 6.118884e+02
-4.991310e+09 -4.791310e+09 -4.951322e+09 5.739533e+03 3.786041e+02 2.786677e+02
-4.645668e+09 -4.445667e+09 -4.605681e+09 7.086393e+03 9.405948e+02 7.917424e+02
-4.302341e+09 -4.102336e+09 -4.262352e+09 6.102359e+03 1.954716e+03 1.272985e+03
-4.301020e+09 -4.101017e+09 -4.261031e+09 7.135350e+03 1.850146e+03 1.369182e+03
-4.131697e+09 -3.931695e+09 -4.091709e+09 7.212371e+03 2.445854e+03 1.589744e+03
-4.637267e+09 -4.437278e+09 -4.597283e+09 -3.162709e+03 -2.299100e+02 8.085683e+02
-4.811256e+09 -4.611266e+09 -4.771270e+09 -2.786129e+03 7.887177e+01 5.437398e+02
-4.639971e+09 -4.439980e+09 -4.599985e+09 -2.701412e+03 -2.228624e+02 6.015750e+02
-4.117786e+09 -3.917795e+09 -4.077801e+09 -3.686444e+03 -6.491075e+02 8.527596e+02
-4.317776e+09 -4.117802e+09 -4.277816e+09 3.203301e+04 5.207139e+03 8.135386e+03
-4.476299e+09 -4.276310e+09 -4.436331e+09 3.177810e+04 5.459774e+02 2.331472e+03
-4.462640e+09 -4.262649e+09 -4.422667e+09 2.545866e+04 3.835556e+03 5.150949e+03
-4.822146e+09 -4.622170e+09 -4.782183e+09 2.921239e+04 3.592169e+03 5.015210e+03
-4.805866e+09 -4.605883e+09 -4.765899e+09 2.537226e+04 1.838656e+03 2.310386e+03
-3.130851e+09 -2.930860e+09 -3.090863e+09 6.289926e+02 4.209913e+01 4.706644e+02
-3.360795e+09 -3.160803e+09 -3.320806e+09 7.187131e+02 1.953982e+02 1.957647e+02
-2.838848e+09 -2.638856e+09 -2.798858e+09 1.171582e+03 2.749361e+02 8.741298e+02
-2.579262e+09 -2.379271e+09 -2.539274e+09 1.588594e+03 3.352532e+02 5.647161e+02
-3.480703e+09 -3.280712e+09 -3.440715e+09 1.521898e+03 1.747204e+02 7.720111e+02
-3.221119e+09 -3.021128e+09 -3.181131e+09 1.308833e+03 5.596210e+02 1.069626e+03
-2.173463e+09 -1.973473e+09 -2.133475e+09 1.079481e+03 2.219816e+02 6.584297e+02
-2.283766e+09 -2.083775e+09 -2.243777e+09 1.094599e+03 2.674679e+01 1.008405e+03
-2.692680e+09 -2.492689e+09 -2.652691e+09 1.158757e+03 1.126139e+02 9.834960e+02
-3.444216e+09 -3.244195e+09 -3.404224e+09 6.186638e+03 -8.253164e+03 -3.530722e+03
-4.267837e+09 -4.067840e+09 -4.227844e+09 7.545341e+02 5.261021e+01 7.342966e+01
-4.637499e+09 -4.437503e+09 -4.597507e+09 5.844494e+02 1.613433e+01 7.150366e+01
-4.742346e+09 -4.542350e+09 -4.702354e+09 2.302737e+02 -1.653567e+01 9.067264e+01
-4.137845e+09 -3.937849e+09 -4.097853e+09 3.362227e+02 2.683118e+01 -2.389054e+01
-4.806373e+09 -4.606377e+09 -4.766381e+09 4.979455e+02 1.075110e+02 1.479628e+01
-4.702812e+09 -4.502820e+09 -4.662822e+09 4.855158e+02 -6.108402e+01 8.997717e+01
-4.702811e+09 -4.502819e+09 -4.662822e+09 5.184538e+02 6.744305e+01 8.998633e+01
-3.539177e+09 -3.339185e+09 -3.499188e+09 2.359487e+02 6.871419e+01 9.695551e+01
-3.823318e+09 -3.623326e+09 -3.783329e+09 1.029100e+03 2.134341e+02 4.148262e+02
-2.712943e+09 -2.512952e+09 -2.672954e+09 2.451071e+02 2.755972e+02 2.143755e+02
-3.601706e+09 -3.401715e+09 -3.561718e+09 4.212598e+02 1.235049e+02 2.964930e+02
-3.954244e+09 -3.754256e+09 -3.914257e+09 -1.059642e+02 -2.154234e+01 1.168075e+02
-4.991854e+09 -4.791898e+09 -4.951192e+09 -4.775764e+04 1.421590e+04 -1.919604e+04
-3.818587e+09 -3.618600e+09 -3.778601e+09 -4.287535e-01 7.660901e+01 2.545193e+02
-3.737838e+09 -3.537850e+09 -3.697852e+09 6.456130e+01 4.942431e+01 6.941666e+02
-2.625059e+09 -2.425071e+09 -2.585072e+09 -1.694774e+02 -5.268944e+00 6.131176e+02
-2.068749e+09 -1.868760e+09 -2.028761e+09 -3.948102e+02 -1.383930e+02 5.499540e+02
-3.095878e+09 -2.895890e+09 -3.055891e+09 6.824403e+01 8.236325e+00 3.060026e+02
-3.157024e+09 -2.957037e+09 -3.117038e+09 1.739966e+02 3.625980e+01 6.552251e+02
-3.402505e+09 -3.202517e+09 -3.362518e+09 -1.129368e+01 1.545306e+01 2.308146e+02
-2.932723e+09 -2.732736e+09 -2.892737e+09 3.428727e+02 -3.147016e+01 8.316584e+02
-4.303860e+09 -4.103863e+09 -4.263879e+09 -1.031440e+04 -2.711676e+03 2.492992e+03
-4.645379e+09 -4.445378e+09 -4.605395e+09 -1.031992e+04 -6.437203e+02 1.626767e+03
-4.646456e+09 -4.446452e+09 -4.606471e+09 -9.176698e+03 -1.163114e+03 1.053116e+03
-4.132526e+09 -3.932526e+09 -4.092543e+09 -1.016725e+04 -3.221579e+03 3.063439e+03
-4.818811e+09 -4.618813e+09 -4.778827e+09 -8.365426e+03 -5.243795e+02 1.267559e+03
-4.331521e+09 -4.131441e+09 -4.291486e+09 -4.914046e+03 6.995398e+03 -6.458155e+02
-4.649497e+09 -4.449436e+09 -4.609489e+09 1.327029e+03 2.624408e+03 2.094830e+02
-4.501661e+09 -4.301588e+09 -4.461654e+09 -1.067768e+04 6.846317e+03 -2.358995e+03
-4.137479e+09 -3.937401e+09 -4.097458e+09 -1.313179e+03 6.519014e+03 -1.606411e+03
-4.309253e+09 -4.109178e+09 -4.269242e+09 1.077281e+03 8.328802e+03 -1.564730e+02
-4.133359e+09 -3.933338e+09 -4.093370e+09 1.515603e+04 4.747067e+03 3.240958e+03
-4.133075e+09 -3.933049e+09 -4.093087e+09 1.690391e+04 7.847804e+03 3.386199e+03
-4.647109e+09 -4.447085e+09 -4.607119e+09 1.192380e+04 2.164474e+03 9.656477e+02
-4.819540e+09 -4.619514e+09 -4.779552e+09 1.625889e+04 1.034665e+03 1.068334e+03
-3.419004e+09 -3.219003e+09 -3.379010e+09 1.524085e+03 7.088574e+02 5.297581e+02
-2.661247e+09 -2.461245e+09 -2.621252e+09 8.286999e+02 3.994329e+02 5.436416e+02
-2.828173e+09 -2.628172e+09 -2.788179e+09 1.333872e+03 6.526877e+02 6.890146e+02
-3.787984e+09 -3.587984e+09 -3.747991e+09 1.036749e+03 3.874207e+02 3.185923e+02
-4.152792e+09 -3.952791e+09 -4.112799e+09 7.772596e+02 1.417120e+02 1.665520e+02
-3.176213e+09 -2.976212e+09 -3.136220e+09 1.464818e+03 7.629441e+02 9.187570e+02
-3.985351e+09 -3.785350e+09 -3.945358e+09 1.298664e+03 4.318909e+02 9.549758e+01
-3.918111e+09 -3.718113e+09 -3.878118e+09 2.257093e+02 -6.519681e+00 1.091141e+02
-4.198006e+09 -3.998007e+09 -4.158013e+09 5.388516e+02 3.177521e+01 3.299792e+01
-2.782627e+09 -2.582629e+09 -2.742634e+09 4.927588e+02 8.112060e+01 7.489035e+01
-3.389523e+09 -3.189525e+09 -3.349530e+09 5.659244e+02 1.007857e+02 8.845468e+01
-3.799030e+09 -3.599033e+09 -3.759037e+09 5.652003e+02 1.114019e+02 1.008592e+02
-4.806335e+09 -4.606344e+09 -4.766347e+09 1.665572e+03 2.206380e+02 5.233980e+01
-4.817515e+09 -4.617525e+09 -4.777531e+09 3.677121e+03 2.701893e+02 7.486880e+02
-4.474595e+09 -4.274605e+09 -4.434612e+09 4.820614e+03 2.704458e+02 1.245904e+03
-4.644716e+09 -4.444728e+09 -4.604732e+09 3.014233e+03 1.788433e+02 5.991927e+02
-4.301425e+09 -4.101437e+09 -4.261442e+09 3.757873e+03 3.883359e+02 1.180695e+03
-4.131361e+09 -3.931373e+09 -4.091378e+09 4.171953e+03 2.330552e+02 1.847417e+03
-4.639827e+09 -4.439831e+09 -4.599836e+09 -9.026905e+02 -6.872825e+01 6.714671e+01
-4.266579e+09 -4.066584e+09 -4.226588e+09 -7.880518e+02 -1.681658e+02 -4.940473e+00
-3.498584e+09 -3.298588e+09 -3.458592e+09 -6.066881e+02 -1.344680e+02 1.649158e+02
-4.163846e+09 -3.963851e+09 -4.123855e+09 -6.506650e+02 -8.452230e+01 7.094777e+01
-1.875633e+09 -1.675632e+09 -1.835639e+09 -1.919897e+03 -2.517717e+03 2.846891e+03
-3.879379e+09 -3.679384e+09 -3.839388e+09 -9.054925e+02 -1.031870e+02 1.681946e+02
-3.439214e+09 -3.239219e+09 -3.399223e+09 -8.854547e+02 -2.181222e+02 2.580268e+02
-3.161249e+09 -2.961253e+09 -3.121257e+09 -5.370460e+02 -2.644277e+02 2.922744e+02
-4.817991e+09 -4.618021e+09 -4.778014e+09 4.734335e+04 -1.799676e+03 3.312572e+03
-4.820092e+09 -4.620123e+09 -4.780138e+09 3.239984e+04 -1.398520e+02 9.293144e+02
-4.648131e+09 -4.448155e+09 -4.608180e+09 3.371363e+04 7.787338e+02 -2.855419e+03
-4.644886e+09 -4.444915e+09 -4.604920e+09 4.840727e+04 4.420821e+03 -2.080267e+03
-4.304382e+09 -4.104434e+09 -4.264436e+09 3.867371e+04 -5.823148e+03 -6.513695e+03
-4.305458e+09 -4.105525e+09 -4.265500e+09 3.065539e+04 -6.953138e+03 -3.923560e+03
-4.817338e+09 -4.617354e+09 -4.777357e+09 5.482408e+04 -6.026601e+03 -6.790383e+03
-4.131563e+09 -3.931608e+09 -4.091590e+09 4.198981e+04 3.230774e+03 2.589364e+03
-4.134298e+09 -3.934270e+09 -4.094303e+09 -1.360390e+03 4.612334e+03 -4.899775e+02
-4.132068e+09 -3.932036e+09 -4.092072e+09 -2.564319e+03 5.428380e+03 2.127888e+02
-4.645413e+09 -4.445379e+09 -4.605419e+09 -3.512958e+03 2.254011e+03 -5.172836e+01
-4.301408e+09 -4.101366e+09 -4.261412e+09 -4.459898e+03 5.975657e+03 -7.427328e+02
-4.302179e+09 -4.102146e+09 -4.262184e+09 -3.510310e+03 3.301252e+03 -4.867617e+02
-4.301638e+09 -4.101603e+09 -4.261642e+09 -4.867884e+02 3.887479e+03 -3.165786e+01
-4.643695e+09 -4.443659e+09 -4.603699e+09 8.009054e+02 2.366611e+03 4.742365e+01
-4.644871e+09 -4.444837e+09 -4.604877e+09 -4.745563e+02 2.480070e+03 2.739519e+02
-4.130882e+09 -3.930849e+09 -4.090886e+09 -3.230735e+02 5.845570e+03 6.919102e+02
-4.818526e+09 -4.618494e+09 -4.778531e+09 -2.047950e+02 1.943199e+03 -2.496049e+01
-4.300473e+09 -4.100456e+09 -4.260489e+09 2.089006e+04 -7.417599e+03 -3.814686e+03
-4.302063e+09 -4.102065e+09 -4.262100e+09 2.749330e+04 -5.813555e+03 -4.803061e+03
-4.645871e+09 -4.445851e+09 -4.605897e+09 2.763761e+04 -2.565125e+03 -2.154126e+03
-4.129514e+09 -3.929499e+09 -4.089532e+09 3.013388e+04 -7.659185e+03 -5.261497e+03
-4.303293e+09 -4.103347e+09 -4.263347e+09 -5.652964e+03 -7.638224e+02 6.435471e+03
-4.660643e+09 -4.460681e+09 -4.620685e+09 -8.487489e+03 -8.170289e+02 2.540003e+03
-4.303496e+09 -4.103540e+09 -4.263539e+09 -4.430062e+03 -4.018625e+02 5.651447e+03
-4.819242e+09 -4.619218e+09 -4.779251e+09 -3.629959e+04 2.463722e+03 7.463814e+02
-4.819353e+09 -4.619320e+09 -4.779357e+09 -3.602345e+04 2.258684e+03 -2.915419e+03
-4.303478e+09 -4.103436e+09 -4.263477e+09 -3.279232e+04 8.418110e+03 -6.522692e+03
-4.818059e+09 -4.618049e+09 -4.778079e+09 -3.597064e+04 5.141879e+03 -3.190466e+03
-4.645524e+09 -4.445497e+09 -4.605532e+09 -2.607151e+04 3.013008e+03 -1.623836e+03
-4.133024e+09 -3.932980e+09 -4.093015e+09 -3.485065e+04 2.856443e+03 -1.880636e+03
-4.646236e+09 -4.446219e+09 -4.606242e+09 -3.590809e+04 1.904184e+03 -2.837682e+03
-4.825528e+09 -4.625504e+09 -4.785540e+09 7.831730e+03 -1.491933e+03 -1.459730e+02
-4.482293e+09 -4.282273e+09 -4.442307e+09 9.165397e+03 -4.008807e+03 -1.762315e+03
-4.317605e+09 -4.117581e+09 -4.277618e+09 1.186404e+04 -3.845506e+03 -7.883037e+02
-4.653996e+09 -4.453970e+09 -4.614007e+09 7.717912e+03 -1.664806e+03 -6.178225e+02
-3.961334e+09 -3.761332e+09 -3.921345e+09 6.073174e+03 1.866698e+03 1.695712e+03
-4.646855e+09 -4.446850e+09 -4.606869e+09 1.054570e+04 1.066123e+03 1.394357e+03
-4.651867e+09 -4.451867e+09 -4.611883e+09 8.646169e+03 1.669003e+03 1.182423e+03
-4.132711e+09 -3.932708e+09 -4.092727e+09 1.080026e+04 3.497573e+03 2.757540e+03
-4.293136e+09 -4.093111e+09 -4.253145e+09 -6.840570e+03 5.116769e+03 -2.483475e+03
-4.648580e+09 -4.448555e+09 -4.608585e+09 -3.976698e+03 1.558617e+03 2.030529e+02
-4.307342e+09 -4.107319e+09 -4.267349e+09 -3.647081e+03 3.791764e+03 -1.475509e+03
-4.821886e+09 -4.621865e+09 -4.781893e+09 -4.005574e+03 9.654795e+02 -2.504142e+01
-1.583526e+09 -1.383525e+09 -1.543531e+09 1.452425e+03 9.557796e+02 9.766844e+02
-1.780320e+09 -1.580318e+09 -1.740325e+09 1.116809e+03 8.890089e+02 6.224244e+02
-2.725110e+09 -2.525109e+09 -2.685116e+09 1.197608e+03 6.781769e+02 7.686385e+02
-2.083459e+09 -1.883458e+09 -2.043465e+09 9.830931e+02 5.204709e+02 5.262633e+02
-2.630609e+09 -2.430608e+09 -2.590615e+09 1.719762e+03 9.695679e+02 4.692274e+02
-4.802736e+09 -4.602812e+09 -4.762782e+09 -4.109042e+04 8.469439e+03 -7.575238e+03
-4.648076e+09 -4.448050e+09 -4.608036e+09 -6.860441e+04 1.097197e+04 -3.017736e+01
-4.648371e+09 -4.448355e+09 -4.608246e+09 -8.855264e+04 3.156578e+04 -5.209796e+03
-4.304917e+09 -4.104921e+09 -4.264886e+09 -6.546869e+04 -5.379020e+03 2.761331e+02
-4.820062e+09 -4.620021e+09 -4.779976e+09 -7.092792e+04 -3.353104e+03 1.379913e+04
-4.304804e+09 -4.104749e+09 -4.264655e+09 -7.144967e+04 2.194009e+03 -1.453403e+04
-4.129478e+09 -3.929461e+09 -4.089487e+09 7.861770e+03 4.449028e+03 1.102929e+03
-4.301802e+09 -4.101783e+09 -4.261810e+09 6.519801e+03 3.007859e+03 1.092022e+03
-4.697770e+09 -4.497756e+09 -4.657778e+09 4.839528e+03 6.993206e+02 9.066620e+02
-4.689868e+09 -4.489851e+09 -4.649875e+09 4.713573e+03 1.113678e+03 4.917083e+02
-3.995607e+09 -3.795594e+09 -3.955614e+09 4.252124e+03 3.174598e+03 1.316815e+03
-4.130280e+09 -3.930296e+09 -4.090302e+09 5.710672e+03 2.488060e+02 2.684507e+03
-4.817501e+09 -4.617514e+09 -4.777519e+09 3.720947e+03 -2.220457e+02 7.473416e+02
-4.644664e+09 -4.444680e+09 -4.604686e+09 5.224222e+03 7.878572e+02 1.496331e+03
-4.302187e+09 -4.102202e+09 -4.262207e+09 4.147757e+03 4.478965e+02 1.613396e+03
-4.820638e+09 -4.620797e+09 -4.780623e+09 2.117511e+03 -4.055061e+02 9.893136e+03
-4.630711e+09 -4.430797e+09 -4.590741e+09 -4.078779e+04 -1.256372e+03 3.313300e+03
-4.330158e+09 -4.130271e+09 -4.290146e+09 2.872465e+04 2.299386e+03 6.393675e+03
-4.133425e+09 -3.933377e+09 -4.093426e+09 1.289191e+04 9.053646e+03 1.943164e+03
-4.823008e+09 -4.623126e+09 -4.783052e+09 2.056697e+04 -4.883713e+03 1.692875e+02
-4.478818e+09 -4.278949e+09 -4.438824e+09 6.640503e+02 -1.224266e+04 -1.145798e+04
-3.077297e+09 -2.877305e+09 -3.037308e+09 -6.310025e+02 -7.516865e+01 3.979204e+02
-2.790400e+09 -2.590409e+09 -2.750411e+09 -6.799484e+02 -2.435213e+02 4.544066e+02
-1.888004e+09 -1.688012e+09 -1.848015e+09 -1.058645e+03 -5.034563e+02 6.158454e+02
-1.779229e+09 -1.579238e+09 -1.739240e+09 -8.280359e+02 -2.032500e+02 5.616636e+02
-2.459606e+09 -2.259613e+09 -2.419616e+09 -7.629306e+02 -3.150214e+02 2.635087e+02
-2.653894e+09 -2.453901e+09 -2.613904e+09 -1.176114e+03 -1.126310e+02 7.362647e+02
-1.779519e+09 -1.579527e+09 -1.739530e+09 -8.020225e+02 -1.537344e+02 4.335021e+02
-3.743218e+09 -3.543219e+09 -3.703227e+09 -2.029614e+03 -7.012527e+02 8.010482e+02
-2.691949e+09 -2.491950e+09 -2.651958e+09 -2.669417e+03 -1.792234e+03 1.864679e+03
-3.993699e+09 -3.793697e+09 -3.953706e+09 -1.089769e+03 -3.823353e+02 9.035546e+02
-3.749938e+09 -3.549937e+09 -3.709946e+09 -9.085909e+02 -3.879383e+02 7.103461e+02
-2.909258e+09 -2.709256e+09 -2.869265e+09 -2.304255e+03 -1.314564e+03 2.042119e+03
-2.501105e+09 -2.301103e+09 -2.461112e+09 -1.427927e+03 -1.073791e+03 1.732205e+03
-4.820443e+09 -4.620489e+09 -4.780449e+09 -5.774875e+04 1.279561e+04 -7.331830e+03
-4.205652e+09 -4.005651e+09 -4.165662e+09 -4.593638e+03 -1.214960e+03 1.008186e+03
-4.991909e+09 -4.792040e+09 -4.951584e+09 2.482105e+04 9.231322e+02 6.342083e+03
-4.649442e+09 -4.449437e+09 -4.609460e+09 1.582920e+04 1.298064e+03 1.811803e+03
-4.311908e+09 -4.111910e+09 -4.271932e+09 1.550138e+04 4.192689e+03 3.661766e+03
-4.134845e+09 -3.934843e+09 -4.094865e+09 1.578318e+04 4.634687e+03 4.378368e+03
-4.315907e+09 -4.115908e+09 -4.275926e+09 1.255473e+04 2.533784e+03 2.426016e+03
-3.926099e+09 -3.726106e+09 -3.886109e+09 8.240218e+02 4.665294e+01 1.713261e+02
-3.257326e+09 -3.057334e+09 -3.217337e+09 7.741055e+02 1.037867e+02 4.005187e+02
-4.084650e+09 -3.884658e+09 -4.044661e+09 1.136320e+03 2.925763e+02 2.270407e+02
-3.520462e+09 -3.320468e+09 -3.480471e+09 5.398412e+02 1.560300e+02 2.024671e+02
-3.226305e+09 -3.026314e+09 -3.186316e+09 4.293388e+02 1.501022e+02 1.706604e+02
-3.846693e+09 -3.646700e+09 -3.806703e+09 2.167581e+02 8.732894e+01 1.474259e+02
-2.041137e+09 -1.841144e+09 -2.001147e+09 1.187479e+03 4.395081e+02 6.290516e+02
-3.383094e+09 -3.183101e+09 -3.343104e+09 8.219018e+01 7.685001e+01 6.535545e+01
-4.267326e+09 -4.067338e+09 -4.227344e+09 -4.076850e+03 -9.475549e+02 1.446783e+03
-4.654467e+09 -4.454475e+09 -4.614479e+09 -1.984556e+03 -8.386072e+01 3.950496e+02
-4.650630e+09 -4.450639e+09 -4.610643e+09 -1.798903e+03 -9.117858e+01 1.828188e+02
-4.649533e+09 -4.449540e+09 -4.609545e+09 -2.406022e+03 -1.930629e+02 5.115366e+02
-4.821709e+09 -4.621717e+09 -4.781721e+09 -1.786287e+03 1.198441e+02 1.755557e+02
-2.627844e+09 -2.427835e+09 -2.587846e+09 -1.145772e+02 6.642122e+02 -6.514283e+02
-3.120745e+09 -2.920734e+09 -3.080747e+09 -1.756541e+02 7.149032e+02 -7.444183e+02
-3.111725e+09 -2.911715e+09 -3.071728e+09 -3.483814e+02 6.811656e+02 -6.864390e+02
-2.892082e+09 -2.692071e+09 -2.852084e+09 -1.874011e+02 6.231374e+02 -8.401074e+02
-2.118469e+09 -1.918459e+09 -2.078470e+09 -3.983557e+02 1.427407e+03 -7.555451e+02
-2.090413e+09 -1.890404e+09 -2.050414e+09 -2.703218e+02 1.200077e+03 -5.832987e+02
-1.929571e+09 -1.729562e+09 -1.889572e+09 -3.275265e+02 6.115758e+02 -5.316918e+02
-4.601115e+09 -4.401108e+09 -4.561121e+09 2.678809e+03 5.433255e+02 3.633914e+02
-4.119942e+09 -3.919933e+09 -4.079951e+09 6.573611e+03 2.963802e+03 1.225338e+03
-4.118846e+09 -3.918839e+09 -4.078855e+09 5.662189e+03 1.843432e+03 1.849892e+03
-4.573897e+09 -4.373890e+09 -4.533905e+09 3.825114e+03 7.311829e+02 6.958504e+02
-4.806406e+09 -4.606398e+09 -4.766417e+09 6.334603e+03 4.424106e+02 8.409831e+02
-4.807672e+09 -4.607665e+09 -4.767681e+09 5.418794e+03 6.911415e+02 5.729619e+02
-4.771324e+09 -4.571317e+09 -4.731332e+09 3.988857e+03 3.558158e+02 5.663842e+02
-4.470735e+09 -4.270738e+09 -4.430743e+09 -2.018651e+02 -5.988588e+01 2.094213e+02
-2.614657e+09 -2.414658e+09 -2.574663e+09 6.044325e+02 1.618725e+02 2.089852e+02
-2.100714e+09 -1.900714e+09 -2.060719e+09 8.260619e+02 3.661692e+02 4.071836e+02
-1.800953e+09 -1.600953e+09 -1.760959e+09 9.196979e+02 4.084204e+02 2.874035e+02
-1.599044e+09 -1.399044e+09 -1.559050e+09 1.122497e+03 3.745120e+02 4.477143e+02
-3.960609e+09 -3.760782e+09 -3.920574e+09 -9.885875e+03 -1.749214e+03 8.584448e+04
-2.683955e+09 -2.483956e+09 -2.643961e+09 1.096545e+03 4.177905e+02 1.346399e+02
-2.116945e+09 -1.916947e+09 -2.076951e+09 9.598150e+02 2.220887e+02 2.036157e+02
-4.809752e+09 -4.609755e+09 -4.769779e+09 2.049342e+04 3.354345e+03 3.065148e+03
-4.123286e+09 -3.923291e+09 -4.083310e+09 1.910953e+04 2.945759e+03 2.866122e+03
-3.962347e+09 -3.762345e+09 -3.922364e+09 1.357286e+04 3.127031e+03 3.826568e+03
-4.819724e+09 -4.619718e+09 -4.779740e+09 1.176783e+04 1.788228e+03 9.917912e+02
-4.305000e+09 -4.104994e+09 -4.265020e+09 1.969262e+04 5.538625e+03 3.213748e+03
-4.158436e+09 -3.958360e+09 -4.118415e+09 -5.800655e+03 4.097343e+03 1.953154e+03
-4.645259e+09 -4.445264e+09 -4.605277e+09 -8.479016e+03 -1.192717e+03 1.266606e+03
-4.800138e+09 -4.600146e+09 -4.760157e+09 -8.623284e+03 -1.300123e+03 7.267412e+02
-4.992768e+09 -4.792783e+09 -4.952809e+09 -9.715848e+03 2.261346e+03 -1.307083e+03
-4.467960e+09 -4.267967e+09 -4.427978e+09 -6.574419e+03 -9.969012e+02 1.532715e+03
-4.636299e+09 -4.436310e+09 -4.596321e+09 -1.159963e+04 -5.963277e+02 1.577855e+03
-4.636414e+09 -4.436422e+09 -4.596437e+09 -1.165569e+04 -8.738991e+02 1.570218e+03
-4.293619e+09 -4.093631e+09 -4.253642e+09 -1.026443e+04 -1.636977e+03 1.430512e+03
-4.465636e+09 -4.265645e+09 -4.425656e+09 -8.610012e+03 -9.353207e+02 1.643288e+03
-4.993632e+09 -4.793608e+09 -4.953641e+09 2.832923e+03 -4.555772e+02 -3.267288e+02
-4.784933e+09 -4.584928e+09 -4.744941e+09 3.349110e+03 2.823251e+02 6.223922e+02
-4.997790e+09 -4.797798e+09 -4.957802e+09 -9.871394e+02 5.220037e+01 6.759791e+00
-3.933613e+09 -3.733609e+09 -3.893621e+09 3.615383e+03 1.513800e+03 9.853155e+02
-4.305482e+09 -4.105478e+09 -4.265491e+09 4.345395e+03 1.097177e+03 9.248878e+02
-4.094866e+09 -3.894863e+09 -4.054873e+09 3.007248e+03 1.099455e+03 3.449576e+02
-3.612249e+09 -3.412238e+09 -3.572252e+09 -6.026854e+02 6.094004e+02 -6.374085e+02
-3.348227e+09 -3.148216e+09 -3.308231e+09 -7.124755e+02 1.999503e+03 -1.316764e+03
-2.920914e+09 -2.720902e+09 -2.880917e+09 -1.124376e+03 2.443934e+03 -1.056584e+03
-4.062322e+09 -3.862309e+09 -4.022326e+09 -1.477241e+03 1.008226e+03 -3.681094e+02
-3.755654e+09 -3.555643e+09 -3.715659e+09 -1.008529e+03 1.360237e+03 -8.454510e+02
-4.643770e+09 -4.443737e+09 -4.603784e+09 -2.295795e+04 2.391894e+03 -2.330304e+03
-4.818413e+09 -4.618384e+09 -4.778425e+09 -2.419369e+04 2.707065e+03 -9.350627e+02
-4.991178e+09 -4.791140e+09 -4.951189e+09 -3.331358e+04 3.303327e+03 -1.453432e+03
-4.305946e+09 -4.105899e+09 -4.265940e+09 -4.109251e+04 8.663303e+03 -5.654690e+03
-4.632175e+09 -4.432111e+09 -4.592159e+09 -2.791965e+04 -1.000222e+03 5.910566e+02
-4.472981e+09 -4.272927e+09 -4.432980e+09 -2.910155e+04 6.043146e+03 -2.526095e+03
-4.293756e+09 -4.093693e+09 -4.253730e+09 -3.781359e+04 7.629661e+03 -6.830025e+03
-4.679585e+09 -4.479490e+09 -4.639559e+09 -6.420760e+03 1.515487e+03 2.395545e+02
-4.307654e+09 -4.107575e+09 -4.267621e+09 6.879510e+03 9.623498e+03 3.659308e+02
-4.652755e+09 -4.452645e+09 -4.612690e+09 -3.839352e+02 -1.443179e+03 2.811789e+03
-4.646299e+09 -4.446203e+09 -4.606275e+09 7.736684e+03 -2.565359e+03 -1.513723e+03
-3.479946e+09 -3.279923e+09 -3.439952e+09 4.488223e+03 -6.703396e+03 -2.973190e+03
-3.002315e+09 -2.802296e+09 -2.962320e+09 2.501272e+03 -7.878283e+03 -3.170252e+03
-3.995399e+09 -3.795377e+09 -3.955406e+09 2.603332e+03 -2.690386e+03 -9.837426e+02
-3.757445e+09 -3.557423e+09 -3.717453e+09 2.252025e+03 -2.955323e+03 -1.313617e+03
-3.364693e+09 -3.164672e+09 -3.324700e+09 1.401823e+03 -6.669095e+03 -3.071052e+03
-3.879969e+09 -3.679940e+09 -3.839978e+09 3.860491e+03 -5.286793e+03 -1.373018e+03
-3.064060e+09 -2.864047e+09 -3.024063e+09 -6.389522e+02 2.133479e+03 -1.036574e+03
-2.016694e+09 -1.816682e+09 -1.976694e+09 -5.715187e+02 2.399606e+03 -9.798155e+02
-2.802513e+09 -2.602501e+09 -2.762515e+09 -3.981145e+02 2.267137e+03 -1.164076e+03
-1.756713e+09 -1.556703e+09 -1.716713e+09 -1.595902e+02 4.044581e+03 -1.404905e+03
-2.421916e+09 -2.221902e+09 -2.381919e+09 -1.161535e+03 4.049004e+03 -1.094965e+03
-2.488598e+09 -2.288586e+09 -2.448600e+09 -7.142430e+02 2.620111e+03 -1.398873e+03
-2.638422e+09 -2.438409e+09 -2.598425e+09 -1.594820e+03 3.808185e+03 -9.766104e+02
-2.091338e+09 -1.891326e+09 -2.051339e+09 -1.125910e+03 4.110390e+03 -1.985559e+03
-3.747274e+09 -3.547275e+09 -3.707280e+09 1.905921e+02 5.088269e+01 7.467401e+01
-2.729709e+09 -2.529712e+09 -2.689716e+09 3.257209e+02 9.285509e+01 9.440090e+01
-2.995225e+09 -2.795227e+09 -2.955232e+09 1.814462e+02 -2.018804e+01 4.247554e+01
-4.133813e+09 -3.933819e+09 -4.093845e+09 -2.362966e+04 7.522670e+03 -5.738428e+03
-4.818494e+09 -4.618493e+09 -4.778517e+09 -3.402596e+04 2.117948e+03 -5.755451e+02
-4.645554e+09 -4.445561e+09 -4.605578e+09 -3.353234e+04 2.831495e+03 -3.222562e+03
-4.645603e+09 -4.445600e+09 -4.605631e+09 -3.293755e+04 5.427526e+02 -1.778727e+03
-4.991061e+09 -4.791044e+09 -4.951082e+09 -3.483538e+04 3.205295e+03 -2.080333e+03
-4.645621e+09 -4.445625e+09 -4.605637e+09 -4.691740e+04 1.523147e+03 2.556960e+03
-4.131542e+09 -3.931551e+09 -4.091564e+09 -3.284617e+04 3.498453e+03 -1.866308e+03
-4.303312e+09 -4.103301e+09 -4.263319e+09 -4.496059e+04 7.144364e+03 -8.485328e+03
-4.131907e+09 -3.931903e+09 -4.091920e+09 -4.443813e+04 1.163038e+04 -9.042841e+03
-2.169610e+09 -1.969598e+09 -2.129610e+09 -1.711424e+02 2.851171e+02 -8.472738e+02
-2.164354e+09 -1.964344e+09 -2.124355e+09 -5.031097e+02 1.862322e+03 -9.116332e+02
-3.230440e+09 -3.030428e+09 -3.190443e+09 -7.340148e+02 1.233220e+03 -1.034836e+03
-4.133051e+09 -3.933078e+09 -4.093084e+09 -6.164477e+03 -1.036372e+02 4.752247e+03
-4.306245e+09 -4.106270e+09 -4.266276e+09 -7.026001e+03 -7.366070e+02 2.923081e+03
-4.645311e+09 -4.445335e+09 -4.605340e+09 -3.781794e+03 -3.771153e+02 1.357623e+03
-4.303826e+09 -4.103854e+09 -4.263859e+09 -4.790959e+03 -7.898516e+02 3.517092e+03
-4.815398e+09 -4.615264e+09 -4.774895e+09 -3.572596e+04 -4.044668e+04 1.434974e+04
-4.642164e+09 -4.442078e+09 -4.601373e+09 -1.567807e+04 -8.117233e+04 3.968350e+04
-4.988516e+09 -4.788379e+09 -4.947861e+09 -1.270424e+04 -1.509676e+04 2.382553e+03
-4.128934e+09 -3.928786e+09 -4.088396e+09 -4.733215e+04 -9.237894e+04 2.558978e+04
-3.196590e+09 -2.996593e+09 -3.156597e+09 7.420800e+02 5.496110e+01 1.292164e+02
-3.219445e+09 -3.019448e+09 -3.179453e+09 5.870005e+02 1.711090e+02 8.183909e+01
-2.622491e+09 -2.422495e+09 -2.582499e+09 7.229994e+02 2.772053e+01 2.473054e+02
-3.153505e+09 -2.953508e+09 -3.113513e+09 4.411349e+02 1.353493e+02 1.147427e+01
-3.386266e+09 -3.186270e+09 -3.346274e+09 5.975549e+02 8.769738e+01 7.799534e+01
-2.359389e+09 -2.159392e+09 -2.319396e+09 6.212201e+02 5.653997e+01 8.860352e+01
-3.202497e+09 -3.002472e+09 -3.162503e+09 -5.486936e+03 -1.191374e+04 1.252869e+03
-4.011111e+09 -3.811085e+09 -3.971120e+09 -1.978490e+03 -2.233054e+03 9.253998e+02
-4.648357e+09 -4.448327e+09 -4.608366e+09 -2.755652e+03 -1.531946e+03 2.067604e+02
-3.347607e+09 -3.147583e+09 -3.307614e+09 -2.123409e+03 -8.360882e+03 1.349265e+03
-4.472741e+09 -4.272708e+09 -4.432750e+09 -5.182617e+03 -4.562168e+03 5.268564e+02
-3.451690e+09 -3.251657e+09 -3.411696e+09 -1.886586e+03 -8.849466e+03 1.013335e+03
-3.769780e+09 -3.569754e+09 -3.729786e+09 -1.815517e+03 -3.070297e+03 9.166985e+02
-4.823979e+09 -4.623957e+09 -4.783984e+09 -2.350934e+03 1.195375e+03 6.868082e+01
-4.094608e+09 -3.894583e+09 -4.054612e+09 -4.332689e+02 3.585971e+03 -2.601931e+02
-4.824250e+09 -4.624226e+09 -4.784255e+09 -1.114780e+03 1.216720e+03 3.424027e+02
-4.646838e+09 -4.446841e+09 -4.606847e+09 2.318816e+03 3.293112e+02 2.413289e+02
-4.308160e+09 -4.108162e+09 -4.268170e+09 3.214700e+03 4.438837e+02 5.694157e+02
-4.820292e+09 -4.620294e+09 -4.780300e+09 2.346277e+03 3.287342e+02 -9.596078e+01
-4.648915e+09 -4.448917e+09 -4.608924e+09 2.453808e+03 2.038364e+02 2.354253e+02
-4.655464e+09 -4.455473e+09 -4.615476e+09 -1.150918e+03 -3.802148e+01 1.509653e+02
-4.071873e+09 -3.871883e+09 -4.031886e+09 -1.585320e+03 -6.666281e+01 6.235526e+02
-4.825930e+09 -4.625938e+09 -4.785941e+09 -1.378060e+03 -1.431803e+01 1.617405e+02
-4.034722e+09 -3.834731e+09 -3.994734e+09 -1.181236e+03 -3.369554e+02 2.786416e+02
-4.821599e+09 -4.621609e+09 -4.781613e+09 -1.938776e+03 8.238060e+01 2.293909e+02
-4.097334e+09 -3.897342e+09 -4.057346e+09 -1.595768e+03 -2.451493e+01 4.618019e+02
-4.143605e+09 -3.943486e+09 -4.103538e+09 3.805020e+03 -5.223199e+03 -9.046262e+03
-4.141855e+09 -3.941707e+09 -4.101710e+09 -1.082062e+04 7.147289e+03 -1.630993e+04
-4.656600e+09 -4.456465e+09 -4.616519e+09 -1.700415e+04 9.196182e+03 8.073635e+02
-4.823767e+09 -4.623616e+09 -4.783626e+09 7.358194e+03 3.107835e+02 -1.120532e+04
-4.304268e+09 -4.104273e+09 -4.264180e+09 -6.932358e+04 -3.808813e+03 -7.913511e+02
-4.306200e+09 -4.106137e+09 -4.266077e+09 -6.403690e+04 -7.526345e+03 2.143187e+03
-4.303351e+09 -4.103314e+09 -4.263222e+09 -7.925533e+04 -8.241729e+02 5.242605e+03
-4.132823e+09 -3.932775e+09 -4.092700e+09 -7.270161e+04 3.077628e+03 6.117787e+03
-4.324103e+09 -4.123935e+09 -4.283693e+09 4.804700e+04 4.393795e+04 3.734901e+03
-4.652300e+09 -4.452196e+09 -4.611991e+09 6.128902e+04 4.288172e+04 2.609459e+04
-4.669468e+09 -4.469289e+09 -4.629155e+09 2.581295e+04 3.886951e+04 5.922656e+03
-4.824956e+09 -4.624788e+09 -4.784717e+09 3.978067e+04 8.333324e+03 -1.022481e+04
-3.189534e+09 -2.989524e+09 -3.149538e+09 2.032891e+03 2.032438e+03 9.782650e+02
-2.608719e+09 -2.408711e+09 -2.568723e+09 1.176245e+03 1.919857e+03 1.166421e+03
-2.697493e+09 -2.497484e+09 -2.657497e+09 2.197439e+03 2.485591e+03 1.493926e+03
-5.014789e+09 -4.814700e+09 -4.974768e+09 -1.303868e+04 5.007870e+03 -5.602579e+01
-3.515882e+09 -3.315871e+09 -3.475887e+09 2.182987e+03 2.568396e+03 1.714098e+03
-4.820293e+09 -4.620283e+09 -4.780304e+09 -4.016440e+03 1.188483e+03 -9.571624e+01
-4.298363e+09 -4.098350e+09 -4.258374e+09 -4.696711e+03 3.006405e+03 -7.924463e+02
-4.119925e+09 -3.919914e+09 -4.079940e+09 -7.623098e+03 4.821160e+03 -1.292758e+03
-4.241795e+09 -4.041787e+09 -4.201807e+09 -4.108381e+03 2.457950e+03 -8.352736e+02
-4.106585e+09 -3.906574e+09 -4.066600e+09 -7.171274e+03 3.490445e+03 -2.300703e+03
-5.014796e+09 -4.814723e+09 -4.974775e+09 -9.664031e+03 3.042301e+03 8.289068e+02
-3.220890e+09 -3.020901e+09 -3.180903e+09 -8.178079e+02 -2.431525e+02 5.986522e+02
-2.085935e+09 -1.885946e+09 -2.045947e+09 -5.913102e+02 -2.354027e+02 6.256382e+02
-2.180848e+09 -1.980859e+09 -2.140860e+09 -3.830391e+02 -9.101413e+01 4.706513e+02
-1.786481e+09 -1.586492e+09 -1.746493e+09 -6.241063e+02 -1.597016e+02 8.240982e+02
-3.205200e+09 -3.005210e+09 -3.165213e+09 -1.569305e+03 -2.704631e+02 1.160147e+03
-3.963124e+09 -3.763086e+09 -3.923132e+09 6.815592e+03 -7.561635e+03 -1.821689e+03
-4.269423e+09 -4.069395e+09 -4.229430e+09 5.069976e+03 -3.791970e+03 -1.216082e+03
-4.816837e+09 -4.616780e+09 -4.776840e+09 1.243936e+04 -5.717055e+03 -1.203413e+03
-2.080069e+09 -1.880076e+09 -2.040079e+09 -7.333655e+02 -2.297289e+02 3.950693e+02
-1.883254e+09 -1.683262e+09 -1.843264e+09 -4.995493e+02 -2.039621e+02 2.210147e+02
-2.079255e+09 -1.879262e+09 -2.039265e+09 -6.216863e+02 -2.095193e+02 2.833736e+02
-4.826842e+09 -4.626809e+09 -4.786850e+09 4.705446e+03 -2.117368e+03 -1.931162e+01
-2.079513e+09 -1.879520e+09 -2.039522e+09 -9.154803e+02 -1.918742e+02 3.976748e+02
-4.646995e+09 -4.446988e+09 -4.607011e+09 -1.112165e+04 -1.180105e+03 9.266196e+02
-3.962802e+09 -3.762799e+09 -3.922815e+09 -6.943504e+03 -2.597918e+03 2.273717e+03
-4.301854e+09 -4.101847e+09 -4.261870e+09 -1.353829e+04 -3.797315e+03 2.767902e+03
-4.130426e+09 -3.930421e+09 -4.090444e+09 -1.345994e+04 -4.424663e+03 3.450607e+03
-4.817807e+09 -4.617804e+09 -4.777825e+09 -1.133679e+04 -1.410732e+03 1.295179e+03
-4.133460e+09 -3.933482e+09 -4.093498e+09 -3.022641e+04 6.815374e+03 -7.220064e+03
-3.961312e+09 -3.761326e+09 -3.921338e+09 -3.213282e+04 6.245438e+03 -1.875938e+03
-4.303507e+09 -4.103518e+09 -4.263497e+09 -5.357185e+04 3.434536e+03 -1.037760e+04
-4.302388e+09 -4.102392e+09 -4.262403e+09 -4.690364e+04 7.068421e+03 -9.911396e+03
-4.647703e+09 -4.447734e+09 -4.607728e+09 -5.381156e+04 3.379430e+03 5.359546e+03
-4.133096e+09 -3.933131e+09 -4.093103e+09 -4.156138e+04 3.225058e+03 -5.388044e+02
-4.132851e+09 -3.932869e+09 -4.092852e+09 -5.487598e+04 1.159925e+04 -7.371648e+03
-4.644657e+09 -4.444670e+09 -4.604674e+09 3.757729e+03 5.432736e+02 9.113907e+02
-4.990669e+09 -4.790682e+09 -4.950688e+09 3.928329e+03 -1.901937e+02 2.026549e+02
-4.802913e+09 -4.602926e+09 -4.762929e+09 2.191018e+03 -1.236132e+02 4.087984e+02
-4.459681e+09 -4.259693e+09 -4.419697e+09 2.082711e+03 4.142589e+01 5.940774e+02
-4.303404e+09 -4.103414e+09 -4.263418e+09 2.519907e+03 1.862985e+02 7.539876e+02
-4.474713e+09 -4.274726e+09 -4.434730e+09 2.603961e+03 1.883242e+02 1.059503e+03
-4.301484e+09 -4.101495e+09 -4.261500e+09 3.014605e+03 3.508084e+02 1.149457e+03
-4.131420e+09 -3.931431e+09 -4.091435e+09 2.571288e+03 6.829147e+02 8.915983e+02
-4.645940e+09 -4.445957e+09 -4.605960e+09 -2.958572e+03 -3.797928e+02 8.766837e+02
-3.775842e+09 -3.575848e+09 -3.735852e+09 1.335249e+03 2.185507e+02 3.706350e+02
-4.475264e+09 -4.275280e+09 -4.435283e+09 -1.727248e+03 -1.292908e+02 1.200981e+03
-4.817833e+09 -4.617852e+09 -4.777856e+09 -1.895651e+03 6.837427e+02 8.649772e+02
-4.302069e+09 -4.102088e+09 -4.262092e+09 -2.198200e+03 -1.732034e+02 1.439850e+03
-4.132353e+09 -3.932370e+09 -4.092374e+09 -2.858451e+03 -1.168772e+03 1.751599e+03
-4.645627e+09 -4.445646e+09 -4.605650e+09 -3.065907e+03 -2.705789e+02 9.032492e+02
-2.676290e+09 -2.476284e+09 -2.636298e+09 -1.723644e+03 5.944943e+03 -2.238721e+03
-1.745132e+09 -1.545124e+09 -1.705133e+09 -2.800266e+02 2.877364e+03 -1.061697e+03
-2.103223e+09 -1.903215e+09 -2.063226e+09 -9.091385e+02 3.724366e+03 -1.024253e+03
-4.992158e+09 -4.792164e+09 -4.952168e+09 1.224542e+03 2.431949e+01 -7.641925e+01
-4.644255e+09 -4.444254e+09 -4.604266e+09 -3.680074e+03 -4.801793e+02 4.360784e+02
-1.969909e+09 -1.769903e+09 -1.929913e+09 -8.136874e+02 5.904919e+03 -1.392758e+03
-4.924441e+09 -4.724415e+09 -4.884449e+09 4.122963e+02 9.876834e-05 -9.611762e+01
-4.917819e+09 -4.717809e+09 -4.877828e+09 2.400720e+02 -3.474188e+02 -2.635838e-05
-1.788762e+09 -1.588755e+09 -1.748764e+09 -4.288693e+02 3.839112e+03 -8.673132e+02
-1.956419e+09 -1.756411e+09 -1.916421e+09 -4.081733e+02 2.820675e+03 -8.400941e+02
-3.099839e+09 -2.899844e+09 -3.059847e+09 -1.325977e+02 -5.399248e+01 9.721146e+00
-2.599440e+09 -2.399445e+09 -2.559449e+09 -6.029503e+01 -6.902137e+01 -4.048331e-01
-2.970334e+09 -2.770338e+09 -2.930341e+09 -8.837069e+01 1.295773e+01 2.345986e+01
-3.455957e+09 -3.255961e+09 -3.415965e+09 -1.030583e+02 -2.404826e+01 3.966549e+01
-4.141421e+09 -3.941479e+09 -4.101470e+09 -3.224470e+04 -3.365401e+03 1.137534e+04
-4.307651e+09 -4.107698e+09 -4.267698e+09 -2.405350e+04 -4.954448e+03 8.572434e+03
-4.135816e+09 -3.935865e+09 -4.095861e+09 -2.477677e+04 -2.674594e+03 5.158875e+03
-4.647175e+09 -4.447211e+09 -4.607221e+09 -2.580319e+04 -7.184674e+01 1.163426e+03
-2.831943e+09 -2.631941e+09 -2.791950e+09 -7.787852e+02 -4.809548e+02 1.330412e+03
-2.541899e+09 -2.341898e+09 -2.501906e+09 -5.154921e+02 -7.874028e+02 1.647380e+03
-2.427482e+09 -2.227478e+09 -2.387488e+09 -5.288601e+02 -1.014844e+03 2.213164e+03
-2.725585e+09 -2.525583e+09 -2.685591e+09 -1.134865e+03 -1.018320e+03 1.384231e+03
-2.750777e+09 -2.550774e+09 -2.710784e+09 -2.585399e+03 -1.739606e+03 2.000636e+03
-2.258462e+09 -2.058452e+09 -2.218464e+09 3.620227e+02 -1.447774e+03 -9.713744e+02
-2.155443e+09 -1.955431e+09 -2.115445e+09 6.531425e+02 -2.537651e+03 -1.610240e+03
-2.979387e+09 -2.779374e+09 -2.939392e+09 2.844889e+02 -1.104671e+03 -1.657957e+03
-2.692414e+09 -2.492403e+09 -2.652418e+09 6.930547e+01 -5.936242e+02 -1.528457e+03
-2.209193e+09 -2.009183e+09 -2.169195e+09 1.344077e+02 -2.034052e+03 -1.576100e+03
-3.082188e+09 -2.882178e+09 -3.042195e+09 1.450235e+03 -2.858466e+03 -8.271089e+02
-4.992505e+09 -4.792531e+09 -4.952539e+09 -3.670023e+04 -2.894923e+03 3.712228e+03
-3.173440e+09 -2.973421e+09 -3.133445e+09 8.167678e+01 -3.820082e+03 -7.759333e+02
-3.383207e+09 -3.183180e+09 -3.343212e+09 1.670925e+03 -8.780629e+03 -1.717969e+03
-2.920073e+09 -2.720054e+09 -2.880078e+09 -5.552111e+02 -3.836489e+03 -3.041939e+02
-3.953492e+09 -3.753466e+09 -3.913499e+09 -1.978541e+02 -2.390605e+03 -2.441202e+02
-3.817297e+09 -3.617273e+09 -3.777306e+09 1.335323e+03 -3.105217e+03 -4.722756e+02
-4.012081e+09 -3.812056e+09 -3.972089e+09 6.950003e+02 -3.149539e+03 -1.752024e+02
-3.876209e+09 -3.676198e+09 -3.836216e+09 6.440102e+02 -8.533018e+02 -8.293053e+02
-4.487572e+09 -4.287559e+09 -4.447579e+09 5.315888e+02 -2.005982e+02 -5.786018e+02
-4.252295e+09 -4.052282e+09 -4.212307e+09 3.622221e+03 -2.957221e+03 -1.502234e+03
-4.730060e+09 -4.530048e+09 -4.690068e+09 6.511524e+02 -7.080566e+01 -3.588808e+02
-4.143384e+09 -3.943370e+09 -4.103391e+09 1.286859e+03 -9.218702e+02 -1.029037e+03
-3.351382e+09 -3.151389e+09 -3.311393e+09 1.755735e+03 2.957295e+02 5.958432e+02
-4.820300e+09 -4.620285e+09 -4.780310e+09 2.953136e+03 -9.927918e+02 -5.304682e+02
-4.219468e+09 -4.019447e+09 -4.179476e+09 3.837853e+03 -2.707204e+03 -1.451993e+03
-4.190323e+09 -3.990305e+09 -4.150333e+09 3.799601e+03 -3.318572e+03 -1.752820e+03
-4.310763e+09 -4.110737e+09 -4.270774e+09 7.755206e+03 -4.989451e+03 -2.957732e+03
-4.816798e+09 -4.616780e+09 -4.776810e+09 5.876065e+03 -1.635914e+03 -1.726400e+03
-4.490422e+09 -4.290398e+09 -4.450435e+09 9.971952e+03 -3.928219e+03 -1.756946e+03
-4.136460e+09 -3.936430e+09 -4.096470e+09 1.032406e+04 -6.038574e+03 -2.010503e+03
-4.063499e+09 -3.863482e+09 -4.023510e+09 5.514197e+03 -3.928989e+03 -1.291392e+03
-4.804358e+09 -4.604338e+09 -4.764365e+09 3.479311e+03 6.603217e+02 8.362709e+02
-4.305202e+09 -4.105173e+09 -4.265208e+09 5.445865e+03 5.305710e+03 8.106769e+02
-4.633450e+09 -4.433430e+09 -4.593457e+09 4.137931e+03 1.235942e+03 4.128568e+02
-4.649414e+09 -4.449389e+09 -4.609421e+09 5.426370e+03 2.027728e+03 8.364451e+02
-4.477223e+09 -4.277194e+09 -4.437229e+09 3.770882e+03 3.406312e+03 5.077607e+02
-4.133860e+09 -3.933834e+09 -4.093865e+09 4.744092e+03 4.659252e+03 2.201797e+03
-4.133197e+09 -3.933189e+09 -4.093215e+09 -3.011572e+04 -4.194988e+03 3.109895e+03
-4.303928e+09 -4.103903e+09 -4.263941e+09 -3.515302e+04 -8.087539e+03 6.185911e+03
-4.819485e+09 -4.619454e+09 -4.779492e+09 -3.839131e+04 -5.735698e+03 5.446685e+03
-4.304136e+09 -4.104110e+09 -4.264148e+09 -2.894112e+04 -9.862854e+03 4.555696e+03
-4.820567e+09 -4.620627e+09 -4.780368e+09 -7.334577e+04 4.214034e+03 1.244594e+04
-4.648921e+09 -4.448992e+09 -4.608788e+09 -7.479569e+04 1.952299e+04 -1.882176e+04
-4.310727e+09 -4.110765e+09 -4.270525e+09 -7.816528e+04 2.517812e+04 -3.450120e+04
-4.651807e+09 -4.451945e+09 -4.611791e+09 -2.114583e+04 -1.094383e+03 1.506412e+04
-4.820432e+09 -4.620457e+09 -4.780345e+09 -7.614843e+04 -4.970492e+02 1.310365e+04
-2.173263e+09 -1.973252e+09 -2.133264e+09 -1.698543e+03 6.792092e+03 -2.629340e+03
-3.240660e+09 -3.040644e+09 -3.200665e+09 -3.477559e+03 5.025533e+03 -1.512969e+03
-2.847265e+09 -2.647250e+09 -2.807266e+09 -8.406377e+02 3.345814e+03 -1.000966e+03
-3.510114e+09 -3.310096e+09 -3.470117e+09 -2.376349e+03 4.167958e+03 -1.526408e+03
-2.628816e+09 -2.428801e+09 -2.588818e+09 -1.390067e+03 4.275371e+03 -7.322514e+02
-4.134627e+09 -3.934680e+09 -4.094683e+09 -3.400335e+04 5.674813e+03 -9.561131e+03
-4.477866e+09 -4.277905e+09 -4.437904e+09 -4.031167e+04 -2.404615e+03 -5.492365e+03
-4.648281e+09 -4.448364e+09 -4.608308e+09 -5.399285e+04 3.448883e+03 1.164833e+04
-4.304464e+09 -4.104494e+09 -4.264473e+09 -5.376128e+04 6.760884e+03 -4.478287e+03
-4.133823e+09 -3.933888e+09 -4.093819e+09 -5.577636e+04 1.353544e+04 -3.012376e+02
-4.312910e+09 -4.112896e+09 -4.272926e+09 8.247528e+03 -4.212419e+03 -1.795490e+03
-4.831011e+09 -4.630990e+09 -4.791027e+09 1.236549e+04 -1.570436e+03 -1.192084e+03
-4.311977e+09 -4.111956e+09 -4.271991e+09 1.320450e+04 -6.772145e+03 -3.603632e+03
-4.144543e+09 -3.944525e+09 -4.104559e+09 1.230568e+04 -6.710374e+03 -2.402278e+03
-2.072141e+09 -1.872157e+09 -2.032168e+09 -7.300263e+03 9.319866e+03 -7.549510e+03
-3.190727e+09 -2.990758e+09 -3.150767e+09 -9.084810e+03 6.737246e+03 -3.910425e+03
-2.683635e+09 -2.483644e+09 -2.643658e+09 -3.717426e+03 1.021568e+04 -2.616456e+03
-2.151562e+09 -1.951572e+09 -2.111581e+09 -3.779086e+03 1.047422e+04 -4.457556e+03
-1.922457e+09 -1.722461e+09 -1.882467e+09 -4.828453e+03 9.762026e+03 -2.900770e+03
-3.138340e+09 -2.938370e+09 -3.098383e+09 -2.322234e+03 9.938298e+03 -5.164731e+03
-4.830754e+09 -4.630665e+09 -4.790724e+09 -2.109635e+04 9.615178e+03 -2.403831e+03
-4.144288e+09 -3.944200e+09 -4.104254e+09 -2.118039e+04 1.305168e+03 5.870838e+01
-4.125226e+09 -3.925127e+09 -4.085165e+09 -3.003320e+04 3.332435e+03 -1.507222e+03
-4.641859e+09 -4.441758e+09 -4.601779e+09 -3.866139e+04 -4.640229e+03 4.591752e+03
-4.304448e+09 -4.104448e+09 -4.264458e+09 4.314630e+03 7.553272e+02 8.587934e+02
-4.819497e+09 -4.619498e+09 -4.779508e+09 4.519044e+03 7.412721e+01 8.234053e+02
-4.305729e+09 -4.105730e+09 -4.265739e+09 3.314063e+03 3.639227e+02 5.555617e+02
-4.305866e+09 -4.105864e+09 -4.265875e+09 3.408080e+03 7.424833e+02 7.864058e+02
-4.646930e+09 -4.446929e+09 -4.606940e+09 4.287421e+03 6.575657e+02 3.994173e+02
-3.906024e+09 -3.706007e+09 -3.866029e+09 5.139800e+02 1.382607e+03 3.396509e+02
-3.618882e+09 -3.418867e+09 -3.578885e+09 3.670347e+02 2.740016e+02 4.705192e+02
-4.068466e+09 -3.868449e+09 -4.028471e+09 2.934159e+02 1.447724e+03 2.150744e+02
-3.788024e+09 -3.588006e+09 -3.748029e+09 6.642157e+02 2.000495e+03 3.041192e+02
-3.928862e+09 -3.728846e+09 -3.888867e+09 5.388679e+02 1.151678e+03 7.074426e+02
-4.004843e+09 -3.804825e+09 -3.964847e+09 1.233908e+03 2.061263e+03 1.278356e+02
-4.647850e+09 -4.447844e+09 -4.607868e+09 1.341622e+04 1.425866e+03 1.215645e+03
-4.992044e+09 -4.792042e+09 -4.952063e+09 1.176508e+04 1.217121e+03 5.340211e+02
-4.304617e+09 -4.104612e+09 -4.264635e+09 1.341345e+04 4.405885e+03 2.879352e+03
-4.133307e+09 -3.933300e+09 -4.093323e+09 1.346928e+04 4.844702e+03 3.229700e+03
-4.647419e+09 -4.447409e+09 -4.607433e+09 1.303241e+04 1.371399e+03 1.636263e+03
-4.101984e+09 -3.901989e+09 -4.061993e+09 1.226033e+03 -4.096126e+00 2.627196e+02
-4.256804e+09 -4.056808e+09 -4.216812e+09 5.836031e+02 4.848807e+01 8.316759e+01
-4.037191e+09 -3.837196e+09 -3.997200e+09 7.507006e+02 1.208400e+02 -2.480933e+00
-4.308526e+09 -4.108530e+09 -4.268535e+09 1.365553e+03 1.405292e+02 5.770183e+01
-4.993103e+09 -4.793107e+09 -4.953112e+09 1.451302e+03 3.328259e+01 -1.138397e+02
-4.132951e+09 -3.932956e+09 -4.092961e+09 2.327513e+03 5.556595e+02 3.205005e+02
-4.822208e+09 -4.622212e+09 -4.782216e+09 9.065266e+02 1.704426e+02 -1.374483e+01
-4.862318e+09 -4.662336e+09 -4.822341e+09 -4.972898e+03 -3.926026e+02 1.345954e+03
-4.690609e+09 -4.490628e+09 -4.650635e+09 -5.597646e+03 -1.100083e+02 1.369020e+03
-3.825648e+09 -3.625646e+09 -3.785667e+09 -8.424788e+02 4.229393e+03 -4.906680e+02
-4.131771e+09 -3.931789e+09 -4.091793e+09 -2.815341e+03 2.142478e+02 2.163140e+03
-4.819443e+09 -4.619457e+09 -4.779460e+09 -1.591794e+03 1.902388e+02 4.723610e+02
-4.990959e+09 -4.790981e+09 -4.950986e+09 -4.474730e+03 7.038392e+01 3.235184e+02
-4.646643e+09 -4.446664e+09 -4.606669e+09 -5.383906e+03 -2.239460e+02 1.335422e+03
-3.961648e+09 -3.761667e+09 -3.921672e+09 -4.443894e+03 -9.190109e+02 2.703684e+03
-4.800855e+09 -4.600838e+09 -4.760863e+09 -4.299642e+03 1.330537e+03 -1.996480e+02
-4.308551e+09 -4.108531e+09 -4.268557e+09 -4.840618e+03 3.454396e+03 -1.201772e+03
-4.636369e+09 -4.436344e+09 -4.596378e+09 -6.733968e+03 1.999580e+03 -6.407508e+02
-4.120802e+09 -3.920778e+09 -4.080811e+09 -7.277604e+03 5.477647e+03 -2.699568e+03
-4.478351e+09 -4.278334e+09 -4.438362e+09 -5.990267e+03 2.848426e+03 -1.362138e+03
-4.135118e+09 -3.935102e+09 -4.095127e+09 -5.402625e+03 3.252895e+03 -1.090423e+03
-4.140348e+09 -3.940357e+09 -4.100375e+09 -1.748863e+04 -3.019661e+03 3.866431e+03
-2.247729e+09 -2.047736e+09 -2.207739e+09 1.119007e+03 1.401802e+02 5.916668e+02
-4.820664e+09 -4.620667e+09 -4.780692e+09 -2.547384e+04 -3.111116e+03 3.795791e+03
-4.305793e+09 -4.105796e+09 -4.265819e+09 -2.263556e+04 -5.047745e+03 5.292689e+03
-4.305453e+09 -4.105456e+09 -4.265482e+09 -2.848265e+04 -7.459999e+03 6.323056e+03
-4.808333e+09 -4.608308e+09 -4.768342e+09 -3.542568e+03 -1.603250e+03 1.917493e+02
-4.197146e+09 -3.997125e+09 -4.157155e+09 -1.707571e+03 -2.212708e+03 9.851482e+02
-4.764011e+09 -4.563992e+09 -4.724020e+09 -1.200330e+03 1.737859e+02 7.120362e+02
-4.285387e+09 -4.085368e+09 -4.245396e+09 -3.739732e+03 -2.422054e+03 1.019795e+03
-4.234485e+09 -4.034469e+09 -4.194494e+09 -2.104423e+03 -1.863498e+03 7.826885e+02
-3.758783e+09 -3.558763e+09 -3.718791e+09 -4.585704e+03 -3.130839e+03 1.405667e+03
-4.109751e+09 -3.909734e+09 -4.069760e+09 -1.143741e+03 -1.526486e+03 7.610275e+02
-5.003090e+09 -4.803070e+09 -4.963099e+09 -1.728430e+03 -1.469420e+02 2.868813e+02
-3.993438e+09 -3.793422e+09 -3.953446e+09 -2.405821e+03 -1.476949e+03 1.041010e+03
-4.302291e+09 -4.102406e+09 -4.262196e+09 6.189472e+04 3.409942e+03 2.541477e+04
-4.303581e+09 -4.103743e+09 -4.263304e+09 4.440936e+04 2.160136e+04 3.968335e+04
-4.302484e+09 -4.102638e+09 -4.262367e+09 1.884223e+04 2.138190e+03 3.643533e+04
-4.132804e+09 -3.932976e+09 -4.092635e+09 2.776502e+04 -2.347158e+04 5.334200e+04
-4.303041e+09 -4.103022e+09 -4.262801e+09 -7.660163e+04 -2.329819e+04 1.533963e+04
-4.113061e+09 -3.913119e+09 -4.073014e+09 6.692925e+04 -4.767997e+03 -6.831596e+03
-4.648663e+09 -4.448559e+09 -4.608501e+09 -6.255759e+04 -1.456559e+04 1.388797e+04
-4.131579e+09 -3.931499e+09 -4.091299e+09 -7.226687e+04 -2.302751e+04 1.968398e+04
-4.645956e+09 -4.445879e+09 -4.605666e+09 -8.564049e+04 -2.467008e+04 2.955155e+04
-4.305380e+09 -4.105357e+09 -4.265388e+09 7.339627e+03 4.921931e+03 1.278506e+03
-4.304068e+09 -4.104040e+09 -4.264076e+09 9.845979e+03 5.284632e+03 1.860745e+03
-4.304571e+09 -4.104538e+09 -4.264577e+09 1.057279e+04 7.002037e+03 1.454019e+03
-4.133555e+09 -3.933522e+09 -4.093562e+09 1.002820e+04 7.418130e+03 1.309519e+03
-4.815516e+09 -4.615487e+09 -4.775522e+09 4.198611e+04 -2.997563e+03 1.754490e+03
-4.645241e+09 -4.445235e+09 -4.605273e+09 3.995835e+04 -1.355060e+03 -2.236339e+03
-4.820946e+09 -4.620905e+09 -4.780946e+09 3.981779e+04 -2.098121e+03 -3.939828e+03
-4.129561e+09 -3.929549e+09 -4.089558e+09 4.466538e+04 -3.512098e+03 -2.666950e+02
-2.893895e+09 -2.693889e+09 -2.853906e+09 -5.663732e+01 -5.199009e+03 -8.116986e+02
-4.646744e+09 -4.446755e+09 -4.606744e+09 -5.362637e+04 -2.663419e+03 3.899384e+03
-4.132148e+09 -3.932154e+09 -4.092145e+09 -4.775649e+04 -4.415237e+03 1.348445e+02
-4.819315e+09 -4.619335e+09 -4.779321e+09 -5.377274e+04 -6.870917e+03 4.040255e+03
-4.992054e+09 -4.792088e+09 -4.952042e+09 -5.781145e+04 1.174450e+03 -9.365584e+03
-4.006458e+09 -3.806427e+09 -3.966466e+09 -1.734073e+03 -5.317895e+03 8.094184e+02
-4.820236e+09 -4.620231e+09 -4.780189e+09 -6.762130e+04 1.397396e+04 -4.960137e+03
-4.133386e+09 -3.933403e+09 -4.093405e+09 -8.581116e+02 5.117858e+02 1.659706e+03
-3.987841e+09 -3.787856e+09 -3.947858e+09 1.030440e+02 3.037524e+02 1.006510e+03
-4.633412e+09 -4.433428e+09 -4.593431e+09 -2.777651e+02 -5.659855e+01 9.334648e+02
-4.797806e+09 -4.597820e+09 -4.757822e+09 -4.706904e+02 -2.195493e+02 3.220707e+02
-2.235365e+09 -2.035368e+09 -2.195372e+09 4.093621e+02 2.818617e+01 2.909325e+01
-2.363311e+09 -2.163314e+09 -2.323318e+09 6.804206e+02 1.023872e+02 4.847147e+01
-2.762682e+09 -2.562685e+09 -2.722689e+09 3.771297e+02 2.058727e+01 6.767338e+01
-4.921741e+09 -4.721718e+09 -4.881750e+09 6.163287e+02 -5.163361e-05 -1.722364e+02
-2.805048e+09 -2.605050e+09 -2.765055e+09 7.553797e+02 1.766720e+02 1.097688e+02
-2.182251e+09 -1.982237e+09 -2.142252e+09 2.423571e+03 -1.115817e+04 -4.569295e+03
-3.394761e+09 -3.194763e+09 -3.354768e+09 7.679654e+02 6.572512e+01 9.522646e+01
-4.072537e+09 -3.872522e+09 -4.032541e+09 -2.247293e+03 1.608501e+03 -1.115143e+03
-3.039990e+09 -2.839977e+09 -2.999994e+09 -1.834503e+03 4.156699e+03 -1.747222e+03
-4.287492e+09 -4.087475e+09 -4.247497e+09 -1.926442e+03 2.053571e+03 -7.626683e+02
-1.873249e+09 -1.673238e+09 -1.833249e+09 1.117014e+03 5.404561e+03 -2.898555e+03
-3.266787e+09 -3.066773e+09 -3.226791e+09 -1.330951e+03 3.282402e+03 -1.790910e+03
-3.427921e+09 -3.227906e+09 -3.387925e+09 -1.522210e+03 3.666608e+03 -1.371177e+03
-3.792561e+09 -3.592546e+09 -3.752565e+09 -1.237424e+03 1.693441e+03 -6.271706e+02
-4.291229e+09 -4.091237e+09 -4.251242e+09 -3.050157e+03 -3.342609e+02 7.663472e+02
-4.819928e+09 -4.619935e+09 -4.779940e+09 -2.414547e+03 8.990542e+01 4.696471e+02
-4.130309e+09 -3.930317e+09 -4.090321e+09 -2.354592e+03 -4.478005e+02 6.180190e+02
-3.957472e+09 -3.757479e+09 -3.917484e+09 -2.436684e+03 -6.460381e+02 8.175554e+02
-4.156737e+09 -3.956743e+09 -4.116747e+09 -1.849904e+03 -1.845259e+02 5.481871e+02
-4.648043e+09 -4.447988e+09 -4.607908e+09 -7.144131e+04 1.358956e+04 -1.099803e+04
-2.507915e+09 -2.307919e+09 -2.467923e+09 7.137402e+02 2.027373e+02 7.015217e+01
-4.820305e+09 -4.620205e+09 -4.780134e+09 -6.570098e+04 -7.063376e+02 1.867042e+04
-4.982493e+09 -4.782391e+09 -4.942027e+09 -6.484810e+04 2.337863e+03 -1.242416e+04
-4.129361e+09 -3.929353e+09 -4.088893e+09 -8.562738e+04 9.490599e+04 -8.963430e+04
-4.133812e+09 -3.933723e+09 -4.093629e+09 -7.007237e+04 3.108287e+04 -3.551625e+04
-3.960433e+09 -3.760466e+09 -3.920471e+09 8.216064e+03 1.952397e+03 5.608345e+03
-4.476456e+09 -4.276500e+09 -4.436505e+09 1.341828e+04 2.061380e+03 4.907420e+03
-4.305265e+09 -4.105307e+09 -4.265313e+09 1.285721e+04 1.728948e+03 4.872083e+03
-4.647528e+09 -4.447581e+09 -4.607583e+09 7.356247e+03 8.925125e+02 3.653415e+03
-4.647397e+09 -4.447447e+09 -4.607445e+09 1.200579e+04 1.147827e+03 4.455534e+03
-4.133129e+09 -3.933181e+09 -4.093178e+09 1.009967e+04 1.229853e+03 7.822835e+03
-4.133388e+09 -3.933427e+09 -4.093429e+09 5.360464e+03 1.417586e+03 4.929689e+03
-1.897151e+09 -1.697158e+09 -1.857161e+09 1.288533e+03 2.373997e+02 6.673781e+02
-4.821035e+09 -4.620958e+09 -4.781017e+09 9.095729e+03 3.824915e+03 1.463204e+03
-4.820325e+09 -4.620256e+09 -4.780312e+09 1.408138e+04 1.671873e+03 -8.188068e+02
-3.962789e+09 -3.762703e+09 -3.922769e+09 1.734464e+04 -3.272532e+03 2.002205e+03
-4.134565e+09 -3.934491e+09 -4.094545e+09 9.321276e+03 7.852918e+03 -1.072088e+03
-4.648200e+09 -4.448130e+09 -4.608181e+09 1.766890e+04 2.103851e+03 -2.726962e+01
-4.648440e+09 -4.448335e+09 -4.608381e+09 -4.073604e+04 1.072409e+04 1.474134e+03
-4.647425e+09 -4.447346e+09 -4.607410e+09 -3.328899e+04 1.300021e+03 2.314769e+03
-4.304761e+09 -4.104660e+09 -4.264682e+09 -3.171174e+04 -1.041259e+04 5.031407e+01
-4.819715e+09 -4.619624e+09 -4.779675e+09 -3.315958e+04 -6.043998e+03 6.204013e+03
-4.243859e+09 -4.043869e+09 -4.203872e+09 -1.325014e+03 -1.225872e+02 3.561615e+02
-4.246358e+09 -4.046368e+09 -4.206371e+09 -9.184561e+02 -1.231518e+02 5.268847e+02
-3.174623e+09 -2.974632e+09 -3.134635e+09 -9.942467e+02 -4.567277e+02 6.993039e+02
-3.462410e+09 -3.262420e+09 -3.422423e+09 -1.427398e+03 -2.185554e+02 8.473944e+02
-3.817698e+09 -3.617708e+09 -3.777710e+09 -9.759009e+02 -9.361140e+01 4.224326e+02
-4.132024e+09 -3.931975e+09 -4.092026e+09 3.218802e+03 -9.158524e+03 -1.974782e+03
-4.300461e+09 -4.100426e+09 -4.260465e+09 8.080032e+02 6.720278e+03 2.595901e+02
-4.269672e+09 -4.069650e+09 -4.229676e+09 -5.462642e+02 2.748085e+03 -8.835027e+01
-4.990317e+09 -4.790285e+09 -4.950323e+09 3.798640e+02 1.873440e+03 -2.169013e+02
-4.110853e+09 -3.910829e+09 -4.070858e+09 1.691699e+03 3.270693e+03 -2.593386e+02
-3.922762e+09 -3.722738e+09 -3.882766e+09 -9.860152e+02 3.904855e+03 -9.978988e+01
-4.821434e+09 -4.621409e+09 -4.781440e+09 1.113845e+03 1.461719e+03 2.433556e+02
-4.669356e+09 -4.469432e+09 -4.629382e+09 4.154148e+04 -3.259226e+02 -5.591419e+03
-4.845983e+09 -4.646088e+09 -4.806018e+09 3.117584e+04 6.091348e+03 5.870744e+03
-4.321791e+09 -4.121908e+09 -4.281794e+09 3.882245e+04 6.602769e+03 -6.444003e+03
-4.673405e+09 -4.473519e+09 -4.633431e+09 2.797418e+04 1.693456e+03 -2.177722e+03
-4.992422e+09 -4.792418e+09 -4.952432e+09 4.471053e+03 1.686636e+01 1.709311e+02
-4.304922e+09 -4.105013e+09 -4.264430e+09 7.028552e+04 5.483337e+04 5.811961e+04
-4.646839e+09 -4.447001e+09 -4.606621e+09 4.438449e+04 1.296304e+04 3.135668e+04
-4.304369e+09 -4.104479e+09 -4.264053e+09 5.685344e+04 1.886404e+04 7.438771e+04
-4.820027e+09 -4.620169e+09 -4.779612e+09 4.258249e+04 -4.356867e+04 2.990059e+04
-4.308043e+09 -4.108065e+09 -4.268082e+09 -2.078909e+04 -4.384069e+03 5.874725e+03
-4.819772e+09 -4.619774e+09 -4.779795e+09 -1.502782e+04 -6.397183e+02 8.729359e+02
-4.655387e+09 -4.455396e+09 -4.615418e+09 -2.134379e+04 -8.385894e+02 1.684356e+03
-4.142060e+09 -3.942078e+09 -4.102095e+09 -2.177239e+04 -4.465427e+03 7.560327e+03
-2.283758e+09 -2.083768e+09 -2.243769e+09 1.556060e+02 1.229665e+02 1.557945e+02
-4.313878e+09 -4.113893e+09 -4.273909e+09 -2.352214e+04 -4.782075e+03 6.625567e+03
-2.824179e+09 -2.624160e+09 -2.784185e+09 -4.193241e+03 -5.106785e+03 1.641845e+03
-2.808101e+09 -2.608081e+09 -2.768105e+09 1.481337e+03 -7.233070e+03 3.914557e+02
-3.393911e+09 -3.193887e+09 -3.353917e+09 -8.809619e+02 -8.298710e+03 -2.932456e+02
-4.305831e+09 -4.105790e+09 -4.265839e+09 2.288843e+03 -8.384898e+03 -1.370403e+03
-3.235569e+09 -3.035538e+09 -3.195574e+09 1.565433e+03 -1.213004e+04 1.405607e+03
-2.170419e+09 -1.970405e+09 -2.130421e+09 -1.403615e+02 -7.657759e+03 1.782631e+03
-2.281717e+09 -2.081697e+09 -2.241718e+09 7.266787e+02 -1.003188e+04 3.512436e+01
-2.828149e+09 -2.628127e+09 -2.788153e+09 -5.729668e+02 -9.141085e+03 2.234023e+01
-4.165702e+09 -3.965691e+09 -4.125708e+09 1.773750e+03 7.101791e+02 5.346650e+02
-2.133280e+09 -1.933274e+09 -2.093283e+09 1.036927e+03 1.353279e+03 9.995510e+02
-3.782435e+09 -3.582431e+09 -3.742442e+09 1.057281e+03 5.560548e+02 5.507407e+02
-3.826122e+09 -3.626116e+09 -3.786129e+09 3.103580e+03 1.285618e+03 7.729463e+02
-3.401387e+09 -3.201382e+09 -3.361392e+09 2.628610e+02 1.931423e+02 6.318451e+02
-3.733913e+09 -3.533908e+09 -3.693918e+09 1.871900e+03 1.011790e+03 7.762522e+02
-3.852373e+09 -3.652366e+09 -3.812378e+09 1.377642e+03 7.241410e+02 4.756108e+02
-3.219173e+09 -3.019165e+09 -3.179177e+09 8.878939e+02 7.080783e+02 9.743666e+02
-3.854191e+09 -3.654185e+09 -3.814196e+09 5.580163e+02 3.060693e+02 5.518472e+02
-1.967216e+09 -1.767225e+09 -1.927227e+09 1.602974e+02 1.681317e+02 1.228191e+02
-4.120030e+09 -3.920035e+09 -4.080041e+09 -2.406051e+03 -3.033365e+02 4.762711e+02
-4.832749e+09 -4.632754e+09 -4.792759e+09 -1.450761e+03 -7.134031e+01 -1.163509e+00
-4.134256e+09 -3.934137e+09 -4.094140e+09 3.973161e+04 1.979311e+04 9.836415e+03
-4.146284e+09 -3.946289e+09 -4.106293e+09 -1.436561e+03 -2.073482e+01 4.084078e+02
-4.311908e+09 -4.111913e+09 -4.271917e+09 -1.307595e+03 -1.094713e+02 1.475246e+02
-4.992357e+09 -4.792237e+09 -4.952267e+09 2.671920e+04 -9.442887e+03 -2.428284e+03
-4.985114e+09 -4.785121e+09 -4.945126e+09 -2.689513e+03 -1.263226e+02 2.510557e+02
-4.297845e+09 -4.097852e+09 -4.257857e+09 -2.524462e+03 -3.667233e+02 5.289315e+02
-4.321119e+09 -4.121125e+09 -4.281130e+09 -2.105586e+03 -2.931209e+02 3.623764e+02
-4.288923e+09 -4.088930e+09 -4.248934e+09 -1.534325e+03 -2.359275e+02 1.751523e+02
-4.296895e+09 -4.096901e+09 -4.256905e+09 -1.302209e+03 -1.224238e+02 -7.854891e-02
-4.650494e+09 -4.450500e+09 -4.610504e+09 -1.723961e+03 -1.187066e+02 3.718869e+02
-4.471919e+09 -4.271953e+09 -4.431961e+09 1.404247e+04 1.607519e+03 4.066230e+03
-4.815155e+09 -4.615184e+09 -4.775194e+09 1.678007e+04 7.863943e+02 8.845389e+02
-4.648501e+09 -4.448541e+09 -4.608546e+09 1.536788e+04 1.589975e+03 2.697657e+03
-4.819419e+09 -4.619483e+09 -4.779481e+09 1.459811e+04 1.350546e+03 5.587599e+03
-4.821475e+09 -4.621370e+09 -4.781329e+09 -4.964443e+04 -1.655026e+04 6.741254e+03
-4.305428e+09 -4.105324e+09 -4.265261e+09 -6.267322e+04 -7.934505e+03 5.527878e+03
-4.645350e+09 -4.445251e+09 -4.605086e+09 -5.800729e+04 -3.385624e+04 2.788357e+04
-2.657115e+09 -2.457105e+09 -2.617117e+09 -7.226667e+01 3.358014e+02 -7.908870e+02
-3.903013e+09 -3.703001e+09 -3.863017e+09 -6.454508e+02 5.361084e+02 -7.892396e+02
-3.814605e+09 -3.614594e+09 -3.774608e+09 -3.463266e+02 3.336166e+02 -7.528291e+02
-4.052667e+09 -3.852656e+09 -4.012671e+09 -1.909645e+02 4.231244e+02 -5.155829e+02
-4.817387e+09 -4.617413e+09 -4.777421e+09 1.103744e+04 -4.556349e+01 3.069615e+03
-4.133335e+09 -3.933352e+09 -4.093362e+09 1.057232e+04 2.178532e+03 3.510167e+03
-4.312919e+09 -4.112939e+09 -4.272951e+09 1.456579e+04 2.277836e+03 4.782356e+03
-4.130921e+09 -3.930947e+09 -4.090955e+09 1.074074e+04 2.026907e+03 3.203172e+03
-4.303394e+09 -4.103400e+09 -4.263409e+09 4.972154e+03 8.711525e+02 8.832213e+02
-4.299331e+09 -4.099340e+09 -4.259347e+09 4.828271e+03 7.034919e+02 1.268457e+03
-4.814639e+09 -4.614646e+09 -4.774652e+09 4.021873e+03 -1.066877e+02 5.517188e+02
-4.297801e+09 -4.097809e+09 -4.257816e+09 3.942369e+03 6.929355e+02 9.913400e+02
-4.271765e+09 -4.071811e+09 -4.231824e+09 1.732218e+04 -8.644808e+03 -6.955665e+03
-4.185456e+09 -3.985483e+09 -4.145504e+09 9.019920e+03 -5.795503e+03 -1.825695e+03
-4.511120e+09 -4.311158e+09 -4.471179e+09 3.570543e+03 -2.847768e+03 5.903158e+01
-4.183230e+09 -3.983274e+09 -4.143290e+09 8.685775e+03 -5.434666e+03 -2.177380e+03
-4.823846e+09 -4.623902e+09 -4.783914e+09 1.820308e+04 -3.910635e+03 -4.570332e+03
-4.759576e+09 -4.559609e+09 -4.719633e+09 6.098452e+03 -1.481115e+03 1.762979e+03
-3.158819e+09 -2.958811e+09 -3.118828e+09 2.311677e+03 -5.374017e+03 -1.822566e+03
-3.170372e+09 -2.970363e+09 -3.130381e+09 1.514217e+03 -4.597988e+03 -1.100071e+03
-4.151690e+09 -3.951681e+09 -4.111702e+09 1.927952e+03 -1.882120e+03 -3.886508e+02
-4.004339e+09 -3.804328e+09 -3.964350e+09 2.373094e+03 -1.924898e+03 -1.289298e+03
-4.304965e+09 -4.104895e+09 -4.264940e+09 1.764762e+04 1.168308e+04 8.509444e+02
-4.647500e+09 -4.447442e+09 -4.607501e+09 1.856627e+04 2.369538e+03 1.855677e+03
-4.648497e+09 -4.448439e+09 -4.608491e+09 8.337137e+03 2.893248e+03 1.793032e+02
-4.648871e+09 -4.448800e+09 -4.608866e+09 1.141243e+04 2.527469e+03 1.379805e+03
-4.648600e+09 -4.448495e+09 -4.608572e+09 -2.038376e+04 2.275027e+03 2.241309e+03
-4.819940e+09 -4.619867e+09 -4.779927e+09 -2.154923e+04 -1.544575e+03 -1.414272e+03
-4.303725e+09 -4.103650e+09 -4.263718e+09 -1.855353e+04 -1.041716e+04 2.717422e+03
-4.647659e+09 -4.447588e+09 -4.607642e+09 -2.558752e+04 -2.372760e+03 1.759494e+02
-3.961064e+09 -3.761086e+09 -3.921090e+09 -3.179130e+03 -7.585738e+02 3.452283e+03
-4.304571e+09 -4.104603e+09 -4.264607e+09 -4.432103e+03 -4.213930e+02 4.417554e+03
-4.303807e+09 -4.103839e+09 -4.263843e+09 -2.427406e+03 -4.315815e+02 3.973324e+03
-4.820056e+09 -4.620086e+09 -4.780091e+09 -4.636224e+03 7.428846e+02 1.887534e+03
-4.981637e+09 -4.781627e+09 -4.941648e+09 -4.305948e+03 -8.630116e+02 3.516374e+02
-4.132774e+09 -3.932805e+09 -4.092810e+09 -3.776994e+03 3.646836e+02 5.088464e+03
-2.176194e+09 -1.976194e+09 -2.136201e+09 -1.770441e+03 -6.147882e+02 1.251782e+03
-2.281080e+09 -2.081080e+09 -2.241087e+09 -1.811298e+03 -1.289787e+03 1.744622e+03
-2.764228e+09 -2.564227e+09 -2.724235e+09 -2.443846e+03 -1.880439e+03 1.945637e+03
-3.822423e+09 -3.622422e+09 -3.782436e+09 -4.608942e+03 -1.907355e+03 1.517519e+03
-3.239903e+09 -3.039905e+09 -3.199912e+09 -2.370344e+03 -9.510678e+02 1.257937e+03
-3.906498e+09 -3.706500e+09 -3.866509e+09 -3.660519e+03 -1.109002e+03 1.242656e+03
-4.266044e+09 -4.066054e+09 -4.226057e+09 -1.228766e+03 -1.650730e+02 4.305435e+02
-4.030909e+09 -3.830920e+09 -3.990922e+09 -1.150912e+03 -2.983901e+02 3.702425e+02
-3.421110e+09 -3.221120e+09 -3.381122e+09 -9.624703e+02 -1.520104e+02 6.601847e+02
-2.786960e+09 -2.586972e+09 -2.746974e+09 -1.105606e+03 -1.054696e+02 1.510551e+03
-3.919479e+09 -3.719490e+09 -3.879493e+09 -1.717548e+03 -2.426279e+02 9.244599e+02
-4.263376e+09 -4.063388e+09 -4.223390e+09 -1.122114e+03 -1.351985e+02 6.321310e+02
-2.796206e+09 -2.596217e+09 -2.756219e+09 -8.531188e+02 -1.827123e+02 1.190830e+03
-4.026153e+09 -3.826170e+09 -3.986192e+09 -1.145603e+04 3.787542e+03 -1.934414e+03
-3.763672e+09 -3.563693e+09 -3.723712e+09 -1.008031e+04 5.964176e+03 -3.116714e+03
-3.372406e+09 -3.172425e+09 -3.332436e+09 -9.931709e+03 1.197231e+04 -7.004943e+03
-3.231669e+09 -3.031668e+09 -3.191694e+09 -1.301867e+04 1.200733e+04 -7.902520e+03
-3.815054e+09 -3.615066e+09 -3.775092e+09 -1.271826e+04 4.862204e+03 -2.638169e+03
-2.625254e+09 -2.425266e+09 -2.585267e+09 3.653856e+02 1.166141e+02 6.050333e+02
-2.970840e+09 -2.770818e+09 -2.930848e+09 2.935638e+03 -1.179954e+04 -3.724184e+03
-4.237415e+09 -4.037429e+09 -4.197430e+09 1.258570e+02 3.799499e+01 3.798292e+02
-4.079653e+09 -3.879666e+09 -4.039667e+09 1.182611e+02 5.449470e+01 3.165804e+02
-3.505256e+09 -3.305268e+09 -3.465270e+09 4.265823e+02 1.106245e+02 1.072465e+03
-3.978455e+09 -3.778467e+09 -3.938468e+09 2.364193e+02 9.131784e+01 1.569899e+02
-4.130087e+09 -3.930099e+09 -4.090101e+09 7.326595e+01 5.606599e+01 1.578510e+02
-4.035317e+09 -3.835329e+09 -3.995331e+09 1.093275e+02 8.264973e+00 1.638784e+02
-4.302437e+09 -4.102464e+09 -4.262469e+09 5.584394e+03 6.282335e+02 3.410826e+03
-4.818084e+09 -4.618112e+09 -4.778118e+09 5.362055e+03 -5.792444e+02 2.101786e+03
-4.132054e+09 -3.932077e+09 -4.092083e+09 7.063434e+03 1.900857e+03 3.215338e+03
-4.301474e+09 -4.101499e+09 -4.261505e+09 7.532098e+03 8.040682e+02 3.617972e+03
-4.814317e+09 -4.614324e+09 -4.774344e+09 1.668941e+04 9.998435e+02 1.158080e+03
-4.131211e+09 -3.931226e+09 -4.091241e+09 1.958270e+04 2.191628e+03 3.106404e+03
-4.462628e+09 -4.262651e+09 -4.422667e+09 2.434014e+04 3.054708e+03 3.385697e+03
-3.950782e+09 -3.750790e+09 -3.910808e+09 1.884669e+04 3.352468e+03 4.301746e+03
-4.980472e+09 -4.780485e+09 -4.940508e+09 2.687624e+04 2.502387e+02 1.109032e+03
-4.133687e+09 -3.933591e+09 -4.093600e+09 -4.838125e+04 1.054047e+03 1.338657e+04
-4.819889e+09 -4.619824e+09 -4.779760e+09 -6.761596e+04 1.241137e+04 -2.046792e+04
-4.305002e+09 -4.104925e+09 -4.264883e+09 -6.615148e+04 6.045890e+03 5.158340e+02
-3.962623e+09 -3.762524e+09 -3.922507e+09 -6.288790e+04 4.158004e+04 -2.613775e+03
-4.136858e+09 -3.936735e+09 -4.096663e+09 -5.504308e+04 2.678203e+04 1.347496e+04
-4.290179e+09 -4.090196e+09 -4.250198e+09 -2.846599e+02 -7.054128e+01 1.073426e+03
-4.804753e+09 -4.604769e+09 -4.764772e+09 -2.115870e+01 6.278802e+02 4.981122e+02
-4.303267e+09 -4.103287e+09 -4.263290e+09 2.100239e+02 5.304759e+01 1.837552e+03
-4.289142e+09 -4.089159e+09 -4.249163e+09 1.703551e+02 3.068021e+01 1.409933e+03
-4.304894e+09 -4.104961e+09 -4.264150e+09 3.442299e+04 1.762778e+04 1.315723e+05
-4.645536e+09 -4.445652e+09 -4.605472e+09 6.190457e+04 1.388888e+03 3.092547e+04
-4.923540e+09 -4.723581e+09 -4.883601e+09 -3.440359e+03 1.116543e+03 3.088120e-05
-4.133383e+09 -3.933569e+09 -4.092933e+09 -3.032824e+03 -6.238118e+04 1.296405e+05
-4.304706e+09 -4.104875e+09 -4.264053e+09 2.217184e+04 2.102357e+04 9.934129e+04
-4.131823e+09 -3.932011e+09 -4.091640e+09 1.033501e+04 4.492643e+04 6.431347e+04
-3.045210e+09 -2.845203e+09 -3.005217e+09 -3.270374e+02 3.627269e+03 -1.070854e+02
-4.304532e+09 -4.104673e+09 -4.264179e+09 -1.017051e+04 -5.461344e+03 8.396537e+04
-4.475866e+09 -4.275917e+09 -4.435913e+09 -1.133842e+04 -1.603554e+03 5.263693e+03
-4.146573e+09 -3.946608e+09 -4.106612e+09 -8.109067e+03 -1.661103e+03 4.263508e+03
-4.828475e+09 -4.628517e+09 -4.788521e+09 -1.302719e+04 -1.216368e+03 9.181336e+02
-4.320010e+09 -4.120045e+09 -4.280053e+09 -1.450192e+04 -2.662885e+03 6.196410e+03
-4.834643e+09 -4.634680e+09 -4.794688e+09 -1.372744e+04 -1.316140e+03 2.651670e+03
-3.958244e+09 -3.758293e+09 -3.918291e+09 -1.186499e+04 -7.990044e+02 6.443223e+03
-4.821713e+09 -4.621767e+09 -4.781767e+09 -1.937946e+04 -1.375821e+03 4.573187e+03
-4.819734e+09 -4.619795e+09 -4.779789e+09 -1.679140e+04 8.371615e+01 1.668253e+03
-4.815542e+09 -4.615593e+09 -4.775594e+09 -1.155086e+04 -4.825138e+01 4.745075e+03
-4.130078e+09 -3.930118e+09 -4.090121e+09 -1.621575e+04 -1.622367e+03 5.430109e+03
-4.307079e+09 -4.107128e+09 -4.267133e+09 -1.931316e+04 -2.129400e+03 6.343601e+03
-2.465698e+09 -2.265697e+09 -2.425703e+09 1.040248e+03 3.980059e+02 7.027195e+02
-1.888344e+09 -1.688343e+09 -1.848349e+09 7.176425e+02 3.246442e+02 4.458157e+02
-2.890632e+09 -2.690632e+09 -2.850639e+09 1.124248e+03 4.266941e+02 4.593746e+02
-2.497145e+09 -2.297145e+09 -2.457151e+09 8.570788e+02 1.959393e+02 5.138693e+02
-2.098529e+09 -1.898530e+09 -2.058535e+09 1.239768e+03 4.336081e+02 3.805429e+02
-2.494961e+09 -2.294961e+09 -2.454967e+09 1.260676e+03 4.721152e+02 2.785588e+02
-4.820892e+09 -4.620898e+09 -4.780921e+09 -2.171979e+04 -6.044127e+02 5.067758e+02
-4.133440e+09 -3.933431e+09 -4.093459e+09 -2.106370e+04 -4.417137e+03 3.865238e+03
-4.133645e+09 -3.933645e+09 -4.093672e+09 -2.903592e+04 -7.290677e+03 8.407498e+03
-4.648686e+09 -4.448689e+09 -4.608716e+09 -2.847393e+04 -1.153471e+03 1.753729e+03
-4.304561e+09 -4.104553e+09 -4.264582e+09 -2.935850e+04 -6.487305e+03 6.096260e+03
-4.291363e+09 -4.091368e+09 -4.251376e+09 -4.207658e+03 -6.973585e+02 1.049448e+03
-4.118257e+09 -3.918263e+09 -4.078271e+09 -4.584904e+03 -4.231407e+02 1.641034e+03
-4.804723e+09 -4.604730e+09 -4.764738e+09 -4.850395e+03 -3.736421e+02 7.538264e+02
-4.284089e+09 -4.084096e+09 -4.244103e+09 -4.441267e+03 -5.161976e+02 9.357312e+02
-4.627770e+09 -4.427776e+09 -4.587783e+09 -3.061242e+03 -3.039589e+02 6.313773e+02
-4.837006e+09 -4.637088e+09 -4.797043e+09 3.724548e+04 -8.302650e+03 -1.740206e+03
-4.136542e+09 -3.936655e+09 -4.096558e+09 2.499879e+04 1.192960e+04 3.575979e+02
-4.159514e+09 -3.959615e+09 -4.119537e+09 3.157715e+04 -7.033189e+03 -8.227512e+03
-4.131864e+09 -3.931949e+09 -4.091904e+09 2.608731e+04 -8.219186e+01 5.232811e+03
-4.823904e+09 -4.624001e+09 -4.783959e+09 1.300790e+04 4.056615e+03 3.637416e+03
-4.652367e+09 -4.452459e+09 -4.612435e+09 2.726287e+04 -6.647436e+03 5.403127e+03
-4.134463e+09 -3.934435e+09 -4.094468e+09 2.895596e+03 4.261460e+03 9.313361e+02
-4.132651e+09 -3.932620e+09 -4.092656e+09 4.321502e+03 6.514721e+03 2.839945e-01
-4.477694e+09 -4.277666e+09 -4.437700e+09 4.455034e+03 3.350356e+03 6.480203e+02
-4.992089e+09 -4.792059e+09 -4.952095e+09 4.474139e+03 1.765207e+03 1.598465e+02
-4.820156e+09 -4.620118e+09 -4.780161e+09 7.699407e+03 2.898005e+03 -4.922849e+02
-4.174908e+09 -3.974883e+09 -4.134915e+09 1.026928e+03 -1.931193e+03 -8.986335e+02
-3.962650e+09 -3.762626e+09 -3.922656e+09 5.141777e+03 4.163408e+03 1.201262e+03
-2.602989e+09 -2.402983e+09 -2.562998e+09 -1.730946e+03 6.102615e+03 -1.442365e+03
-2.595860e+09 -2.395853e+09 -2.555865e+09 -5.372322e+02 4.063095e+03 -1.353560e+03
-3.853597e+09 -3.653586e+09 -3.813604e+09 -3.050315e+03 2.613775e+03 -9.443598e+02
-3.403114e+09 -3.203106e+09 -3.363124e+09 -3.980150e+03 5.255614e+03 -2.786167e+03
-3.757882e+09 -3.557872e+09 -3.717890e+09 -2.430080e+03 2.554038e+03 -9.081574e+02
-4.990767e+09 -4.790786e+09 -4.950791e+09 -2.468660e+03 4.879468e+01 1.859466e+02
-4.645973e+09 -4.445993e+09 -4.605996e+09 -1.006991e+03 -1.332375e+02 1.324239e+03
-4.476459e+09 -4.276475e+09 -4.436477e+09 -8.374923e+02 -9.770801e+01 9.624037e+02
-4.991028e+09 -4.791044e+09 -4.951047e+09 -1.163979e+03 1.460355e+02 1.155450e+02
-4.132032e+09 -3.932048e+09 -4.092051e+09 -1.601121e+03 -2.697361e+02 1.705078e+03
-4.133226e+09 -3.933242e+09 -4.093244e+09 -1.216303e+03 -2.590349e+02 1.214419e+03
-4.132413e+09 -3.932434e+09 -4.092437e+09 -3.477680e+02 7.198686e+02 2.405303e+03
-3.962921e+09 -3.762937e+09 -3.922939e+09 -6.485069e+02 -2.183423e+02 1.608555e+03
-4.293825e+09 -4.093831e+09 -4.253841e+09 -5.921408e+03 -1.133212e+03 1.488820e+03
-4.630589e+09 -4.430595e+09 -4.590604e+09 -4.722882e+03 -5.367767e+02 7.097848e+02
-4.811192e+09 -4.611199e+09 -4.771209e+09 -6.572243e+03 -1.269300e+02 1.471443e+03
-4.130694e+09 -3.930699e+09 -4.090710e+09 -6.669545e+03 -1.736244e+03 1.691453e+03
-4.643026e+09 -4.443031e+09 -4.603042e+09 -6.469724e+03 -8.692601e+02 9.772440e+02
-4.300083e+09 -4.100086e+09 -4.260097e+09 -6.094350e+03 -1.252262e+03 1.466074e+03
-4.661072e+09 -4.461102e+09 -4.621124e+09 1.708743e+04 -1.777591e+03 -1.108841e+03
-4.136837e+09 -3.936814e+09 -4.096844e+09 1.329859e+03 -1.677384e+03 -1.159288e+03
-3.600816e+09 -3.400796e+09 -3.560822e+09 1.010758e+03 -9.537759e+02 -1.332535e+03
-4.059845e+09 -3.859824e+09 -4.019852e+09 5.229544e+02 -1.412352e+03 -1.384967e+03
-3.204436e+09 -3.004416e+09 -3.164440e+09 7.090992e+02 -2.469391e+03 -1.639442e+03
-3.852629e+09 -3.652609e+09 -3.812636e+09 1.179140e+03 -1.531754e+03 -1.634647e+03
-2.565634e+09 -2.365621e+09 -2.525639e+09 6.581402e+02 -3.691285e+03 -2.346068e+03
-2.907622e+09 -2.707680e+09 -2.867676e+09 -1.847973e+04 -1.210569e+02 -8.366150e+03
-4.599539e+09 -4.399616e+09 -4.559614e+09 -1.761244e+04 1.467462e+03 -1.078917e+03
-3.971412e+09 -3.771487e+09 -3.931476e+09 -2.970903e+04 7.476131e+03 -9.774381e+03
-4.648659e+09 -4.448579e+09 -4.608643e+09 2.365881e+04 -1.825567e+02 2.044087e+03
-4.305827e+09 -4.105727e+09 -4.265726e+09 2.892736e+04 4.158220e+02 1.787428e+04
-4.121344e+09 -3.921272e+09 -4.081224e+09 6.073990e+04 -2.212579e+04 -2.054392e+04
-4.635478e+09 -4.435421e+09 -4.595427e+09 6.089254e+04 -1.293425e+04 3.483241e+03
-4.458252e+09 -4.258132e+09 -4.418143e+09 4.208430e+04 -7.636622e+03 -7.938966e+03
-4.299242e+09 -4.099188e+09 -4.259241e+09 3.137949e+04 -1.020679e+04 -4.753240e+03
-4.132688e+09 -3.932643e+09 -4.092684e+09 2.466844e+04 -7.145474e+03 -3.997362e+03
-4.989149e+09 -4.789113e+09 -4.949135e+09 4.298157e+04 -4.098462e+03 -1.902902e+03
-4.302637e+09 -4.102617e+09 -4.262659e+09 2.762398e+04 -7.629971e+03 -4.839804e+03
-4.139192e+09 -3.939161e+09 -4.099202e+09 2.800290e+04 -8.258165e+03 -6.681535e+03
-4.652033e+09 -4.452003e+09 -4.612043e+09 2.994113e+04 -3.280757e+03 -1.406831e+03
-4.133767e+09 -3.933739e+09 -4.093780e+09 2.794103e+04 -7.125146e+03 -4.482860e+03
-4.303942e+09 -4.103979e+09 -4.263990e+09 -2.597149e+04 -5.536445e+03 8.820193e+03
-4.822615e+09 -4.622647e+09 -4.782659e+09 -2.353834e+04 -1.498745e+03 4.386294e+03
-4.645378e+09 -4.445408e+09 -4.605416e+09 -2.030335e+04 4.850497e+02 1.951476e+03
-4.136141e+09 -3.936158e+09 -4.096173e+09 -2.513570e+04 -3.467053e+03 4.303906e+03
-4.136156e+09 -3.936186e+09 -4.096194e+09 -2.044378e+04 -2.756167e+03 4.413535e+03
-4.118370e+09 -3.918300e+09 -4.078355e+09 -2.247949e+04 1.044100e+04 -2.978031e+03
-4.720752e+09 -4.520756e+09 -4.680760e+09 -5.847195e+02 7.278217e+00 7.323221e+01
-4.653200e+09 -4.453082e+09 -4.613070e+09 -3.838354e+04 -1.516954e+04 8.654692e+03
-3.950258e+09 -3.750167e+09 -3.910199e+09 -2.819694e+04 -1.920330e+03 -1.346926e+03
-4.830671e+09 -4.630551e+09 -4.790590e+09 -1.592096e+04 6.384816e+02 -6.577737e+03
-4.250133e+09 -4.050128e+09 -4.210143e+09 -4.418226e+03 -9.336458e+02 1.350051e+03
-4.071514e+09 -3.871510e+09 -4.031525e+09 -5.164621e+03 -1.650208e+03 1.112494e+03
-4.797945e+09 -4.597940e+09 -4.757957e+09 -5.266079e+03 -4.182864e+02 9.521867e+02
-4.992500e+09 -4.792497e+09 -4.952514e+09 -6.692750e+03 -4.612933e+01 2.965146e+02
-3.994115e+09 -3.794112e+09 -3.954125e+09 -4.275146e+03 -8.761698e+02 1.035431e+03
-4.074035e+09 -3.874042e+09 -4.034046e+09 -1.379424e+03 -7.527598e+01 3.874141e+02
-4.632156e+09 -4.432163e+09 -4.592166e+09 -1.540798e+03 -1.181883e+02 1.983297e+02
-4.814712e+09 -4.614717e+09 -4.774721e+09 -9.691143e+02 -6.348443e+01 8.906608e+01
-4.064187e+09 -3.864193e+09 -4.024197e+09 -8.452262e+02 -1.776803e+02 4.454704e+01
-4.996724e+09 -4.796730e+09 -4.956735e+09 -1.723120e+03 -2.489834e+01 -4.565945e+01
-4.307261e+09 -4.107267e+09 -4.267271e+09 -1.710575e+03 -1.967232e+02 1.369608e+02
-4.071604e+09 -3.871609e+09 -4.031613e+09 -1.172133e+03 1.384985e+01 1.962210e+02
-4.300879e+09 -4.100872e+09 -4.260549e+09 -9.586782e+04 3.532884e+04 -3.432258e+04
-4.124028e+09 -3.923961e+09 -4.083763e+09 -8.165128e+04 4.784756e+04 -3.342847e+03
-4.305131e+09 -4.105115e+09 -4.264988e+09 -8.856647e+04 1.734683e+04 -1.147493e+04
-4.992179e+09 -4.792163e+09 -4.951971e+09 -7.828809e+04 -3.636442e+03 -3.997088e+03
-4.820201e+09 -4.620165e+09 -4.779992e+09 -8.491324e+04 3.387189e+03 1.660519e+04
-4.992288e+09 -4.792355e+09 -4.952085e+09 -6.384267e+04 -6.714722e+03 -2.676852e+03
-4.820648e+09 -4.620725e+09 -4.780521e+09 -6.573975e+04 1.158558e+04 -2.846507e+04
-4.992245e+09 -4.792277e+09 -4.952158e+09 -6.822463e+04 -8.789788e+03 8.845425e+02
-4.133942e+09 -3.933988e+09 -4.093861e+09 -7.657208e+04 2.538957e+04 -4.074878e+04
-4.264199e+09 -4.064216e+09 -4.224242e+09 2.113836e+04 -7.614743e+03 -6.762393e+03
-4.274422e+09 -4.074452e+09 -4.234474e+09 1.710822e+04 -8.988596e+03 -7.361398e+03
-4.041075e+09 -3.841096e+09 -4.001116e+09 1.245493e+04 -4.255130e+03 -2.235958e+03
-4.105571e+09 -3.905590e+09 -4.065613e+09 2.241363e+03 -6.515928e+03 -1.754984e+03
-4.752577e+09 -4.552593e+09 -4.712620e+09 4.768906e+03 -1.609105e+03 1.152488e+03
-4.824475e+09 -4.624483e+09 -4.784512e+09 1.872237e+04 -1.433208e+03 5.950277e+02
-4.829037e+09 -4.629043e+09 -4.789072e+09 9.944874e+03 -1.554896e+03 6.292942e+02
-3.811450e+09 -3.611473e+09 -3.771493e+09 9.560309e+03 -5.464279e+03 -4.852445e+03
-4.056024e+09 -3.856035e+09 -4.016037e+09 1.128417e+03 1.674688e+02 4.395278e+02
-3.845207e+09 -3.645219e+09 -3.805221e+09 1.428892e+03 2.831284e+02 7.723599e+02
-4.715660e+09 -4.515672e+09 -4.675675e+09 1.377012e+03 4.132643e+01 3.405378e+02
-4.475908e+09 -4.275760e+09 -4.435722e+09 3.895012e+04 8.573716e+03 -6.164009e+03
-4.057278e+09 -3.857288e+09 -4.017291e+09 1.535229e+03 2.106312e+01 6.819126e+02
-4.647166e+09 -4.447137e+09 -4.607156e+09 4.695843e+04 -9.528203e+02 -6.410921e+02
-4.819506e+09 -4.619449e+09 -4.779477e+09 4.652303e+04 6.185989e+03 7.748612e+03
-4.304165e+09 -4.104119e+09 -4.264155e+09 4.428302e+04 6.769795e+03 4.713962e+03
-4.133033e+09 -3.932984e+09 -4.093001e+09 4.491693e+04 -2.019467e+03 -7.907040e+03
-4.304169e+09 -4.104106e+09 -4.264137e+09 -5.159006e+04 -4.709235e+03 3.828301e+03
-4.819554e+09 -4.619499e+09 -4.779513e+09 -5.275086e+04 4.553341e+03 -9.953691e+03
-4.648086e+09 -4.447993e+09 -4.607981e+09 -5.210370e+04 7.690910e+03 -4.246634e+03
-4.303943e+09 -4.103877e+09 -4.263907e+09 -4.037240e+04 -1.172498e+04 7.138625e+02
-4.133584e+09 -3.933551e+09 -4.093488e+09 -6.943315e+04 1.860817e+04 -2.830714e+04
-4.133438e+09 -3.933367e+09 -4.093311e+09 -7.085054e+04 7.024209e+03 7.195091e+03
-4.304322e+09 -4.104278e+09 -4.264272e+09 -5.617218e+04 -5.411569e+03 -2.514562e+03
-4.118677e+09 -3.918694e+09 -4.078696e+09 1.634022e+02 6.862080e+02 1.594968e+03
-4.281659e+09 -4.081675e+09 -4.241678e+09 5.557670e+02 5.404260e+01 1.084640e+03
-4.806380e+09 -4.606395e+09 -4.766397e+09 2.809596e+02 3.271906e+02 2.594544e+02
-4.626131e+09 -4.426145e+09 -4.586148e+09 4.589763e+02 4.961613e+01 4.699098e+02
-4.304576e+09 -4.104563e+09 -4.264593e+09 1.637770e+04 5.787006e+03 3.150476e+03
-1.578502e+09 -1.378499e+09 -1.538506e+09 -1.344214e+03 -3.767066e+03 2.882446e+03
-4.648234e+09 -4.448227e+09 -4.608255e+09 1.966819e+04 2.544972e+03 2.183331e+03
-5.001835e+09 -4.801872e+09 -4.961893e+09 1.356556e+04 -3.014932e+03 -7.646543e+02
-4.132502e+09 -3.932492e+09 -4.092520e+09 1.964622e+04 6.388070e+03 4.556373e+03
-4.820101e+09 -4.620092e+09 -4.780125e+09 2.484220e+04 2.530609e+03 3.088758e+03
-4.821309e+09 -4.621308e+09 -4.781331e+09 1.538409e+04 9.350704e+02 9.738025e+02
-4.303806e+09 -4.103793e+09 -4.263822e+09 1.949722e+04 5.667773e+03 3.793521e+03
-4.654151e+09 -4.454158e+09 -4.614161e+09 -6.790818e+02 -1.411481e+02 8.676887e+01
-3.962906e+09 -3.762911e+09 -3.922920e+09 5.287487e+03 1.203374e+03 1.573901e+03
-4.281143e+09 -4.081149e+09 -4.241153e+09 -5.939599e+02 -5.809248e+01 3.699805e+01
-3.789779e+09 -3.589786e+09 -3.749789e+09 -8.444158e+02 -1.760421e+02 3.080086e+02
-4.992556e+09 -4.792579e+09 -4.952601e+09 2.144203e+04 -2.663149e+03 2.401129e+02
-4.994802e+09 -4.794809e+09 -4.954812e+09 -3.272759e+02 6.604947e+01 4.638391e+00
-4.132129e+09 -3.932136e+09 -4.092139e+09 -4.072988e+02 -2.850996e+01 4.799516e+01
-4.823315e+09 -4.623322e+09 -4.783325e+09 -8.050061e+02 4.627073e+00 1.685220e+02
-2.144605e+09 -1.944645e+09 -2.104643e+09 -3.919720e+03 4.830100e+03 -1.602202e+03
-3.409379e+09 -3.209466e+09 -3.369452e+09 8.409952e+03 -2.560848e+03 -1.405395e+04
-2.591178e+09 -2.391219e+09 -2.551219e+09 1.979768e+03 -5.228399e+03 -5.180449e+03
-2.671211e+09 -2.471253e+09 -2.631253e+09 3.622539e+03 -3.781383e+03 -4.669676e+03
-3.180732e+09 -2.980803e+09 -3.140797e+09 3.233765e+03 -1.310872e+03 -5.882774e+03
-3.139543e+09 -2.939616e+09 -3.099610e+09 6.199118e+02 -1.762048e+03 -5.814790e+03
-1.879660e+09 -1.679685e+09 -1.839682e+09 6.752239e+03 -2.901115e+03 -2.418650e+03
-2.121425e+09 -1.921472e+09 -2.081465e+09 1.527357e+03 -1.979776e+03 2.247261e+03
-4.647039e+09 -4.447026e+09 -4.607056e+09 1.948816e+04 1.642695e+03 2.494722e+03
-4.818909e+09 -4.618894e+09 -4.778927e+09 2.139820e+04 3.407279e+03 2.468376e+03
-4.646504e+09 -4.446486e+09 -4.606521e+09 2.802959e+04 7.327400e+02 2.532029e+03
-4.304186e+09 -4.104176e+09 -4.264200e+09 1.303077e+04 3.949740e+03 2.816978e+03
-3.962397e+09 -3.762389e+09 -3.922414e+09 1.702806e+04 4.083951e+03 4.347719e+03
-4.303691e+09 -4.103674e+09 -4.263708e+09 2.348164e+04 8.519609e+03 4.052055e+03
-4.304736e+09 -4.104733e+09 -4.264754e+09 -4.251096e+04 -7.902649e+03 7.731820e+03
-4.819661e+09 -4.619651e+09 -4.779682e+09 -3.277038e+04 -4.545767e+03 4.623332e+03
-4.991979e+09 -4.791974e+09 -4.952004e+09 -3.189712e+04 -4.546104e+03 1.659979e+03
-4.134201e+09 -3.934203e+09 -4.094225e+09 -2.388302e+04 -3.637328e+03 3.655374e+03
-4.819905e+09 -4.619895e+09 -4.779926e+09 -2.226936e+04 -3.437046e+03 2.583895e+03
-4.647376e+09 -4.447356e+09 -4.607394e+09 -2.424519e+04 -1.602732e+03 3.053791e+03
-4.132878e+09 -3.932864e+09 -4.092897e+09 -3.619419e+04 -9.800224e+03 9.107389e+03
-3.235851e+09 -3.035847e+09 -3.195859e+09 -3.457706e+03 -2.370600e+03 3.039300e+03
-2.770666e+09 -2.570662e+09 -2.730672e+09 -1.998259e+03 -1.738605e+03 1.886797e+03
-2.562688e+09 -2.362685e+09 -2.522694e+09 -1.860976e+03 -1.395715e+03 2.129833e+03
-3.194378e+09 -2.994376e+09 -3.154387e+09 -2.099841e+03 -2.198053e+03 1.919092e+03
-2.781130e+09 -2.581131e+09 -2.741138e+09 -2.577750e+03 -1.678068e+03 1.370110e+03
-2.761854e+09 -2.561853e+09 -2.721860e+09 -1.154412e+03 -6.727006e+02 1.079816e+03
-3.426911e+09 -3.226909e+09 -3.386921e+09 -4.411313e+03 -1.933930e+03 1.722415e+03
-2.594322e+09 -2.394321e+09 -2.554330e+09 -1.966265e+03 -1.421595e+03 1.831167e+03
-4.119030e+09 -3.919026e+09 -4.079036e+09 1.341970e+03 1.445286e+02 2.420147e+02
-3.567627e+09 -3.367624e+09 -3.527632e+09 3.623383e+02 1.520023e+02 5.264169e+02
-3.743176e+09 -3.543172e+09 -3.703181e+09 7.112733e+02 2.962616e+02 3.158943e+02
-4.520266e+09 -4.320260e+09 -4.480272e+09 1.414527e+03 2.383419e+02 3.195628e+02
-3.465056e+09 -3.265051e+09 -3.425061e+09 1.554309e+03 9.197074e+02 9.119115e+02
-2.714542e+09 -2.514538e+09 -2.674547e+09 9.698947e+02 7.195156e+02 8.029178e+02
-4.818866e+09 -4.618872e+09 -4.778894e+09 4.091971e+04 -4.161886e+02 1.840577e+03
-3.830488e+09 -3.630484e+09 -3.790494e+09 1.578442e+03 5.101740e+02 8.660621e+02
-4.797667e+09 -4.597660e+09 -4.757679e+09 -6.121358e+03 -3.426142e+02 9.247296e+02
-2.678711e+09 -2.478708e+09 -2.638716e+09 8.684676e+02 5.479564e+02 7.202528e+02
-3.219109e+09 -3.019100e+09 -3.179113e+09 4.055570e+02 8.191670e+02 1.083277e+03
-2.381540e+09 -2.181534e+09 -2.341544e+09 1.190866e+03 1.429238e+03 1.621578e+03
-4.646461e+09 -4.446503e+09 -4.606507e+09 -1.640586e+03 -1.652942e+02 2.864810e+03
-4.132656e+09 -3.932699e+09 -4.092700e+09 -3.269712e+03 2.990175e+02 6.353987e+03
-4.646729e+09 -4.446773e+09 -4.606774e+09 -4.428187e+03 -1.794727e+02 2.812448e+03
-4.819292e+09 -4.619334e+09 -4.779337e+09 -5.183419e+03 7.251447e+02 2.666925e+03
-4.931092e+09 -4.731080e+09 -4.891100e+09 3.990185e+02 -2.159138e+02 -9.065117e+01
-1.916216e+09 -1.716216e+09 -1.876223e+09 -1.457597e+02 -2.712284e+02 7.697351e+02
-3.881528e+09 -3.681504e+09 -3.841537e+09 4.657770e+03 -4.732270e+03 -1.825645e+03
-2.153137e+09 -1.953138e+09 -2.113143e+09 -8.146296e+02 -4.485887e+02 6.317943e+02
-1.908071e+09 -1.708071e+09 -1.868077e+09 -3.661709e+02 -2.626585e+02 5.337912e+02
-4.124196e+09 -3.924200e+09 -4.084206e+09 -2.812253e+03 -6.409944e+02 5.019473e+02
-4.465135e+09 -4.265139e+09 -4.425144e+09 -1.875207e+03 -3.005465e+02 2.581053e+02
-4.808368e+09 -4.608372e+09 -4.768377e+09 -1.890838e+03 -2.923644e+02 -1.082392e+02
-4.810661e+09 -4.610666e+09 -4.770672e+09 -2.814807e+03 1.576070e+02 5.690015e+02
-4.831824e+09 -4.631829e+09 -4.791834e+09 -1.931157e+03 3.690471e+01 3.121603e+02
-4.652974e+09 -4.452979e+09 -4.612984e+09 -2.302649e+03 -2.355978e+02 2.726759e+02
-4.291343e+09 -4.091346e+09 -4.251352e+09 -2.014301e+03 -1.454392e+02 3.281673e+02
-4.322823e+09 -4.122848e+09 -4.282361e+09 8.106555e+04 -6.458897e+04 -5.028189e+04
-4.320437e+09 -4.120537e+09 -4.280294e+09 8.015948e+04 -5.382938e+04 -4.703686e+04
-4.314042e+09 -4.114003e+09 -4.273590e+09 8.087965e+04 -5.288848e+04 -5.571624e+04
-4.638456e+09 -4.438476e+09 -4.598315e+09 9.285167e+04 -4.178167e+04 -1.441050e+04
-4.819787e+09 -4.619825e+09 -4.779620e+09 8.381007e+04 -2.554645e+04 -4.384866e+04
-4.466061e+09 -4.266065e+09 -4.426070e+09 -1.444440e+03 -1.607453e+02 1.749599e+02
-4.808663e+09 -4.608668e+09 -4.768672e+09 -1.092618e+03 9.009228e+00 1.153614e+02
-4.655141e+09 -4.455146e+09 -4.615150e+09 -1.323020e+03 6.214693e+01 4.788181e+01
-4.134022e+09 -3.934025e+09 -4.094030e+09 -6.843849e+02 -1.231197e+01 1.880360e+02
-4.832993e+09 -4.633002e+09 -4.793010e+09 6.016115e+03 -2.011214e+02 7.090299e+02
-4.548779e+09 -4.348784e+09 -4.508788e+09 -6.471927e+02 -7.015033e+01 7.808107e+01
-3.942174e+09 -3.742179e+09 -3.902183e+09 -6.677255e+02 -9.002696e+01 1.936317e+02
-3.366578e+09 -3.166601e+09 -3.326619e+09 9.338883e+03 -9.273973e+03 -5.947701e+03
-3.826198e+09 -3.626230e+09 -3.786249e+09 1.533930e+04 -3.915352e+03 -3.743810e+03
-3.814474e+09 -3.614490e+09 -3.774514e+09 1.316840e+04 -4.869647e+03 -2.568980e+03
-2.568767e+09 -2.368774e+09 -2.528790e+09 1.083649e+04 -1.320262e+04 -9.032063e+03
-4.991879e+09 -4.791798e+09 -4.951851e+09 -1.998311e+04 -4.672204e+03 -6.163124e+02
-4.818899e+09 -4.618816e+09 -4.778882e+09 -1.713719e+04 -4.953740e+03 2.616839e+03
-3.962802e+09 -3.762816e+09 -3.922828e+09 1.153857e+04 2.415495e+03 4.725705e+03
-4.820112e+09 -4.620054e+09 -4.780112e+09 -1.416811e+04 -4.739883e+03 6.378093e+02
-4.646951e+09 -4.446903e+09 -4.606954e+09 -1.903777e+04 -2.807230e+03 1.045835e+03
-4.647136e+09 -4.447073e+09 -4.607131e+09 -1.377492e+04 -3.754976e+03 5.953322e+02
-4.818930e+09 -4.618930e+09 -4.778881e+09 7.064243e+04 -4.109538e+03 -7.356066e+03
-4.305630e+09 -4.105585e+09 -4.265461e+09 8.381477e+04 1.211256e+04 7.107528e+03
-4.992241e+09 -4.792207e+09 -4.952125e+09 7.690617e+04 -2.967407e+03 -9.370607e+01
-4.301172e+09 -4.101218e+09 -4.261101e+09 7.704243e+04 8.363451e+03 1.213786e+04
-4.131134e+09 -3.931201e+09 -4.091010e+09 8.037004e+04 5.380144e+04 4.180282e+04
-4.817611e+09 -4.617681e+09 -4.777504e+09 7.802335e+04 -2.057075e+04 -1.211948e+03
-3.961022e+09 -3.761032e+09 -3.920956e+09 7.244576e+04 1.450455e+04 2.607468e+04
-4.459506e+09 -4.259576e+09 -4.419566e+09 -4.304369e+04 4.416947e+03 -3.686239e+03
-4.303906e+09 -4.103968e+09 -4.263738e+09 -7.444394e+04 -1.971225e+04 1.396354e+04
-4.646654e+09 -4.446741e+09 -4.606599e+09 -6.718121e+04 -3.626422e+03 3.133312e+04
-4.304139e+09 -4.104173e+09 -4.264081e+09 -7.437599e+04 2.527533e+03 6.545439e+03
-4.133402e+09 -3.933476e+09 -4.093296e+09 -6.993045e+04 1.058670e+04 2.540223e+04
-4.476095e+09 -4.276196e+09 -4.436128e+09 4.558580e+04 7.150771e+02 9.868374e+03
-4.645992e+09 -4.446092e+09 -4.606027e+09 5.283948e+04 -1.602989e+03 1.135376e+04
-4.132869e+09 -3.932961e+09 -4.092874e+09 4.303690e+04 -8.556448e+02 9.487840e+03
-4.305199e+09 -4.105340e+09 -4.265202e+09 2.227392e+04 4.523997e+03 -4.589186e+03
-4.004607e+09 -3.804621e+09 -3.964623e+09 5.853741e+02 1.208563e+02 8.489313e+02
-4.124866e+09 -3.924882e+09 -4.084885e+09 1.039610e+03 -4.729214e+02 1.618707e+03
-4.812569e+09 -4.612583e+09 -4.772586e+09 4.887981e+02 -3.060213e+02 3.461057e+02
-4.811331e+09 -4.611347e+09 -4.771350e+09 8.917515e+02 6.268169e+02 4.664589e+02
-4.319290e+09 -4.119303e+09 -4.279311e+09 8.071064e+03 7.993345e+02 1.799836e+03
-4.997291e+09 -4.797302e+09 -4.957314e+09 9.740300e+03 7.528004e+02 6.396832e+02
-4.660231e+09 -4.460240e+09 -4.620248e+09 5.782351e+03 3.340995e+02 9.750088e+02
-4.129702e+09 -3.929712e+09 -4.089719e+09 5.084549e+03 5.731126e+02 1.868864e+03
-4.661631e+09 -4.461638e+09 -4.621647e+09 6.369146e+03 5.544580e+02 1.101507e+03
-4.836664e+09 -4.636671e+09 -4.796681e+09 6.788971e+03 1.010046e+03 3.739304e+02
-4.829193e+09 -4.629205e+09 -4.789214e+09 7.355764e+03 8.287585e+02 1.085604e+03
-4.303856e+09 -4.103876e+09 -4.263881e+09 4.284383e+03 5.312961e+02 2.411400e+03
-4.818739e+09 -4.618756e+09 -4.778760e+09 2.984353e+03 6.907556e+02 3.577681e+02
-4.303427e+09 -4.103444e+09 -4.263449e+09 3.459203e+03 3.232621e+02 1.882171e+03
-4.304477e+09 -4.104497e+09 -4.264501e+09 2.424321e+03 2.445134e+02 2.008976e+03
-4.303941e+09 -4.103919e+09 -4.263955e+09 -1.374504e+04 -6.469063e+03 2.514919e+03
-4.475551e+09 -4.275531e+09 -4.435563e+09 -1.230796e+04 -3.358416e+03 2.080484e+03
-4.305201e+09 -4.105174e+09 -4.265213e+09 -1.182135e+04 -4.376718e+03 2.671339e+03
-4.133303e+09 -3.933280e+09 -4.093316e+09 -1.376362e+04 -6.497996e+03 2.785008e+03
-3.671335e+09 -3.471337e+09 -3.631341e+09 1.330912e+02 3.940407e+01 9.237786e+00
-1.695766e+09 -1.495778e+09 -1.655779e+09 6.836897e+02 2.408594e+02 1.908065e+03
-4.566548e+09 -4.366551e+09 -4.526556e+09 3.444999e+02 5.828451e+01 1.166953e+02
-4.564217e+09 -4.364220e+09 -4.524225e+09 2.383834e+02 2.812808e+01 2.768611e+01
-4.076993e+09 -3.876996e+09 -4.037001e+09 6.794162e+01 2.064593e+01 -4.562911e+01
-2.926796e+09 -2.726799e+09 -2.886803e+09 1.770687e+02 5.195028e+01 -2.779293e+01
-3.607588e+09 -3.407591e+09 -3.567595e+09 2.039537e+02 5.162239e+01 1.271818e+02
-2.643381e+09 -2.443384e+09 -2.603388e+09 2.084274e+02 4.538537e+01 1.049021e+01
-2.993915e+09 -2.793918e+09 -2.953922e+09 1.868119e+02 1.011586e+01 4.326901e+01
-4.818922e+09 -4.618979e+09 -4.778976e+09 -4.528495e+03 4.462604e+02 3.187898e+03
-4.303296e+09 -4.103371e+09 -4.263363e+09 -4.009200e+03 -3.529309e+02 7.580013e+03
-4.820109e+09 -4.620148e+09 -4.780152e+09 -7.244376e+03 -1.253773e+03 1.388347e+03
-3.961837e+09 -3.761886e+09 -3.921889e+09 -8.246607e+03 -1.630915e+03 6.087855e+03
-4.646831e+09 -4.446891e+09 -4.606883e+09 -3.286352e+03 -5.816107e+01 2.890346e+03
-4.456276e+09 -4.256348e+09 -4.416175e+09 6.951456e+04 5.093196e+03 -4.110833e+03
-4.283772e+09 -4.083796e+09 -4.243726e+09 6.580719e+04 9.512337e+02 -7.416752e+03
-4.804309e+09 -4.604319e+09 -4.764242e+09 7.043089e+04 -9.897553e+03 -1.773024e+04
-4.627938e+09 -4.427934e+09 -4.587873e+09 7.360662e+04 -1.380901e+04 -2.750058e+03
-4.295211e+09 -4.095237e+09 -4.255042e+09 9.318538e+04 -2.772223e+04 -2.451972e+04
-4.619059e+09 -4.419024e+09 -4.578892e+09 7.868249e+04 -1.416127e+04 -1.666001e+04
-4.814693e+09 -4.614712e+09 -4.774725e+09 -1.483069e+04 -8.626332e+02 1.289236e+03
-4.832553e+09 -4.632563e+09 -4.792580e+09 -1.574489e+04 -6.109459e+02 7.030199e+02
-4.828525e+09 -4.628544e+09 -4.788561e+09 -2.176983e+04 -7.007819e+02 3.715213e+02
-4.815296e+09 -4.615326e+09 -4.775337e+09 -1.845769e+04 -9.886643e+02 1.363515e+03
-4.816876e+09 -4.616902e+09 -4.776913e+09 -1.540711e+04 -5.761200e+02 3.550828e+03
-4.115343e+09 -3.915346e+09 -4.075352e+09 -1.840086e+03 -4.204137e+02 1.441593e+02
-4.634575e+09 -4.434579e+09 -4.594585e+09 -2.013022e+03 -1.282738e+02 2.039910e+02
-4.125120e+09 -3.925124e+09 -4.085129e+09 -8.991941e+02 -1.113271e+02 2.202279e+02
-4.333014e+09 -4.133018e+09 -4.293022e+09 -1.128682e+03 -1.330775e+02 1.915852e+02
-4.027902e+09 -3.827905e+09 -3.987910e+09 -8.305148e+02 -1.952047e+02 2.469500e+02
-4.488591e+09 -4.288596e+09 -4.448601e+09 -1.903169e+03 -1.909232e+02 3.010720e+02
-4.985347e+09 -4.785351e+09 -4.945357e+09 -1.899310e+03 1.389279e+02 -1.002242e+02
-3.957954e+09 -3.757959e+09 -3.917963e+09 -1.311347e+03 -3.096700e+02 2.908513e+02
-3.881402e+09 -3.681417e+09 -3.841420e+09 2.519531e+02 5.361399e+01 1.207699e+03
-4.991312e+09 -4.791312e+09 -4.951323e+09 4.514689e+03 1.225163e+02 1.409166e+02
-4.134312e+09 -3.934314e+09 -4.094322e+09 3.343009e+03 3.397296e+02 1.054275e+03
-4.647719e+09 -4.447721e+09 -4.607731e+09 4.943099e+03 7.301945e+02 6.210886e+02
-4.653828e+09 -4.453831e+09 -4.613839e+09 3.887507e+03 3.109251e+02 3.384324e+02
-4.651432e+09 -4.451435e+09 -4.611444e+09 4.990096e+03 7.061759e+02 6.440095e+02
-4.133910e+09 -3.933912e+09 -4.093922e+09 4.994390e+03 7.302960e+02 1.533738e+03
-4.823590e+09 -4.623453e+09 -4.783463e+09 -2.349156e+04 3.852433e+03 -1.269339e+04
-4.651929e+09 -4.451792e+09 -4.611774e+09 -3.410868e+04 8.092797e+03 -1.120377e+03
-4.137306e+09 -3.937155e+09 -4.097161e+09 4.297368e+03 9.521882e+03 1.868914e+04
-4.666606e+09 -4.466445e+09 -4.626454e+09 -6.606255e+02 3.451952e+04 6.502269e+03
-4.655096e+09 -4.454935e+09 -4.614920e+09 -2.740708e+03 6.591740e+03 2.988864e+03
-4.992545e+09 -4.792579e+09 -4.952599e+09 2.828154e+04 -2.110661e+03 -3.018329e+03
-1.786848e+09 -1.586839e+09 -1.746849e+09 2.578780e+02 -5.596455e+03 -3.073549e+03
-2.222544e+09 -2.022531e+09 -2.182545e+09 3.607068e+02 -2.950414e+03 -2.628049e+03
-1.864920e+09 -1.664908e+09 -1.824921e+09 7.277233e+02 -3.027441e+03 -2.061211e+03
-4.991612e+09 -4.791623e+09 -4.951654e+09 2.331373e+04 -2.100124e+03 -1.673695e+03
-4.122873e+09 -3.922831e+09 -4.082875e+09 -1.158465e+04 4.992037e+03 -1.779213e+03
-4.292830e+09 -4.092789e+09 -4.252834e+09 -1.082301e+04 6.907956e+03 -2.162627e+03
-4.285038e+09 -4.085003e+09 -4.245047e+09 -1.018669e+04 6.470757e+03 -2.754010e+03
-4.469340e+09 -4.269311e+09 -4.429350e+09 -1.198336e+04 4.978009e+03 -1.965414e+03
-4.993355e+09 -4.793330e+09 -4.953364e+09 1.112958e+03 -2.953486e+02 -8.848193e+00
-4.127047e+09 -3.927012e+09 -4.087051e+09 -1.387843e+04 6.509268e+03 -3.244563e+03
-4.303365e+09 -4.103386e+09 -4.263389e+09 -4.752574e+02 -7.008798e+01 2.156910e+03
-4.312312e+09 -4.112290e+09 -4.272329e+09 -1.645189e+04 6.037586e+03 -2.911574e+03
-4.138065e+09 -3.938040e+09 -4.098078e+09 -1.675668e+04 7.376985e+03 -2.634514e+03
-4.481299e+09 -4.281264e+09 -4.441309e+09 -1.568753e+04 3.790214e+03 -6.531224e+02
-4.824534e+09 -4.624504e+09 -4.784544e+09 -1.741597e+04 1.693771e+03 -6.721001e+02
-4.139312e+09 -3.939357e+09 -4.099354e+09 3.190375e+04 1.178731e+03 2.208861e+03
-4.986909e+09 -4.786958e+09 -4.946956e+09 2.322902e+04 -1.325413e+03 3.350490e+03
-4.811667e+09 -4.611707e+09 -4.771713e+09 2.271175e+04 1.923583e+02 -1.006436e+02
-4.123157e+09 -3.923215e+09 -4.083204e+09 3.099504e+04 4.731840e+03 8.399189e+03
-3.957213e+09 -3.757258e+09 -3.917256e+09 2.428684e+04 2.768166e+03 7.133533e+03
-4.466382e+09 -4.266450e+09 -4.426443e+09 2.617091e+04 5.617967e+02 4.941335e+03
-4.296506e+09 -4.096441e+09 -4.256447e+09 4.689883e+04 8.152369e+03 -4.164044e+03
-4.132631e+09 -3.932609e+09 -4.092592e+09 5.869111e+04 -9.064415e+03 -1.361691e+04
-4.991618e+09 -4.791568e+09 -4.951583e+09 4.723081e+04 6.739166e+03 2.677354e+02
-3.962155e+09 -3.762097e+09 -3.922136e+09 4.241267e+04 -3.008591e+03 2.469870e+03
-4.125629e+09 -3.925556e+09 -4.085583e+09 4.482114e+04 6.784460e+03 6.433773e+03
-4.304798e+09 -4.104725e+09 -4.264754e+09 3.041877e+04 1.141595e+04 1.227207e+03
-4.647434e+09 -4.447388e+09 -4.607425e+09 3.544404e+04 1.176866e+03 2.123098e+02
-3.900489e+09 -3.700474e+09 -3.860495e+09 -2.686901e+03 2.382294e+03 -9.149644e+02
-4.109013e+09 -3.908993e+09 -4.069018e+09 -2.803021e+03 2.947243e+03 -5.366148e+02
-4.650575e+09 -4.450552e+09 -4.610581e+09 -3.647618e+03 1.247689e+03 -3.021426e+02
-4.093834e+09 -3.893817e+09 -4.053840e+09 -3.118561e+03 2.417840e+03 -6.849430e+02
-4.821600e+09 -4.621584e+09 -4.781606e+09 -2.363457e+03 2.969457e+02 5.113179e+01
-4.822975e+09 -4.622953e+09 -4.782983e+09 -5.816543e+03 1.707831e+03 -1.160063e+03
-4.633198e+09 -4.433169e+09 -4.593205e+09 -7.759740e+03 2.640047e+03 3.139479e+01
-4.799767e+09 -4.599750e+09 -4.759774e+09 -3.419446e+03 8.945286e+02 -6.991578e+02
-4.781795e+09 -4.581787e+09 -4.741803e+09 4.093658e+03 8.398233e+02 2.704116e+00
-3.313465e+09 -3.113447e+09 -3.273472e+09 2.063997e+03 -5.639237e+03 -3.365007e+03
-4.966545e+09 -4.766536e+09 -4.926552e+09 3.802167e+03 3.723421e+02 -1.312291e+01
-4.979222e+09 -4.779214e+09 -4.939230e+09 4.220686e+03 4.566022e+02 -1.307649e+02
-4.627429e+09 -4.427424e+09 -4.587436e+09 2.272657e+03 1.142663e+02 2.131735e+01
-4.092303e+09 -3.892270e+09 -4.052310e+09 3.640590e+03 -5.292028e+03 -9.238200e+02
-4.306866e+09 -4.106827e+09 -4.266875e+09 4.884062e+03 -7.341155e+03 -2.220565e+03
-4.307330e+09 -4.107293e+09 -4.267336e+09 7.315874e+03 -6.542792e+03 -2.068101e+03
-4.821943e+09 -4.621903e+09 -4.781952e+09 8.929044e+03 -3.772925e+03 -1.212280e+03
-4.819851e+09 -4.619868e+09 -4.779871e+09 -5.753016e+02 -6.537826e+02 4.661616e+02
-4.306950e+09 -4.106918e+09 -4.266960e+09 6.845565e+03 -6.208155e+03 -2.774130e+03
-4.824477e+09 -4.624450e+09 -4.784487e+09 5.935416e+03 -1.836294e+03 -2.923486e+02
-3.751341e+09 -3.551323e+09 -3.711347e+09 4.430502e+02 -5.572675e+02 -1.239280e+03
-4.670749e+09 -4.470618e+09 -4.630632e+09 -1.061210e+04 -9.504956e+03 4.044815e+03
-4.487432e+09 -4.287313e+09 -4.447376e+09 -2.308769e+04 6.852776e+02 -4.701317e+03
-4.327529e+09 -4.127399e+09 -4.287444e+09 -1.017223e+04 3.173595e+03 4.042844e+03
-4.319733e+09 -4.119611e+09 -4.279656e+09 -3.395544e+03 -6.925410e+02 -1.970579e+03
-4.336348e+09 -4.136253e+09 -4.296315e+09 -7.015721e+03 9.380867e+03 -1.013203e+03
-4.309526e+09 -4.109417e+09 -4.269473e+09 -7.902081e+02 8.133921e+03 -8.674650e+01
-3.447108e+09 -3.247121e+09 -3.407122e+09 -6.365129e+02 -2.113303e+02 1.355276e+03
-2.784591e+09 -2.584603e+09 -2.744604e+09 -3.110800e+02 -2.608691e+01 8.272274e+02
-4.992624e+09 -4.792640e+09 -4.952642e+09 -1.263174e+03 6.315348e+01 8.622564e+01
-3.227929e+09 -3.027943e+09 -3.187944e+09 3.752863e+02 -2.602496e+02 1.646414e+03
-2.545622e+09 -2.345634e+09 -2.505636e+09 -3.213277e+02 -2.129633e+01 1.143176e+03
-4.133802e+09 -3.933810e+09 -4.093814e+09 2.505031e+03 4.296947e+02 6.641143e+02
-4.130548e+09 -3.930569e+09 -4.090576e+09 7.655859e+03 6.455922e+02 4.110689e+03
-4.301084e+09 -4.101103e+09 -4.261112e+09 8.225378e+03 9.225477e+02 3.323845e+03
-4.131492e+09 -3.931509e+09 -4.091514e+09 5.014645e+03 1.431565e+03 2.213570e+03
-4.811205e+09 -4.611223e+09 -4.771230e+09 7.199432e+03 5.740088e+02 1.255969e+03
-3.644265e+09 -3.444243e+09 -3.604271e+09 -5.020733e+02 -4.407658e+02 5.020575e+02
-4.301366e+09 -4.101387e+09 -4.261394e+09 6.872439e+03 9.846647e+02 3.246362e+03
-3.870718e+09 -3.670731e+09 -3.830732e+09 4.278298e+02 9.140495e+01 5.263608e+02
-2.126614e+09 -1.926627e+09 -2.086628e+09 4.784147e+02 5.967006e+01 1.332935e+03
-2.604414e+09 -2.404426e+09 -2.564428e+09 4.808125e+02 5.227416e+01 1.518759e+03
-2.791039e+09 -2.591051e+09 -2.751053e+09 7.111549e+02 8.945236e+00 1.356395e+03
-3.831154e+09 -3.631169e+09 -3.791171e+09 7.049149e+02 1.162808e+02 1.308393e+03
-2.919341e+09 -2.719354e+09 -2.879355e+09 3.058393e+02 1.640846e+02 1.352985e+03
-3.832517e+09 -3.632531e+09 -3.792533e+09 7.549421e+02 -9.741439e+01 1.234713e+03
-4.650320e+09 -4.450329e+09 -4.610341e+09 4.633692e+04 -2.105227e+03 2.260237e+03
-4.663662e+09 -4.463699e+09 -4.623690e+09 4.555182e+04 -3.412730e+03 6.430380e+02
-4.822646e+09 -4.622662e+09 -4.782670e+09 4.395028e+04 -4.079937e+02 -2.980273e+03
-4.318273e+09 -4.118295e+09 -4.278302e+09 4.253998e+04 7.328453e+03 7.686612e+03
-4.648187e+09 -4.448245e+09 -4.607395e+09 4.596321e+04 4.752053e+04 6.648620e+04
-4.133645e+09 -3.933652e+09 -4.092937e+09 8.348899e+04 1.488072e+05 1.356099e+05
-4.821840e+09 -4.621829e+09 -4.780781e+09 3.041049e+04 -2.006807e+03 2.706799e+04
-4.305041e+09 -4.105057e+09 -4.263785e+09 -1.105688e+04 -1.328767e+04 1.039935e+05
-4.133806e+09 -3.933810e+09 -4.092512e+09 2.573341e+04 -7.909491e+03 8.389641e+04
-2.921493e+09 -2.721478e+09 -2.881495e+09 -1.944829e+01 1.599699e+03 1.901403e+02
-2.853828e+09 -2.653816e+09 -2.813831e+09 1.110290e+03 2.455243e+03 4.763497e+02
-3.125716e+09 -2.925702e+09 -3.085718e+09 5.551068e+02 1.121020e+03 7.864252e+02
-2.060927e+09 -1.860915e+09 -2.020927e+09 5.091246e+02 2.707790e+03 4.230234e+02
-4.991646e+09 -4.791639e+09 -4.951661e+09 9.454414e+03 1.044562e+03 1.822610e+02
-2.566745e+09 -2.366734e+09 -2.526747e+09 3.140987e+02 6.539242e+02 4.754583e+02
-4.647574e+09 -4.447539e+09 -4.607583e+09 3.169858e+04 9.778999e+02 2.959075e+03
-4.301247e+09 -4.101283e+09 -4.261286e+09 2.502206e+04 1.883029e+03 8.605773e+03
-1.629138e+09 -1.429146e+09 -1.589148e+09 -1.168521e+02 -1.420526e+02 1.380798e+02
-4.990837e+09 -4.790825e+09 -4.950858e+09 2.143989e+04 2.825340e+03 1.624264e+03
-1.630192e+09 -1.430202e+09 -1.590203e+09 -1.179121e+02 -1.419611e+02 1.852565e+02
-1.698477e+09 -1.498485e+09 -1.658487e+09 -3.253982e+02 -1.715277e+02 1.371302e+02
-3.575248e+09 -3.375251e+09 -3.535255e+09 8.417121e+01 1.779429e+01 5.070856e+01
-4.304609e+09 -4.104583e+09 -4.264622e+09 2.216298e+04 6.562421e+03 3.850208e+03
-4.304376e+09 -4.104352e+09 -4.264388e+09 1.756931e+04 6.987962e+03 2.779667e+03
-4.646924e+09 -4.446907e+09 -4.606942e+09 2.350631e+04 1.657775e+03 1.646824e+03
-4.133587e+09 -3.933568e+09 -4.093603e+09 2.364713e+04 8.423124e+03 5.418888e+03
-4.819495e+09 -4.619495e+09 -4.779505e+09 4.274921e+03 7.050220e+02 -1.045634e+02
-4.647353e+09 -4.447317e+09 -4.607360e+09 1.713212e+04 2.613205e+03 1.014357e+03
-3.920516e+09 -3.720512e+09 -3.880533e+09 -2.363816e+03 4.892181e+03 -7.074616e+02
-4.304266e+09 -4.104208e+09 -4.264264e+09 1.856540e+04 8.546217e+03 2.873381e+03
-4.133013e+09 -3.932969e+09 -4.093012e+09 2.134473e+04 5.928206e+03 1.718066e+03
-4.647262e+09 -4.447221e+09 -4.607270e+09 2.201695e+04 2.122581e+03 2.366740e+03
-3.555398e+09 -3.355449e+09 -3.515454e+09 -2.907091e+04 8.261497e+03 -5.200732e+03
-4.040266e+09 -3.840245e+09 -4.000274e+09 -3.699897e+03 -1.968176e+03 1.150100e+03
-3.037326e+09 -2.837378e+09 -2.997375e+09 -7.730367e+03 4.666730e+03 -9.451910e+03
-4.637513e+09 -4.437484e+09 -4.597527e+09 1.427181e+04 -3.338613e+03 -9.897582e+02
-3.962599e+09 -3.762506e+09 -3.922558e+09 3.454322e+04 -8.580960e+03 1.299798e+03
-3.980118e+09 -3.780104e+09 -3.940127e+09 -2.257728e+03 -1.903255e+03 2.057182e+03
-1.572446e+09 -1.372438e+09 -1.532447e+09 -1.150240e+03 -6.978138e+03 -2.666558e+03
-4.579305e+09 -4.379290e+09 -4.539315e+09 -3.216005e+03 -8.223866e+02 7.936375e+02
-4.216295e+09 -4.016280e+09 -4.176305e+09 -4.454561e+03 -2.757252e+03 1.757416e+03
-4.817655e+09 -4.617641e+09 -4.777666e+09 -5.222442e+03 -7.428859e+02 -4.006188e+02
-4.164053e+09 -3.964039e+09 -4.124062e+09 -3.144766e+03 -7.511439e+02 1.143538e+03
-3.545243e+09 -3.345228e+09 -3.505250e+09 -2.568411e+03 -2.713910e+03 2.058127e+03
-3.537538e+09 -3.337523e+09 -3.497544e+09 -2.938229e+03 -2.560410e+03 2.424036e+03
-2.129545e+09 -1.929557e+09 -2.089558e+09 6.092456e+01 2.178682e+01 1.615946e+02
-2.782659e+09 -2.582672e+09 -2.742673e+09 7.109858e+01 1.944471e+02 1.050559e+03
-3.175466e+09 -2.975479e+09 -3.135480e+09 2.947503e+02 -1.673711e+02 9.383315e+02
-3.227249e+09 -3.027261e+09 -3.187262e+09 1.965381e+02 5.154754e+01 2.323777e+02
-4.994988e+09 -4.794840e+09 -4.954681e+09 -4.469905e+04 -4.748949e+03 -5.599628e+03
-1.814587e+09 -1.614599e+09 -1.774599e+09 3.483800e+01 -4.186723e+01 7.730678e+02
-2.846890e+09 -2.646903e+09 -2.806904e+09 2.017173e+02 1.090569e+02 1.388406e+03
-1.819253e+09 -1.619264e+09 -1.779265e+09 3.580596e+02 2.587390e+01 9.559022e+02
-3.803070e+09 -3.603066e+09 -3.763090e+09 2.253826e+03 -5.316821e+03 -1.131733e+03
-2.849211e+09 -2.649208e+09 -2.809228e+09 4.252938e+03 -7.672581e+03 -3.012654e+03
-1.623458e+09 -1.423470e+09 -1.583471e+09 7.476227e+01 6.327027e-03 7.921885e+02
-3.042337e+09 -2.842333e+09 -3.002355e+09 6.598510e+03 -8.708432e+03 -4.637850e+03
-3.883830e+09 -3.683834e+09 -3.843858e+09 4.113363e+03 -6.289140e+03 -1.736835e+03
-3.347628e+09 -3.147637e+09 -3.307640e+09 -6.903352e+02 -3.300439e+02 3.349171e+02
-3.400909e+09 -3.200904e+09 -3.360928e+09 6.829691e+03 -7.674167e+03 -4.264155e+03
-3.365719e+09 -3.165713e+09 -3.325734e+09 3.583182e+03 -7.084014e+03 -2.840187e+03
-3.740608e+09 -3.540608e+09 -3.700633e+09 6.171647e+03 -6.078126e+03 -2.642883e+03
-4.835819e+09 -4.635694e+09 -4.795695e+09 -1.794843e+04 -7.285118e+03 5.007582e+03
-4.831389e+09 -4.631242e+09 -4.791191e+09 -2.293788e+04 -4.878615e+03 -7.201982e+01
-4.660872e+09 -4.460716e+09 -4.620624e+09 1.468471e+03 -1.338072e+04 -7.307469e+03
-4.141582e+09 -3.941447e+09 -4.101477e+09 5.745173e+03 -9.341246e+03 7.647430e+03
-4.660851e+09 -4.460700e+09 -4.620682e+09 2.202044e+04 1.258176e+04 2.125124e+03
-4.298627e+09 -4.098527e+09 -4.258549e+09 -3.801050e+04 3.306244e+03 -5.411954e+03
-4.746017e+09 -4.545996e+09 -4.706025e+09 1.052135e+03 1.815703e+01 -6.511762e+02
-4.149345e+09 -3.949214e+09 -4.109224e+09 -1.217622e+04 -1.058750e+04 -1.893993e+03
-4.828032e+09 -4.627895e+09 -4.787900e+09 3.503734e+03 -1.149350e+04 1.592666e+03
-3.962389e+09 -3.762361e+09 -3.922395e+09 2.889490e+03 4.792469e+03 9.375537e+02
-4.819512e+09 -4.619525e+09 -4.779540e+09 1.480765e+04 1.276795e+03 2.227413e+03
-3.957608e+09 -3.757550e+09 -3.917591e+09 3.211169e+04 -2.715045e+03 -3.167567e+03
-4.313476e+09 -4.113490e+09 -4.273505e+09 1.560996e+04 1.705167e+03 3.027143e+03
-4.992538e+09 -4.792653e+09 -4.952609e+09 -1.678881e+04 -8.012685e+02 -5.661589e+03
-4.141141e+09 -3.941163e+09 -4.101174e+09 1.590313e+04 2.652317e+03 4.027239e+03
-4.646256e+09 -4.446274e+09 -4.606286e+09 1.200876e+04 8.593312e+02 1.547114e+03
-4.829694e+09 -4.629712e+09 -4.789726e+09 1.469892e+04 1.214787e+03 1.073930e+03
-4.992621e+09 -4.792636e+09 -4.952638e+09 -3.340508e+02 5.182467e+01 1.114236e+02
-3.122663e+09 -2.922660e+09 -3.082671e+09 -2.648549e+03 -2.010813e+03 2.354543e+03
-1.672296e+09 -1.472295e+09 -1.632302e+09 -4.197499e+02 -4.508182e+02 1.095531e+03
-2.922356e+09 -2.722405e+09 -2.882398e+09 -3.812132e+01 1.903207e+03 -1.145360e+03
-4.644085e+09 -4.443995e+09 -4.604012e+09 4.042933e+04 -2.629149e+03 -6.738571e+02
-3.962004e+09 -3.761961e+09 -3.922011e+09 3.546324e+03 -7.876005e+03 -4.281883e+02
-1.921539e+09 -1.721538e+09 -1.881545e+09 -5.394820e+02 -3.727273e+02 8.603229e+02
-2.687361e+09 -2.487360e+09 -2.647368e+09 -3.042584e+02 -1.641891e+02 1.064275e+03
-3.389664e+09 -3.189664e+09 -3.349674e+09 -4.434218e+03 -2.040478e+03 2.297296e+03
-4.995007e+09 -4.794904e+09 -4.954701e+09 -5.021718e+04 7.784280e+02 -4.154691e+03
-3.141882e+09 -2.941881e+09 -3.101889e+09 -4.474762e+02 -4.344956e+02 1.005028e+03
-3.437351e+09 -3.237348e+09 -3.397358e+09 -4.558577e+02 -1.753999e+02 1.039306e+03
-4.992626e+09 -4.792640e+09 -4.952642e+09 -1.037614e+03 -4.012516e+00 2.852867e+02
-2.459047e+09 -2.259033e+09 -2.419051e+09 -1.912618e+03 -6.175212e+03 3.132924e+03
-2.580227e+09 -2.380214e+09 -2.540231e+09 -4.035549e+03 -6.539191e+03 2.543547e+03
-2.866053e+09 -2.666037e+09 -2.826058e+09 -3.135729e+03 -5.046361e+03 2.769914e+03
-2.091105e+09 -1.891092e+09 -2.051106e+09 -2.159639e+03 -8.092162e+03 3.948296e+03
-2.484420e+09 -2.284408e+09 -2.444425e+09 -2.571378e+03 -5.017498e+03 3.562085e+03
-2.652251e+09 -2.452237e+09 -2.612256e+09 -3.437625e+03 -6.030650e+03 2.623436e+03
-4.476640e+09 -4.276649e+09 -4.436653e+09 3.078643e+03 2.455311e+02 6.446333e+02
-2.157315e+09 -1.957306e+09 -2.117319e+09 -2.276212e+03 -4.687242e+03 3.734837e+03
-4.818785e+09 -4.618765e+09 -4.778798e+09 -1.208177e+04 -2.941799e+03 1.015513e+03
-4.304911e+09 -4.104893e+09 -4.264925e+09 -1.088367e+04 -3.306026e+03 2.663798e+03
-4.132832e+09 -3.932810e+09 -4.092847e+09 -1.926197e+04 -7.948519e+03 4.748454e+03
-4.647692e+09 -4.447665e+09 -4.607705e+09 -1.749727e+04 -2.083507e+03 2.474760e+03
-4.132319e+09 -3.932301e+09 -4.092331e+09 -1.143677e+04 -4.069631e+03 2.599317e+03
-4.303717e+09 -4.103669e+09 -4.263718e+09 -1.901320e+04 -1.069216e+04 2.384911e+03
-4.132416e+09 -3.932375e+09 -4.092421e+09 -1.648509e+04 -6.797437e+03 2.868457e+03
-4.647270e+09 -4.447231e+09 -4.607281e+09 -1.785390e+04 -2.999639e+03 2.848179e+03
-4.819828e+09 -4.619777e+09 -4.779832e+09 -1.666368e+04 -1.737551e+03 5.140812e+02
-4.991882e+09 -4.791972e+09 -4.951839e+09 -5.620448e+04 -7.718783e+02 -9.591569e+03
-4.102390e+09 -3.902364e+09 -4.062397e+09 -6.883562e+01 -2.507787e+03 -1.839304e+02
-4.820288e+09 -4.620360e+09 -4.780284e+09 -5.550666e+04 -1.400725e+04 7.238113e+03
-4.132168e+09 -3.932291e+09 -4.092155e+09 -4.899130e+04 1.236731e+04 9.074550e+03
-4.646639e+09 -4.446753e+09 -4.606598e+09 -5.305305e+04 -5.919939e+03 1.111631e+04
-4.992046e+09 -4.791980e+09 -4.952044e+09 -2.128062e+04 -5.238956e+03 1.248227e+03
-4.646779e+09 -4.446915e+09 -4.606823e+09 -4.077440e+04 4.401816e+03 1.746963e+04
-2.996632e+09 -2.796613e+09 -2.956639e+09 -3.271281e+03 -7.910454e+03 2.654283e+03
-2.877042e+09 -2.677023e+09 -2.837047e+09 -2.542772e+03 -5.706511e+03 2.404953e+03
-1.895402e+09 -1.695392e+09 -1.855402e+09 1.337854e+03 -8.393757e+03 4.911287e+03
-2.781250e+09 -2.581237e+09 -2.741257e+09 -4.119547e+03 -3.732976e+03 2.915676e+03
-1.892376e+09 -1.692368e+09 -1.852379e+09 -4.705988e+03 -9.751163e+03 3.947688e+03
-4.514956e+09 -4.314956e+09 -4.474966e+09 -1.281759e+03 -1.921762e+02 4.603026e+02
-3.461264e+09 -3.261239e+09 -3.421271e+09 -5.716358e+03 -7.312821e+03 2.422787e+03
-3.201481e+09 -3.001463e+09 -3.161489e+09 -6.107557e+03 -1.030597e+04 3.435058e+03
-3.866159e+09 -3.666166e+09 -3.826169e+09 -4.029873e+02 -1.878566e+02 3.104755e+01
-2.906498e+09 -2.706484e+09 -2.866504e+09 -4.335416e+03 -6.845633e+03 3.746402e+03
-4.477263e+09 -4.277375e+09 -4.437335e+09 3.265545e+04 -6.693022e+03 -1.508488e+03
-2.893334e+09 -2.693323e+09 -2.853338e+09 2.144381e+02 -5.974472e+02 -1.424343e+03
-4.647701e+09 -4.447721e+09 -4.607724e+09 1.506912e+03 2.029164e+02 1.291005e+03
-4.647710e+09 -4.447729e+09 -4.607733e+09 2.424595e+03 1.704302e+02 1.055709e+03
-4.133615e+09 -3.933635e+09 -4.093638e+09 2.164358e+03 -4.185812e+02 2.447726e+03
-1.773837e+09 -1.573861e+09 -1.733861e+09 4.907466e+03 -1.109728e+04 -1.543791e+04
-4.639674e+09 -4.439690e+09 -4.599693e+09 1.108858e+03 9.296952e+01 8.203792e+02
-3.126238e+09 -2.926240e+09 -3.086245e+09 5.531442e+01 1.759233e+00 -6.258784e+00
-3.193859e+09 -2.993881e+09 -3.153898e+09 -5.968804e+03 9.713086e+03 -4.565717e+03
-3.149572e+09 -2.949588e+09 -3.109603e+09 -1.932373e+03 9.654713e+03 -3.436986e+03
-1.591319e+09 -1.391327e+09 -1.551329e+09 1.129908e+03 3.988175e+02 8.309754e+02
-1.693113e+09 -1.493108e+09 -1.653115e+09 -2.092189e+02 -1.547999e+04 -1.706520e+03
-2.789437e+09 -2.589451e+09 -2.749469e+09 -1.050420e+04 1.043521e+04 -6.773903e+03
-3.901859e+09 -3.701869e+09 -3.861872e+09 1.857331e+03 1.596573e+02 9.110566e+02
-2.198030e+09 -1.998038e+09 -2.158046e+09 -1.349997e+03 9.644677e+03 -5.188732e+03
-4.833656e+09 -4.633633e+09 -4.793670e+09 1.027175e+04 -2.504839e+03 -2.013918e+03
-1.663999e+09 -1.464000e+09 -1.624005e+09 9.827141e+01 9.705963e+03 -3.264481e+03
-3.846628e+09 -3.646613e+09 -3.806639e+09 4.154454e+03 -3.480829e+03 -1.574115e+03
-2.155645e+09 -1.955652e+09 -2.115660e+09 -5.509657e+02 8.935764e+03 -1.857992e+02
-4.991616e+09 -4.791611e+09 -4.951620e+09 5.086808e+04 4.572728e+03 3.346065e+03
-3.227951e+09 -3.027951e+09 -3.187959e+09 -2.671411e+03 -1.403174e+03 1.418171e+03
-2.656667e+09 -2.456666e+09 -2.616674e+09 -9.627790e+02 -6.067776e+02 1.202202e+03
-3.810224e+09 -3.610224e+09 -3.770231e+09 -7.072453e+02 -2.212959e+02 4.481238e+02
-4.811884e+09 -4.611842e+09 -4.771889e+09 -8.785835e+03 1.378611e+03 -3.175016e+02
-3.958460e+09 -3.758420e+09 -3.918463e+09 -1.311392e+04 6.501386e+03 -1.529588e+03
-3.961819e+09 -3.761826e+09 -3.921831e+09 2.275658e+03 3.420688e+02 8.905800e+02
-4.638405e+09 -4.438360e+09 -4.598407e+09 -1.922606e+04 -3.951356e+02 1.302682e+03
-4.985167e+09 -4.785111e+09 -4.945166e+09 -1.081981e+04 5.125321e+03 -4.706490e+02
-4.125418e+09 -3.925374e+09 -4.085422e+09 -7.873032e+03 9.212529e+03 -2.092869e+03
-4.833005e+09 -4.633023e+09 -4.793036e+09 3.935804e+04 3.321531e+03 7.325200e+03
-4.661007e+09 -4.461033e+09 -4.621045e+09 3.248221e+04 6.469360e+02 1.293792e+03
-4.320429e+09 -4.120466e+09 -4.280457e+09 4.588749e+04 4.797386e+03 8.179276e+03
-3.401890e+09 -3.201898e+09 -3.361901e+09 -9.930145e+02 -2.067106e+02 4.358607e+02
-4.146543e+09 -3.946563e+09 -4.106569e+09 3.572881e+04 1.272002e+03 1.434255e+03
-4.302557e+09 -4.102558e+09 -4.262572e+09 -5.918658e+03 -1.248252e+03 1.961253e+03
-1.698631e+09 -1.498642e+09 -1.658644e+09 -9.510898e+02 -5.201422e+02 1.620660e+03
-4.304544e+09 -4.104606e+09 -4.264128e+09 -7.206537e+04 -5.146183e+04 4.470375e+04
-2.841366e+09 -2.641373e+09 -2.801376e+09 -5.326949e+01 -3.244715e+01 4.369413e+01
-4.132130e+09 -3.932084e+09 -4.091647e+09 -7.649333e+04 -3.841550e+04 5.722860e+04
-4.302718e+09 -4.102642e+09 -4.262418e+09 -8.561528e+04 -2.240709e+04 1.802865e+04
-4.646653e+09 -4.446639e+09 -4.606210e+09 -8.765027e+04 -3.116168e+04 6.085635e+04
-4.093308e+09 -3.893318e+09 -4.053321e+09 6.007467e+02 2.704762e+01 1.449271e+02
-2.247917e+09 -2.047919e+09 -2.207924e+09 4.548097e+02 1.788384e+01 1.197996e+02
-1.589566e+09 -1.389562e+09 -1.549570e+09 -9.798593e+02 -1.833207e+03 2.151446e+03
-3.718318e+09 -3.518327e+09 -3.678329e+09 3.750254e+02 2.005493e+01 2.557505e+02
-4.673871e+09 -4.473881e+09 -4.633884e+09 4.256088e+02 -4.939535e+01 1.583651e+02
-2.187772e+09 -1.987783e+09 -2.147784e+09 1.512719e+02 -3.436088e+00 1.349931e+02
-4.916817e+09 -4.716905e+09 -4.876909e+09 2.187892e+03 -7.842963e+02 -1.549871e-04
-4.845086e+09 -4.645097e+09 -4.805099e+09 3.328195e+02 -2.520948e+01 2.830845e+01
-3.050991e+09 -2.850965e+09 -3.010994e+09 -1.046314e+03 -7.645303e+03 -3.664919e+02
-3.356825e+09 -3.156836e+09 -3.316838e+09 2.538222e+02 1.404925e+02 1.924740e+02
-4.305756e+09 -4.105768e+09 -4.265771e+09 -1.659729e+03 -3.600687e+02 6.629102e+02
-4.049852e+09 -3.849863e+09 -4.009865e+09 2.636030e+02 1.473756e+02 1.814865e+02
-1.892493e+09 -1.692481e+09 -1.852495e+09 -3.880419e+02 -4.449977e+03 7.163909e+02
-3.203637e+09 -3.003647e+09 -3.163649e+09 2.742383e+02 3.325962e+01 2.479928e+02
-2.846357e+09 -2.646361e+09 -2.806365e+09 -2.415709e+02 -5.220384e+01 -1.975404e+01
-2.315980e+09 -2.115984e+09 -2.275988e+09 -1.991300e+02 -6.161789e+01 6.114641e+01
-1.584257e+09 -1.384252e+09 -1.544258e+09 5.276197e+02 8.488107e+03 -3.358789e+03
-3.073263e+09 -2.873265e+09 -3.033270e+09 3.748115e+01 -2.747102e+00 -2.138877e+01
-2.577400e+09 -2.377405e+09 -2.537408e+09 -1.971909e+02 -4.591955e+01 3.989198e+01
-2.902149e+09 -2.702154e+09 -2.862158e+09 -7.005590e+02 -1.510592e+02 1.676913e+02
-5.000615e+09 -4.800613e+09 -4.960622e+09 7.688739e+02 1.425641e+02 -5.900199e+01
-2.736127e+09 -2.536132e+09 -2.696135e+09 -4.235565e+02 -1.110138e+02 7.464064e+01
-3.136615e+09 -2.936619e+09 -3.096623e+09 -4.676678e+02 -6.517645e+01 2.794744e+02
-2.229706e+09 -2.029711e+09 -2.189714e+09 -4.030717e+02 -4.677349e+01 1.094059e+02
-4.990765e+09 -4.790609e+09 -4.950571e+09 1.727507e+04 -4.121998e+03 4.127202e+02
-2.182616e+09 -1.982611e+09 -2.142621e+09 -2.963083e+02 4.647103e+03 2.645300e+02
-4.819133e+09 -4.618986e+09 -4.779002e+09 2.377220e+04 4.713481e+03 1.141362e+04
-4.481711e+09 -4.281543e+09 -4.441521e+09 5.477096e+04 1.199252e+04 -1.022581e+04
-4.473317e+09 -4.273276e+09 -4.433317e+09 -2.091276e+04 4.843594e+03 -7.519508e+02
-4.303884e+09 -4.103906e+09 -4.263912e+09 4.571094e+03 4.035063e+02 2.806458e+03
-4.998201e+09 -4.798039e+09 -4.957910e+09 5.132717e+04 -2.424828e+02 5.129634e+02
-1.877978e+09 -1.677985e+09 -1.837988e+09 -9.754176e+02 -4.193287e+02 4.625349e+02
-4.036983e+09 -3.836987e+09 -3.996991e+09 -1.989208e+02 -2.418192e+01 7.577692e+01
-4.326199e+09 -4.126020e+09 -4.285799e+09 2.639581e+04 3.920181e+04 1.538636e+04
-1.579008e+09 -1.379020e+09 -1.539021e+09 -3.049726e+02 -1.527981e+02 1.666092e+03
-3.961078e+09 -3.760919e+09 -3.920888e+09 2.869942e+04 7.570946e+04 3.865965e+02
-4.830076e+09 -4.629956e+09 -4.790018e+09 4.261702e+03 -1.156540e+03 6.148509e+03
-4.305806e+09 -4.105954e+09 -4.265723e+09 -4.403354e+04 1.892154e+04 -3.585803e+04
-4.820275e+09 -4.620295e+09 -4.779176e+09 -1.165219e+03 -5.896875e+04 4.307065e+04
-4.153388e+09 -3.953210e+09 -4.113118e+09 -1.640300e+04 5.267173e+04 3.629690e+04
-4.306329e+09 -4.106326e+09 -4.266342e+09 -6.263583e+03 -1.868774e+03 1.381485e+03
-4.835283e+09 -4.635110e+09 -4.795019e+09 9.777001e+03 1.711579e+04 4.154605e+04
-3.954524e+09 -3.754443e+09 -3.914436e+09 5.577275e+04 -2.540780e+04 -3.289631e+03
-4.623481e+09 -4.423405e+09 -4.583322e+09 7.645776e+04 -2.399738e+04 -1.739638e+02
-4.642694e+09 -4.442664e+09 -4.602630e+09 6.125816e+04 -7.355005e+03 -5.706227e+03
-4.275817e+09 -4.075782e+09 -4.235630e+09 7.843061e+04 -2.832868e+03 -2.101260e+04
-4.119731e+09 -3.919681e+09 -4.079568e+09 7.941631e+04 -1.090026e+04 1.518896e+03
-2.374503e+09 -2.174512e+09 -2.334514e+09 3.296469e+02 8.804682e+01 1.863568e+02
-4.800434e+09 -4.600415e+09 -4.760313e+09 7.763352e+04 4.617165e+03 1.606847e+04
-4.643405e+09 -4.443481e+09 -4.603465e+09 2.785159e+04 8.812631e+03 4.855874e+03
-4.489936e+09 -4.289757e+09 -4.449364e+09 1.677883e+04 6.237285e+04 2.560083e+04
-4.855292e+09 -4.655287e+09 -4.815300e+09 -1.183540e+03 -1.416725e+02 3.011249e+02
-4.471129e+09 -4.270989e+09 -4.430558e+09 2.915737e+04 8.013802e+04 2.139258e+04
-4.131713e+09 -3.931609e+09 -4.091440e+09 8.222882e+04 5.278405e+04 2.268575e+04
-1.579743e+09 -1.379750e+09 -1.539745e+09 5.016694e+02 -5.197599e+03 -7.680340e+03
-3.462069e+09 -3.262055e+09 -3.422075e+09 4.362318e+02 -5.145041e+02 -1.647445e+03
-3.608571e+09 -3.408548e+09 -3.568577e+09 1.748237e+02 -5.953643e+02 -3.532968e+02
-4.136322e+09 -3.936207e+09 -4.096024e+09 6.256649e+04 2.743251e+04 4.481299e+04
-4.667375e+09 -4.467206e+09 -4.627055e+09 4.822674e+04 4.628111e+04 -1.891262e+03
-4.817764e+09 -4.617671e+09 -4.776968e+09 4.110081e+04 1.386205e+04 1.344693e+04
-4.822818e+09 -4.622671e+09 -4.782469e+09 4.989297e+04 4.686776e+04 3.024257e+04
-4.825666e+09 -4.625642e+09 -4.785675e+09 2.927110e+03 -5.474188e+02 -1.001995e+03
-4.645855e+09 -4.445888e+09 -4.605035e+09 4.576675e+04 -2.629276e+04 -6.680657e+04
-4.474188e+09 -4.274294e+09 -4.433796e+09 6.620381e+04 -6.094206e+04 -7.797407e+04
-4.130897e+09 -3.931045e+09 -4.090379e+09 5.677035e+04 -1.171788e+05 -1.499358e+05
-4.644068e+09 -4.444196e+09 -4.603344e+09 2.598891e+04 -2.095870e+04 -8.859332e+04
-4.135491e+09 -3.935530e+09 -4.095547e+09 -9.246653e+03 5.220035e+03 -3.267617e+03
-4.980775e+09 -4.780827e+09 -4.940842e+09 -8.220469e+03 2.661294e+02 -1.053796e+03
-4.005692e+09 -3.805736e+09 -3.965747e+09 -1.987053e+04 7.883787e+03 -4.716204e+03
-4.151445e+09 -3.951503e+09 -4.111514e+09 -8.333976e+03 4.299191e+03 -3.814427e+03
-4.778427e+09 -4.578498e+09 -4.738501e+09 -1.571065e+04 3.573692e+03 -4.026306e+03
-4.595283e+09 -4.395345e+09 -4.555359e+09 -1.457003e+04 4.211360e+03 8.832667e+02
-4.820268e+09 -4.620276e+09 -4.780280e+09 2.367319e+03 8.722269e+01 4.571166e+02
-3.960707e+09 -3.760732e+09 -3.920742e+09 1.498236e+04 3.013375e+03 5.128358e+03
-4.211238e+09 -4.011224e+09 -4.171245e+09 4.003177e+03 1.907917e+03 1.125533e+03
-4.809552e+09 -4.609590e+09 -4.769611e+09 -1.334187e+04 3.626414e+03 -1.886762e+01
-4.026822e+09 -3.826806e+09 -3.986832e+09 -4.795979e+03 -2.773384e+03 1.354934e+03
-3.357096e+09 -3.157083e+09 -3.317103e+09 -3.155748e+03 -2.791296e+03 1.955839e+03
-2.584211e+09 -2.384201e+09 -2.544216e+09 -1.782780e+03 -3.432023e+03 2.475936e+03
-2.654792e+09 -2.454781e+09 -2.614798e+09 -3.534914e+03 -4.222930e+03 2.902924e+03
-1.594998e+09 -1.395004e+09 -1.555007e+09 1.083277e+03 3.765290e+02 4.695254e+02
-4.818125e+09 -4.618128e+09 -4.778133e+09 7.780092e+02 2.490608e+01 6.885658e+01
-3.791972e+09 -3.591959e+09 -3.751981e+09 -3.172923e+03 -2.516977e+03 1.895685e+03
-3.030939e+09 -2.830927e+09 -2.990945e+09 -8.862872e+02 -1.579063e+03 2.695461e+03
-4.635701e+09 -4.435661e+09 -4.595710e+09 1.428453e+04 -3.131234e+03 3.848814e+02
-3.962491e+09 -3.762494e+09 -3.922503e+09 5.469250e+03 1.478872e+03 1.303079e+03
-4.820503e+09 -4.620503e+09 -4.780512e+09 2.672543e+03 3.232945e+02 -1.384922e+02
-3.860521e+09 -3.660523e+09 -3.820528e+09 1.126107e+03 1.859454e+02 1.944004e+02
-4.286719e+09 -4.086671e+09 -4.246725e+09 1.822567e+04 -1.008623e+04 -5.148473e+03
-4.645362e+09 -4.445306e+09 -4.605362e+09 4.058276e+03 -3.413794e+03 -1.114772e+02
-4.991760e+09 -4.791731e+09 -4.951769e+09 1.088156e+04 1.641277e+03 -1.882721e+02
-4.990762e+09 -4.790704e+09 -4.950767e+09 1.019844e+04 -3.861108e+03 -1.165065e+03
-4.819172e+09 -4.619130e+09 -4.779180e+09 1.233353e+04 -1.146806e+03 -5.683276e+01
-4.132708e+09 -3.932664e+09 -4.092717e+09 1.190024e+04 -9.787941e+03 -3.502716e+03
-2.216766e+09 -2.016774e+09 -2.176776e+09 3.216249e+02 5.533498e+01 8.436550e+01
-4.392174e+09 -4.192176e+09 -4.352181e+09 2.131452e+01 1.955399e+00 1.664455e+01
-2.853943e+09 -2.653946e+09 -2.813951e+09 -9.922332e+02 -3.674897e+02 5.924091e+02
-4.991121e+09 -4.791131e+09 -4.951136e+09 2.614975e+03 -2.619992e+02 8.862318e+01
-3.058162e+09 -2.858164e+09 -3.018170e+09 -9.869201e+02 -4.787806e+02 4.028136e+02
-4.123589e+09 -3.923591e+09 -4.083597e+09 -5.253310e+02 -1.514930e+02 1.870515e+02
-4.966545e+09 -4.766537e+09 -4.926553e+09 2.655378e+03 3.859799e+02 3.625828e+01
-4.042708e+09 -3.842710e+09 -4.002716e+09 -9.793952e+02 -2.902865e+02 2.097901e+02
-4.828200e+09 -4.628222e+09 -4.788235e+09 3.361583e+04 6.786723e+02 4.068209e+02
-4.819726e+09 -4.619763e+09 -4.779770e+09 2.790001e+04 2.261077e+03 1.618387e+03
-4.649449e+09 -4.449447e+09 -4.609468e+09 4.079279e+04 9.691094e+02 6.730111e+02
-4.820116e+09 -4.620122e+09 -4.780126e+09 5.054713e+04 4.987392e+03 8.634993e+03
-4.307086e+09 -4.107096e+09 -4.267105e+09 4.640318e+04 4.831464e+03 6.422528e+03
-4.132006e+09 -3.932022e+09 -4.092026e+09 -3.658419e+03 -1.086456e+02 2.225784e+03
-4.303932e+09 -4.103903e+09 -4.263918e+09 4.696205e+04 1.014776e+04 3.215171e+03
-4.995201e+09 -4.795194e+09 -4.955219e+09 -5.394050e+03 1.083805e+03 -7.298104e+02
-4.998929e+09 -4.798810e+09 -4.958875e+09 -9.437340e+03 5.600556e+03 -1.296907e+03
-4.819016e+09 -4.618999e+09 -4.779031e+09 -1.133209e+04 1.859451e+03 -1.951189e+03
-3.964448e+09 -3.764465e+09 -3.924471e+09 3.827742e+04 -7.758848e+02 4.347218e+03
-3.962215e+09 -3.762256e+09 -3.921987e+09 -8.437532e+04 -4.042191e+04 8.844282e+04
-4.661507e+09 -4.461528e+09 -4.621535e+09 4.230160e+04 -1.197803e+03 2.636107e+02
-1.883057e+09 -1.683056e+09 -1.843063e+09 1.854825e+03 1.278240e+03 9.260030e+02
-2.911440e+09 -2.711437e+09 -2.871445e+09 1.542890e+03 8.538738e+02 6.166322e+02
-3.962192e+09 -3.762239e+09 -3.922242e+09 9.790528e+03 1.943762e+03 5.700572e+03
-4.638373e+09 -4.438369e+09 -4.598379e+09 4.250158e+02 1.711979e+01 2.512609e+02
-2.897747e+09 -2.697758e+09 -2.857759e+09 7.046269e+01 1.000720e+02 1.679481e+02
-3.197068e+09 -2.997067e+09 -3.157076e+09 2.306023e+03 1.113380e+03 9.447256e+02
-2.061140e+09 -1.861147e+09 -2.021150e+09 2.898414e+02 1.137463e+01 7.071510e+01
-4.804792e+09 -4.604803e+09 -4.764806e+09 1.546377e+03 3.085877e+02 2.296549e+02
-3.374185e+09 -3.174183e+09 -3.334192e+09 1.669196e+03 8.831194e+02 7.104566e+02
-3.347084e+09 -3.147081e+09 -3.307090e+09 2.492518e+03 1.067962e+03 1.120021e+03
-2.855095e+09 -2.655091e+09 -2.815100e+09 2.124634e+03 1.284225e+03 1.218103e+03
-3.454436e+09 -3.254434e+09 -3.414443e+09 2.292892e+03 9.159303e+02 6.806407e+02
-4.041483e+09 -3.841561e+09 -4.001555e+09 1.732352e+04 -5.116304e+03 -8.958845e+03
-4.132659e+09 -3.932705e+09 -4.091839e+09 3.434460e+04 -3.116008e+04 -9.936976e+04
-2.682006e+09 -2.481993e+09 -2.642010e+09 -1.981310e+02 -8.219924e+02 1.747817e+03
-4.979641e+09 -4.779737e+09 -4.939721e+09 1.161798e+04 -3.652726e+02 -2.582144e+03
-2.628945e+09 -2.428943e+09 -2.588951e+09 2.454451e+03 1.758344e+03 1.431412e+03
-1.686591e+09 -1.486585e+09 -1.646592e+09 4.843003e+02 -1.459045e+04 4.039022e+03
-1.874837e+09 -1.674824e+09 -1.834836e+09 -3.866556e+03 -1.092231e+04 -4.269860e+03
-2.788484e+09 -2.588479e+09 -2.748492e+09 -3.586984e+03 -3.644496e+03 2.798294e+03
-1.774582e+09 -1.574576e+09 -1.734584e+09 -9.729669e+02 -4.258217e+03 3.120764e+03
-1.580210e+09 -1.380206e+09 -1.540213e+09 -1.287767e+03 -4.283687e+03 3.479902e+03
-2.954103e+09 -2.754094e+09 -2.914109e+09 -3.045533e+03 -3.034941e+03 2.809431e+03
-4.992139e+09 -4.792109e+09 -4.952136e+09 -3.835785e+04 3.939065e+03 -1.914503e+03
-4.134475e+09 -3.934401e+09 -4.093916e+09 -5.711205e+04 7.728698e+04 -4.083234e+04
-2.341664e+09 -2.141660e+09 -2.301671e+09 -1.665118e+03 -2.733592e+03 2.350102e+03
-1.781360e+09 -1.581355e+09 -1.741364e+09 -2.395175e+03 -2.770067e+03 2.426477e+03
-3.961233e+09 -3.761082e+09 -3.920738e+09 -5.380097e+04 -1.037623e+05 3.013069e+04
-4.991939e+09 -4.791956e+09 -4.951969e+09 -1.158217e+04 -1.858208e+02 2.371786e+03
-2.372579e+09 -2.172575e+09 -2.332584e+09 -1.061664e+03 -1.507425e+03 2.074797e+03
-3.829651e+09 -3.629661e+09 -3.789663e+09 -1.326141e+02 -7.344424e+00 1.155365e+02
-5.006927e+09 -4.807037e+09 -4.966645e+09 7.021548e+04 2.520443e+03 -5.561989e+03
-4.819729e+09 -4.619660e+09 -4.779709e+09 3.184791e+04 6.475977e+03 4.584279e+03
-4.993871e+09 -4.793832e+09 -4.953880e+09 2.631462e+04 -3.473092e+03 -5.143622e+03
-3.962154e+09 -3.762100e+09 -3.922131e+09 3.188841e+04 5.932669e+03 -1.046263e+02
-4.645242e+09 -4.445218e+09 -4.605263e+09 1.860580e+04 -3.037819e+03 -2.228496e+03
-4.821047e+09 -4.621021e+09 -4.781064e+09 1.929803e+04 -3.532808e+03 -1.078641e+03
-4.131594e+09 -3.931574e+09 -4.091612e+09 1.995678e+04 -7.654978e+03 -3.881574e+03
-4.648717e+09 -4.448747e+09 -4.608760e+09 -2.788824e+04 2.066501e+03 -2.761418e+03
-4.820230e+09 -4.620205e+09 -4.780246e+09 2.862156e+04 -4.165516e+03 -1.721000e+03
-4.819774e+09 -4.619744e+09 -4.779785e+09 2.377119e+04 4.391853e+03 2.184233e+03
-4.819875e+09 -4.619846e+09 -4.779884e+09 3.228165e+04 2.607633e+02 -7.351266e+02
-4.304233e+09 -4.104200e+09 -4.264239e+09 2.553194e+04 9.140417e+03 3.317718e+03
-4.647467e+09 -4.447448e+09 -4.607480e+09 1.480615e+04 1.916400e+03 1.941336e+03
-2.703749e+09 -2.503745e+09 -2.663759e+09 -2.045970e+02 6.185548e+03 -4.447812e+02
-2.972147e+09 -2.772145e+09 -2.932159e+09 -4.923914e+02 6.343597e+03 -1.222796e+03
-4.132444e+09 -3.932430e+09 -4.092460e+09 1.996164e+04 4.817698e+03 3.162276e+03
-2.710677e+09 -2.510664e+09 -2.670683e+09 -1.319074e+03 -4.074510e+03 1.765375e+03
-2.208917e+09 -2.008905e+09 -2.168919e+09 -2.886691e+02 -2.705513e+03 1.539968e+03
-2.627218e+09 -2.427202e+09 -2.587222e+09 2.739160e+03 -6.518559e+03 -2.482789e+03
-3.907082e+09 -3.707085e+09 -3.867089e+09 1.376746e+02 5.653464e-01 5.464402e+01
-2.705718e+09 -2.505716e+09 -2.665732e+09 -1.183639e+03 7.562024e+03 1.032594e+02
-1.630176e+09 -1.430170e+09 -1.590179e+09 -1.508555e+02 -6.228398e+03 -4.490233e+02
-1.700219e+09 -1.500222e+09 -1.660213e+09 -1.119300e+03 6.818780e+03 -1.999791e+04
-3.331733e+09 -3.131797e+09 -3.291799e+09 -8.769425e+02 2.833727e+03 -5.899993e+03
-4.985017e+09 -4.785105e+09 -4.945095e+09 -1.274664e+04 -1.016595e+03 -1.624137e+03
-2.991529e+09 -2.791615e+09 -2.951579e+09 7.025826e+03 1.771852e+03 -6.261112e+02
-1.925048e+09 -1.725039e+09 -1.885050e+09 1.334292e+03 -1.730764e+03 2.104238e+03
-4.820927e+09 -4.620908e+09 -4.780932e+09 1.520918e+03 5.543038e+02 6.567907e+02
-2.808985e+09 -2.608968e+09 -2.768989e+09 -4.282027e+02 -5.471892e+03 1.798222e+03
-3.154997e+09 -2.954983e+09 -3.115003e+09 -6.036296e+02 -2.076241e+03 2.258405e+03
-4.303929e+09 -4.103954e+09 -4.263958e+09 -6.552429e+02 -9.968963e+01 2.801897e+03
-4.578639e+09 -4.378622e+09 -4.538644e+09 8.191975e+02 3.076796e+02 1.128533e+02
-4.645991e+09 -4.445945e+09 -4.605992e+09 3.386685e+03 2.819929e+03 1.602427e+02
-4.647051e+09 -4.447071e+09 -4.607075e+09 1.047340e+03 8.806624e+01 1.113942e+03
-4.132959e+09 -3.932984e+09 -4.092988e+09 5.258735e+02 1.068069e+03 3.493016e+03
-4.303972e+09 -4.103997e+09 -4.264001e+09 1.274984e+03 1.114248e+02 2.825116e+03
-4.648658e+09 -4.448615e+09 -4.608663e+09 -9.491325e+03 -3.439137e+03 7.351077e+02
-1.568038e+09 -1.368030e+09 -1.528038e+09 4.906199e+01 4.304232e+03 -1.760409e+03
-4.304655e+09 -4.104602e+09 -4.264660e+09 -1.456374e+04 -8.237542e+03 2.977477e+03
-4.992051e+09 -4.791995e+09 -4.952049e+09 -1.609692e+04 -3.162613e+03 -7.209953e+02
-4.997174e+09 -4.797171e+09 -4.957195e+09 -4.730187e+03 1.134014e+03 -2.779045e+02
-4.132599e+09 -3.932539e+09 -4.092597e+09 -1.295391e+04 -1.117772e+04 3.039496e+03
-3.874553e+09 -3.674634e+09 -3.834628e+09 -4.271890e+03 1.495214e+03 -3.846352e+03
-3.209789e+09 -3.009796e+09 -3.169799e+09 -8.467814e+02 -3.234922e+02 2.789867e+02
-3.962344e+09 -3.762291e+09 -3.922350e+09 -1.130466e+04 -7.267151e+03 3.340754e+03
-4.819063e+09 -4.619002e+09 -4.779063e+09 -1.081182e+04 -3.034074e+03 5.924606e+02
-3.680723e+09 -3.480736e+09 -3.640738e+09 1.156403e+03 1.107200e+02 1.021559e+03
-3.124195e+09 -2.924207e+09 -3.084209e+09 1.089779e+03 2.801447e+02 1.769654e+03
-3.129443e+09 -2.929452e+09 -3.089454e+09 -1.767805e+02 -2.301030e+02 2.299548e+02
-2.611887e+09 -2.411898e+09 -2.571900e+09 1.215780e+03 3.142077e+02 9.603630e+02
-2.867234e+09 -2.667245e+09 -2.827247e+09 3.143942e+02 3.622752e+01 5.545673e+02
-2.510896e+09 -2.310908e+09 -2.470910e+09 7.272193e+02 1.688320e+02 1.249435e+03
-2.104653e+09 -1.904664e+09 -2.064665e+09 7.209610e+02 1.691793e+02 1.216808e+03
-2.623335e+09 -2.423347e+09 -2.583348e+09 9.523875e+02 1.724440e+01 1.446512e+03
-3.454715e+09 -3.254721e+09 -3.414725e+09 -1.267295e+03 -2.482292e+02 3.055586e+02
-1.630195e+09 -1.430199e+09 -1.590203e+09 -9.735347e+01 -3.493953e+01 8.395060e+01
-3.181826e+09 -2.981839e+09 -3.141841e+09 6.948734e+02 1.976313e+02 1.551075e+03
-3.797212e+09 -3.597223e+09 -3.757248e+09 2.580150e+04 -6.140797e+03 -7.359487e+03
-4.823176e+09 -4.623200e+09 -4.783224e+09 1.916613e+04 -3.711242e+02 1.190118e+03
-4.930578e+09 -4.730586e+09 -4.890589e+09 1.860703e+02 -7.003746e+01 -2.327124e-07
-4.929828e+09 -4.729840e+09 -4.889841e+09 1.138458e+02 -3.241947e+01 -4.980390e-05
-1.567872e+09 -1.367884e+09 -1.527884e+09 -4.473409e+01 -2.779894e+01 1.677552e+03
-3.914370e+09 -3.714384e+09 -3.874408e+09 5.386932e+03 -7.411953e+03 -2.889132e+03
-4.151341e+09 -3.951351e+09 -4.111376e+09 6.324237e+03 -5.296490e+03 -2.025317e+03
-4.162541e+09 -3.962552e+09 -4.122554e+09 5.262582e+02 -7.509656e+01 2.615252e+02
-3.352976e+09 -3.152985e+09 -3.313006e+09 7.359875e+03 -9.998080e+03 -5.435528e+03
-4.006852e+09 -3.806855e+09 -3.966883e+09 1.111427e+04 -5.401295e+03 -2.780118e+03
-4.991496e+09 -4.791501e+09 -4.951506e+09 1.354230e+03 1.789135e+01 -2.349573e+01
-4.561899e+09 -4.361887e+09 -4.521906e+09 -2.102418e+03 6.675391e+02 -3.097544e+02
-4.071215e+09 -3.871203e+09 -4.031221e+09 -2.203808e+03 1.319281e+03 -9.177493e+02
-4.104467e+09 -3.904456e+09 -4.064471e+09 -1.223266e+03 9.306676e+02 -3.264027e+02
-4.179676e+09 -3.979664e+09 -4.139682e+09 -1.844156e+03 1.503726e+03 -6.738702e+02
-1.632761e+09 -1.432771e+09 -1.592772e+09 1.153292e+02 7.549667e+01 1.983681e+02
-3.900206e+09 -3.700216e+09 -3.860218e+09 1.602244e+02 -4.661097e+00 1.122793e+02
-2.924415e+09 -2.724424e+09 -2.884426e+09 6.664712e+01 2.975896e+01 1.029371e+02
-1.696580e+09 -1.496591e+09 -1.656592e+09 2.521015e+02 1.059438e+02 2.550901e+02
-4.180150e+09 -3.980139e+09 -4.140156e+09 -2.336397e+03 1.752062e+03 -4.856379e+02
-4.302924e+09 -4.102912e+09 -4.262933e+09 -4.245159e+03 2.499441e+03 -1.242488e+03
-4.475597e+09 -4.275582e+09 -4.435604e+09 -3.705133e+03 1.736253e+03 -7.176998e+02
-4.133288e+09 -3.933447e+09 -4.092843e+09 -2.827856e+04 4.116948e+04 1.108092e+05
-4.133611e+09 -3.933675e+09 -4.092894e+09 -5.491055e+04 -3.241083e+04 1.105087e+05
-4.303402e+09 -4.103388e+09 -4.262915e+09 -8.755147e+04 -4.845307e+04 5.947952e+04
-2.859297e+09 -2.659300e+09 -2.819304e+09 3.964178e+01 -1.290623e+01 -2.021071e+01
-4.648106e+09 -4.448158e+09 -4.607522e+09 -5.241216e+04 -1.863464e+04 9.247528e+04
-3.326308e+09 -3.126304e+09 -3.286316e+09 -1.012976e+03 -6.338645e+02 1.336154e+03
-3.990442e+09 -3.790436e+09 -3.950450e+09 -1.626901e+03 -7.131509e+02 8.733819e+02
-4.378319e+09 -4.178314e+09 -4.338328e+09 -1.582755e+03 -9.573397e+02 8.968330e+02
-3.707643e+09 -3.507639e+09 -3.667651e+09 -2.589542e+03 -1.272091e+03 1.467172e+03
-2.642985e+09 -2.442987e+09 -2.602993e+09 -1.853449e+03 -9.772079e+02 7.540079e+02
-3.953405e+09 -3.753403e+09 -3.913413e+09 -6.050057e+02 -1.654408e+02 5.176240e+02
-3.961459e+09 -3.761449e+09 -3.921470e+09 8.862620e+03 3.089766e+03 2.638693e+03
-4.513780e+09 -4.313776e+09 -4.473789e+09 -2.029684e+03 -4.363589e+02 7.034389e+02
-1.677159e+09 -1.477163e+09 -1.637167e+09 1.358501e+02 4.174670e+01 -4.292516e+00
-3.550710e+09 -3.350711e+09 -3.510717e+09 1.850213e+02 5.863915e+01 2.260508e+02
-4.690677e+09 -4.490672e+09 -4.650686e+09 -1.964727e+03 -4.904041e+02 8.077880e+01
-2.700990e+09 -2.500991e+09 -2.660996e+09 5.422188e+02 1.701499e+02 1.530116e+02
-3.434787e+09 -3.234797e+09 -3.394800e+09 1.820792e+03 3.125241e+02 1.082037e+03
-4.324232e+09 -4.124238e+09 -4.284249e+09 7.199643e+03 1.485708e+03 1.218124e+03
-1.812470e+09 -1.612472e+09 -1.772477e+09 7.415352e+02 2.537259e+02 1.158869e+02
-3.959978e+09 -3.759980e+09 -3.919986e+09 1.696791e+03 3.075445e+02 3.160802e+02
-2.586164e+09 -2.386166e+09 -2.546171e+09 9.909316e+02 2.429594e+02 1.449604e+02
-3.046927e+09 -2.846929e+09 -3.006934e+09 6.988691e+02 1.923736e+02 2.255917e+02
-3.478093e+09 -3.278095e+09 -3.438100e+09 1.121203e+03 2.202262e+02 2.303140e+02
-3.728716e+09 -3.528728e+09 -3.688730e+09 -4.487272e+01 -6.898719e+01 9.946534e+01
-2.973394e+09 -2.773396e+09 -2.933401e+09 1.079514e+03 2.658604e+02 4.037196e+02
-2.500951e+09 -2.300952e+09 -2.460957e+09 9.796907e+02 2.498840e+02 1.228514e+02
-2.151766e+09 -1.951761e+09 -2.111770e+09 4.273992e+02 4.944041e+02 5.867996e+02
-1.953473e+09 -1.753468e+09 -1.913476e+09 1.680291e+03 1.794520e+03 1.295564e+03
-3.813870e+09 -3.613882e+09 -3.773883e+09 -1.169778e+01 1.642423e+01 1.697235e+02
-1.577406e+09 -1.377402e+09 -1.537410e+09 1.498373e+03 2.422325e+03 1.547230e+03
-3.685861e+09 -3.485857e+09 -3.645866e+09 1.538392e+03 7.620135e+02 4.634897e+02
-4.251998e+09 -4.051992e+09 -4.212005e+09 2.344025e+03 8.736594e+02 7.145952e+02
-3.383477e+09 -3.183472e+09 -3.343484e+09 3.257081e+03 1.717130e+03 1.399637e+03
-4.639950e+09 -4.439953e+09 -4.599957e+09 1.808215e+01 0.000000e+00 5.995467e+00
-4.304036e+09 -4.103998e+09 -4.264046e+09 -1.786430e+04 -7.414751e+03 3.056437e+03
-3.924184e+09 -3.724187e+09 -3.884191e+09 3.678304e+01 -2.583344e+01 -4.398828e+00
-1.949605e+09 -1.749617e+09 -1.909617e+09 -2.017848e+02 -5.123446e+01 1.060182e+03
-3.306313e+09 -3.106318e+09 -3.266322e+09 -3.724296e+02 -8.520548e+01 6.925606e+01
-4.819486e+09 -4.619451e+09 -4.779498e+09 -1.871305e+04 -1.673979e+03 1.434780e+03
-4.133363e+09 -3.933315e+09 -4.093367e+09 -1.844851e+04 -1.053276e+04 3.606627e+03
-3.962062e+09 -3.762020e+09 -3.922069e+09 -1.546586e+04 -7.038158e+03 3.948422e+03
-4.647408e+09 -4.447375e+09 -4.607419e+09 -2.048267e+04 -2.787767e+03 1.598905e+03
-4.816542e+09 -4.616505e+09 -4.776551e+09 -2.398262e+04 5.600483e+03 -1.612465e+03
-1.585549e+09 -1.385548e+09 -1.545553e+09 2.007235e+02 1.142493e+04 -4.579694e+03
-4.475297e+09 -4.275246e+09 -4.435300e+09 -2.720144e+04 5.507181e+03 -1.612493e+03
-4.990837e+09 -4.790781e+09 -4.950838e+09 5.960329e+02 2.836354e+03 7.733177e-01
-4.139939e+09 -3.939913e+09 -4.099951e+09 -1.622986e+04 6.069776e+03 -3.890588e+03
-1.584257e+09 -1.384253e+09 -1.544259e+09 5.972759e+02 7.958334e+03 -3.614558e+03
-3.259851e+09 -3.059890e+09 -3.219900e+09 -6.033244e+03 9.025169e+03 -5.669535e+03
-4.302292e+09 -4.102265e+09 -4.262303e+09 -2.607254e+04 6.763575e+03 -6.618591e+03
-3.405974e+09 -3.205950e+09 -3.365981e+09 7.989721e+02 -7.341069e+03 -2.219628e+03
-3.208060e+09 -3.008032e+09 -3.168067e+09 5.174354e+03 -1.144449e+04 -1.846197e+03
-1.630559e+09 -1.430555e+09 -1.590563e+09 -8.620186e+01 5.987042e+03 -3.551889e+02
-1.863881e+09 -1.663873e+09 -1.823882e+09 -4.909956e+02 -9.162920e+03 -8.089206e+02
-3.422023e+09 -3.221991e+09 -3.382028e+09 2.377922e+03 -8.187587e+03 -1.495064e+03
-3.973342e+09 -3.773345e+09 -3.933350e+09 1.215422e+03 2.032117e+02 2.441206e+02
-1.585514e+09 -1.385511e+09 -1.545516e+09 6.775378e+02 9.634526e+03 -4.450431e+03
-4.818777e+09 -4.618928e+09 -4.778761e+09 -3.436619e+04 1.789997e+04 5.082974e+02
-4.303535e+09 -4.103671e+09 -4.263553e+09 -4.073955e+04 1.891409e+02 7.355952e+03
-3.551465e+09 -3.351458e+09 -3.511475e+09 -1.524418e+03 3.718782e+03 -7.469895e+02
-4.645213e+09 -4.445374e+09 -4.605155e+09 -2.606467e+04 -4.425607e+03 1.796604e+04
-4.655785e+09 -4.455784e+09 -4.615814e+09 -9.967921e+03 1.806621e+03 -1.315520e+03
-4.471001e+09 -4.270960e+09 -4.430999e+09 -2.360607e+04 4.712267e+03 -1.711359e+03
-3.962179e+09 -3.762280e+09 -3.922197e+09 -4.802270e+04 7.189378e+02 2.513149e+04
-4.133409e+09 -3.933502e+09 -4.093383e+09 -5.327837e+04 -2.217581e+04 1.760082e+04
-4.303791e+09 -4.103825e+09 -4.263828e+09 2.278591e+03 1.349623e+02 4.560060e+03
-4.646869e+09 -4.446902e+09 -4.606906e+09 4.973912e+02 6.799561e+01 2.398609e+03
-4.304231e+09 -4.104257e+09 -4.264261e+09 2.542288e+03 3.045022e+02 3.417482e+03
-3.557429e+09 -3.357416e+09 -3.517435e+09 3.796935e+02 -4.056853e+02 -1.301009e+03
-3.365171e+09 -3.165158e+09 -3.325179e+09 1.732615e+03 -3.683444e+03 -2.351574e+03
-4.819682e+09 -4.619714e+09 -4.779718e+09 2.693406e+03 -9.115294e+02 1.749349e+03
-4.996011e+09 -4.795981e+09 -4.956020e+09 4.980322e+03 -7.949850e+02 -2.268826e+02
-4.041708e+09 -3.841746e+09 -4.001760e+09 1.232973e+04 -3.612725e+03 -2.199702e+03
-2.089652e+09 -1.889654e+09 -2.049664e+09 -3.511627e+03 9.137941e+03 -4.036718e+03
-3.199848e+09 -2.999866e+09 -3.159882e+09 1.777156e+03 -8.727677e+03 -3.211033e+03
-4.112115e+09 -3.912152e+09 -4.072170e+09 2.794690e+03 -6.186913e+03 -1.600654e+03
-1.903140e+09 -1.703137e+09 -1.863147e+09 1.100128e+03 -7.503596e+03 -2.448108e+03
-5.001833e+09 -4.801872e+09 -4.961893e+09 7.782341e+03 -6.551080e+01 -9.815008e+02
-3.349408e+09 -3.149447e+09 -3.309454e+09 1.107400e+04 -1.029548e+04 -7.516849e+03
-3.176787e+09 -2.976828e+09 -3.136840e+09 5.929943e+03 -7.753411e+03 -4.547303e+03
-4.994987e+09 -4.795036e+09 -4.955049e+09 1.928982e+04 -3.379812e+02 -2.973086e+03
-3.046634e+09 -2.846623e+09 -3.006638e+09 1.725923e+02 -3.167378e+02 -8.253581e+02
-3.764078e+09 -3.564119e+09 -3.724130e+09 1.068798e+04 -5.344970e+03 -3.801061e+03
-3.589936e+09 -3.389979e+09 -3.549994e+09 5.634186e+03 -5.261404e+03 -1.245904e+03
-4.991809e+09 -4.791797e+09 -4.951823e+09 4.219188e+03 -7.195667e+02 -3.475942e+00
-4.124219e+09 -3.924159e+09 -4.084210e+09 2.910697e+04 -1.130880e+04 -2.838657e+03
-4.768665e+09 -4.568647e+09 -4.728674e+09 2.912517e+03 -5.971397e+02 -1.068696e+03
-4.471635e+09 -4.271559e+09 -4.431593e+09 4.243758e+04 -8.380073e+03 -1.331908e+04
-4.132632e+09 -3.932579e+09 -4.092623e+09 3.441913e+04 -1.441821e+03 -5.931081e+03
-3.966067e+09 -3.766019e+09 -3.926073e+09 3.395050e+04 -1.946867e+03 -1.430651e+03
-4.814845e+09 -4.614783e+09 -4.774820e+09 4.783932e+04 -5.575802e+03 -4.510904e+03
-4.157999e+09 -3.958004e+09 -4.118007e+09 -2.994718e+02 9.086858e+00 2.277527e+01
-4.510451e+09 -4.310456e+09 -4.470460e+09 -1.052324e+02 -5.649996e+01 1.833188e+01
-4.251125e+09 -4.051132e+09 -4.211135e+09 -1.068481e+03 -1.009816e+02 1.083788e+02
-1.688433e+09 -1.488425e+09 -1.648434e+09 -1.018356e+01 7.665237e+03 -1.980303e+03
-3.802308e+09 -3.602313e+09 -3.762317e+09 -6.722548e+02 -1.011204e+02 1.409200e+02
-1.585514e+09 -1.385510e+09 -1.545515e+09 5.874074e+02 1.027867e+04 -4.070827e+03
-4.758277e+09 -4.558282e+09 -4.718286e+09 -2.018938e+02 -1.520714e+01 -4.788787e+01
-4.474363e+09 -4.274374e+09 -4.434380e+09 4.376224e+03 7.061269e+02 9.872026e+02
-4.641034e+09 -4.441042e+09 -4.601048e+09 3.941626e+03 3.361885e+02 6.735734e+02
-4.650424e+09 -4.450455e+09 -4.610474e+09 -2.125983e+04 1.166413e+03 -1.150244e+03
-4.817911e+09 -4.617920e+09 -4.777925e+09 3.011859e+03 -7.294403e+01 4.909405e+02
-2.678383e+09 -2.478385e+09 -2.638398e+09 -5.698926e+02 8.071883e+03 -6.907867e+02
-4.817885e+09 -4.617896e+09 -4.777900e+09 2.532973e+03 -2.375182e+02 4.233635e+02
-4.474283e+09 -4.274293e+09 -4.434298e+09 3.394434e+03 3.347158e+02 7.276375e+02
-4.131446e+09 -3.931454e+09 -4.091460e+09 3.162571e+03 6.717066e+02 8.484745e+02
-3.180115e+09 -2.980119e+09 -3.140124e+09 -8.618982e+02 -3.020591e+02 2.810946e+02
-4.266888e+09 -4.066912e+09 -4.226934e+09 -1.423124e+04 6.761853e+03 -6.000799e+03
-3.625042e+09 -3.425039e+09 -3.585059e+09 -2.373944e+03 4.871811e+03 -9.967085e+02
-2.594892e+09 -2.394896e+09 -2.554900e+09 -8.799051e+02 -3.050945e+02 2.430507e+02
-5.003040e+09 -4.803042e+09 -4.963048e+09 1.391004e+03 4.665066e+01 -7.572808e+00
-2.164046e+09 -1.964050e+09 -2.124054e+09 -3.996203e+02 -9.270680e+01 5.199275e+01
-2.764030e+09 -2.564034e+09 -2.724038e+09 -3.732185e+02 -6.218441e+01 1.500170e+02
-3.367729e+09 -3.167733e+09 -3.327737e+09 -6.748379e+02 -1.686080e+02 1.771990e+02
-1.907015e+09 -1.707019e+09 -1.867023e+09 -3.448853e+02 -1.359417e+02 9.821919e+01
-4.654354e+09 -4.454440e+09 -4.614389e+09 -4.037643e+04 4.597435e+03 -3.673913e+03
-1.871582e+09 -1.671619e+09 -1.831620e+09 -5.679557e+02 2.316446e+03 -1.734782e+03
-4.317952e+09 -4.118018e+09 -4.277992e+09 -4.494194e+04 -4.832516e+03 8.272277e+03
-2.130090e+09 -1.930130e+09 -2.090120e+09 6.739229e+03 1.862213e+03 -1.103615e+04
-4.833379e+09 -4.633437e+09 -4.793422e+09 -4.338682e+04 -2.649895e+03 8.544838e+03
-4.314732e+09 -4.114785e+09 -4.274772e+09 -3.744011e+04 -5.092331e+03 9.185240e+03
-4.303885e+09 -4.103922e+09 -4.263925e+09 -3.772919e+04 -6.911937e+03 9.120295e+03
-4.661667e+09 -4.461723e+09 -4.621716e+09 -3.075537e+04 -1.078879e+02 -4.860326e+02
-4.137840e+09 -3.937852e+09 -4.097864e+09 1.018057e+04 2.846653e+03 2.970068e+03
-1.693161e+09 -1.493163e+09 -1.653164e+09 -7.986009e+02 1.344300e+04 -1.185631e+04
-4.990972e+09 -4.790980e+09 -4.950997e+09 1.325417e+04 1.350699e+03 1.198020e+03
-4.992495e+09 -4.792512e+09 -4.952526e+09 1.431033e+04 5.474087e+02 9.610565e+02
-4.653131e+09 -4.453147e+09 -4.613160e+09 1.143471e+04 5.435649e+02 2.085931e+03
-3.950790e+09 -3.750796e+09 -3.910813e+09 1.501254e+04 5.364274e+03 6.208390e+03
-1.635237e+09 -1.435249e+09 -1.595249e+09 7.589909e+01 6.703384e+01 2.378167e+02
-4.823156e+09 -4.623163e+09 -4.783166e+09 -6.740032e+02 -4.988374e+00 1.306270e+02
-1.915383e+09 -1.715396e+09 -1.875396e+09 8.238930e+01 3.946346e+02 1.621545e+03
-1.759000e+09 -1.559012e+09 -1.719012e+09 -7.814984e+01 -1.055843e+01 1.138952e+03
-4.127855e+09 -3.927858e+09 -4.087878e+09 1.620906e+04 3.039345e+03 4.577830e+03
-4.300357e+09 -4.100360e+09 -4.260380e+09 1.753643e+04 4.053289e+03 4.195334e+03
-4.980474e+09 -4.780489e+09 -4.940510e+09 2.034000e+04 1.630113e+03 4.038291e+03
-4.644696e+09 -4.444709e+09 -4.604724e+09 1.756158e+04 1.615378e+03 1.971331e+03
-4.656710e+09 -4.456724e+09 -4.616740e+09 1.564803e+04 1.402256e+03 1.913897e+03
-4.306106e+09 -4.106105e+09 -4.266115e+09 2.606603e+03 3.101369e+02 4.887944e+02
-4.305893e+09 -4.105893e+09 -4.265901e+09 2.790846e+03 3.765933e+02 4.275157e+02
-2.865219e+09 -2.665206e+09 -2.825221e+09 -1.034860e+03 3.024370e+03 -1.262278e+03
-4.820775e+09 -4.620776e+09 -4.780784e+09 2.950423e+03 -5.960480e+01 5.002455e+02
-4.648204e+09 -4.448204e+09 -4.608212e+09 2.134132e+03 1.515894e+02 1.567345e+02
-4.824859e+09 -4.624860e+09 -4.784867e+09 1.585044e+03 1.268686e+02 1.032336e+02
-4.315578e+09 -4.115578e+09 -4.275586e+09 1.539791e+03 3.243315e+02 2.775869e+02
-4.652716e+09 -4.452721e+09 -4.612729e+09 5.077067e+03 4.909803e+02 8.132220e+02
-4.480847e+09 -4.280851e+09 -4.440859e+09 4.231511e+03 4.742786e+02 6.073968e+02
-2.486894e+09 -2.286905e+09 -2.446915e+09 6.143148e+03 -9.169603e+03 -4.371044e+03
-4.817988e+09 -4.617995e+09 -4.778002e+09 4.611912e+03 5.581838e+02 2.517192e+02
-2.550866e+09 -2.350870e+09 -2.510886e+09 -4.251776e+03 1.133992e+04 -6.964538e+03
-4.996185e+09 -4.796190e+09 -4.956217e+09 7.958152e+03 -1.533514e+03 -4.870648e+02
-4.301809e+09 -4.101815e+09 -4.261822e+09 3.475732e+03 6.462220e+02 7.046352e+02
-4.476104e+09 -4.276108e+09 -4.436115e+09 3.702159e+03 7.023233e+02 2.099656e+02
-4.472598e+09 -4.272582e+09 -4.432014e+09 -6.504284e+04 6.264232e+04 -5.624140e+04
-1.580448e+09 -1.380440e+09 -1.540450e+09 -1.448477e+02 -4.274752e+03 -1.782750e+03
-4.830854e+09 -4.630979e+09 -4.790516e+09 -5.363112e+04 4.498309e+04 -1.482836e+04
-4.617316e+09 -4.417305e+09 -4.577323e+09 -5.723232e+01 0.000000e+00 -3.263853e+02
-1.880531e+09 -1.680521e+09 -1.840533e+09 7.449783e+02 -1.465250e+03 -1.971394e+03
-4.487600e+09 -4.287739e+09 -4.447385e+09 -2.631981e+04 2.651763e+03 -6.178705e+04
-4.139072e+09 -3.939115e+09 -4.098828e+09 -8.135326e+04 2.119210e+04 -5.451589e+04
-4.663730e+09 -4.463817e+09 -4.623253e+09 -7.103970e+04 3.025503e+04 -8.117582e+04
-4.992253e+09 -4.792384e+09 -4.952084e+09 -3.182709e+04 1.084380e+04 3.560986e+03
-4.825198e+09 -4.625236e+09 -4.784625e+09 -7.676406e+04 5.995848e+04 -6.168163e+04
-1.580536e+09 -1.380527e+09 -1.540537e+09 2.278857e+02 5.112781e+03 -2.588954e+02
-3.210396e+09 -3.010380e+09 -3.170399e+09 4.515779e+02 3.561532e+03 1.636727e+03
-3.490582e+09 -3.290573e+09 -3.450586e+09 -1.261086e+02 7.008454e+02 -2.893861e+02
-3.001394e+09 -2.801374e+09 -2.961399e+09 -2.446640e+02 -2.722487e+03 1.528432e+03
-4.994596e+09 -4.794576e+09 -4.954601e+09 8.985774e+02 5.410163e+02 4.004466e+01
-4.983814e+09 -4.783801e+09 -4.943829e+09 -7.636849e+03 1.077132e+03 -1.867041e+02
-3.663879e+09 -3.463859e+09 -3.623886e+09 -1.152692e+03 -1.462694e+02 1.169510e+03
-2.714478e+09 -2.514464e+09 -2.674484e+09 -6.931423e+02 -4.734569e+03 1.349116e+03
-2.481259e+09 -2.281241e+09 -2.441263e+09 -3.727728e+02 -8.644113e+03 1.401477e+03
-4.634102e+09 -4.434088e+09 -4.594114e+09 -7.410562e+03 2.273059e+03 -1.620806e+03
-3.151021e+09 -2.951001e+09 -3.111026e+09 -1.158480e+03 -4.178358e+03 5.325782e+02
-4.266606e+09 -4.066605e+09 -4.226633e+09 1.355805e+04 -4.989846e+03 -2.990444e+03
-4.827425e+09 -4.627439e+09 -4.787467e+09 1.271818e+04 -4.156888e+03 -2.376876e+03
-4.508698e+09 -4.308706e+09 -4.468731e+09 2.229213e+03 -2.990803e+03 -3.939630e+01
-4.646953e+09 -4.446948e+09 -4.606981e+09 1.259935e+04 -2.518082e+03 -1.835464e+02
-4.930662e+09 -4.730673e+09 -4.890698e+09 -2.277016e+03 1.090090e+03 -4.432414e-05
-4.754191e+09 -4.554200e+09 -4.714227e+09 4.875237e+03 -2.022625e+03 -1.375818e+03
-2.719562e+09 -2.519558e+09 -2.679567e+09 2.209461e+03 1.683981e+03 1.172556e+03
-4.397980e+09 -4.197976e+09 -4.357986e+09 4.336195e+02 -2.278348e+01 4.080766e+02
-4.144853e+09 -3.944853e+09 -4.104878e+09 4.842317e+03 -4.082921e+03 -1.150042e+03
-3.661227e+09 -3.461229e+09 -3.621251e+09 -3.606268e+03 5.700800e+03 -1.385793e+03
-3.921419e+09 -3.721410e+09 -3.881425e+09 4.095952e+03 1.584238e+03 1.179911e+03
-2.986621e+09 -2.786614e+09 -2.946626e+09 2.291745e+03 1.917344e+03 1.365154e+03
-2.801789e+09 -2.601782e+09 -2.761794e+09 2.217960e+03 2.759963e+03 1.543252e+03
-1.684256e+09 -1.484259e+09 -1.644264e+09 5.905139e+02 9.640289e+01 1.482001e+02
-3.381456e+09 -3.181450e+09 -3.341462e+09 7.325031e+02 3.590585e+02 9.753639e+02
-1.599044e+09 -1.399044e+09 -1.559050e+09 6.960098e+02 2.255836e+02 1.764087e+02
-2.972371e+09 -2.772362e+09 -2.932375e+09 1.188165e+03 1.470224e+03 1.026821e+03
-2.567055e+09 -2.367048e+09 -2.527060e+09 3.012871e+03 2.409569e+03 1.464053e+03
-1.692965e+09 -1.492969e+09 -1.652973e+09 1.069833e+03 3.206575e+02 2.716818e+02
-2.073313e+09 -1.873306e+09 -2.033316e+09 2.207559e+03 3.058409e+03 1.819952e+03
-4.990060e+09 -4.790055e+09 -4.950072e+09 7.392937e+03 5.666602e+02 4.016151e+02
-3.567514e+09 -3.367517e+09 -3.527521e+09 4.407304e+01 9.025704e+00 3.048297e+01
-3.542161e+09 -3.342166e+09 -3.502169e+09 1.135111e+02 1.068575e+02 5.202686e+01
-1.881770e+09 -1.681777e+09 -1.841780e+09 2.205725e+02 6.222503e+01 1.846138e+02
-2.573089e+09 -2.373090e+09 -2.533096e+09 1.743716e+03 5.792966e+02 5.065659e+02
-2.451987e+09 -2.251979e+09 -2.411992e+09 2.332949e+03 2.992871e+03 1.428237e+03
-2.668422e+09 -2.468414e+09 -2.628427e+09 2.803165e+03 3.256442e+03 1.132438e+03
-4.577139e+09 -4.377142e+09 -4.537147e+09 5.428477e+02 3.561888e+01 4.400219e+01
-4.527001e+09 -4.327003e+09 -4.487008e+09 9.005213e+01 6.873740e+00 1.695817e+01
-4.494963e+09 -4.294965e+09 -4.454969e+09 7.979019e+01 2.186457e+01 3.715808e+01
-4.561276e+09 -4.361278e+09 -4.521283e+09 3.267782e+02 1.081068e+01 5.725264e+00
-4.078389e+09 -3.878392e+09 -4.038396e+09 8.784807e+01 -4.666461e+01 1.187740e+00
-4.737243e+09 -4.537245e+09 -4.697249e+09 9.916184e+01 -8.515900e-01 -1.986239e+00
-4.807195e+09 -4.607197e+09 -4.767202e+09 3.772649e+02 -2.211413e+01 9.526658e+01
-2.685237e+09 -2.485239e+09 -2.645244e+09 7.541524e+01 5.520270e+00 2.305987e+01
-4.180312e+09 -3.980320e+09 -4.140344e+09 -6.042553e+03 4.874947e+03 -1.267040e+03
-4.992766e+09 -4.792782e+09 -4.952808e+09 -6.160051e+03 5.011477e+02 -1.761885e+03
-4.171102e+09 -3.971123e+09 -4.131145e+09 -7.793876e+03 5.294084e+03 -1.690132e+03
-2.127075e+09 -1.927086e+09 -2.087094e+09 7.042450e+03 -9.063523e+03 -3.879119e+03
-4.994887e+09 -4.794804e+09 -4.954879e+09 1.173537e+04 -6.272476e+03 -1.662807e+03
-4.987357e+09 -4.787298e+09 -4.947354e+09 2.483685e+04 -5.753864e+03 -1.562504e+03
-2.221770e+09 -2.021775e+09 -2.181783e+09 1.379277e+04 -1.525404e+04 -1.663639e+04
-3.786902e+09 -3.586962e+09 -3.746963e+09 3.424879e+04 -2.864581e+03 -5.501309e+03
-4.821523e+09 -4.621550e+09 -4.781575e+09 -1.215983e+04 4.155128e+03 -1.961590e+03
-4.303918e+09 -4.103919e+09 -4.263932e+09 -7.334201e+03 -1.810799e+03 1.932725e+03
-4.145196e+09 -3.945183e+09 -4.105211e+09 8.381227e+03 -4.630631e+03 -1.639027e+03
-4.131624e+09 -3.931683e+09 -4.091602e+09 6.432991e+04 2.237562e+04 1.229983e+04
-4.139049e+09 -3.939053e+09 -4.099070e+09 -1.266801e+04 -2.755446e+03 3.646049e+03
-2.678922e+09 -2.478965e+09 -2.638963e+09 -8.672271e+02 1.206156e+03 -2.357386e+03
-3.337900e+09 -3.137974e+09 -3.297932e+09 2.805942e+04 -3.174227e+03 -6.305321e+03
-4.653868e+09 -4.453872e+09 -4.613893e+09 -1.514010e+04 -1.102998e+03 1.412802e+03
-1.645743e+09 -1.445758e+09 -1.605755e+09 5.907583e+02 -1.443837e+03 -6.105623e+03
-1.565495e+09 -1.365503e+09 -1.525503e+09 1.010667e+03 -9.406061e+03 -1.016038e+04
-4.987298e+09 -4.787224e+09 -4.947286e+09 4.362989e+04 -4.478282e+03 -1.404835e+03
-4.302147e+09 -4.102145e+09 -4.262163e+09 -1.032608e+04 -2.755434e+03 2.401175e+03
-4.057583e+09 -3.857572e+09 -4.017597e+09 4.649411e+03 -4.029613e+03 -1.871562e+03
-4.991418e+09 -4.791417e+09 -4.951437e+09 -1.117065e+04 -1.131852e+03 5.677305e+02
-3.961841e+09 -3.761842e+09 -3.921856e+09 -8.605803e+03 -2.358476e+03 2.784130e+03
-4.640780e+09 -4.440761e+09 -4.600790e+09 -3.809580e+03 -9.316349e+02 6.843588e+02
-4.819519e+09 -4.619522e+09 -4.779540e+09 -1.234286e+04 -6.155947e+02 1.791370e+03
-4.302327e+09 -4.102328e+09 -4.262335e+09 2.077463e+03 2.346277e+02 2.815369e+02
-4.314000e+09 -4.114000e+09 -4.274007e+09 1.733742e+03 2.169182e+02 2.306760e+02
-4.654789e+09 -4.454788e+09 -4.614796e+09 1.535212e+03 1.884526e+02 1.130008e+02
-1.670644e+09 -1.470639e+09 -1.630646e+09 -7.161531e+02 -9.423211e+03 -4.252695e+02
-3.419964e+09 -3.219944e+09 -3.379972e+09 -7.035603e+03 -1.007658e+04 4.183709e+03
-4.639481e+09 -4.439483e+09 -4.599489e+09 1.521120e+03 8.042712e+01 8.963554e+01
-2.261115e+09 -2.061101e+09 -2.221117e+09 9.607133e+01 -2.986062e+03 -1.148055e+03
-4.817924e+09 -4.617926e+09 -4.777931e+09 1.166363e+03 3.864578e+01 9.305073e+01
-4.826439e+09 -4.626438e+09 -4.786446e+09 1.190498e+03 1.257085e+02 2.240254e+02
-3.008398e+09 -2.808396e+09 -2.968407e+09 -3.637286e+03 -2.515122e+03 2.540181e+03
-3.459403e+09 -3.259400e+09 -3.419413e+09 -5.241889e+03 -3.185624e+03 2.722191e+03
-4.819216e+09 -4.619260e+09 -4.779262e+09 1.711637e+03 -9.568681e+02 2.121421e+03
-1.920892e+09 -1.720883e+09 -1.880894e+09 1.628536e+03 -1.919344e+03 1.657892e+03
-4.647168e+09 -4.447210e+09 -4.607214e+09 3.008522e+03 2.425403e+02 2.940272e+03
-4.999356e+09 -4.799350e+09 -4.959365e+09 -3.458802e+03 3.708535e+02 3.117544e+02
-4.646654e+09 -4.446700e+09 -4.606699e+09 5.649481e+02 -3.310956e+01 2.599442e+03
-4.819848e+09 -4.619879e+09 -4.779884e+09 4.396806e+03 1.058453e+03 1.247445e+03
-4.647790e+09 -4.447833e+09 -4.607834e+09 6.158128e+03 4.214491e+02 2.518330e+03
-4.132544e+09 -3.932539e+09 -4.092450e+09 7.584691e+04 3.165821e+04 2.256470e+04
-3.961317e+09 -3.761303e+09 -3.921117e+09 9.439697e+04 3.795663e+04 4.825044e+04
-4.133125e+09 -3.933232e+09 -4.092756e+09 6.509764e+04 -7.579581e+03 8.700136e+04
-4.818107e+09 -4.618210e+09 -4.777986e+09 6.738374e+04 3.568029e+04 2.128115e+04
-4.992163e+09 -4.792153e+09 -4.952180e+09 -1.098484e+04 -1.090051e+03 -2.392130e+02
-4.649491e+09 -4.449490e+09 -4.609503e+09 -4.593679e+03 -8.305218e+02 7.081786e+02
-2.184618e+09 -1.984618e+09 -2.144626e+09 -3.286442e+03 -2.993933e+03 2.950189e+03
-4.988600e+09 -4.788522e+09 -4.948177e+09 6.529473e+04 9.194372e+03 -5.742800e+03
-3.806451e+09 -3.606451e+09 -3.766461e+09 -3.408504e+03 -9.328096e+02 1.565170e+03
-3.635446e+09 -3.435429e+09 -3.595453e+09 -1.603989e+03 2.031391e+02 1.431653e+03
-4.130769e+09 -3.930686e+09 -4.090321e+09 8.043045e+04 1.222958e+05 8.005437e+04
-4.299176e+09 -4.099050e+09 -4.258482e+09 6.191348e+04 8.994257e+04 3.571155e+04
-4.991974e+09 -4.791993e+09 -4.951250e+09 5.396601e+04 1.657000e+04 -2.547161e+02
-3.962948e+09 -3.762888e+09 -3.922508e+09 1.068107e+05 9.017397e+04 1.019251e+05
-3.031255e+09 -2.831267e+09 -2.991268e+09 -1.142960e+01 -1.303592e+01 1.615847e+02
-4.134186e+09 -3.934165e+09 -4.093600e+09 8.765398e+04 4.875905e+04 7.254461e+04
-2.741080e+09 -2.541089e+09 -2.701091e+09 -7.526238e+02 -2.552544e+02 5.821142e+02
-2.110912e+09 -1.910924e+09 -2.070924e+09 1.827415e+01 -9.222431e+00 2.185505e+02
-2.784201e+09 -2.584213e+09 -2.744214e+09 1.770673e+02 -8.675457e+01 2.929573e+02
-1.906997e+09 -1.707009e+09 -1.867010e+09 1.080529e+03 -7.923110e+01 1.578399e+03
-2.069842e+09 -1.869854e+09 -2.029854e+09 3.553909e+02 3.616860e+01 6.914585e+02
-4.304091e+09 -4.104061e+09 -4.264101e+09 1.530424e+04 6.457800e+03 2.914949e+03
-4.133102e+09 -3.933065e+09 -4.093108e+09 1.616062e+04 8.805025e+03 2.867783e+03
-3.962059e+09 -3.762026e+09 -3.922068e+09 1.426940e+04 6.371371e+03 3.386816e+03
-4.820053e+09 -4.620032e+09 -4.780069e+09 2.282782e+04 6.717429e+02 7.213507e+02
-4.991985e+09 -4.791960e+09 -4.951998e+09 2.433705e+04 3.246561e+03 2.262808e+02
-4.983709e+09 -4.783725e+09 -4.943727e+09 9.035434e+02 -1.227165e+01 2.469404e+02
-4.647467e+09 -4.447433e+09 -4.607475e+09 2.552486e+04 2.258319e+03 1.092706e+03
-4.132985e+09 -3.932949e+09 -4.092992e+09 2.469195e+04 9.504329e+03 5.182259e+03
-4.819450e+09 -4.619413e+09 -4.779458e+09 2.336739e+04 8.351748e+02 1.966013e+02
-3.352592e+09 -3.152581e+09 -3.312599e+09 2.557476e+03 -3.444882e+03 -1.658491e+03
-1.912163e+09 -1.712167e+09 -1.872171e+09 -6.588603e+02 -8.243091e+01 1.825820e+02
-3.601380e+09 -3.401392e+09 -3.561394e+09 3.346693e+01 2.381890e+01 1.476268e+02
-2.214670e+09 -2.014683e+09 -2.174684e+09 5.283239e+02 9.868647e+01 1.720507e+03
-4.368993e+09 -4.168982e+09 -4.329001e+09 5.011338e+02 -5.271474e+02 -2.077988e+02
-3.167609e+09 -2.967598e+09 -3.127614e+09 5.949130e+02 -1.083446e+03 -1.231113e+03
-3.538988e+09 -3.338977e+09 -3.498994e+09 7.283373e+02 -6.984153e+02 -1.054971e+03
-2.735653e+09 -2.535642e+09 -2.695657e+09 1.002289e+03 -2.458891e+03 -1.235575e+03
-3.544409e+09 -3.344398e+09 -3.504415e+09 3.302833e+02 -1.427598e+03 -6.875789e+02
-4.677792e+09 -4.477801e+09 -4.637804e+09 9.400418e+02 -2.283495e+01 3.038405e+02
-3.050505e+09 -2.850494e+09 -3.010509e+09 3.537111e+02 -1.270156e+03 -6.024505e+02
-3.180307e+09 -2.980295e+09 -3.140312e+09 3.665776e+02 -1.159196e+03 -1.543829e+03
-2.616528e+09 -2.416516e+09 -2.576532e+09 1.720965e+02 -1.282765e+03 -2.306283e+03
-3.180235e+09 -2.980241e+09 -3.140245e+09 1.380716e+03 3.819591e+02 5.504774e+02
-4.114913e+09 -3.914919e+09 -4.074923e+09 6.979099e+02 -7.808527e+01 2.138711e+02
-2.800070e+09 -2.600056e+09 -2.760073e+09 -2.543513e+02 -9.397298e+02 -2.046961e+03
-3.463245e+09 -3.263249e+09 -3.423253e+09 1.049796e+02 1.012723e+02 5.076856e+00
-2.716761e+09 -2.516749e+09 -2.676765e+09 1.283557e+03 -2.671054e+03 -2.204462e+03
-1.897467e+09 -1.697457e+09 -1.857468e+09 -7.965446e+02 -1.071643e+03 -2.219130e+03
-2.138467e+09 -1.938455e+09 -2.098468e+09 2.006294e+02 -2.229135e+02 -1.713437e+03
-1.991490e+09 -1.791477e+09 -1.951491e+09 6.241269e+02 -3.795241e+03 -2.267064e+03
-1.572446e+09 -1.372440e+09 -1.532447e+09 -9.266679e+02 -6.707528e+03 -2.809036e+03
-3.961818e+09 -3.761826e+09 -3.921831e+09 2.847622e+03 3.858600e+02 9.552765e+02
-1.771446e+09 -1.571438e+09 -1.731446e+09 6.489190e+02 -8.275002e+03 -2.413782e+03
-4.806739e+09 -4.606744e+09 -4.766748e+09 1.129746e+03 1.127733e+02 -6.580255e+01
-3.109751e+09 -2.909733e+09 -3.069756e+09 1.111613e+03 -3.685414e+03 -1.567796e+03
-3.530304e+09 -3.330309e+09 -3.490312e+09 -1.136482e+02 -8.247218e+01 7.604138e+01
-1.897174e+09 -1.697176e+09 -1.857181e+09 -1.984436e+02 -7.159296e+01 2.971560e+02
-2.823689e+09 -2.623669e+09 -2.783692e+09 1.639135e+03 -5.897326e+03 -2.119255e+03
-1.769285e+09 -1.569276e+09 -1.729285e+09 -2.973073e+02 -6.516875e+03 -2.980902e+03
-2.245606e+09 -2.045590e+09 -2.205610e+09 3.359837e+03 -8.075265e+03 -4.496545e+03
-2.338234e+09 -2.138239e+09 -2.298242e+09 -6.478537e+02 -1.230319e+02 1.637897e+02
-4.132139e+09 -3.932252e+09 -4.091989e+09 -6.827787e+04 -6.261630e+04 5.839124e+04
-1.947935e+09 -1.747940e+09 -1.907944e+09 1.762893e+01 -2.251766e+01 2.378879e+01
-4.990627e+09 -4.790770e+09 -4.950568e+09 -3.957622e+04 -2.609789e+03 -5.713219e+03
-4.477426e+09 -4.277556e+09 -4.437504e+09 -7.848686e+03 -3.333696e+03 1.119574e+03
-4.820666e+09 -4.620800e+09 -4.780715e+09 -1.992318e+04 -1.141322e+04 3.709120e+03
-3.700197e+09 -3.500202e+09 -3.660205e+09 -1.200034e+01 -9.894727e+00 2.382475e+01
-4.134206e+09 -3.934328e+09 -4.094251e+09 -2.494143e+04 1.152344e+04 -1.614114e+03
-4.821043e+09 -4.621020e+09 -4.781051e+09 6.225272e+03 8.504511e+02 1.111443e+03
-4.304235e+09 -4.104215e+09 -4.264247e+09 1.480321e+04 5.153776e+03 2.991413e+03
-4.819538e+09 -4.619519e+09 -4.779550e+09 1.094014e+04 8.630837e+02 1.201466e+03
-1.631598e+09 -1.431602e+09 -1.591606e+09 -9.948675e-05 -7.602837e+00 7.083012e+00
-4.648613e+09 -4.448590e+09 -4.608621e+09 7.340711e+03 1.839579e+03 5.936262e+02
-4.055280e+09 -3.855287e+09 -4.015290e+09 -1.312704e+02 -6.527599e+01 -7.146450e+01
-4.645035e+09 -4.445015e+09 -4.605043e+09 6.539610e+03 1.831480e+03 9.133540e+02
-4.525306e+09 -4.325317e+09 -4.485319e+09 1.281011e+02 7.599825e+01 6.702314e+01
-1.583561e+09 -1.383571e+09 -1.543573e+09 8.141669e+02 2.686073e+02 6.840867e+02
-4.820636e+09 -4.620615e+09 -4.780644e+09 6.827155e+03 1.934959e+03 -3.827371e+02
-4.129692e+09 -3.929677e+09 -4.089700e+09 6.295900e+03 3.187890e+03 2.343285e+03
-4.544446e+09 -4.344457e+09 -4.504460e+09 1.058426e+03 9.435563e+01 2.309346e+02
-2.905134e+09 -2.705145e+09 -2.865146e+09 4.050844e+01 3.472794e+01 1.230841e+02
-3.958676e+09 -3.758661e+09 -3.918684e+09 6.323666e+03 3.344517e+03 1.823588e+03
-4.997262e+09 -4.797274e+09 -4.957276e+09 7.870491e+02 -5.031042e+01 2.838755e+02
-4.125586e+09 -3.925602e+09 -4.085605e+09 9.963021e+02 7.144743e+02 1.372067e+03
-4.118287e+09 -3.918304e+09 -4.078307e+09 1.679922e+02 -6.502454e+02 1.582590e+03
-4.302740e+09 -4.102760e+09 -4.262763e+09 -1.006718e+03 -1.539584e+02 1.957075e+03
-4.995733e+09 -4.795739e+09 -4.955743e+09 4.276627e+02 -8.045956e+01 -2.065144e+01
-4.303818e+09 -4.103839e+09 -4.263843e+09 1.047682e+03 4.788316e+01 2.129547e+03
-4.132895e+09 -3.932914e+09 -4.092918e+09 1.053447e+03 8.893040e+02 2.268731e+03
-4.926039e+09 -4.726049e+09 -4.886051e+09 1.855768e+02 -3.341525e+01 -1.107338e-07
-3.164411e+09 -2.964423e+09 -3.124425e+09 -3.124859e+02 -1.116530e+02 8.309582e+02
-4.819360e+09 -4.619380e+09 -4.779384e+09 1.197013e+03 -6.596340e+02 8.319508e+02
-4.991648e+09 -4.791668e+09 -4.951672e+09 2.438528e+02 -2.405763e+01 1.126582e+02
-4.997261e+09 -4.797273e+09 -4.957275e+09 4.903061e+02 -2.761003e+01 1.074740e+02
-4.818879e+09 -4.618899e+09 -4.778903e+09 -2.131014e+02 -7.447775e+02 7.664345e+02
-1.990848e+09 -1.790858e+09 -1.950859e+09 4.661859e+02 1.574410e+02 5.647000e+02
-4.926141e+09 -4.726152e+09 -4.886154e+09 1.407201e+02 -3.659471e+01 -1.493059e-04
-4.647175e+09 -4.447152e+09 -4.607189e+09 -1.376032e+04 -2.242882e+03 1.278662e+03
-3.961681e+09 -3.761661e+09 -3.921693e+09 -1.077672e+04 -4.569264e+03 3.041371e+03
-4.648434e+09 -4.448407e+09 -4.608446e+09 -1.183150e+04 -2.564306e+03 1.722682e+03
-2.706186e+09 -2.506191e+09 -2.666195e+09 2.072170e+02 4.506438e+01 -5.513951e+01
-3.575747e+09 -3.375756e+09 -3.535758e+09 1.863767e+02 1.108145e+02 1.242665e+02
-2.643034e+09 -2.443041e+09 -2.603044e+09 3.728849e+02 9.094082e+01 1.491972e+02
-1.583561e+09 -1.383571e+09 -1.543573e+09 5.158061e+02 1.085994e+02 5.984417e+02
-4.821033e+09 -4.621003e+09 -4.781044e+09 -1.216358e+04 -3.015258e+03 7.530206e+01
-2.679215e+09 -2.479219e+09 -2.639223e+09 -3.095399e+01 -1.885540e+01 8.411913e+00
-4.648816e+09 -4.448784e+09 -4.608826e+09 -1.320815e+04 -2.252312e+03 8.752478e+02
-4.816218e+09 -4.616164e+09 -4.776209e+09 -2.558851e+04 5.710692e+03 -1.437593e+03
-3.959177e+09 -3.759132e+09 -3.919178e+09 -1.770193e+04 1.111361e+04 -2.043058e+03
-3.043372e+09 -2.843376e+09 -3.003380e+09 -4.024265e+01 -1.132802e+01 8.425267e+00
-2.202732e+09 -2.002736e+09 -2.162740e+09 -2.661858e+01 6.135879e+00 1.049506e+01
-3.950245e+09 -3.750186e+09 -3.910221e+09 -2.629393e+04 1.191367e+04 -2.480696e+03
-4.978401e+09 -4.778406e+09 -4.938409e+09 -3.104392e+02 2.578159e+01 2.504109e+00
-4.639784e+09 -4.439708e+09 -4.599733e+09 -4.359543e+04 -4.016075e+03 4.699623e+03
-4.153219e+09 -3.953150e+09 -4.113201e+09 -1.514429e+04 5.368964e+03 -7.375967e+02
-2.897191e+09 -2.697196e+09 -2.857199e+09 -6.544079e+02 -2.079192e+02 3.115366e+02
-4.317636e+09 -4.117571e+09 -4.277627e+09 -1.475442e+04 1.131565e+04 -8.797378e+02
-4.635115e+09 -4.435120e+09 -4.595123e+09 -1.889119e+01 9.947598e-05 1.409828e+01
-2.678618e+09 -2.478622e+09 -2.638626e+09 -2.888763e+01 -1.721506e+00 -5.839530e+00
-1.580449e+09 -1.380440e+09 -1.540450e+09 -2.666388e+02 -3.921713e+03 -1.432469e+03
-3.492701e+09 -3.292685e+09 -3.452707e+09 1.314539e+03 -1.046669e+03 -1.691969e+03
-2.657864e+09 -2.457849e+09 -2.617869e+09 1.570756e+03 -4.980962e+03 -2.980042e+03
-1.715435e+09 -1.515427e+09 -1.675437e+09 -4.657062e+01 -3.639268e+03 -7.154395e+02
-4.634229e+09 -4.434175e+09 -4.594230e+09 -1.381205e+04 1.288536e+03 -6.109618e+02
-3.122882e+09 -2.922872e+09 -3.082886e+09 6.681007e+01 -2.047348e+03 -1.162903e+02
-4.973848e+09 -4.773836e+09 -4.933859e+09 1.603705e+03 -7.159111e+02 -1.231990e+01
-4.636063e+09 -4.436022e+09 -4.596067e+09 -1.075735e+04 2.917483e+03 8.062697e+01
-1.686775e+09 -1.486768e+09 -1.646777e+09 -1.484320e+02 -7.658519e+03 -4.069170e+03
-4.992445e+09 -4.792418e+09 -4.952455e+09 6.575347e+03 -1.369117e+03 -5.330627e+02
-4.655648e+09 -4.455574e+09 -4.615632e+09 -2.100386e+04 1.167053e+03 -2.101459e+03
-4.076746e+09 -3.876773e+09 -4.036792e+09 -1.830675e+04 5.947583e+03 -3.224495e+03
-2.976725e+09 -2.776727e+09 -2.936744e+09 -6.564730e+03 7.539988e+03 -1.917740e+03
-2.881162e+09 -2.681179e+09 -2.841196e+09 -9.694648e+03 9.296131e+03 -8.220947e+03
-3.252336e+09 -3.052357e+09 -3.212360e+09 -1.487586e+04 8.282467e+03 -8.174610e+03
-2.958616e+09 -2.758601e+09 -2.918624e+09 3.519630e+03 -8.047869e+03 -4.474241e+03
-2.670205e+09 -2.470216e+09 -2.630229e+09 -1.820763e+03 9.313633e+03 5.758520e+02
-3.648337e+09 -3.448347e+09 -3.608370e+09 -4.686636e+03 6.592026e+03 -1.725519e+03
-3.608139e+09 -3.408162e+09 -3.568183e+09 -6.150138e+03 6.562988e+03 -2.005122e+03
-4.371162e+09 -4.171151e+09 -4.331170e+09 6.422220e+01 -4.800947e+02 -1.463020e+02
-1.904330e+09 -1.704320e+09 -1.864332e+09 1.102500e+03 -1.203967e+03 -1.366175e+03
-4.651275e+09 -4.451298e+09 -4.611314e+09 -2.075027e+04 -6.736336e+02 1.876467e+03
-4.994023e+09 -4.794052e+09 -4.954062e+09 -2.547143e+04 -2.128901e+03 2.710082e+03
-4.657075e+09 -4.457117e+09 -4.617120e+09 -1.487655e+04 -9.587266e+02 2.392646e+03
-3.733647e+09 -3.533631e+09 -3.693653e+09 5.448274e+02 -6.071808e+02 -1.330476e+03
-4.132115e+09 -3.932150e+09 -4.092159e+09 -2.752528e+04 -4.585333e+03 9.506898e+03
-4.302145e+09 -4.102175e+09 -4.262184e+09 -2.016209e+04 -3.498349e+03 5.899243e+03
-4.663243e+09 -4.463278e+09 -4.623287e+09 -1.455226e+04 -1.194768e+02 3.656538e+03
-4.130412e+09 -3.930439e+09 -4.090448e+09 -1.419802e+04 -2.435693e+03 4.328228e+03
-4.978401e+09 -4.778405e+09 -4.938409e+09 -2.694199e+02 2.821756e+01 4.114745e+01
-4.993354e+09 -4.793327e+09 -4.953363e+09 2.248948e+03 -5.902699e+02 -2.995594e+02
-4.141559e+09 -3.941564e+09 -4.101578e+09 9.590460e+03 2.405319e+03 1.681567e+03
-4.137895e+09 -3.937894e+09 -4.097910e+09 9.292831e+03 1.981186e+03 2.493884e+03
-4.650183e+09 -4.450151e+09 -4.610193e+09 6.852940e+03 -1.919524e+03 -5.372850e+02
-4.991708e+09 -4.791658e+09 -4.951711e+09 2.469147e+03 -3.106409e+03 -6.397293e+02
-4.817190e+09 -4.617186e+09 -4.777203e+09 7.682476e+03 1.071126e+03 5.366753e+02
-4.484792e+09 -4.284795e+09 -4.444809e+09 9.257777e+03 1.390570e+03 1.539971e+03
-4.826883e+09 -4.626848e+09 -4.786891e+09 2.708657e+03 -1.901467e+03 -1.008762e+03
-4.476462e+09 -4.276464e+09 -4.436477e+09 7.022121e+03 1.266300e+03 1.397240e+03
-4.302648e+09 -4.102647e+09 -4.262659e+09 5.883719e+03 1.321376e+03 9.196047e+02
-4.449728e+09 -4.249710e+09 -4.409736e+09 7.431380e+02 -2.589825e+02 -8.674110e+02
-4.138269e+09 -3.938270e+09 -4.098285e+09 8.588711e+03 2.267701e+03 2.003405e+03
-4.308634e+09 -4.108634e+09 -4.268648e+09 8.636015e+03 1.936301e+03 1.711799e+03
-4.993101e+09 -4.793062e+09 -4.953109e+09 1.023665e+04 -2.554693e+03 -1.027570e+03
-4.308389e+09 -4.108394e+09 -4.268405e+09 6.986377e+03 1.257892e+03 1.402417e+03
-4.978292e+09 -4.778279e+09 -4.938300e+09 9.773455e+02 -2.590610e+02 4.611903e+00
-4.823661e+09 -4.623666e+09 -4.783675e+09 5.282382e+03 6.925868e+02 8.573040e+01
-1.967492e+09 -1.767482e+09 -1.927494e+09 7.136239e+02 -8.163692e+02 -1.042854e+03
-2.602272e+09 -2.402260e+09 -2.562276e+09 1.537168e+02 -4.339449e+02 -1.948247e+03
-1.652150e+09 -1.452140e+09 -1.612151e+09 -3.117076e+02 -1.973027e+03 -2.289704e+03
-4.309483e+09 -4.109488e+09 -4.269497e+09 5.078598e+03 7.371060e+02 9.608430e+02
-3.000141e+09 -2.800127e+09 -2.960145e+09 4.408279e+02 -5.597813e+02 -1.792191e+03
-4.131522e+09 -3.931529e+09 -4.091536e+09 4.659784e+03 6.111861e+02 1.510230e+03
-4.135193e+09 -3.935199e+09 -4.095207e+09 5.085954e+03 1.351229e+03 9.207339e+02
-2.621306e+09 -2.421308e+09 -2.581313e+09 9.463549e+01 2.044619e+01 8.132437e+01
-1.684256e+09 -1.484259e+09 -1.644263e+09 9.044834e+02 2.403731e+02 1.948284e+02
-3.791210e+09 -3.591211e+09 -3.751216e+09 2.321546e+02 3.269504e+01 9.751476e+01
-4.667464e+09 -4.467470e+09 -4.627481e+09 7.195130e+03 6.116871e+02 1.253923e+03
-4.308652e+09 -4.108656e+09 -4.268666e+09 5.477449e+03 7.372783e+02 6.975206e+02
-3.963404e+09 -3.763408e+09 -3.923413e+09 2.092363e+03 3.296225e+02 6.107911e+02
-3.960660e+09 -3.760670e+09 -3.920675e+09 4.065534e+03 6.967793e+02 1.570530e+03
-4.822269e+09 -4.622294e+09 -4.782295e+09 -4.806853e+04 -4.320214e+03 8.409557e+03
-1.586421e+09 -1.386425e+09 -1.546429e+09 9.735890e+02 2.545821e+02 3.097170e+02
-4.647117e+09 -4.447155e+09 -4.607159e+09 -3.782131e+04 4.665902e+02 2.961340e+02
-3.962892e+09 -3.762894e+09 -3.922901e+09 3.092810e+03 8.441204e+02 8.005303e+02
-4.514277e+09 -4.314270e+09 -4.474283e+09 1.375996e+03 3.567737e+02 4.348453e+02
-4.822559e+09 -4.622589e+09 -4.782594e+09 -3.987053e+04 4.768002e+02 -2.311967e+03
-3.327711e+09 -3.127716e+09 -3.287720e+09 1.402232e+03 1.791276e+02 2.624966e+02
-4.650311e+09 -4.450338e+09 -4.610329e+09 -5.099532e+04 1.748187e+03 -1.350057e+03
-3.445888e+09 -3.245894e+09 -3.405898e+09 3.481071e+02 9.301321e+01 1.001292e+02
-3.450259e+09 -3.250268e+09 -3.410271e+09 1.908046e+03 3.517797e+02 8.287911e+02
-3.893760e+09 -3.693764e+09 -3.853768e+09 9.210062e+02 8.173189e+01 1.532609e+02
-4.132959e+09 -3.932921e+09 -4.092963e+09 -3.983473e+04 -9.794862e+03 9.335761e+03
-4.303876e+09 -4.103852e+09 -4.263886e+09 1.192294e+04 6.212656e+03 1.978657e+03
-4.647237e+09 -4.447196e+09 -4.607242e+09 4.640499e+03 3.466223e+03 1.446720e+03
-4.132861e+09 -3.932839e+09 -4.092870e+09 1.031295e+04 4.707560e+03 2.963324e+03
-4.819325e+09 -4.619299e+09 -4.779335e+09 1.071558e+04 1.173585e+03 1.278162e+03
-4.819754e+09 -4.619675e+09 -4.779690e+09 -5.301774e+04 -5.297698e+03 1.121370e+04
-3.565511e+09 -3.365499e+09 -3.525516e+09 5.168819e+02 4.347694e+02 7.400206e+02
-2.930139e+09 -2.730142e+09 -2.890146e+09 1.301384e+02 6.660647e-01 -1.185978e+01
-2.214229e+09 -2.014227e+09 -2.174234e+09 3.068704e+02 1.933112e+02 2.316367e+02
-4.304841e+09 -4.104815e+09 -4.264793e+09 -6.860617e+04 1.230801e+03 9.315304e+02
-4.915713e+09 -4.715717e+09 -4.875720e+09 -7.506070e+01 4.975126e-05 -9.900547e+00
-4.144593e+09 -3.944597e+09 -4.104614e+09 1.228263e+04 3.206905e+03 2.986822e+03
-2.985538e+09 -2.785519e+09 -2.945542e+09 2.196072e+02 8.550165e+03 -2.936871e+02
-4.306039e+09 -4.106006e+09 -4.266028e+09 -4.797869e+04 6.988915e+03 -5.602157e+03
-4.306181e+09 -4.106156e+09 -4.266187e+09 5.430691e+03 3.994224e+03 1.001042e+03
-3.143897e+09 -2.943881e+09 -3.103899e+09 3.271633e+01 1.579933e+03 -3.221035e+01
-4.991952e+09 -4.791920e+09 -4.951960e+09 8.573581e+03 1.961051e+03 3.447510e+02
-4.819342e+09 -4.619283e+09 -4.779330e+09 -3.944202e+04 -6.457554e+03 5.935482e+03
-4.132875e+09 -3.932821e+09 -4.092858e+09 -3.627305e+04 -2.361272e+03 -3.347565e+03
-4.650316e+09 -4.450326e+09 -4.610328e+09 -1.324865e+03 -5.184574e+01 1.374231e+02
-1.885381e+09 -1.685370e+09 -1.845382e+09 1.088104e+03 1.310082e+03 -2.823999e+02
-2.724531e+09 -2.524516e+09 -2.684533e+09 -8.810374e+02 3.943453e+03 -2.700207e+02
-3.102853e+09 -2.902838e+09 -3.062855e+09 1.705630e+02 1.623542e+03 9.709479e+01
-2.112351e+09 -1.912338e+09 -2.072351e+09 1.253769e+02 2.858108e+03 -3.398078e+02
-1.885475e+09 -1.685464e+09 -1.845475e+09 -6.398987e+02 1.095950e+03 9.294463e+01
-3.961166e+09 -3.761178e+09 -3.921183e+09 -3.352372e+03 -6.182840e+02 1.673522e+03
-2.641363e+09 -2.441373e+09 -2.601374e+09 -7.981434e+01 -2.008075e+02 1.434985e+02
-5.005938e+09 -4.805930e+09 -4.965947e+09 -2.926194e+03 -4.754001e+02 4.477252e+02
-4.155966e+09 -3.955982e+09 -4.115991e+09 -8.684419e+03 -9.152925e+02 3.385464e+03
-4.134432e+09 -3.934436e+09 -4.094442e+09 2.735615e+03 4.957093e+02 4.126054e+02
-4.815987e+09 -4.615992e+09 -4.775998e+09 2.983937e+03 3.686440e+02 8.233524e+01
-4.645964e+09 -4.445968e+09 -4.605973e+09 2.228629e+03 1.415506e+02 3.299527e+02
-4.816828e+09 -4.616832e+09 -4.776838e+09 2.396853e+03 3.689201e+02 -1.992921e+01
-4.658723e+09 -4.458726e+09 -4.618732e+09 1.767653e+03 1.292780e+02 2.522691e+02
-1.563664e+09 -1.363669e+09 -1.523673e+09 -4.631759e+02 -1.348347e+02 1.781215e+02
-4.819579e+09 -4.619590e+09 -4.779595e+09 -2.887368e+03 7.653784e+01 5.610467e+02
-4.133410e+09 -3.933415e+09 -4.093420e+09 1.958582e+03 9.774644e+01 5.546783e+02
-4.998612e+09 -4.798623e+09 -4.958634e+09 -7.715637e+03 -6.647403e+02 1.138813e+03
-3.909741e+09 -3.709783e+09 -3.869798e+09 -7.409371e+03 6.745655e+03 -4.454503e+03
-4.109047e+09 -3.909063e+09 -4.069086e+09 -2.090508e+03 6.084721e+03 -5.496160e+02
-4.277015e+09 -4.077056e+09 -4.237071e+09 -1.612527e+04 5.984969e+03 -7.050656e+03
-4.638338e+09 -4.438379e+09 -4.598396e+09 -1.579553e+04 1.190485e+03 3.814691e+03
-3.344537e+09 -3.144538e+09 -3.304545e+09 -1.304795e+03 -4.408430e+02 8.292081e+02
-3.236862e+09 -3.036869e+09 -3.196884e+09 -1.177656e+04 1.033241e+04 -7.362489e+03
-4.644598e+09 -4.444620e+09 -4.604626e+09 6.880020e+03 9.364669e+02 1.800269e+03
-4.754101e+09 -4.554128e+09 -4.714152e+09 -5.042122e+03 1.435544e+03 1.224506e+03
-3.960340e+09 -3.760356e+09 -3.920363e+09 5.640148e+03 1.023548e+03 2.925448e+03
-4.821689e+09 -4.621706e+09 -4.781731e+09 -1.686966e+04 4.384457e+02 6.426339e+02
-4.819031e+09 -4.619047e+09 -4.779052e+09 3.254174e+03 -5.899141e+02 8.620811e+02
-4.133406e+09 -3.933416e+09 -4.093420e+09 2.724228e+03 2.035686e+02 1.089393e+03
-4.841355e+09 -4.641365e+09 -4.801376e+09 8.464345e+03 -1.981644e+02 8.324744e+02
-4.133231e+09 -3.933202e+09 -4.093244e+09 -2.825420e+04 -1.013405e+04 6.762262e+03
-4.819169e+09 -4.619190e+09 -4.779196e+09 4.331177e+03 -5.663538e+02 1.414137e+03
-2.199487e+09 -1.999500e+09 -2.159501e+09 -6.089184e+02 -2.187225e+02 1.846155e+03
-4.819450e+09 -4.619435e+09 -4.779470e+09 -2.425008e+04 -8.305721e+02 7.010408e+02
-4.991668e+09 -4.791644e+09 -4.951677e+09 -3.831553e+04 -5.492240e+03 1.030921e+03
-4.991536e+09 -4.791561e+09 -4.951567e+09 6.298708e+03 2.855569e+02 1.233518e+03
-3.961271e+09 -3.761282e+09 -3.921298e+09 1.387832e+04 2.467987e+03 3.387367e+03
-4.483206e+09 -4.283219e+09 -4.443221e+09 4.722250e+02 -9.041780e+01 3.666050e+02
-4.302630e+09 -4.102645e+09 -4.262650e+09 3.203061e+03 3.775842e+02 1.432732e+03
-2.161169e+09 -1.961172e+09 -2.121176e+09 2.454366e+01 2.504208e+00 -3.414930e+01
-1.893276e+09 -1.693275e+09 -1.853281e+09 1.598935e+03 8.623730e+02 6.694591e+02
-4.825076e+09 -4.625089e+09 -4.785091e+09 3.694974e+02 2.532882e+01 1.642117e+02
-4.819426e+09 -4.619384e+09 -4.779425e+09 -3.858560e+04 6.125579e+02 -2.662722e+03
-3.962079e+09 -3.762048e+09 -3.922089e+09 -3.450027e+04 -2.845012e+03 6.272652e+03
-3.962213e+09 -3.762317e+09 -3.921752e+09 -6.391227e+04 -8.991780e+04 1.172752e+05
-4.647134e+09 -4.447099e+09 -4.607133e+09 -4.106349e+04 -5.925211e+02 4.588516e+02
-4.648291e+09 -4.448286e+09 -4.607128e+09 8.056908e+03 -1.004418e+04 -3.355516e+04
-4.821837e+09 -4.621790e+09 -4.781814e+09 -4.619067e+04 4.758123e+03 2.246210e+03
-3.662226e+09 -3.462302e+09 -3.622306e+09 -2.184034e+03 1.100643e+03 1.592313e+03
-3.579273e+09 -3.379291e+09 -3.539311e+09 -2.284014e+03 7.450829e+03 -7.518847e-02
-4.992079e+09 -4.792066e+09 -4.952025e+09 -6.239250e+04 3.997080e+03 -1.011983e+04
-1.686740e+09 -1.486738e+09 -1.646741e+09 4.665636e+02 1.181296e+04 -9.454180e+03
-2.181670e+09 -1.981715e+09 -2.141702e+09 -2.593083e+03 -1.751768e+03 -1.714292e+04
-1.696515e+09 -1.496525e+09 -1.656525e+09 -1.434315e+03 5.886562e+03 -5.511056e+03
-3.831620e+09 -3.631608e+09 -3.791623e+09 -2.167987e+02 3.533087e+02 -4.612991e+02
-4.822151e+09 -4.622128e+09 -4.781011e+09 -1.517972e+04 2.225572e+04 6.503943e+03
-1.939610e+09 -1.739598e+09 -1.899610e+09 9.286817e+02 1.128318e+03 -1.050051e+03
-1.664369e+09 -1.464365e+09 -1.624373e+09 1.573816e+02 7.141854e+03 -1.600476e+03
-4.317296e+09 -4.117246e+09 -4.276240e+09 -3.471541e+04 9.000076e+04 -3.665482e+04
-4.497072e+09 -4.296858e+09 -4.456437e+09 -4.344389e+03 5.987547e+04 -3.095310e+04
-4.638297e+09 -4.438255e+09 -4.598303e+09 -7.451573e+03 2.197890e+03 -1.309948e+02
-4.153817e+09 -3.953620e+09 -4.113269e+09 -2.407344e+04 7.345394e+04 -6.445659e+04
-5.008520e+09 -4.808336e+09 -4.968142e+09 -4.016283e+03 2.627882e+02 2.443693e+03
-4.582923e+09 -4.382944e+09 -4.542969e+09 -8.390856e+03 2.289890e+03 -8.504557e+02
-3.962352e+09 -3.762485e+09 -3.921408e+09 1.819676e+04 8.301828e+04 1.795913e+05
-4.323356e+09 -4.123196e+09 -4.283161e+09 -1.180310e+03 2.817503e+04 2.466660e+03
-2.276487e+09 -2.076557e+09 -2.236541e+09 -1.376447e+03 -2.926231e+03 -9.441182e+03
-4.477312e+09 -4.277404e+09 -4.437352e+09 3.932372e+04 8.127407e+03 -6.764520e+03
-3.037060e+09 -2.837094e+09 -2.997096e+09 2.308976e+04 -5.766408e+03 -8.125213e+03
-4.139840e+09 -3.939687e+09 -4.099564e+09 -4.024508e+04 5.209069e+04 -4.534868e+04
-4.817969e+09 -4.618055e+09 -4.777964e+09 5.772300e+04 1.372450e+04 8.139813e+03
-3.962141e+09 -3.762346e+09 -3.921903e+09 1.887946e+04 1.660533e+04 8.219600e+04
-3.961713e+09 -3.761852e+09 -3.921515e+09 6.709859e+04 3.920769e+04 6.730187e+04
-3.965647e+09 -3.765496e+09 -3.925507e+09 -2.714367e+04 7.785380e+04 2.315368e+03
-4.328016e+09 -4.127869e+09 -4.287618e+09 -3.107815e+04 4.065227e+04 -1.408006e+04
-1.880778e+09 -1.680781e+09 -1.840785e+09 1.133650e+02 3.915059e+01 4.692947e+00
-3.135708e+09 -2.935710e+09 -3.095715e+09 2.593322e+02 2.554600e+01 1.819163e+01
-2.095556e+09 -1.895558e+09 -2.055563e+09 1.312297e+02 3.544164e+01 -3.711163e+01
-2.731765e+09 -2.531767e+09 -2.691772e+09 2.438661e+02 3.392499e+01 -1.491857e+01
-1.880779e+09 -1.680781e+09 -1.840785e+09 2.422936e+02 4.162862e+01 -1.360465e+00
-2.876573e+09 -2.676574e+09 -2.836579e+09 4.835460e+02 1.377893e+02 5.187030e+01
-1.958393e+09 -1.758395e+09 -1.918400e+09 5.720934e+02 4.868399e+01 4.196593e+01
-2.709330e+09 -2.509332e+09 -2.669337e+09 1.276600e+02 -1.462566e+01 -1.397591e+01
-4.820155e+09 -4.620077e+09 -4.780128e+09 2.485892e+04 1.567257e+03 -3.251118e+03
-3.181804e+09 -2.981806e+09 -3.141811e+09 8.260359e+01 2.481952e+01 3.291981e+01
-2.988274e+09 -2.788284e+09 -2.948300e+09 -1.899127e+03 8.960336e+03 -2.184432e+03
-4.648126e+09 -4.448216e+09 -4.608196e+09 -1.422233e+04 -1.447949e+03 1.215147e+03
-3.961379e+09 -3.761361e+09 -3.921389e+09 -2.727873e+04 7.297690e+03 -4.344456e+03
-3.449595e+09 -3.249591e+09 -3.409619e+09 -1.466580e+04 1.079119e+04 -7.336365e+03
-3.493678e+09 -3.293681e+09 -3.453703e+09 -1.426634e+04 9.957654e+03 -8.552904e+03
-4.289100e+09 -4.089130e+09 -4.249147e+09 -2.126047e+04 4.827341e+03 -5.733034e+03
-4.820971e+09 -4.621062e+09 -4.781030e+09 -1.682498e+04 1.256316e+03 2.825290e+03
-4.303829e+09 -4.103933e+09 -4.263861e+09 -7.564792e+03 2.282266e+03 8.023252e+03
-3.962139e+09 -3.762198e+09 -3.922189e+09 8.879604e+02 3.522208e+02 9.035192e+03
-4.812370e+09 -4.612482e+09 -4.772420e+09 -2.496185e+04 -2.835901e+03 6.143365e+03
-4.822052e+09 -4.622172e+09 -4.782095e+09 8.953190e+03 5.271854e+03 1.288817e+03
-4.991876e+09 -4.791894e+09 -4.951900e+09 4.453458e+03 1.050479e+02 5.551054e+02
-3.961096e+09 -3.761108e+09 -3.921112e+09 2.713547e+03 6.181228e+02 1.760135e+03
-4.988692e+09 -4.788727e+09 -4.948736e+09 2.043390e+04 1.341731e+03 2.356546e+03
-3.962017e+09 -3.762077e+09 -3.922024e+09 -4.809124e+04 8.016738e+03 -6.874384e+03
-4.476665e+09 -4.276776e+09 -4.436704e+09 -1.408908e+04 -1.032967e+02 8.466246e+03
-4.645462e+09 -4.445499e+09 -4.605504e+09 1.538185e+04 1.011543e+03 4.187866e+03
-4.065374e+09 -3.865379e+09 -4.025383e+09 -6.935050e+02 -1.216134e+02 -2.157933e+01
-4.295263e+09 -4.095270e+09 -4.255273e+09 9.014617e+02 8.224029e+01 2.836219e+02
-4.243191e+09 -4.043196e+09 -4.203200e+09 -1.031639e+03 -9.459333e+01 9.277607e+01
-3.962407e+09 -3.762367e+09 -3.922408e+09 5.637364e+03 8.134439e+03 9.716414e+02
-4.231204e+09 -4.031208e+09 -4.191212e+09 -4.320221e+02 -5.412170e+01 -8.349733e+00
-4.710647e+09 -4.510651e+09 -4.670655e+09 -4.951822e+02 1.791009e+01 2.849226e+01
-3.873320e+09 -3.673324e+09 -3.833329e+09 -9.224836e+02 -3.126186e+01 1.345134e+02
-4.648036e+09 -4.447963e+09 -4.608002e+09 3.043424e+04 2.791184e+03 -1.081596e+02
-4.986272e+09 -4.786276e+09 -4.946280e+09 -1.200595e+03 -7.831182e+01 -1.200177e+00
-3.926312e+09 -3.726317e+09 -3.886321e+09 -4.555840e+02 -1.011124e+02 1.178813e+02
-4.819388e+09 -4.619329e+09 -4.779384e+09 2.594207e+03 2.596038e+03 3.865870e+01
-3.459357e+09 -3.259339e+09 -3.419365e+09 4.767204e+03 -5.726558e+03 -2.819705e+03
-4.640296e+09 -4.440280e+09 -4.600306e+09 4.593500e+03 -1.041717e+03 -4.763580e+02
-4.013357e+09 -3.813341e+09 -3.973366e+09 3.513689e+03 -2.475736e+03 -2.019750e+03
-4.819133e+09 -4.619089e+09 -4.779136e+09 3.639128e+03 3.260759e+03 -3.572005e+02
-3.962129e+09 -3.762080e+09 -3.922124e+09 1.061187e+04 9.219800e+03 1.574683e+03
-4.230229e+09 -4.030213e+09 -4.190239e+09 4.526066e+03 -3.047193e+03 -1.619886e+03
-4.307926e+09 -4.107946e+09 -4.267963e+09 -2.954912e+04 -6.691337e+03 7.658757e+03
-4.646660e+09 -4.446676e+09 -4.606681e+09 3.458420e+03 2.488601e+02 8.948784e+02
-4.087459e+09 -3.887445e+09 -4.047471e+09 5.402204e+03 -2.827669e+03 -1.764854e+03
-3.951952e+09 -3.751963e+09 -3.911968e+09 -3.900855e+03 -5.873656e+02 1.776595e+03
-1.691190e+09 -1.491198e+09 -1.651200e+09 -1.287794e+03 -5.126143e+02 7.772152e+02
-3.287720e+09 -3.087724e+09 -3.247728e+09 9.947100e-05 -1.071307e+01 2.603712e+01
-4.824925e+09 -4.624909e+09 -4.784939e+09 7.753468e+03 -1.998904e+03 -7.319344e+01
-4.037762e+09 -3.837751e+09 -3.997771e+09 2.712204e+03 -2.629987e+03 -6.924910e+02
-3.758854e+09 -3.558859e+09 -3.718863e+09 -7.710612e+01 6.600457e+00 5.709563e+01
-3.961549e+09 -3.761670e+09 -3.920990e+09 4.100119e+04 -7.497557e+04 -1.686518e+05
-4.817418e+09 -4.617494e+09 -4.776859e+09 4.445538e+04 1.366697e+04 -2.341688e+04
-4.991472e+09 -4.791540e+09 -4.951535e+09 -7.950401e+03 -6.034564e+02 4.333754e+03
-4.990053e+09 -4.790119e+09 -4.949574e+09 3.693926e+04 -1.204702e+04 -9.483701e+03
-3.962400e+09 -3.762432e+09 -3.922333e+09 -8.250550e+04 3.510922e+04 -1.794053e+04
-4.303456e+09 -4.103641e+09 -4.263142e+09 5.477160e+04 -5.856666e+04 -8.781968e+04
-4.126831e+09 -3.926845e+09 -4.086848e+09 1.137557e+03 1.108128e+02 8.530309e+02
-4.477371e+09 -4.277524e+09 -4.437020e+09 4.492277e+04 7.218402e+04 -6.147677e+04
-4.485280e+09 -4.285451e+09 -4.444956e+09 3.256018e+03 -1.217226e+03 -2.882432e+04
-4.303479e+09 -4.103637e+09 -4.263252e+09 3.016301e+04 -6.552081e+04 -5.695066e+04
-4.646710e+09 -4.446858e+09 -4.606478e+09 4.018868e+04 -7.134577e+04 -5.890623e+04
-4.991376e+09 -4.791420e+09 -4.951421e+09 -1.892903e+03 7.779984e+01 1.239316e+03
-2.683461e+09 -2.483468e+09 -2.643470e+09 -2.018248e+02 -1.104653e+02 -2.647043e+01
-3.962181e+09 -3.762224e+09 -3.922223e+09 3.251049e+03 5.675081e+02 7.755563e+03
-4.003244e+09 -3.803259e+09 -3.963261e+09 7.238575e+02 4.836952e+02 1.049622e+03
-4.819496e+09 -4.619530e+09 -4.779534e+09 -1.832524e+03 9.242928e+02 1.761889e+03
-1.844358e+09 -1.644364e+09 -1.804367e+09 -1.753333e+02 -7.168769e+01 -3.724549e+00
-2.616318e+09 -2.416324e+09 -2.576327e+09 -1.411240e+02 -1.422175e+02 2.727216e+01
-1.917558e+09 -1.717564e+09 -1.877567e+09 -1.163205e+02 -3.577531e+01 9.947872e+01
-3.141141e+09 -2.941147e+09 -3.101150e+09 -4.975123e+02 -1.183992e+02 1.081774e+02
-4.987073e+09 -4.787070e+09 -4.947082e+09 -2.920679e+03 1.331578e+02 2.828515e+02
-4.648532e+09 -4.448535e+09 -4.608539e+09 7.551318e+02 2.400804e+01 3.510881e+01
-3.343514e+09 -3.143517e+09 -3.303521e+09 1.636346e+02 -1.933080e+01 2.334764e+01
-4.191970e+09 -3.991973e+09 -4.151978e+09 5.476504e+02 3.943680e+01 2.470390e+01
-4.193094e+09 -3.993097e+09 -4.153101e+09 6.639543e+02 2.697856e+01 1.087694e+02
-4.990955e+09 -4.790949e+09 -4.950971e+09 -3.921922e+04 3.233396e+03 -4.024309e+03
-4.307398e+09 -4.107406e+09 -4.267410e+09 -1.798027e+03 -2.327616e+02 2.857990e+02
-5.001149e+09 -4.801171e+09 -4.961184e+09 1.961724e+04 1.176187e+03 2.528883e+03
-4.648800e+09 -4.448812e+09 -4.608830e+09 -3.996545e+04 -2.609907e+02 8.124271e+02
-3.925179e+09 -3.725187e+09 -3.885191e+09 -1.787298e+03 -2.580876e+02 6.465589e+02
-4.272022e+09 -4.072029e+09 -4.232033e+09 -6.791860e+02 -6.397728e+01 8.752155e+01
-4.655565e+09 -4.455574e+09 -4.615576e+09 -8.109994e+02 -2.057183e+02 1.314078e+02
-4.247595e+09 -4.047601e+09 -4.207605e+09 -1.237518e+03 -1.309464e+02 1.625744e+02
-4.311234e+09 -4.111242e+09 -4.271246e+09 -1.982920e+03 -2.021441e+02 3.672929e+02
-4.993569e+09 -4.793577e+09 -4.953582e+09 -2.011520e+03 -1.017352e+02 -1.115195e+02
-3.902663e+09 -3.702669e+09 -3.862673e+09 -1.478435e+03 -3.037580e+02 4.864622e+02
-3.961325e+09 -3.761345e+09 -3.921348e+09 -1.342510e+03 -2.992814e+02 2.471754e+03
-1.884303e+09 -1.684303e+09 -1.844320e+09 -1.011376e+04 1.551442e+04 -1.448758e+04
-4.303785e+09 -4.103811e+09 -4.263815e+09 -1.826797e+03 -2.599580e+02 3.215575e+03
-4.133007e+09 -3.933033e+09 -4.093036e+09 -1.519449e+03 6.257724e+02 3.591480e+03
-4.475015e+09 -4.274862e+09 -4.434665e+09 -4.650336e+04 -3.005303e+04 -1.494864e+04
-4.992450e+09 -4.792480e+09 -4.952462e+09 5.204856e+04 2.751815e+03 4.973293e+03
-3.954519e+09 -3.754433e+09 -3.914428e+09 4.340576e+04 -4.285205e+03 -4.991872e+03
-4.299459e+09 -4.099428e+09 -4.259390e+09 6.138687e+04 2.739259e+03 -4.627827e+03
-4.131774e+09 -3.931790e+09 -4.091806e+09 -4.008547e+04 9.729845e+03 -6.884207e+03
-4.991757e+09 -4.791737e+09 -4.951769e+09 1.156293e+04 1.481435e+03 -3.348757e+01
-4.303995e+09 -4.104021e+09 -4.264025e+09 3.986599e+02 4.636269e+01 3.220833e+03
-4.131850e+09 -3.931673e+09 -4.091586e+09 2.221247e+04 -4.285452e+04 -1.113404e+04
-3.961490e+09 -3.761510e+09 -3.921513e+09 -4.541879e+02 -9.255726e+01 2.651970e+03
-4.134302e+09 -3.934184e+09 -4.094194e+09 3.389945e+04 -1.500737e+04 -1.187486e+04
-4.991499e+09 -4.791523e+09 -4.951528e+09 -2.867972e+03 1.161290e+02 2.822147e+02
-4.302319e+09 -4.102339e+09 -4.262343e+09 -1.882791e+03 -1.586668e+02 1.908827e+03
-4.647161e+09 -4.447187e+09 -4.607190e+09 -6.551814e+02 -7.318835e+01 1.895361e+03
-4.819923e+09 -4.619932e+09 -4.779941e+09 -6.522124e+03 -1.023794e+03 5.848081e+02
-4.831225e+09 -4.631239e+09 -4.791248e+09 -7.799068e+03 -7.798725e+02 1.459059e+03
-4.304212e+09 -4.104216e+09 -4.264221e+09 2.496120e+03 4.355287e+02 2.852796e+02
-3.956924e+09 -3.756965e+09 -3.916908e+09 5.789656e+04 -8.780694e+03 -9.081323e+03
-4.672459e+09 -4.472474e+09 -4.632483e+09 -9.980439e+03 -1.146179e+03 1.400359e+03
-1.580301e+09 -1.380295e+09 -1.540303e+09 1.286370e+03 3.394038e+03 1.968680e+03
-3.961401e+09 -3.761399e+09 -3.921414e+09 9.297309e+03 2.504920e+03 2.903197e+03
-4.808869e+09 -4.608880e+09 -4.768890e+09 -8.284778e+03 -2.519064e+02 1.651756e+03
-4.133976e+09 -3.934025e+09 -4.093970e+09 -5.564757e+04 -1.249437e+04 9.395003e+03
-3.540880e+09 -3.340869e+09 -3.500887e+09 4.892351e+03 3.701874e+03 2.108412e+03
-3.936271e+09 -3.736280e+09 -3.896288e+09 -5.402148e+03 -6.417728e+02 1.443811e+03
-3.961279e+09 -3.761287e+09 -3.921301e+09 1.050659e+04 3.414310e+03 4.698750e+03
-4.135309e+09 -3.935315e+09 -4.095330e+09 1.114063e+04 1.737969e+03 4.153373e+03
-3.961844e+09 -3.761865e+09 -3.921870e+09 5.166381e+03 1.042587e+03 3.568737e+03
-4.636852e+09 -4.436864e+09 -4.596876e+09 -1.025864e+04 -6.467049e+02 7.484191e+02
-4.468295e+09 -4.268279e+09 -4.428307e+09 -7.369390e+03 2.902705e+03 -1.521835e+03
-3.958263e+09 -3.758140e+09 -3.918203e+09 1.798153e+04 -1.776524e+04 5.825156e+03
-4.990788e+09 -4.790826e+09 -4.949931e+09 7.448972e+03 -1.111348e+03 -5.274543e+03
-4.125061e+09 -3.925045e+09 -4.085072e+09 -7.743601e+03 3.270952e+03 -2.490716e+03
-4.478351e+09 -4.278334e+09 -4.438359e+09 -5.334931e+03 2.407380e+03 -8.897839e+02
-2.906522e+09 -2.706511e+09 -2.866525e+09 -4.845638e+02 4.402411e+02 -9.662225e+02
-4.984213e+09 -4.784123e+09 -4.944122e+09 4.409108e+04 1.043651e+04 -2.352410e+03
-4.132551e+09 -3.932539e+09 -4.092560e+09 -4.829496e+03 3.622088e+03 -4.410990e+02
-4.290869e+09 -4.090855e+09 -4.250882e+09 -7.398902e+03 3.451297e+03 -1.369060e+03
-2.888312e+09 -2.688307e+09 -2.848317e+09 -1.022857e+03 -6.712812e+02 1.581540e+03
-4.977369e+09 -4.777335e+09 -4.937379e+09 -1.250995e+04 1.479511e+03 1.239534e+02
-4.133260e+09 -3.933198e+09 -4.093235e+09 2.843095e+04 3.853435e+03 -2.852679e+03
-3.962178e+09 -3.762196e+09 -3.922201e+09 4.593072e+03 9.930794e+02 2.919755e+03
-4.980481e+09 -4.780492e+09 -4.940512e+09 2.240843e+04 2.082206e+03 2.725294e+03
-2.078474e+09 -1.878471e+09 -2.038478e+09 -3.491438e+02 -2.626124e+02 1.191716e+03
-4.133258e+09 -3.933253e+09 -4.093274e+09 1.138509e+04 2.968297e+03 2.766657e+03
-4.315475e+09 -4.115504e+09 -4.275515e+09 2.166284e+04 2.967256e+03 5.937000e+03
-1.767307e+09 -1.567302e+09 -1.727311e+09 -1.876376e+03 -2.787703e+03 2.860413e+03
-1.760858e+09 -1.560856e+09 -1.720863e+09 -1.651475e+03 -1.881527e+03 2.321958e+03
-4.653754e+09 -4.453874e+09 -4.613823e+09 1.536677e+04 -8.520926e+02 -2.938990e+02
-4.134147e+09 -3.934303e+09 -4.094111e+09 -2.269010e+04 1.855041e+04 -5.540413e+04
-1.829337e+09 -1.629333e+09 -1.789341e+09 -4.104497e+01 -4.889584e+02 1.517201e+03
-2.548568e+09 -2.348563e+09 -2.508574e+09 -1.801400e+03 -1.869820e+03 2.316578e+03
-4.303667e+09 -4.103698e+09 -4.263706e+09 9.043178e+03 1.871984e+03 4.107418e+03
-4.819594e+09 -4.619646e+09 -4.779646e+09 9.047442e+03 1.477488e+03 2.517723e+03
-4.820807e+09 -4.620807e+09 -4.780837e+09 -1.533184e+04 3.234967e+03 -1.445011e+03
-4.133069e+09 -3.933087e+09 -4.093100e+09 2.925246e+04 4.597905e+03 5.206332e+03
-4.134201e+09 -3.934304e+09 -4.094057e+09 6.432992e+04 -2.129344e+04 -4.438073e+04
-4.304244e+09 -4.104293e+09 -4.264258e+09 5.254489e+04 5.852386e+03 6.787826e+03
-4.991622e+09 -4.791582e+09 -4.951587e+09 5.902877e+04 5.486720e+03 3.453046e+03
-4.991440e+09 -4.791455e+09 -4.951409e+09 6.818024e+04 5.579984e+03 3.561853e+03
-4.820649e+09 -4.620790e+09 -4.780504e+09 3.817033e+04 2.555259e+03 3.348346e+03
-4.643986e+09 -4.444122e+09 -4.603880e+09 4.763854e+04 -2.219667e+04 -2.350011e+04
-4.309124e+09 -4.109149e+09 -4.269161e+09 1.819656e+04 2.201456e+03 6.483734e+03
-4.814637e+09 -4.614770e+09 -4.774630e+09 3.281019e+04 1.697708e+04 2.114169e+03
-4.987207e+09 -4.787333e+09 -4.947162e+09 4.000927e+04 -3.586490e+03 5.422697e+03
-4.627003e+09 -4.427027e+09 -4.586950e+09 6.530815e+04 -1.155349e+04 -1.176764e+04
-4.668717e+09 -4.468810e+09 -4.628778e+09 3.531983e+04 5.184165e+03 -2.733894e+03
-3.984578e+09 -3.784679e+09 -3.944614e+09 4.621883e+04 -1.630706e+03 -1.788556e+04
-4.129189e+09 -3.929169e+09 -4.088452e+09 7.962068e+04 -1.470923e+05 -1.078305e+05
-4.643991e+09 -4.444084e+09 -4.603938e+09 6.178911e+04 5.750250e+03 1.048414e+04
-3.885389e+09 -3.685365e+09 -3.845398e+09 -7.618147e+03 -4.631308e+03 2.416261e+03
-4.310385e+09 -4.110389e+09 -4.270404e+09 -1.210117e+04 -2.460889e+03 2.753325e+03
-4.802933e+09 -4.602800e+09 -4.762614e+09 5.746567e+04 -4.257851e+04 -3.678993e+04
-4.991577e+09 -4.791597e+09 -4.951601e+09 8.266435e+02 2.681263e+01 4.068610e+02
-4.135656e+09 -3.935640e+09 -4.094408e+09 -6.368318e+03 1.395517e+05 -7.422240e+04
-4.115855e+09 -3.915862e+09 -4.075875e+09 -9.475178e+03 -1.901138e+03 2.201994e+03
-4.293066e+09 -4.093078e+09 -4.253089e+09 -1.138470e+04 -2.615694e+03 3.122915e+03
-4.660535e+09 -4.460548e+09 -4.620565e+09 -1.539427e+04 -1.061222e+03 1.810691e+03
-3.961720e+09 -3.761722e+09 -3.921739e+09 -1.292483e+04 -3.059481e+03 4.265381e+03
-4.133307e+09 -3.933309e+09 -4.093330e+09 -1.531505e+04 -4.534850e+03 4.790322e+03
-3.965338e+09 -3.765451e+09 -3.925320e+09 -4.681949e+04 1.762883e+04 -2.534268e+04
-4.305961e+09 -4.105979e+09 -4.265992e+09 -1.592239e+04 -3.247425e+03 4.721115e+03
-4.998451e+09 -4.798462e+09 -4.958482e+09 -1.798860e+04 -2.111629e+03 1.622482e+03
-4.146087e+09 -3.946098e+09 -4.106115e+09 -1.604817e+04 -3.718195e+03 5.528899e+03
-4.987074e+09 -4.787072e+09 -4.947083e+09 -2.045069e+03 -1.764588e+01 2.967581e+02
-4.990038e+09 -4.790054e+09 -4.950061e+09 5.566940e+03 1.634588e+01 6.183144e+02
-4.131035e+09 -3.931048e+09 -4.091053e+09 3.699756e+03 1.067391e+03 1.387014e+03
-3.961094e+09 -3.761107e+09 -3.921112e+09 3.405337e+03 6.792953e+02 1.874856e+03
-4.647170e+09 -4.447210e+09 -4.606969e+09 9.055136e+04 1.412237e+04 4.003478e+04
-4.991543e+09 -4.791563e+09 -4.951569e+09 4.935164e+03 -1.518484e+02 4.793914e+02
-4.494383e+09 -4.294480e+09 -4.454346e+09 5.271839e+04 -5.185176e+02 -9.550797e+03
-4.647089e+09 -4.447109e+09 -4.607113e+09 4.283484e+03 4.974598e+02 1.502877e+03
-4.132997e+09 -3.933016e+09 -4.093021e+09 5.158928e+03 1.464031e+02 3.375359e+03
-4.302310e+09 -4.102328e+09 -4.262335e+09 5.555874e+03 5.634584e+02 2.640436e+03
-4.132566e+09 -3.932582e+09 -4.092586e+09 3.148022e+03 1.133506e+03 1.663929e+03
-4.693578e+09 -4.493570e+09 -4.653587e+09 -2.517989e+03 -5.590546e+02 9.932023e+01
-1.697310e+09 -1.497301e+09 -1.657310e+09 3.285038e+02 7.886463e+03 -1.758134e+03
-3.960627e+09 -3.760586e+09 -3.920631e+09 -7.071022e+02 7.119919e+03 -3.170780e+02
-4.258696e+09 -4.058689e+09 -4.218705e+09 -3.519036e+03 -1.277811e+03 8.876125e+02
-4.528963e+09 -4.328956e+09 -4.488972e+09 -2.531303e+03 -4.982584e+02 6.120153e+02
-1.577091e+09 -1.377083e+09 -1.537091e+09 -3.468689e+01 4.572626e+03 -1.366858e+03
-4.004024e+09 -3.804016e+09 -3.964033e+09 -3.413642e+03 -1.507232e+03 1.825878e+03
-4.823602e+09 -4.623593e+09 -4.783612e+09 -3.476649e+03 -4.070443e+02 1.001602e+03
-1.575738e+09 -1.375728e+09 -1.535738e+09 2.945240e+02 4.840378e+03 -1.040066e+03
-4.992347e+09 -4.792321e+09 -4.952355e+09 5.014320e+03 1.912118e+03 3.258853e+02
-3.788189e+09 -3.588181e+09 -3.748197e+09 -2.959030e+03 -2.079602e+03 1.135792e+03
-3.685298e+09 -3.485290e+09 -3.645307e+09 -2.571696e+03 -2.450333e+03 1.873140e+03
-4.988362e+09 -4.788265e+09 -4.947581e+09 3.853362e+04 -1.806911e+04 4.807962e+03
-4.511242e+09 -4.311234e+09 -4.471252e+09 -3.210522e+03 -3.680614e+02 4.868540e+02
-4.635746e+09 -4.435732e+09 -4.595758e+09 -4.415299e+03 -1.440897e+03 3.488930e+01
-4.807496e+09 -4.607507e+09 -4.767524e+09 1.744268e+04 5.923462e+02 1.776647e+03
-4.303213e+09 -4.103205e+09 -4.263233e+09 -1.972001e+04 -5.520447e+03 4.737099e+03
-1.767857e+09 -1.567847e+09 -1.727857e+09 3.001997e+02 5.028518e+03 -6.259901e+02
-3.913888e+09 -3.713873e+09 -3.873893e+09 1.013858e+03 1.111777e+03 6.146079e+02
-2.197035e+09 -1.997021e+09 -2.157034e+09 2.705406e+02 8.880788e+03 -2.886891e+02
-3.032809e+09 -2.832806e+09 -2.992816e+09 2.753612e+03 1.610796e+03 1.793233e+03
-4.132722e+09 -3.932706e+09 -4.092737e+09 -1.599929e+04 -4.304492e+03 4.023641e+03
-4.132368e+09 -3.932359e+09 -4.092380e+09 8.893700e+03 2.629131e+03 2.365169e+03
-4.646509e+09 -4.446501e+09 -4.606529e+09 -1.661563e+04 -1.479308e+03 1.531591e+03
-4.992421e+09 -4.792416e+09 -4.952431e+09 5.641249e+03 4.373015e+02 2.387085e+02
-4.647380e+09 -4.447365e+09 -4.607397e+09 -1.582169e+04 -1.952644e+03 2.657912e+03
-4.819971e+09 -4.619960e+09 -4.779990e+09 -1.605595e+04 -7.754021e+02 1.257427e+03
-2.678418e+09 -2.478407e+09 -2.638421e+09 2.983273e+02 5.679932e+02 8.310593e+02
-4.647446e+09 -4.447449e+09 -4.607455e+09 2.498690e+03 2.909594e+02 3.525465e+02
-4.825641e+09 -4.625644e+09 -4.785652e+09 3.885504e+03 6.518864e+01 2.319392e+02
-4.143121e+09 -3.943124e+09 -4.103130e+09 1.746507e+03 1.121421e+02 5.056663e+02
-3.451488e+09 -3.251490e+09 -3.411497e+09 -2.643740e+03 -7.983423e+02 1.019220e+03
-4.315490e+09 -4.115493e+09 -4.275498e+09 1.759624e+03 -8.955223e+01 2.465570e+02
-4.132051e+09 -3.932052e+09 -4.092064e+09 -5.232026e+03 -1.514765e+03 1.168809e+03
-4.821131e+09 -4.621134e+09 -4.781140e+09 2.454006e+03 -5.721721e+01 3.886407e+02
-4.312062e+09 -4.112065e+09 -4.272071e+09 1.832438e+03 2.158495e+02 2.642458e+02
-4.813809e+09 -4.613795e+09 -4.773833e+09 1.986515e+04 -3.280040e+03 -1.080553e+03
-4.296440e+09 -4.096430e+09 -4.256467e+09 1.937563e+04 -5.559700e+03 -3.539808e+03
-3.482296e+09 -3.282301e+09 -3.442305e+09 -9.452788e+02 -2.049922e+02 1.692151e+02
-4.643145e+09 -4.443143e+09 -4.603174e+09 2.038322e+04 -2.203017e+03 -1.328531e+03
-3.225633e+09 -3.025640e+09 -3.185643e+09 -1.312228e+03 -2.652076e+02 5.495545e+02
-2.678079e+09 -2.478086e+09 -2.638089e+09 -4.429886e+02 -1.420345e+02 1.999686e+02
-4.992320e+09 -4.792326e+09 -4.952329e+09 -7.315804e+02 4.870563e+01 9.333434e+00
-4.093348e+09 -3.893350e+09 -4.053358e+09 -2.617357e+03 -7.526105e+02 3.290079e+02
-4.821085e+09 -4.621078e+09 -4.781110e+09 1.112303e+04 -2.171193e+03 -1.517531e+03
-1.608021e+09 -1.408033e+09 -1.568033e+09 2.697886e+02 4.076378e+01 9.667622e+02
-1.867158e+09 -1.667171e+09 -1.827172e+09 9.030195e+01 6.966632e+01 1.957951e+03
-4.638517e+09 -4.438507e+09 -4.598540e+09 1.350176e+04 -2.075144e+03 -1.022551e+03
-4.046593e+09 -3.846606e+09 -4.006609e+09 1.218752e+03 1.982624e+01 1.004859e+03
-4.659658e+09 -4.459668e+09 -4.619695e+09 1.062843e+04 -3.922048e+03 5.566102e+02
-4.518565e+09 -4.318577e+09 -4.478578e+09 7.727876e+01 3.457145e+01 3.611878e+01
-3.282059e+09 -3.082070e+09 -3.242071e+09 3.361101e+02 8.442939e+01 3.832359e+02
-3.246393e+09 -3.046395e+09 -3.206401e+09 -1.027233e+03 -3.519531e+02 6.853640e+02
-3.361208e+09 -3.161210e+09 -3.321216e+09 -9.788351e+02 -3.185709e+02 3.765552e+02
-3.961884e+09 -3.761900e+09 -3.921903e+09 6.508084e+02 1.682024e+02 2.076198e+03
-2.665313e+09 -2.465315e+09 -2.625321e+09 -6.973933e+02 -2.484098e+02 5.198457e+02
-1.785170e+09 -1.585172e+09 -1.745177e+09 -1.057367e+03 -6.321496e+02 6.430943e+02
-2.084541e+09 -1.884543e+09 -2.044548e+09 -1.512260e+03 -6.725661e+02 8.381707e+02
-4.991777e+09 -4.791790e+09 -4.951791e+09 2.401187e+02 -3.807592e+01 -5.330919e+00
-2.692469e+09 -2.492482e+09 -2.652483e+09 5.297241e+02 5.252258e+01 1.499995e+03
-4.997261e+09 -4.797274e+09 -4.957275e+09 4.945641e+02 8.305382e+01 3.944181e+01
-2.433767e+09 -2.233770e+09 -2.393775e+09 -7.833400e+02 -2.079506e+02 5.741084e+02
-2.639598e+09 -2.439601e+09 -2.599606e+09 -1.330357e+03 -5.501719e+02 4.430052e+02
-2.464984e+09 -2.264987e+09 -2.424992e+09 -1.200953e+03 -3.754063e+02 4.437258e+02
-4.992678e+09 -4.792687e+09 -4.952692e+09 -2.170053e+03 -1.478835e+02 -5.698094e+01
-4.992105e+09 -4.792112e+09 -4.952116e+09 -1.523779e+03 -2.422589e+00 2.111104e+01
-4.307972e+09 -4.107981e+09 -4.267984e+09 -2.245707e+03 -2.661705e+02 4.499953e+02
-4.992641e+09 -4.792609e+09 -4.952652e+09 -1.037544e+04 -1.153307e+03 2.348942e+01
-4.050537e+09 -3.850524e+09 -4.010547e+09 4.510368e+03 -2.542696e+03 -9.501998e+02
-3.455935e+09 -3.255943e+09 -3.415946e+09 -1.776435e+03 -3.427730e+02 6.784134e+02
-3.961165e+09 -3.761179e+09 -3.921183e+09 -4.062935e+03 -5.973087e+02 1.934376e+03
-3.936270e+09 -3.736281e+09 -3.896288e+09 -4.794193e+03 -1.074196e+03 2.365466e+03
-4.815147e+09 -4.615151e+09 -4.775160e+09 -4.284520e+03 -7.561567e+02 -6.419733e+01
-4.652498e+09 -4.452484e+09 -4.612519e+09 1.238298e+04 -2.490837e+03 -1.785704e+03
-4.309526e+09 -4.109512e+09 -4.269541e+09 7.389883e+03 -3.467103e+03 -2.250974e+03
-4.264273e+09 -4.064262e+09 -4.224291e+09 8.016640e+03 -4.046830e+03 -1.815377e+03
-3.874476e+09 -3.674463e+09 -3.834488e+09 4.955443e+03 -3.038294e+03 -1.111721e+03
-3.507985e+09 -3.307992e+09 -3.467995e+09 -1.396633e+02 -1.628650e+02 5.487486e+01
-4.658757e+09 -4.458747e+09 -4.618772e+09 5.444479e+03 -1.431902e+03 -6.122747e+02
-4.635733e+09 -4.435723e+09 -4.595747e+09 3.298236e+03 -1.104917e+03 -7.930675e+02
-4.650194e+09 -4.450177e+09 -4.610199e+09 -1.925655e+03 6.622873e+02 -1.765168e+02
-4.751996e+09 -4.551982e+09 -4.712000e+09 -4.969100e+02 5.203843e+01 -3.593536e+02
-1.885203e+09 -1.685211e+09 -1.845213e+09 -1.293533e+03 -2.678554e+02 9.398606e+02
-4.995093e+09 -4.795097e+09 -4.955101e+09 1.104107e+03 2.945807e+01 1.739064e+00
-3.966875e+09 -3.766889e+09 -3.926896e+09 -5.768154e+03 -1.612469e+03 3.119679e+03
-4.981650e+09 -4.781661e+09 -4.941666e+09 -3.829426e+03 -1.719512e+02 2.132105e+02
-1.895292e+09 -1.695300e+09 -1.855302e+09 -5.344956e+02 -2.330864e+02 3.014531e+02
-4.821825e+09 -4.621830e+09 -4.781833e+09 -4.270350e+02 -1.080514e+02 9.876201e+00
-4.499361e+09 -4.299367e+09 -4.459370e+09 -1.232854e+02 -9.339111e+01 3.036753e+01
-4.575891e+09 -4.375876e+09 -4.535895e+09 -1.052793e+03 3.927114e+02 -3.081654e+02
-4.821385e+09 -4.621369e+09 -4.781389e+09 -1.591991e+03 3.735337e+02 -5.890871e+02
-4.750763e+09 -4.550747e+09 -4.710772e+09 -2.776990e+03 -5.406487e+02 -9.006177e+01
-3.826490e+09 -3.626480e+09 -3.786495e+09 1.018663e+03 5.668601e+02 4.572949e+02
-2.822251e+09 -2.622238e+09 -2.782253e+09 5.442470e+01 5.608106e+02 2.787590e+02
-4.111830e+09 -3.911816e+09 -4.071837e+09 -1.787254e+03 -8.684227e+02 1.215043e+03
-4.758383e+09 -4.558371e+09 -4.718393e+09 -1.892862e+03 -6.383772e+02 2.095914e+02
-3.883193e+09 -3.683179e+09 -3.843204e+09 -8.195539e+03 -3.420336e+03 2.019584e+03
-4.992039e+09 -4.792021e+09 -4.952054e+09 1.659985e+04 1.935222e+03 1.757653e+02
-3.727648e+09 -3.527638e+09 -3.687658e+09 -4.022238e+03 -2.196327e+03 1.837504e+03
-4.636117e+09 -4.436096e+09 -4.596127e+09 -7.862177e+03 -1.591171e+03 1.550856e+03
-4.635426e+09 -4.435431e+09 -4.595435e+09 9.440697e+02 7.079890e+01 1.191079e+02
-4.929298e+09 -4.729285e+09 -4.889304e+09 5.471942e+02 5.288671e-07 5.412435e+01
-5.036375e+09 -4.836361e+09 -4.996382e+09 2.522173e+03 1.625120e+02 -1.973312e+02
-3.270719e+09 -3.070724e+09 -3.230728e+09 3.477690e+02 5.257973e+01 6.576332e+01
-4.823924e+09 -4.623930e+09 -4.783934e+09 1.120399e+03 -6.669366e+01 1.850627e+02
-3.440278e+09 -3.240255e+09 -3.400281e+09 2.514163e+03 7.828753e+03 1.042411e+03
-3.915176e+09 -3.715152e+09 -3.875180e+09 2.588231e+03 2.847664e+03 5.932154e+02
-3.939015e+09 -3.739020e+09 -3.899024e+09 3.706691e+02 1.062452e+02 3.860670e+01
-3.631719e+09 -3.431724e+09 -3.591727e+09 3.346442e+02 4.583978e+01 1.991871e+02
-2.972146e+09 -2.772133e+09 -2.932151e+09 3.008042e+03 5.201237e+03 2.027177e+03
-4.072303e+09 -3.872307e+09 -4.032311e+09 1.164226e+02 2.980904e+01 -6.442796e+01
-3.471804e+09 -3.271787e+09 -3.431809e+09 4.595567e+03 5.824726e+03 1.956661e+03
-4.115303e+09 -3.915287e+09 -4.075310e+09 5.012749e+03 2.914998e+03 7.307930e+02
-3.440877e+09 -3.240882e+09 -3.400886e+09 7.374633e+02 4.020754e+01 2.069480e+02
-2.575119e+09 -2.375107e+09 -2.535122e+09 4.519807e+02 2.697419e+03 6.817131e+02
-2.868212e+09 -2.668196e+09 -2.828214e+09 6.521724e+02 4.120426e+03 2.256688e+02
-3.832491e+09 -3.632471e+09 -3.792495e+09 1.157374e+02 2.102170e+03 8.315717e+01
-3.833961e+09 -3.633942e+09 -3.793968e+09 -6.036421e+02 -4.931271e+02 7.843490e+02
-2.594676e+09 -2.394673e+09 -2.554683e+09 -1.196541e+03 -1.310036e+03 1.545658e+03
-1.585219e+09 -1.385228e+09 -1.545230e+09 -5.811000e+02 -1.809040e+02 3.085674e+02
-3.891012e+09 -3.690994e+09 -3.851016e+09 5.270738e+01 1.315085e+03 -1.896264e+02
-4.085363e+09 -3.885345e+09 -4.045368e+09 8.657684e+01 1.381840e+03 -7.165826e+01
-4.992821e+09 -4.792780e+09 -4.952830e+09 7.526553e+03 -2.680549e+03 -1.734096e+03
-3.035103e+09 -2.835109e+09 -2.995112e+09 -7.386589e+02 -2.470114e+02 2.376712e+02
-3.819062e+09 -3.619048e+09 -3.779069e+09 -1.835883e+03 -8.262983e+02 1.371156e+03
-1.887488e+09 -1.687485e+09 -1.847493e+09 -2.258192e+03 -3.702042e+03 3.654742e+03
-4.164438e+09 -3.964420e+09 -4.124442e+09 3.792569e+02 1.289487e+03 2.616968e+01
-2.620252e+09 -2.420239e+09 -2.580254e+09 -1.652781e-01 5.395726e+02 1.731951e+02
-4.275200e+09 -4.075170e+09 -4.235207e+09 4.037914e+03 -3.968022e+03 -1.249157e+03
-4.135099e+09 -3.935068e+09 -4.095108e+09 7.531216e+03 -6.754287e+03 -3.047292e+03
-4.821564e+09 -4.621534e+09 -4.781575e+09 7.656768e+03 -1.312132e+03 -1.916875e+01
-2.087634e+09 -1.887625e+09 -2.047637e+09 -2.735647e+03 -5.014476e+03 3.697313e+03
-3.575617e+09 -3.375596e+09 -3.535624e+09 3.416915e+02 -6.330910e+02 -1.061789e+03
-2.706757e+09 -2.506758e+09 -2.666763e+09 7.474571e+02 1.616992e+02 3.087428e+02
-4.916150e+09 -4.716132e+09 -4.876158e+09 7.303114e+02 -2.440221e-06 -1.871152e+02
-3.595680e+09 -3.395665e+09 -3.555688e+09 1.306723e+03 -2.460797e+03 -1.724790e+03
-2.104376e+09 -1.904377e+09 -2.064382e+09 6.133198e+02 2.300755e+02 2.431363e+02
-3.027536e+09 -2.827537e+09 -2.987543e+09 1.210361e+03 3.735305e+02 4.646134e+02
-1.897684e+09 -1.697686e+09 -1.857691e+09 8.643755e+02 1.409900e+02 1.869129e+02
-3.135473e+09 -2.935474e+09 -3.095480e+09 5.542388e+02 6.918884e+01 8.186605e+01
-1.893741e+09 -1.693742e+09 -1.853748e+09 4.572017e+02 1.046613e+02 1.747978e+02
-1.906310e+09 -1.706312e+09 -1.866317e+09 9.803322e+02 2.915069e+02 2.120464e+02
-4.304821e+09 -4.104872e+09 -4.264112e+09 -5.241340e+04 -3.503026e+04 1.060265e+05
-4.302539e+09 -4.102483e+09 -4.261629e+09 -5.566979e+04 -8.994796e+04 8.419612e+04
-4.646771e+09 -4.446811e+09 -4.606034e+09 -4.676575e+04 -5.225313e+04 6.483022e+04
-4.132239e+09 -3.932240e+09 -4.091626e+09 -8.051924e+04 -1.343917e+05 1.163699e+05
-4.992827e+09 -4.792781e+09 -4.952832e+09 7.213675e+03 -3.114799e+03 -7.645974e+02
-4.669361e+09 -4.469434e+09 -4.629378e+09 5.230814e+04 2.074869e+03 -5.400577e+03
-4.814135e+09 -4.614162e+09 -4.774113e+09 6.245614e+04 2.363113e+03 1.216357e+04
-4.299427e+09 -4.099455e+09 -4.259426e+09 5.918267e+04 3.175647e+03 3.920573e+03
-4.127669e+09 -3.927696e+09 -4.087642e+09 6.136939e+04 -8.604159e+03 -1.728361e+04
-4.647479e+09 -4.447526e+09 -4.607493e+09 5.208944e+04 -5.591965e+03 -4.839084e+03
-4.807897e+09 -4.607902e+09 -4.767905e+09 7.485326e+02 4.314885e+01 1.392300e+02
-4.260460e+09 -4.060464e+09 -4.220468e+09 1.054799e+03 9.875003e+01 9.427588e+01
-4.973190e+09 -4.773323e+09 -4.933282e+09 -3.917980e+03 1.734350e+02 -4.910794e+03
-3.931222e+09 -3.731226e+09 -3.891230e+09 1.313967e+03 1.444483e+02 3.451163e+02
-3.454775e+09 -3.254781e+09 -3.414805e+09 -2.015852e+04 1.232704e+04 -1.029280e+04
-4.992530e+09 -4.792607e+09 -4.952597e+09 2.322710e+04 -3.202460e+03 -2.713418e+03
-4.087753e+09 -3.887759e+09 -4.047763e+09 1.383698e+03 7.549540e+01 3.615505e+02
-4.494812e+09 -4.294801e+09 -4.454822e+09 8.730574e+02 -6.478187e+02 -1.617889e+02
-3.962207e+09 -3.762300e+09 -3.922226e+09 3.234348e+04 9.037786e+02 3.062594e+03
-1.582415e+09 -1.382424e+09 -1.542426e+09 -7.502594e+02 -3.760686e+02 5.857518e+02
-4.835571e+09 -4.635583e+09 -4.795585e+09 -5.705600e+02 -1.774177e+02 9.569389e+01
-4.819876e+09 -4.619881e+09 -4.779885e+09 1.938194e+03 2.811249e+02 -2.689705e+01
-4.302191e+09 -4.102247e+09 -4.262214e+09 4.628239e+04 -8.509338e+02 -8.828273e+03
-4.990740e+09 -4.790745e+09 -4.950750e+09 1.756866e+03 6.502272e+01 -1.443990e+02
-4.832456e+09 -4.632487e+09 -4.792511e+09 1.437569e+04 -4.747994e+03 -1.693286e+03
-4.819648e+09 -4.619657e+09 -4.779686e+09 2.654196e+04 -5.139131e+02 -2.272169e+02
-4.998019e+09 -4.798011e+09 -4.958035e+09 2.332245e+03 -7.722860e+02 -4.196130e+02
-4.303228e+09 -4.103234e+09 -4.263239e+09 1.530570e+03 2.396194e+02 1.089209e+02
-4.133013e+09 -3.932987e+09 -4.093018e+09 -3.080168e+03 4.502812e+03 -1.379476e+03
-4.648054e+09 -4.448028e+09 -4.608060e+09 -2.517453e+03 1.371552e+03 -1.599850e+02
-4.266989e+09 -4.066980e+09 -4.226997e+09 4.747668e+03 1.788346e+03 8.963763e+02
-4.085787e+09 -3.885767e+09 -4.045792e+09 -1.327075e+03 2.164984e+03 -6.427866e+02
-4.133229e+09 -3.933231e+09 -4.093242e+09 6.789159e+03 1.799524e+03 1.239552e+03
-3.937092e+09 -3.737072e+09 -3.897097e+09 -3.225945e+03 3.415978e+03 -5.792168e+02
-4.280764e+09 -4.080741e+09 -4.240768e+09 -1.779246e+03 2.474835e+03 -3.782307e+02
-2.192274e+09 -1.992283e+09 -2.152285e+09 1.544960e+03 4.244633e+02 9.980054e+02
-4.818999e+09 -4.618968e+09 -4.779004e+09 -2.795632e+03 2.267310e+03 -2.809743e+02
-4.992153e+09 -4.792155e+09 -4.952164e+09 4.529422e+03 1.251801e+02 1.562095e+02
-4.303896e+09 -4.103908e+09 -4.263911e+09 -1.962381e+03 -2.153119e+02 8.289904e+02
-3.894201e+09 -3.694178e+09 -3.854206e+09 -1.023387e+03 3.636488e+03 -2.817936e+02
-4.305347e+09 -4.105322e+09 -4.265352e+09 -4.002228e+03 3.950849e+03 -1.126847e+03
-1.782640e+09 -1.582636e+09 -1.742644e+09 -1.644931e+03 1.074502e+04 -5.728016e+03
-2.622323e+09 -2.422318e+09 -2.582335e+09 -6.097838e+03 8.543752e+03 -5.583332e+03
-2.653847e+09 -2.453855e+09 -2.613871e+09 -1.018363e+04 9.194040e+03 -7.246014e+03
-2.629233e+09 -2.429233e+09 -2.589250e+09 -7.046291e+03 9.784468e+03 -6.936559e+03
-2.255566e+09 -2.055555e+09 -2.215568e+09 8.640247e+02 2.136025e+03 9.418356e+02
-2.187680e+09 -1.987669e+09 -2.147682e+09 2.650444e+03 6.217556e+03 2.452084e+03
-4.645297e+09 -4.445298e+09 -4.605335e+09 2.749719e+04 -2.032000e+03 -3.153712e+03
-4.305030e+09 -4.105046e+09 -4.265065e+09 2.653041e+04 -8.139749e+03 -4.832950e+03
-4.518153e+09 -4.318155e+09 -4.478160e+09 2.711268e+02 3.023135e+01 8.221784e+01
-3.153820e+09 -2.953822e+09 -3.113827e+09 4.077917e+02 3.737618e+01 1.261868e+02
-4.293283e+09 -4.093213e+09 -4.253272e+09 1.232934e+04 -1.204811e+04 -2.956988e+03
-3.898081e+09 -3.698081e+09 -3.858087e+09 4.527365e+02 3.325420e+01 3.047669e+02
-4.655088e+09 -4.455101e+09 -4.615131e+09 1.585365e+04 -1.938866e+03 -1.284283e+03
-4.369340e+09 -4.169350e+09 -4.329352e+09 2.112180e+02 1.031416e+02 5.754029e+01
-4.090345e+09 -3.890363e+09 -4.050386e+09 2.436797e+04 -5.932550e+03 -4.184012e+03
-4.647713e+09 -4.447715e+09 -4.607722e+09 -1.425954e+03 -1.791701e+02 1.824968e+02
-4.643391e+09 -4.443394e+09 -4.603402e+09 -2.799800e+03 -2.793594e+02 3.494468e+02
-4.647164e+09 -4.447166e+09 -4.607173e+09 -2.112852e+03 -1.796741e+02 2.145800e+02
-4.641646e+09 -4.441649e+09 -4.601655e+09 -1.655503e+03 -2.650806e+01 3.769451e+02
-4.607264e+09 -4.407275e+09 -4.567277e+09 2.200565e+02 -9.337549e+00 6.101703e+01
-4.903473e+09 -4.703486e+09 -4.863488e+09 1.122837e+03 -4.733513e+00 1.562833e+02
-4.992748e+09 -4.792759e+09 -4.952761e+09 6.328159e+02 5.315434e+01 6.666302e+01
-4.983712e+09 -4.783726e+09 -4.943728e+09 7.526001e+02 -5.239987e+01 -7.278659e+00
-5.003111e+09 -4.803121e+09 -4.963124e+09 9.898796e+02 8.182636e+01 -7.776531e+01
-4.287026e+09 -4.087029e+09 -4.247035e+09 -1.652194e+03 -1.887603e+02 2.756565e+02
-3.613056e+09 -3.413068e+09 -3.573069e+09 9.526046e+01 8.163054e+01 1.447092e+02
-3.335800e+09 -3.135811e+09 -3.295813e+09 7.183776e+02 9.300708e+01 7.491896e+02
-4.989283e+09 -4.789286e+09 -4.949294e+09 -2.827871e+03 8.319557e+01 3.095892e+01
-3.866247e+09 -3.666256e+09 -3.826259e+09 1.489070e+03 2.102398e+02 5.909937e+02
-4.455897e+09 -4.255904e+09 -4.415907e+09 3.597669e+02 1.078872e+02 1.321329e+02
-4.293635e+09 -4.093639e+09 -4.253646e+09 -2.714225e+03 -3.733278e+02 5.492758e+02
-3.945903e+09 -3.745906e+09 -3.905912e+09 -1.863023e+03 -4.365228e+02 4.977511e+02
-4.112090e+09 -3.912099e+09 -4.072102e+09 1.889380e+02 8.023075e+01 3.232168e+01
-5.003112e+09 -4.803121e+09 -4.963124e+09 7.540006e+02 -1.109405e+00 8.537189e+01
-3.564786e+09 -3.364794e+09 -3.524797e+09 1.508014e+02 1.772800e+02 1.125398e+02
-4.306062e+09 -4.106061e+09 -4.266088e+09 -1.708465e+04 6.975290e+03 -2.996990e+03
-3.811494e+09 -3.611503e+09 -3.771505e+09 1.547452e+02 2.392225e+01 1.271063e+02
-4.921477e+09 -4.721483e+09 -4.881486e+09 -1.017573e+02 3.081836e+01 -5.599985e-08
-2.822950e+09 -2.622952e+09 -2.782957e+09 -8.223401e+01 -3.166574e+01 2.673308e+02
-3.886413e+09 -3.686407e+09 -3.846423e+09 -2.645285e+03 -1.215118e+03 1.515111e+03
-3.399878e+09 -3.199874e+09 -3.359886e+09 -2.006177e+03 -1.094983e+03 1.778374e+03
-4.821653e+09 -4.621667e+09 -4.781693e+09 -2.057486e+04 3.731189e+03 -2.468386e+03
-4.094861e+09 -3.894872e+09 -4.054897e+09 -2.041994e+04 4.471546e+03 -2.961741e+03
-3.960481e+09 -3.760483e+09 -3.920493e+09 -4.143625e+03 -1.317919e+03 1.342663e+03
-3.574570e+09 -3.374574e+09 -3.534579e+09 -1.311861e+03 -2.969978e+02 4.175877e+02
-4.133959e+09 -3.933926e+09 -4.093969e+09 -1.224212e+04 -8.562752e+03 2.789154e+03
-3.962944e+09 -3.762915e+09 -3.922954e+09 -9.877207e+03 -5.580249e+03 3.949476e+03
-4.250324e+09 -4.050300e+09 -4.210332e+09 -2.803264e+03 -2.578139e+03 4.636343e+02
-4.088128e+09 -3.888100e+09 -4.048135e+09 -6.729245e+03 -5.213579e+03 5.873852e+02
-4.064225e+09 -3.864233e+09 -4.024236e+09 -1.002054e+03 -1.903211e+02 7.945813e+01
-4.306022e+09 -4.105986e+09 -4.266031e+09 -9.080513e+03 -6.925090e+03 2.699954e+03
-4.981636e+09 -4.781625e+09 -4.941647e+09 -6.206290e+03 -8.017650e+02 1.830792e+02
-3.206156e+09 -3.006143e+09 -3.166163e+09 -2.262077e+03 -3.463581e+03 2.650131e+03
-4.852561e+09 -4.652565e+09 -4.812570e+09 -1.211573e+03 8.788210e+00 9.349981e+01
-3.009352e+09 -2.809356e+09 -2.969360e+09 -3.912606e+01 -9.255245e+00 -2.199953e+01
-3.875810e+09 -3.675812e+09 -3.835818e+09 -6.188627e+02 -5.377102e+00 5.707844e+02
-4.931325e+09 -4.731324e+09 -4.891333e+09 -5.653793e+02 -5.063345e-05 8.869361e+01
-4.992418e+09 -4.792420e+09 -4.952426e+09 -1.160989e+03 -7.742988e+00 6.697201e+01
-3.530982e+09 -3.330985e+09 -3.490990e+09 -2.203131e+02 -4.307743e+01 4.284479e+02
-2.213574e+09 -2.013579e+09 -2.173582e+09 -4.479791e+02 -9.617826e+01 4.130227e+01
-4.639649e+09 -4.439625e+09 -4.599659e+09 -8.140978e+03 -2.045872e+03 1.152001e+03
-4.820547e+09 -4.620500e+09 -4.780553e+09 5.680079e+03 -4.075983e+03 -4.732944e+02
-3.962193e+09 -3.762168e+09 -3.922207e+09 -2.398119e+04 -5.616452e+03 5.640466e+03
-4.270550e+09 -4.070519e+09 -4.230558e+09 3.052641e+03 -4.409856e+03 -9.003392e+02
-4.269780e+09 -4.069747e+09 -4.229786e+09 3.589045e+03 -4.477662e+03 -9.513645e+02
-4.991702e+09 -4.791655e+09 -4.951709e+09 4.162599e+03 -3.194529e+03 -1.266856e+03
-4.047043e+09 -3.847006e+09 -4.007050e+09 1.198689e+03 -5.822286e+03 -7.198526e+02
-3.920413e+09 -3.720380e+09 -3.880419e+09 4.391472e+03 -5.751353e+03 -1.017539e+03
-4.821344e+09 -4.621307e+09 -4.781351e+09 1.751483e+03 -2.732909e+03 2.235026e+02
-3.922532e+09 -3.722527e+09 -3.882540e+09 -5.395177e+02 -1.632125e+02 5.764267e+02
-3.805214e+09 -3.605193e+09 -3.765221e+09 3.568769e+02 -6.694101e+02 -9.500873e+02
-4.819768e+09 -4.619744e+09 -4.779782e+09 -1.266471e+04 -1.276622e+03 1.465532e+03
-4.294279e+09 -4.094251e+09 -4.254293e+09 1.448309e+04 -7.675347e+03 -3.148075e+03
-4.652815e+09 -4.452825e+09 -4.612828e+09 -9.204905e+02 -2.018985e+01 1.929574e+02
-4.991380e+09 -4.791359e+09 -4.951392e+09 -8.094927e+03 -1.113225e+03 -4.964967e+02
-4.992517e+09 -4.792504e+09 -4.952527e+09 -3.481465e+03 -5.906085e+02 3.111062e+02
-3.862737e+09 -3.662746e+09 -3.822749e+09 -1.421227e+03 -2.001189e+02 5.565095e+02
-4.124569e+09 -3.924547e+09 -4.084578e+09 -6.008294e+02 -2.340036e+03 8.456049e+02
-4.821318e+09 -4.621329e+09 -4.781332e+09 -1.401342e+03 -1.813903e+02 2.333483e+02
-2.976552e+09 -2.776533e+09 -2.936559e+09 -4.877815e+03 -1.087423e+04 3.782554e+03
-1.695529e+09 -1.495523e+09 -1.655532e+09 -2.016059e+02 -1.512646e+03 2.325200e+03
-4.048221e+09 -3.848198e+09 -4.008229e+09 -7.848566e+03 -4.388172e+03 1.224226e+03
-3.909531e+09 -3.709541e+09 -3.869544e+09 6.330074e+02 2.012339e+02 2.729797e+02
-4.529630e+09 -4.329604e+09 -4.489639e+09 -4.130094e+02 -2.437535e+02 2.498320e+02
-2.952737e+09 -2.752713e+09 -2.912742e+09 -2.623896e+03 -1.254740e+04 3.144296e+03
-3.493978e+09 -3.293989e+09 -3.453992e+09 8.967707e+02 2.211661e+02 6.529426e+02
-4.302450e+09 -4.102399e+09 -4.262453e+09 1.016108e+04 -9.893052e+03 -3.289260e+03
-4.001432e+09 -3.801444e+09 -3.961446e+09 8.599694e+02 1.314664e+01 3.596669e+02
-4.731696e+09 -4.531709e+09 -4.691711e+09 1.324931e+03 3.584832e+02 2.953066e+02
-4.992253e+09 -4.792206e+09 -4.952127e+09 6.996403e+04 -2.625809e+03 -1.611539e+03
-4.646790e+09 -4.446727e+09 -4.606476e+09 9.530293e+04 2.727833e+04 2.807080e+04
-3.436413e+09 -3.236401e+09 -3.396421e+09 -8.763501e+02 -1.286710e+03 1.486210e+03
-4.930515e+09 -4.730490e+09 -4.890524e+09 -5.301030e+02 -4.946762e-05 -2.856093e+01
-4.565558e+09 -4.365569e+09 -4.525572e+09 7.095059e+02 9.782412e+01 8.937217e+01
-4.987140e+09 -4.787104e+09 -4.947148e+09 -4.272571e+03 -1.848876e+03 3.876419e+02
-4.926327e+09 -4.726305e+09 -4.886336e+09 -7.354015e+02 4.818673e-05 1.181274e+02
-3.793490e+09 -3.593474e+09 -3.753497e+09 -6.467106e+02 -4.006632e+02 1.052115e+03
-3.922705e+09 -3.722712e+09 -3.882743e+09 -2.121280e+04 4.710014e+03 -5.100952e+03
-4.821650e+09 -4.621684e+09 -4.781701e+09 -2.461680e+04 4.248447e+03 -4.491809e+03
-4.117096e+09 -3.917128e+09 -4.077142e+09 -2.508813e+04 3.218775e+03 -9.599620e+02
-1.579507e+09 -1.379517e+09 -1.539509e+09 1.483669e+03 3.913884e+03 -7.789054e+03
-4.513707e+09 -4.313739e+09 -4.473761e+09 -3.291916e+03 2.770935e+03 7.346679e+01
-2.219628e+09 -2.019631e+09 -2.179640e+09 -1.314046e+03 8.862620e+03 -3.524915e+03
-4.458632e+09 -4.258746e+09 -4.418695e+09 -9.463422e+03 -3.571411e+03 3.652311e+03
-4.992529e+09 -4.792651e+09 -4.952607e+09 -2.394656e+04 -1.447594e+03 -5.393579e+03
-3.244915e+09 -3.044931e+09 -3.204947e+09 -1.089211e+04 1.154915e+04 -8.466258e+03
-3.969476e+09 -3.769451e+09 -3.929489e+09 -1.499448e+04 5.617654e+03 -2.705290e+03
-4.992331e+09 -4.792385e+09 -4.951240e+09 -1.033220e+04 1.236680e+04 -8.881072e+03
-4.062660e+09 -3.862706e+09 -4.022715e+09 -1.800769e+04 5.600562e+03 -5.448891e+03
-4.998392e+09 -4.798489e+09 -4.958483e+09 -6.215617e+02 -1.585009e+02 -1.377326e+03
-4.304931e+09 -4.104913e+09 -4.264944e+09 -1.216550e+04 5.352230e+03 -1.698138e+03
-4.973204e+09 -4.773328e+09 -4.933286e+09 -3.011607e+03 6.310363e+02 -7.496844e+03
-3.959628e+09 -3.759591e+09 -3.919637e+09 -2.026157e+04 5.051584e+03 -1.853132e+03
-4.130079e+09 -3.930041e+09 -4.090085e+09 -2.248182e+04 4.912167e+03 -2.818187e+03
-1.584587e+09 -1.384589e+09 -1.544589e+09 -4.326616e+02 1.295368e+04 -6.826816e+03
-4.813513e+09 -4.613472e+09 -4.773518e+09 -1.689436e+04 3.843662e+03 3.328519e+01
-4.814229e+09 -4.614176e+09 -4.774229e+09 -2.100613e+04 2.166886e+03 -1.550365e+03
-4.470275e+09 -4.270239e+09 -4.430284e+09 -1.716704e+04 3.393994e+03 -1.106667e+03
-4.820345e+09 -4.620327e+09 -4.780362e+09 -1.773603e+04 1.415158e+03 -1.839194e+03
-4.991189e+09 -4.791156e+09 -4.951195e+09 -2.636249e+04 3.870422e+03 -1.896039e+03
-2.817033e+09 -2.617038e+09 -2.777042e+09 6.093804e+02 1.297246e+02 1.702429e+02
-2.730686e+09 -2.530690e+09 -2.690694e+09 4.595595e+02 9.749767e+01 9.990130e+01
-2.664320e+09 -2.464399e+09 -2.624373e+09 1.586883e+04 -9.560141e+03 -1.453747e+03
-3.126868e+09 -2.926873e+09 -3.086876e+09 1.268898e+02 5.149729e+01 5.810756e+01
-2.689469e+09 -2.489461e+09 -2.649476e+09 1.028280e+03 -4.227742e+03 -7.229254e+02
-3.539397e+09 -3.339404e+09 -3.499426e+09 1.584824e+03 -7.409741e+03 -3.077204e+02
-4.996802e+09 -4.796788e+09 -4.956813e+09 4.252087e+03 -6.805395e+02 -1.420611e+02
-3.220442e+09 -3.020448e+09 -3.180451e+09 1.182818e+02 7.923212e+01 4.211750e+01
-1.686775e+09 -1.486766e+09 -1.646777e+09 -6.389450e+02 -7.886899e+03 -3.865308e+03
-1.965591e+09 -1.765597e+09 -1.925600e+09 1.917561e+02 9.261823e+01 2.179302e+01
-4.656142e+09 -4.456129e+09 -4.616159e+09 8.346453e+03 -1.819888e+03 -7.579393e+02
-1.959111e+09 -1.759116e+09 -1.919120e+09 1.476977e+02 1.984143e+01 1.029191e+02
-2.813528e+09 -2.613538e+09 -2.773540e+09 8.357444e+02 1.316815e+02 7.666103e+02
-1.638992e+09 -1.439004e+09 -1.599005e+09 1.423977e+02 5.407228e+01 2.675233e+02
-2.876674e+09 -2.676663e+09 -2.836678e+09 -3.069334e+02 -7.328298e+02 -3.514907e+02
-3.671117e+09 -3.471130e+09 -3.631131e+09 1.640912e+02 -5.023533e+01 6.524390e+02
-3.211478e+09 -3.011489e+09 -3.171490e+09 9.510371e+01 8.708308e+01 2.304585e+02
-2.928201e+09 -2.728191e+09 -2.888207e+09 4.409524e+02 -3.720333e+03 -4.017051e+02
-3.039088e+09 -2.839100e+09 -2.999102e+09 6.046079e+02 1.364058e+02 7.870835e+02
-3.475807e+09 -3.275820e+09 -3.435821e+09 4.550035e+01 2.063029e+01 2.374670e+02
-4.822733e+09 -4.622589e+09 -4.782316e+09 3.394322e+04 -4.899136e+03 9.246102e+03
-1.847780e+09 -1.647788e+09 -1.807790e+09 4.037015e+03 -1.035610e+04 -4.558105e+03
-4.820011e+09 -4.619939e+09 -4.779384e+09 6.720391e+04 -7.016501e+04 -4.389822e+04
-4.834339e+09 -4.634401e+09 -4.793925e+09 8.844745e+04 -1.438561e+04 -7.599805e+04
-4.991347e+09 -4.791364e+09 -4.950729e+09 8.163196e+04 -1.280640e+04 -1.657348e+04
-3.962280e+09 -3.762288e+09 -3.922317e+09 3.690158e+04 -2.103345e+03 -3.660372e+03
-3.243775e+09 -3.043768e+09 -3.203795e+09 1.185528e+04 -1.186874e+04 -6.313132e+03
-3.564057e+09 -3.364047e+09 -3.524065e+09 8.439792e+01 -1.979261e+03 -3.591884e+02
-4.995768e+09 -4.795615e+09 -4.955191e+09 -4.101188e+04 1.735650e+04 -8.459258e+02
-4.991712e+09 -4.791770e+09 -4.951726e+09 -5.491265e+04 -7.811339e+03 6.680743e+03
-4.814333e+09 -4.614288e+09 -4.773985e+09 8.020857e+04 -4.341587e+04 -4.083052e+04
-4.133582e+09 -3.933490e+09 -4.093020e+09 7.048569e+04 -5.235311e+04 -4.970735e+04
-4.827599e+09 -4.627571e+09 -4.787608e+09 2.222622e+03 -7.274706e+02 -8.903845e+02
-4.594269e+09 -4.394247e+09 -4.554278e+09 -1.439718e+03 -2.673392e+02 7.666722e+02
-4.820872e+09 -4.620831e+09 -4.780880e+09 -8.025925e+03 -2.847080e+03 1.628533e+03
-3.432254e+09 -3.232223e+09 -3.392259e+09 -4.372453e+03 -6.683599e+03 1.803085e+03
-4.657024e+09 -4.456993e+09 -4.617033e+09 -1.075477e+03 -1.700062e+03 -4.841294e+02
-4.219779e+09 -4.019748e+09 -4.179786e+09 -2.648295e+03 -4.819458e+03 3.161201e+02
-4.815972e+09 -4.615938e+09 -4.775981e+09 -6.383241e+03 -3.480440e+03 -1.073500e+01
-4.978828e+09 -4.778748e+09 -4.938812e+09 2.091958e+04 -5.626349e+03 -2.324897e+03
-4.088242e+09 -3.888205e+09 -4.048248e+09 -1.966012e+03 -4.935771e+03 -2.874349e+02
-3.960987e+09 -3.760943e+09 -3.920993e+09 -5.860450e+02 -7.213267e+03 -1.603948e+02
-4.133645e+09 -3.933590e+09 -4.093643e+09 -1.189785e+04 -8.558358e+03 2.261199e+03
-4.477761e+09 -4.277717e+09 -4.437766e+09 -3.491661e+03 -6.526946e+03 3.292798e+02
-4.476103e+09 -4.276117e+09 -4.436120e+09 1.833685e+03 1.009306e+02 7.972418e+02
-4.285040e+09 -4.084981e+09 -4.245037e+09 2.022054e+04 -1.093901e+04 -3.636382e+03
-4.303847e+09 -4.103865e+09 -4.263869e+09 2.502805e+03 3.073793e+02 1.740871e+03
-4.133140e+09 -3.933094e+09 -4.093146e+09 1.050048e+04 -8.564317e+03 -1.258851e+03
-4.991335e+09 -4.791263e+09 -4.951325e+09 7.185632e+01 -3.895428e+03 -2.532408e+02
-4.647117e+09 -4.447139e+09 -4.607144e+09 4.572758e+03 3.247874e+02 1.478888e+03
-4.305424e+09 -4.105381e+09 -4.265427e+09 -9.493600e+03 -8.107844e+03 2.092057e+03
-3.784466e+09 -3.584442e+09 -3.744473e+09 -2.839263e+03 -4.057480e+03 9.090117e+02
-4.473280e+09 -4.273267e+09 -4.433295e+09 -1.045321e+04 -2.637690e+03 1.419316e+03
-4.992367e+09 -4.792339e+09 -4.952379e+09 -1.282949e+04 -1.884342e+03 -2.858299e+02
-3.961412e+09 -3.761429e+09 -3.921432e+09 2.868634e+03 6.833974e+02 2.179953e+03
-4.637002e+09 -4.436974e+09 -4.597013e+09 -6.476933e+03 -2.700345e+03 1.066337e+03
-4.304107e+09 -4.104018e+09 -4.264068e+09 -1.532842e+04 -1.261171e+04 4.823654e+02
-4.132273e+09 -3.932291e+09 -4.092295e+09 3.126829e+03 -7.096439e+01 2.428661e+03
-4.131481e+09 -3.931494e+09 -4.091498e+09 2.437886e+03 3.433208e+02 1.471443e+03
-4.992760e+09 -4.792780e+09 -4.952807e+09 -1.498973e+04 2.300966e+03 1.781832e+03
-4.116835e+09 -3.916848e+09 -4.076851e+09 1.926137e+03 4.631636e+02 1.167592e+03
-4.266911e+09 -4.066922e+09 -4.226949e+09 -1.775247e+04 5.613651e+03 -5.492016e+03
-4.132870e+09 -3.932885e+09 -4.092888e+09 1.839349e+03 6.716171e+02 1.132497e+03
-3.962427e+09 -3.762408e+09 -3.922432e+09 -3.456175e+04 6.361736e+03 -1.696041e+03
-3.950805e+09 -3.750771e+09 -3.910816e+09 1.472928e+04 -7.304054e+03 -3.692053e+03
-1.686773e+09 -1.486766e+09 -1.646774e+09 -1.669667e+02 5.236970e+03 -1.961196e+03
-4.661755e+09 -4.461800e+09 -4.621820e+09 1.703970e+04 -5.674797e+03 1.037592e+03
-4.087891e+09 -3.887933e+09 -4.047942e+09 2.960412e+04 -4.220260e+03 -2.951634e+03
-4.042109e+09 -3.842168e+09 -4.002178e+09 2.067235e+04 -6.066264e+03 -5.835496e+03
-4.802196e+09 -4.602131e+09 -4.762190e+09 2.231518e+04 -7.639193e+03 -1.504003e+03
-2.743354e+09 -2.543348e+09 -2.703365e+09 -3.576009e+03 7.044386e+03 -2.681897e+03
-2.971274e+09 -2.771273e+09 -2.931292e+09 -5.876920e+03 7.698279e+03 -3.732837e+03
-2.907209e+09 -2.707197e+09 -2.867213e+09 2.220250e+03 3.175730e+03 1.395256e+03
-2.692449e+09 -2.492436e+09 -2.652452e+09 1.686996e+03 3.522637e+03 1.222992e+03
-3.016975e+09 -2.816961e+09 -2.976979e+09 2.116441e+03 5.474450e+03 1.469667e+03
-3.270200e+09 -3.070187e+09 -3.230206e+09 4.268389e+03 5.891392e+03 1.304622e+03
-3.254427e+09 -3.054417e+09 -3.214436e+09 -3.593489e+03 6.363221e+03 -3.150084e+03
-2.165748e+09 -1.965740e+09 -2.125751e+09 -1.345133e+03 6.625081e+03 -1.632955e+03
-3.526356e+09 -3.326338e+09 -3.486360e+09 3.571688e+03 3.925633e+03 1.377322e+03
-2.701201e+09 -2.501191e+09 -2.661205e+09 2.677080e+03 4.007396e+03 1.140757e+03
-3.086613e+09 -2.886601e+09 -3.046618e+09 3.072003e+03 4.707720e+03 1.962188e+03
-4.986549e+09 -4.786538e+09 -4.946564e+09 -6.463791e+03 9.736416e+02 -6.386569e+02
-3.963415e+09 -3.763400e+09 -3.923436e+09 -1.647251e+04 5.348708e+03 -3.039502e+03
-4.302339e+09 -4.102352e+09 -4.262355e+09 -2.400877e+03 -7.580841e+01 8.976615e+02
-4.998924e+09 -4.798919e+09 -4.958947e+09 -1.028193e+04 1.289418e+03 -1.053230e+03
-4.993850e+09 -4.793838e+09 -4.953855e+09 -1.483089e+03 -9.260194e+00 -9.124315e+01
-3.767015e+09 -3.567009e+09 -3.727027e+09 -5.869422e+02 3.283461e+03 -4.373602e+02
-3.466161e+09 -3.266150e+09 -3.426173e+09 -6.874341e+03 6.558256e+03 -3.398415e+03
-4.826402e+09 -4.626378e+09 -4.786417e+09 -1.650908e+04 3.238478e+03 -5.100132e+02
-3.961476e+09 -3.761502e+09 -3.921493e+09 -3.729101e+04 4.385261e+03 -1.451488e+03
-4.046438e+09 -3.846418e+09 -4.006442e+09 5.848672e+02 1.936569e+03 -1.637502e+01
-4.131782e+09 -3.931797e+09 -4.091800e+09 -2.457348e+03 7.166443e+01 1.694784e+03
-4.979505e+09 -4.779480e+09 -4.939514e+09 -3.963016e+03 -1.026954e+03 1.689872e+02
-4.280472e+09 -4.080485e+09 -4.240487e+09 -6.684527e+02 -8.957566e+01 7.276101e+02
-4.476338e+09 -4.276324e+09 -4.436353e+09 -1.240053e+04 -2.669090e+03 1.906485e+03
-3.485519e+09 -3.285520e+09 -3.445527e+09 -2.660686e+03 -1.177892e+03 9.943936e+02
-4.992309e+09 -4.792423e+09 -4.952105e+09 -5.587574e+04 4.020254e+03 -5.943655e+03
-3.745621e+09 -3.545630e+09 -3.705633e+09 -1.059496e+03 -1.997335e+02 4.686675e+02
-4.817105e+09 -4.617109e+09 -4.777120e+09 -6.257027e+03 1.274291e+01 1.069130e+03
-4.033960e+09 -3.833959e+09 -3.993972e+09 -5.090715e+03 -1.684787e+03 1.347497e+03
-4.992641e+09 -4.792652e+09 -4.952655e+09 -1.575394e+03 -6.383160e+01 1.229151e+02
-4.991779e+09 -4.791765e+09 -4.951798e+09 -1.747944e+04 -2.458276e+03 2.347111e+02
-4.094308e+09 -3.894321e+09 -4.054324e+09 -1.149244e+03 2.304132e+01 7.266117e+02
-4.821304e+09 -4.621317e+09 -4.781320e+09 -1.209723e+03 -2.888368e+02 2.792655e+02
-4.438618e+09 -4.238680e+09 -4.398669e+09 -3.552684e+04 2.464100e+03 -3.740149e+03
-4.231467e+09 -4.031518e+09 -4.191521e+09 -2.151315e+04 5.144327e+03 -8.175189e+03
-4.292468e+09 -4.092428e+09 -4.252478e+09 1.418323e+04 -8.224304e+03 -2.764064e+03
-4.648144e+09 -4.448128e+09 -4.608158e+09 -1.194618e+04 -1.828320e+03 2.247379e+03
-4.992417e+09 -4.792409e+09 -4.952431e+09 -8.660722e+03 -1.017120e+03 7.185876e+02
-4.819780e+09 -4.619833e+09 -4.779788e+09 -6.046518e+04 -3.781613e+03 1.230671e+04
-4.198298e+09 -3.998360e+09 -4.158370e+09 -1.460960e+04 2.784521e+03 -1.580700e+03
-4.991379e+09 -4.791356e+09 -4.951391e+09 -1.048613e+04 -1.873736e+03 1.078147e+03
-3.962248e+09 -3.762164e+09 -3.922055e+09 -7.467482e+04 3.262510e+04 -2.785886e+04
-4.821091e+09 -4.621147e+09 -4.781129e+09 -3.728949e+04 -3.117258e+03 1.618564e+03
-4.992729e+09 -4.792738e+09 -4.952768e+09 -2.067112e+04 2.185763e+03 -1.275661e+03
-4.823246e+09 -4.623249e+09 -4.783259e+09 5.156531e+03 -6.541482e+01 8.169861e+02
-4.991985e+09 -4.791958e+09 -4.951997e+09 2.977353e+04 3.410876e+03 2.154882e+03
-1.583562e+09 -1.383556e+09 -1.543565e+09 7.070562e+02 2.158913e+03 1.514195e+03
-4.821773e+09 -4.621781e+09 -4.781796e+09 1.131360e+04 3.689674e+02 9.120319e+02
-4.818548e+09 -4.618562e+09 -4.778584e+09 -3.267607e+04 3.518038e+03 -4.687191e+03
-4.809570e+09 -4.609613e+09 -4.769629e+09 -1.955613e+04 6.132208e+02 -1.281586e+03
-4.994141e+09 -4.794144e+09 -4.954167e+09 3.561765e+04 5.274201e+03 2.553854e+03
-4.992715e+09 -4.792764e+09 -4.952774e+09 -3.804672e+04 -1.496723e+03 -3.580200e+03
-4.992809e+09 -4.792808e+09 -4.952816e+09 1.540007e+03 -1.636244e+02 1.217593e+02
-3.945074e+09 -3.745098e+09 -3.905122e+09 -2.741641e+04 3.712489e+03 -4.948117e+03
-3.961916e+09 -3.761903e+09 -3.921929e+09 1.336813e+04 4.410394e+03 3.819056e+03
-4.994584e+09 -4.794587e+09 -4.954593e+09 2.466456e+03 -4.969213e+01 4.214123e+01
-4.645560e+09 -4.445561e+09 -4.605568e+09 2.076373e+03 3.396644e+02 2.868743e+02
-4.991646e+09 -4.791639e+09 -4.951660e+09 1.150970e+04 1.075426e+03 6.704175e+02
-3.678626e+09 -3.478619e+09 -3.638631e+09 4.385947e+02 2.437753e+02 6.546861e+02
-4.812219e+09 -4.612221e+09 -4.772227e+09 1.435153e+03 1.477394e+02 -1.361157e+02
-4.991033e+09 -4.791030e+09 -4.951044e+09 5.836785e+03 3.165290e+02 2.663189e+02
-5.006438e+09 -4.806432e+09 -4.966445e+09 1.011918e+03 1.995095e+01 -2.270809e+02
-4.699055e+09 -4.499067e+09 -4.659069e+09 -2.514473e+01 -8.455146e+01 5.233909e+01
-4.122266e+09 -3.922271e+09 -4.082278e+09 -3.310756e+03 -5.058281e+02 1.074397e+03
-4.998382e+09 -4.798486e+09 -4.958481e+09 -1.092259e+03 8.031491e+01 -3.093214e+03
-3.962273e+09 -3.762231e+09 -3.922094e+09 -8.912742e+04 6.713305e+04 -2.389898e+04
-4.655295e+09 -4.455298e+09 -4.615303e+09 1.827523e+03 1.707050e+02 1.407145e+02
-4.296248e+09 -4.096250e+09 -4.256256e+09 1.521884e+03 2.584967e+01 1.133611e+02
-4.820929e+09 -4.620900e+09 -4.780935e+09 3.697935e+03 2.593864e+03 -6.561856e+02
-4.133150e+09 -3.933119e+09 -4.093127e+09 -5.382374e+04 4.551132e+03 -8.292832e+03
-4.308798e+09 -4.108768e+09 -4.268802e+09 2.988280e+04 -9.662580e+03 -5.801839e+03
-4.651545e+09 -4.451526e+09 -4.611550e+09 1.349390e+03 9.395042e+02 3.767982e+02
-4.991874e+09 -4.791780e+09 -4.951846e+09 -2.644882e+04 -6.364569e+03 1.176909e+03
-4.064911e+09 -3.864890e+09 -4.024916e+09 1.296842e+03 2.785418e+03 4.556455e+02
-4.474942e+09 -4.274919e+09 -4.434948e+09 3.100909e+03 2.609547e+03 4.314738e+02
-4.991817e+09 -4.791730e+09 -4.951765e+09 -4.614204e+04 -6.508252e+03 1.640551e+03
-4.304423e+09 -4.104352e+09 -4.264398e+09 -2.558300e+04 -1.316808e+04 1.915780e+03
-4.481697e+09 -4.281677e+09 -4.441708e+09 6.612337e+03 -2.812729e+03 -1.591951e+03
-3.983100e+09 -3.783075e+09 -3.943107e+09 -5.431431e+02 -3.560402e+03 6.848236e+02
-4.133695e+09 -3.933595e+09 -4.093646e+09 -2.742298e+04 -6.693748e+03 9.241734e+03
-3.938780e+09 -3.738755e+09 -3.898784e+09 1.011543e+03 3.773854e+03 3.803385e+02
-2.655765e+09 -2.455825e+09 -2.615819e+09 2.101728e+04 -1.649325e+03 -3.295812e+03
-3.008263e+09 -2.808317e+09 -2.968314e+09 2.353527e+04 -6.293801e+03 -8.293688e+03
-3.738387e+09 -3.538443e+09 -3.698449e+09 3.075623e+04 -3.835094e+03 -3.742511e+03
-4.302435e+09 -4.102434e+09 -4.262449e+09 7.087008e+03 2.090086e+03 1.343437e+03
-4.131618e+09 -3.931647e+09 -4.091652e+09 5.116186e+03 1.496537e+03 3.765149e+03
-2.598668e+09 -2.398719e+09 -2.558716e+09 1.235515e+04 -7.893759e+03 -1.258078e+04
-4.808260e+09 -4.608361e+09 -4.768343e+09 2.236121e+04 -3.588388e+03 -7.843162e+03
-4.023247e+09 -3.823339e+09 -3.983319e+09 4.910445e+03 8.776654e+01 -3.027889e+03
-3.771323e+09 -3.571375e+09 -3.731387e+09 1.752495e+04 -2.809796e+03 -2.228670e+03
-3.993166e+09 -3.793226e+09 -3.953231e+09 1.399095e+04 -3.311983e+03 -6.458704e+02
-4.820375e+09 -4.620378e+09 -4.780387e+09 4.969255e+03 7.463842e+02 -5.405153e+01
-4.823605e+09 -4.623645e+09 -4.783663e+09 2.604599e+04 -3.326971e+03 -4.832905e+03
-4.132445e+09 -3.932507e+09 -4.092479e+09 4.631418e+04 -9.142520e+03 -5.541169e+03
-4.980480e+09 -4.780486e+09 -4.940510e+09 1.980803e+04 3.038851e+03 1.514281e+03
-3.960583e+09 -3.760588e+09 -3.920593e+09 2.474694e+03 4.107796e+02 6.707757e+02
-4.086124e+09 -3.886195e+09 -4.046184e+09 2.760305e+04 -3.289294e+03 1.354898e+03
-4.653251e+09 -4.453323e+09 -4.613326e+09 1.690898e+04 -1.863129e+03 3.879651e+03
-4.237131e+09 -4.037121e+09 -4.197142e+09 -4.820730e+03 2.674081e+03 -1.159793e+03
-4.990281e+09 -4.790286e+09 -4.950292e+09 2.273450e+03 4.607508e+01 -9.405624e+01
-4.656325e+09 -4.456317e+09 -4.616344e+09 -7.763054e+03 1.766039e+03 -4.102099e+02
-3.513238e+09 -3.313228e+09 -3.473250e+09 -7.320979e+03 7.354105e+03 -4.667017e+03
-3.453167e+09 -3.253163e+09 -3.413185e+09 -6.857521e+03 7.418868e+03 -4.109667e+03
-3.960844e+09 -3.760953e+09 -3.920800e+09 5.900912e+04 1.760625e+04 2.351070e+04
-4.803883e+09 -4.603834e+09 -4.763886e+09 2.052154e+04 -1.882475e+03 -7.759853e+02
-3.961159e+09 -3.761111e+09 -3.921159e+09 1.435099e+03 -1.069789e+04 1.233594e+01
-4.989752e+09 -4.789595e+09 -4.948947e+09 1.553682e+04 2.219109e+04 1.067538e+04
-4.991328e+09 -4.791241e+09 -4.951318e+09 -1.675273e+02 -5.061453e+03 -2.139980e+02
-4.823309e+09 -4.623186e+09 -4.783095e+09 -5.250161e+04 1.498173e+04 -2.809036e+04
-3.962126e+09 -3.762046e+09 -3.922084e+09 -4.664908e+04 1.588505e+04 8.402224e+02
-3.241477e+09 -3.041471e+09 -3.201489e+09 -3.920858e+03 7.028906e+03 -2.862881e+03
-4.133526e+09 -3.933520e+09 -4.093549e+09 -2.441334e+04 5.596201e+03 -2.326626e+03
-4.989696e+09 -4.789579e+09 -4.948931e+09 1.586833e+04 2.248110e+04 8.128305e+03
-5.008536e+09 -4.808384e+09 -4.968157e+09 6.453568e+03 7.378911e+03 -1.387062e+03
-4.989595e+09 -4.789700e+09 -4.949682e+09 -6.425614e+03 3.591101e+02 -4.229865e+03
-4.820514e+09 -4.620509e+09 -4.780541e+09 -1.711452e+04 9.301283e+02 -1.191351e+03
-3.952790e+09 -3.752700e+09 -3.912360e+09 -7.214361e+04 8.303975e+04 -5.286527e+04
-4.135135e+09 -3.935121e+09 -4.095153e+09 -1.713589e+04 5.401471e+03 -3.069248e+03
-4.648007e+09 -4.447964e+09 -4.607963e+09 6.452554e+04 6.062425e+03 1.047266e+04
-4.991501e+09 -4.791503e+09 -4.951528e+09 -2.504859e+04 2.271742e+03 -9.824081e+02
-4.312827e+09 -4.112720e+09 -4.272644e+09 6.804143e+04 1.368616e+04 4.440794e+03
-4.305533e+09 -4.105533e+09 -4.265565e+09 -2.327502e+04 6.419757e+03 -4.541241e+03
-4.649296e+09 -4.449294e+09 -4.609324e+09 -1.708993e+04 2.147674e+03 -1.544943e+03
-3.078415e+09 -2.878498e+09 -3.038483e+09 -3.696696e+03 -4.475612e+03 2.645864e+03
-4.826752e+09 -4.626607e+09 -4.786325e+09 -4.403958e+04 3.191462e+04 -3.886393e+04
-4.135009e+09 -3.934834e+09 -4.094228e+09 -9.941819e+03 1.951430e+05 3.494720e+04
-3.965327e+09 -3.765223e+09 -3.925053e+09 -6.076488e+04 1.001849e+05 -2.807383e+04
-4.127028e+09 -3.926925e+09 -4.086628e+09 -6.593721e+04 7.200067e+04 -8.020656e+04
-4.990567e+09 -4.790649e+09 -4.950500e+09 7.254169e+04 -1.781939e+03 -5.074615e+03
-4.649121e+09 -4.449111e+09 -4.608862e+09 8.656859e+04 2.902474e+04 2.372292e+04
-4.147712e+09 -3.947570e+09 -4.106923e+09 -5.223178e+04 1.196174e+05 -9.124901e+04
-4.478266e+09 -4.278094e+09 -4.437630e+09 8.524560e+03 7.119957e+04 -3.427071e+04
-4.814288e+09 -4.614161e+09 -4.773736e+09 -5.289332e+04 -2.341836e+03 -1.456475e+04
-4.302802e+09 -4.102811e+09 -4.262682e+09 8.142679e+04 1.303492e+04 5.871287e+03
-4.705472e+09 -4.505474e+09 -4.665479e+09 5.579026e+01 7.580567e+00 1.620670e+01
-3.708407e+09 -3.508409e+09 -3.668413e+09 1.235241e+02 2.080622e+01 3.936364e+01
-3.825060e+09 -3.625062e+09 -3.785067e+09 5.680576e+01 7.761364e+00 -4.555679e+00
-3.962737e+09 -3.762648e+09 -3.922698e+09 -7.884492e+03 -1.066371e+04 7.422637e+02
-4.705950e+09 -4.505953e+09 -4.665957e+09 4.249211e+01 7.409979e+00 1.497671e+01
-3.425078e+09 -3.225089e+09 -3.385112e+09 -1.225220e+04 1.046744e+04 -7.465022e+03
-2.775362e+09 -2.575373e+09 -2.735385e+09 -3.366301e+03 8.689211e+03 -3.788834e+03
-4.305363e+09 -4.105259e+09 -4.265327e+09 -2.036610e+04 -7.441068e+03 2.045521e+03
-2.939641e+09 -2.739617e+09 -2.899646e+09 -1.274481e+03 -7.873515e+03 6.983338e+02
-3.829137e+09 -3.629139e+09 -3.789165e+09 -9.591361e+03 4.770762e+03 -2.449169e+03
-3.910683e+09 -3.710674e+09 -3.870698e+09 -7.419964e+03 4.819556e+03 -2.118368e+03
-3.493231e+09 -3.293220e+09 -3.453239e+09 -4.128645e+03 5.269392e+03 -2.792178e+03
-4.820070e+09 -4.620126e+09 -4.779367e+09 -4.820727e+04 -7.928738e+04 5.348607e+04
-4.648804e+09 -4.448801e+09 -4.608308e+09 8.401671e+04 3.328861e+04 6.817545e+04
-3.960878e+09 -3.760970e+09 -3.920838e+09 7.630927e+04 1.052585e+04 5.323427e+04
-3.210592e+09 -3.010582e+09 -3.170600e+09 -3.696797e+03 5.317153e+03 -2.295248e+03
-4.133132e+09 -3.933137e+09 -4.092879e+09 9.219367e+04 1.870806e+04 3.029664e+04
-4.304775e+09 -4.104732e+09 -4.264732e+09 6.452260e+04 -4.199755e+03 3.787258e+03
-4.279826e+09 -4.079821e+09 -4.239850e+09 -1.108351e+04 4.383577e+03 -2.569131e+03
-4.303916e+09 -4.103957e+09 -4.263667e+09 9.060028e+04 2.417265e+04 3.820887e+04
-4.818156e+09 -4.618063e+09 -4.777838e+09 7.848481e+04 4.911812e+04 1.761641e+04
-4.988170e+09 -4.788155e+09 -4.948189e+09 1.259599e+04 -8.806463e+02 1.206253e+02
-3.393152e+09 -3.193148e+09 -3.353166e+09 -3.135797e+03 6.630413e+03 -2.141547e+03
-4.328921e+09 -4.128930e+09 -4.288942e+09 8.964983e+03 1.606159e+03 2.347169e+03
-4.130363e+09 -3.930367e+09 -4.090372e+09 2.275382e+03 3.190444e+02 4.119576e+02
-4.641056e+09 -4.440974e+09 -4.601040e+09 1.760092e+04 -3.878182e+03 8.623812e+02
-3.962037e+09 -3.762081e+09 -3.922081e+09 1.404229e+04 1.637063e+03 6.060168e+03
-4.303023e+09 -4.103042e+09 -4.263053e+09 1.203175e+04 1.612669e+03 4.695629e+03
-4.131996e+09 -3.932010e+09 -4.092018e+09 7.529003e+03 2.165690e+03 2.479703e+03
-4.474673e+09 -4.274686e+09 -4.434692e+09 5.083396e+03 5.104842e+02 1.119375e+03
-4.684938e+09 -4.484927e+09 -4.644946e+09 5.511292e+02 -3.829605e+02 -8.256413e+01
-3.791037e+09 -3.591026e+09 -3.751044e+09 -1.108166e+02 -1.451677e+03 -5.443617e+02
-4.125373e+09 -3.925387e+09 -4.085393e+09 5.242526e+03 1.410866e+03 1.858743e+03
-4.294684e+09 -4.094699e+09 -4.254706e+09 6.043031e+03 7.114128e+02 2.200820e+03
-4.990059e+09 -4.790003e+09 -4.950059e+09 1.535829e+04 -3.624645e+03 -1.835755e+03
-4.924884e+09 -4.724896e+09 -4.884898e+09 3.134283e+01 -5.269268e+00 -2.949174e-09
-2.718463e+09 -2.518474e+09 -2.678475e+09 9.752825e+02 5.010057e+01 1.120683e+03
-4.416192e+09 -4.216181e+09 -4.376200e+09 1.207832e+03 -4.950745e+02 -4.499415e+02
-4.816745e+09 -4.616761e+09 -4.776767e+09 5.558848e+03 9.203432e+02 6.947605e+02
-4.990864e+09 -4.790876e+09 -4.950882e+09 -3.332015e+03 -3.413379e+02 2.101021e+02
-2.473828e+09 -2.273821e+09 -2.433832e+09 -4.230269e+02 3.104551e+03 -9.464178e+02
-4.820311e+09 -4.620353e+09 -4.780278e+09 -6.682367e+04 7.546146e+03 -1.764222e+04
-4.994144e+09 -4.794157e+09 -4.954171e+09 4.109185e+04 3.873495e+03 4.314852e+03
-4.819742e+09 -4.619730e+09 -4.779757e+09 1.449237e+04 2.527081e+03 1.091640e+03
-3.969959e+09 -3.769950e+09 -3.929968e+09 -2.257778e+03 2.126771e+03 -1.093007e+03
-4.117415e+09 -3.917368e+09 -4.077421e+09 1.944558e+04 -1.139586e+04 -4.529930e+03
-4.642374e+09 -4.442364e+09 -4.602383e+09 -3.165867e+03 9.383093e+02 -4.246602e+02
-3.962159e+09 -3.762129e+09 -3.922159e+09 3.383506e+04 6.161972e+03 3.281705e+03
-3.194676e+09 -2.994666e+09 -3.154680e+09 -9.351279e+02 2.989224e+03 -1.693179e+03
-3.473115e+09 -3.273104e+09 -3.433121e+09 -2.514164e+03 2.805738e+03 -1.304376e+03
-4.994644e+09 -4.794748e+09 -4.954689e+09 1.483936e+03 -1.145385e+03 1.867398e+03
-4.061007e+09 -3.860995e+09 -4.021017e+09 -4.386859e+03 2.697032e+03 -1.837502e+03
-3.895195e+09 -3.695183e+09 -3.855204e+09 -4.503887e+03 3.299167e+03 -1.438023e+03
-4.172476e+09 -3.972466e+09 -4.132484e+09 -2.249832e+03 2.009259e+03 -7.823992e+02
-3.971451e+09 -3.771471e+09 -3.931484e+09 1.649899e+04 3.272554e+03 4.970654e+03
-3.968174e+09 -3.768164e+09 -3.928181e+09 -2.277406e+03 2.088583e+03 -7.020163e+02
-4.637247e+09 -4.437248e+09 -4.597274e+09 2.553937e+04 4.617156e+03 4.168532e+03
-3.059078e+09 -2.859071e+09 -3.019082e+09 4.140140e+02 2.824341e+02 8.249514e+02
-3.320139e+09 -3.120130e+09 -3.280143e+09 -7.253099e+02 1.867631e+03 -5.633917e+02
-3.959640e+09 -3.759654e+09 -3.919672e+09 2.639459e+04 3.330940e+03 3.854397e+03
-4.646526e+09 -4.446580e+09 -4.606581e+09 -5.651166e+03 -4.649390e+02 3.267244e+03
-3.745339e+09 -3.545345e+09 -3.705348e+09 2.963234e+02 5.502673e+01 1.528598e+02
-3.635683e+09 -3.435690e+09 -3.595693e+09 4.625534e+02 9.061359e+01 2.130571e+02
-4.992325e+09 -4.792215e+09 -4.952177e+09 -5.599691e+04 -5.384054e+03 1.485704e+03
-1.774368e+09 -1.574374e+09 -1.734377e+09 4.769814e+02 2.229932e+02 1.409047e+02
-4.290256e+09 -4.090178e+09 -4.250224e+09 2.452870e+04 -1.073050e+04 -2.521428e+03
-4.576210e+09 -4.376217e+09 -4.536220e+09 -3.909013e+02 -8.677529e+01 3.852508e+01
-4.503136e+09 -4.303144e+09 -4.463146e+09 -1.601083e+02 -1.092751e+02 4.101638e+01
-3.795266e+09 -3.595274e+09 -3.755276e+09 -9.975556e+02 -1.848570e+02 3.707259e+02
-3.997615e+09 -3.797622e+09 -3.957625e+09 -6.313376e+02 4.449164e+00 2.202392e+02
-4.991695e+09 -4.791635e+09 -4.951686e+09 -2.734865e+04 -4.687972e+03 -5.800369e+02
-4.583776e+09 -4.383782e+09 -4.543785e+09 -3.333644e+02 -6.857854e+01 3.386414e+01
-4.144370e+09 -3.944378e+09 -4.104381e+09 -4.904583e+02 -4.321419e+01 9.042286e+01
-4.750751e+09 -4.550759e+09 -4.710762e+09 -3.219885e+02 2.311235e+01 1.192663e+02
-2.453327e+09 -2.253374e+09 -2.413382e+09 6.635739e+03 -8.195865e+03 -8.060649e+03
-1.596548e+09 -1.396564e+09 -1.556555e+09 1.889655e+03 -1.614225e+03 -7.722919e+03
-3.961074e+09 -3.760914e+09 -3.920876e+09 1.377553e+04 1.776781e+04 1.916611e+03
-2.845119e+09 -2.645142e+09 -2.805152e+09 1.155163e+04 -1.090550e+04 -1.044308e+04
-4.644343e+09 -4.444340e+09 -4.604363e+09 -1.303671e+04 -1.206749e+03 1.582699e+03
-3.789183e+09 -3.589257e+09 -3.749258e+09 1.306444e+04 -7.380311e+01 -3.141886e+03
-2.766162e+09 -2.566207e+09 -2.726213e+09 8.467972e+03 -7.347299e+03 -5.884851e+03
-4.304459e+09 -4.104432e+09 -4.264471e+09 -1.748283e+04 -6.335644e+03 3.769617e+03
-2.942663e+09 -2.742719e+09 -2.902723e+09 1.852768e+04 -6.627558e+03 -6.845938e+03
-2.341156e+09 -2.141190e+09 -2.301175e+09 9.941564e+03 -4.273804e+03 -6.610322e+03
-3.254508e+09 -3.054584e+09 -3.214578e+09 5.487124e+03 -4.915726e+03 -8.446939e+03
-3.962465e+09 -3.762455e+09 -3.922480e+09 -1.081204e+04 -4.360387e+03 3.692796e+03
-1.964932e+09 -1.764966e+09 -1.924969e+09 6.131899e+03 -1.189773e+04 -1.699434e+04
-2.031270e+09 -1.831311e+09 -1.991302e+09 3.727066e+03 -7.964438e+03 -1.771123e+04
-3.296179e+09 -3.096265e+09 -3.256241e+09 1.063913e+04 -1.471390e+03 -4.833761e+03
-1.914169e+09 -1.714179e+09 -1.874152e+09 1.590370e+04 -4.917098e+03 -1.652860e+04
-1.711223e+09 -1.511215e+09 -1.671225e+09 1.169917e+02 1.372125e+03 9.764196e+02
-4.303589e+09 -4.103553e+09 -4.263600e+09 -2.602809e+04 -8.303355e+03 4.688165e+03
-2.237706e+09 -2.037697e+09 -2.197708e+09 1.027574e+03 2.137294e+03 1.183050e+03
-4.657111e+09 -4.457126e+09 -4.617142e+09 -2.340206e+04 -1.982419e+02 2.119246e+03
-4.991911e+09 -4.791858e+09 -4.951831e+09 -6.740367e+04 -5.586569e+03 2.486767e+03
-4.993985e+09 -4.794015e+09 -4.954016e+09 -4.504542e+04 -5.798886e+03 4.381835e+03
-4.139847e+09 -3.939890e+09 -4.099895e+09 -2.115921e+04 -2.726422e+03 9.124960e+03
-2.199395e+09 -1.999384e+09 -2.159397e+09 3.663981e+02 2.086059e+02 6.874347e+02
-3.793084e+09 -3.593095e+09 -3.753097e+09 -6.041832e+02 -9.078328e+01 4.093629e+02
-3.856255e+09 -3.656266e+09 -3.816269e+09 -1.442741e+03 -2.421411e+02 7.009817e+02
-4.666094e+09 -4.466119e+09 -4.625730e+09 8.231830e+04 -5.039209e+04 -2.813499e+04
-3.962596e+09 -3.762512e+09 -3.922544e+09 2.708492e+04 1.579482e+03 -2.740274e+03
-4.304468e+09 -4.104419e+09 -4.264465e+09 1.390824e+04 9.051833e+03 1.581595e+03
-4.133331e+09 -3.933383e+09 -4.093193e+09 7.910416e+04 -1.964050e+04 -1.546796e+04
-4.259824e+09 -4.059837e+09 -4.219839e+09 -7.763337e+02 -2.936138e+02 6.339143e+02
-4.992484e+09 -4.792397e+09 -4.952459e+09 1.590212e+04 4.999499e+03 7.355825e+02
-4.797811e+09 -4.597825e+09 -4.757827e+09 -9.125471e+02 9.930033e+01 3.793104e+02
-4.454578e+09 -4.254592e+09 -4.414595e+09 -8.545592e+02 -9.974588e+01 6.052250e+02
-4.476460e+09 -4.276475e+09 -4.436478e+09 -1.604715e+03 -6.538232e+02 5.821564e+02
-3.771351e+09 -3.571364e+09 -3.731366e+09 -1.370075e+03 -2.171714e+02 9.439351e+02
-3.961913e+09 -3.761899e+09 -3.921916e+09 4.119247e+04 3.001469e+03 1.586570e+03
-4.306263e+09 -4.106202e+09 -4.266251e+09 1.291506e+03 9.761610e+03 -1.046288e+02
-4.819543e+09 -4.619510e+09 -4.779552e+09 1.617595e+04 3.740367e+03 8.027842e+02
-4.133091e+09 -3.933052e+09 -4.093088e+09 3.164551e+04 4.246909e+03 5.285310e+02
-3.962791e+09 -3.762719e+09 -3.922766e+09 1.394308e+04 8.716061e+03 8.376618e+02
-4.986615e+09 -4.786684e+09 -4.946609e+09 6.311742e+04 -2.196471e+01 -2.316322e+02
-4.305637e+09 -4.105565e+09 -4.265628e+09 1.139627e+04 9.662021e+03 1.231678e+03
-4.820763e+09 -4.620624e+09 -4.780606e+09 2.493232e+04 1.242108e+04 9.283187e+02
-4.992489e+09 -4.792414e+09 -4.952464e+09 1.174452e+04 2.962660e+03 -6.938965e+02
-3.961727e+09 -3.761720e+09 -3.921700e+09 5.785317e+04 -7.339910e+03 -1.083773e+04
-4.991859e+09 -4.791825e+09 -4.951859e+09 4.266445e+04 4.687695e+03 2.789771e+03
-3.962831e+09 -3.762760e+09 -3.922824e+09 7.831726e+03 5.774686e+03 6.189582e+02
-4.986625e+09 -4.786699e+09 -4.946675e+09 3.704466e+04 2.434101e+03 5.918487e+03
-4.135921e+09 -3.935845e+09 -4.095902e+09 5.298795e+03 7.171565e+03 1.465957e+03
-4.997333e+09 -4.797320e+09 -4.956884e+09 -6.616117e+04 9.225285e+03 -1.690242e+04
-4.993846e+09 -4.793764e+09 -4.953818e+09 4.506445e+02 4.024451e+03 -3.996065e+02
-4.823947e+09 -4.623869e+09 -4.783930e+09 -1.909857e+03 3.058634e+03 5.065133e+02
-4.308047e+09 -4.107934e+09 -4.267784e+09 -6.203627e+04 1.614565e+04 -1.777902e+04
-4.077983e+09 -3.877987e+09 -4.037991e+09 -1.139660e+02 8.870647e+00 4.203061e+01
-3.965298e+09 -3.765149e+09 -3.924999e+09 -4.807829e+04 5.735541e+04 -3.230241e+04
-4.125619e+09 -3.925623e+09 -4.085627e+09 -4.163456e+02 -1.081616e+02 5.817360e+01
-4.313360e+09 -4.113224e+09 -4.273260e+09 -1.680715e+04 -2.749202e+03 8.963859e+02
-4.140298e+09 -3.940137e+09 -4.099816e+09 -5.146264e+04 6.054597e+04 2.028978e+04
-2.631614e+09 -2.431618e+09 -2.591621e+09 -2.525352e+02 -5.575171e+01 1.125267e+02
-4.839841e+09 -4.639670e+09 -4.799572e+09 -1.423526e+04 1.732620e+04 -2.628560e+04
-4.633491e+09 -4.433412e+09 -4.593469e+09 2.529482e+04 -3.538480e+03 8.068924e+02
-3.966558e+09 -3.766607e+09 -3.926586e+09 4.193790e+04 -9.378416e+02 -5.410434e+03
-4.143866e+09 -3.943984e+09 -4.103328e+09 -6.935175e+04 8.543265e+04 -1.219545e+05
-3.947119e+09 -3.747173e+09 -3.907000e+09 7.569027e+04 -2.836965e+04 -2.784224e+04
-4.991733e+09 -4.791768e+09 -4.950690e+09 1.811266e+04 -1.531120e+04 -9.004564e+03
-3.885209e+09 -3.685212e+09 -3.845217e+09 -2.335652e+02 1.515895e+01 1.077495e+02
-4.031898e+09 -3.831902e+09 -3.991906e+09 -4.458691e+02 -6.601154e+01 1.332289e+02
-1.907466e+09 -1.707458e+09 -1.867468e+09 1.189577e+02 -3.651337e+03 -1.186911e+03
-2.124569e+09 -1.924559e+09 -2.084571e+09 -4.900702e+00 -2.431212e+03 -1.330320e+03
-2.220751e+09 -2.020742e+09 -2.180754e+09 2.215774e+02 -3.138831e+03 1.645328e+02
-2.776746e+09 -2.576737e+09 -2.736751e+09 2.078535e+02 -2.456916e+03 -8.010821e+02
-3.237552e+09 -3.037542e+09 -3.197560e+09 8.469205e+02 -3.029787e+03 -9.576537e+02
-3.961004e+09 -3.761098e+09 -3.920224e+09 8.716912e+03 7.778708e+02 -2.033562e+05
-2.166920e+09 -1.966912e+09 -2.126923e+09 1.005362e+03 -4.369478e+03 -1.587422e+03
-4.646752e+09 -4.446834e+09 -4.605666e+09 3.852415e+03 -8.681122e+03 -6.699223e+04
-3.201990e+09 -3.001981e+09 -3.161998e+09 4.016689e+02 -3.660433e+03 -7.970864e+02
-2.703630e+09 -2.503621e+09 -2.663636e+09 1.286847e+02 -4.298724e+03 -4.596283e+02
-4.992212e+09 -4.792211e+09 -4.950961e+09 -3.371722e+03 -4.746260e+03 9.426702e+03
-4.988498e+09 -4.788547e+09 -4.948544e+09 -3.260038e+04 -2.696469e+03 4.231527e+03
-3.956946e+09 -3.757008e+09 -3.916978e+09 2.685762e+04 -6.101342e+02 5.652629e+03
-2.971567e+09 -2.771558e+09 -2.931573e+09 -2.633988e+02 -2.695723e+03 -6.357364e+02
-3.053808e+09 -2.853798e+09 -3.013817e+09 1.566409e+03 -4.589691e+03 -1.907864e+03
-1.943864e+09 -1.743858e+09 -1.903869e+09 1.553162e+03 -6.023912e+03 -1.975845e+03
-3.960291e+09 -3.760432e+09 -3.919879e+09 3.760730e+04 -5.029668e+04 -1.695491e+05
-1.839904e+09 -1.639896e+09 -1.799906e+09 -4.630933e+02 -4.527314e+03 -1.754508e+03
-1.748283e+09 -1.548274e+09 -1.708284e+09 -4.603953e+02 -3.369802e+03 -1.604966e+03
-3.956935e+09 -3.757006e+09 -3.916968e+09 2.175313e+04 2.556050e+03 -8.896826e+02
-3.385192e+09 -3.185181e+09 -3.345199e+09 1.028321e+03 -2.364728e+03 -4.424870e+02
-2.758675e+09 -2.558665e+09 -2.718681e+09 8.293624e+02 -3.048543e+03 -8.430660e+02
-1.964191e+09 -1.764183e+09 -1.924194e+09 -6.402586e+02 -3.928600e+03 -4.778804e+02
-4.819885e+09 -4.620009e+09 -4.779951e+09 -1.303017e+04 -1.275184e+03 7.809533e+03
-4.287672e+09 -4.087651e+09 -4.247676e+09 -2.194975e+03 2.179705e+03 -5.886426e+02
-4.821358e+09 -4.621367e+09 -4.781370e+09 1.641142e+03 -8.911157e+01 2.505669e+02
-3.978162e+09 -3.778169e+09 -3.938173e+09 1.613473e+03 1.817052e+02 5.664661e+02
-4.099280e+09 -3.899289e+09 -4.059292e+09 1.721321e+03 3.122819e+02 4.566133e+02
-4.757155e+09 -4.557151e+09 -4.717175e+09 -2.121369e+03 1.282481e+03 2.727744e+02
-4.633328e+09 -4.433336e+09 -4.593340e+09 1.766677e+03 7.143227e+01 2.698277e+02
-4.633888e+09 -4.433896e+09 -4.593900e+09 1.896243e+03 3.692592e+01 2.720114e+02
-2.268612e+09 -2.068604e+09 -2.228617e+09 -3.241200e+03 7.194841e+03 -2.926884e+03
-1.556074e+09 -1.356065e+09 -1.516075e+09 3.100288e+01 2.346271e+03 -7.366877e+02
-4.805776e+09 -4.605784e+09 -4.765787e+09 1.547231e+03 1.740621e+02 1.724317e+02
-3.857550e+09 -3.657653e+09 -3.817618e+09 4.180659e+03 3.778815e+03 5.277947e+03
-1.577476e+09 -1.377468e+09 -1.537477e+09 4.168709e+01 4.080934e+03 -1.267338e+03
-3.606932e+09 -3.406932e+09 -3.566953e+09 -1.113130e+03 5.974394e+03 -1.706461e+02
-2.860555e+09 -2.660563e+09 -2.820576e+09 -4.449151e+02 8.431321e+03 -1.128977e+02
-4.627571e+09 -4.427685e+09 -4.587639e+09 -8.343571e+03 -8.122777e+02 -5.846962e+03
-1.584256e+09 -1.384253e+09 -1.544259e+09 -2.217433e+02 8.251654e+03 -3.624092e+03
-3.930338e+09 -3.730329e+09 -3.890358e+09 -1.119336e+04 5.364005e+03 -2.963986e+03
-4.243756e+09 -4.043870e+09 -4.203839e+09 -8.431445e+03 -3.313485e+02 -6.481487e+03
-3.686915e+09 -3.486906e+09 -3.646918e+09 -1.956571e+02 4.184616e+02 -7.513931e+01
-2.151762e+09 -1.951755e+09 -2.111766e+09 -4.010035e+02 4.100908e+03 -7.824681e+02
-4.249592e+09 -4.049699e+09 -4.209677e+09 -4.008552e+03 -9.577803e+02 -6.646331e+03
-3.224485e+09 -3.024557e+09 -3.184543e+09 -4.231528e+03 2.687680e+03 -9.267706e+02
-4.038742e+09 -3.838832e+09 -3.998826e+09 -6.206644e+03 1.074451e+03 -4.239422e+03
-3.233984e+09 -3.034072e+09 -3.194036e+09 4.344426e+02 -1.289722e+03 3.261492e+03
-4.992556e+09 -4.792531e+09 -4.952561e+09 -1.372662e+03 1.100649e+03 -1.341360e+02
-4.250185e+09 -4.050293e+09 -4.210273e+09 5.427204e+02 2.460859e+03 -8.773840e+03
-2.211166e+09 -2.011157e+09 -2.171167e+09 -1.450447e+02 1.891217e+03 2.039899e+02
-2.886982e+09 -2.686972e+09 -2.846984e+09 1.200495e+02 5.000788e+02 -1.266256e+02
-4.371999e+09 -4.171989e+09 -4.332003e+09 -4.111134e+01 3.301521e+02 -7.634582e+01
-3.289787e+09 -3.089777e+09 -3.249789e+09 -1.003462e-04 3.974103e+02 -1.226303e+02
-3.574891e+09 -3.374955e+09 -3.534962e+09 -2.315156e+03 4.396292e+03 1.016700e+03
-3.708177e+09 -3.508248e+09 -3.668253e+09 -4.408669e+03 2.821408e+03 -4.625993e+02
-4.488718e+09 -4.288812e+09 -4.448808e+09 -3.930325e+03 1.147012e+03 -4.133166e+02
-4.517273e+09 -4.317262e+09 -4.477277e+09 -4.102046e+02 2.616957e+02 -1.077812e+02
-4.654220e+09 -4.454312e+09 -4.614310e+09 -5.115467e+03 1.466183e+02 7.449722e+01
-1.887738e+09 -1.687727e+09 -1.847738e+09 5.991024e+02 9.779298e+02 -1.111658e+03
-3.590662e+09 -3.390647e+09 -3.550666e+09 6.151734e+02 1.973965e+02 2.380615e+02
-3.459757e+09 -3.259733e+09 -3.419760e+09 -8.783138e+02 7.668357e+03 -8.049918e+02
-4.064197e+09 -3.864281e+09 -4.024274e+09 -5.097434e+03 -1.950357e+02 -4.035431e+03
-3.320441e+09 -3.120515e+09 -3.280516e+09 -2.964748e+03 3.047223e+03 -5.793610e+03
-3.701338e+09 -3.501416e+09 -3.661417e+09 1.005119e+03 -9.330563e+02 2.854471e+03
-4.136520e+09 -3.936524e+09 -4.096536e+09 7.227089e+03 1.001845e+03 2.323379e+03
-4.479754e+09 -4.279757e+09 -4.439770e+09 7.219854e+03 1.027196e+03 1.495681e+03
-4.822985e+09 -4.622989e+09 -4.783000e+09 7.168987e+03 1.086658e+03 2.882041e+02
-3.232193e+09 -3.032169e+09 -3.192201e+09 5.567474e+03 -1.023239e+04 -2.856718e+03
-4.992186e+09 -4.792189e+09 -4.952201e+09 6.835708e+03 2.279559e+02 4.479676e+02
-4.992523e+09 -4.792617e+09 -4.952598e+09 2.721980e+04 -2.252210e+03 -4.073651e+03
-2.787906e+09 -2.587896e+09 -2.747910e+09 6.251609e+02 -6.108827e+02 -7.457486e+02
-2.080979e+09 -1.881001e+09 -2.041001e+09 3.254684e+03 -9.306246e+03 -8.452657e+03
-3.923031e+09 -3.723028e+09 -3.883042e+09 -5.428314e+03 -1.632095e+03 1.366023e+03
-4.134760e+09 -3.934755e+09 -4.094772e+09 -6.466693e+03 -1.778321e+03 2.438116e+03
-3.239224e+09 -3.039220e+09 -3.199233e+09 -3.184095e+03 -1.929534e+03 1.823054e+03
-3.619942e+09 -3.419934e+09 -3.579954e+09 1.642763e+03 -3.636545e+03 -8.585013e+02
-4.141086e+09 -3.941080e+09 -4.101095e+09 -2.497864e+03 -9.617063e+02 7.389092e+02
-4.990167e+09 -4.790287e+09 -4.950269e+09 3.780613e+03 3.140647e+02 -2.341182e+03
-3.068642e+09 -2.868642e+09 -3.028659e+09 1.091928e+03 -7.071549e+03 -2.523905e+02
-3.869181e+09 -3.669178e+09 -3.829200e+09 1.616747e+03 -4.475783e+03 -4.682845e+02
-3.672105e+09 -3.472099e+09 -3.632115e+09 -4.807317e+03 -2.644276e+03 1.652035e+03
-4.804607e+09 -4.604602e+09 -4.764617e+09 -3.958911e+03 -4.819192e+02 -1.843976e+02
-4.646573e+09 -4.446566e+09 -4.606584e+09 -3.463662e+03 -9.665836e+02 4.558648e+02
-2.650867e+09 -2.450864e+09 -2.610879e+09 1.773638e+02 -7.000389e+03 -7.044930e+02
-2.097290e+09 -1.897294e+09 -2.057298e+09 -2.169445e+02 -4.867722e+01 2.630060e+01
-2.615984e+09 -2.415987e+09 -2.575992e+09 -1.440402e+02 8.571164e+00 5.154834e+01
-1.625370e+09 -1.425366e+09 -1.585375e+09 1.666183e+02 -7.681668e+03 -6.632317e+02
-2.288365e+09 -2.088360e+09 -2.248372e+09 4.399177e+03 -1.109817e+04 -7.854184e+03
-4.132276e+09 -3.932296e+09 -4.092300e+09 -1.474062e+03 4.673246e+02 2.502247e+03
-1.840259e+09 -1.640263e+09 -1.800267e+09 -2.561252e+02 -2.465589e+01 9.479860e+01
-2.254763e+09 -2.054767e+09 -2.214771e+09 -2.133439e+02 -6.753613e+01 7.621036e+01
-4.133651e+09 -3.933659e+09 -4.093655e+09 4.713800e+04 -1.403410e+03 -4.494336e+03
-3.078413e+09 -2.878417e+09 -3.038421e+09 -1.228794e+02 -2.030075e+01 3.788409e+01
-4.080040e+09 -3.880071e+09 -4.040090e+09 -2.623340e+03 6.153854e+03 -1.406666e+03
-2.637932e+09 -2.437933e+09 -2.597950e+09 -5.551748e+03 1.044321e+04 -7.397338e+03
-2.232534e+09 -2.032538e+09 -2.192542e+09 -1.597324e+02 -1.099603e+02 1.437166e+01
-4.828076e+09 -4.628046e+09 -4.788084e+09 -4.797319e+02 -1.306919e+03 6.502201e+01
-3.550834e+09 -3.350865e+09 -3.510882e+09 -2.768584e+03 7.072538e+03 5.399873e+02
-2.870650e+09 -2.670668e+09 -2.830679e+09 -5.418837e+02 8.096567e+03 -1.984201e+02
-3.820694e+09 -3.620771e+09 -3.780746e+09 -2.792728e+04 -5.439527e+02 -2.961773e+03
-4.650352e+09 -4.450362e+09 -4.610389e+09 -1.097579e+04 2.217428e+03 -2.381298e+03
-4.825196e+09 -4.625165e+09 -4.785205e+09 -1.488705e+03 -1.176315e+03 -6.177221e+01
-4.594925e+09 -4.394897e+09 -4.554933e+09 -4.514241e+02 -6.712474e+02 4.940439e+01
-4.016060e+09 -3.816034e+09 -3.976067e+09 -5.155293e+02 -3.480089e+03 -1.888996e+01
-1.584996e+09 -1.384996e+09 -1.544996e+09 1.030512e+03 1.217854e+04 -9.344165e+03
-1.875984e+09 -1.675996e+09 -1.836001e+09 -1.550329e+03 1.084739e+04 -5.157163e+03
-4.739827e+09 -4.539819e+09 -4.699837e+09 -1.289056e+03 8.122682e+02 -2.148662e+02
-4.815969e+09 -4.615942e+09 -4.775978e+09 -2.167560e+03 -1.337297e+03 1.310474e+03
-4.631497e+09 -4.431471e+09 -4.591506e+09 -3.123235e+03 -2.200990e+03 1.001938e+03
-4.189232e+09 -3.989234e+09 -4.149239e+09 3.084476e+02 -1.073538e+01 -3.830609e+01
-4.219257e+09 -4.019260e+09 -4.179264e+09 1.673285e+02 1.032373e+00 -1.486287e+01
-1.643253e+09 -1.443244e+09 -1.603254e+09 -2.299041e+00 1.489322e+03 -8.897426e+01
-3.947547e+09 -3.747550e+09 -3.907554e+09 1.365408e+02 3.719688e+01 8.906432e+00
-4.740225e+09 -4.540228e+09 -4.700232e+09 4.071686e+02 -3.102056e+01 2.592986e+01
-4.770250e+09 -4.570253e+09 -4.730257e+09 1.306665e+02 1.482354e+01 -5.986293e+00
-3.461848e+09 -3.261839e+09 -3.421865e+09 -1.077976e+04 8.985197e+03 -5.415919e+03
-3.793236e+09 -3.593330e+09 -3.753311e+09 -8.493447e+02 1.366777e+03 -1.547607e+03
-3.902935e+09 -3.703059e+09 -3.863003e+09 -3.233781e+03 1.102941e+03 2.242806e+03
-2.897940e+09 -2.697931e+09 -2.857944e+09 -2.951231e+02 2.383096e+03 -1.714757e+02
-4.628110e+09 -4.428225e+09 -4.588179e+09 3.998079e+03 2.094039e+03 -5.651487e+03
-3.471397e+09 -3.271496e+09 -3.431453e+09 2.623751e+03 -4.722901e+03 -8.018219e+03
-2.149397e+09 -1.949402e+09 -2.109405e+09 -6.258452e+01 5.932029e-01 3.538067e+01
-4.584401e+09 -4.384396e+09 -4.544419e+09 -3.099317e+03 1.563403e+03 -2.979282e+02
-4.991215e+09 -4.791208e+09 -4.951229e+09 -2.943646e+03 8.825393e+02 -1.599321e+02
-1.580992e+09 -1.380985e+09 -1.540994e+09 -2.477762e+01 5.415910e+03 -2.092520e+03
-2.894323e+09 -2.694316e+09 -2.854331e+09 -5.168152e+02 5.099621e+03 -1.819235e+02
-1.580992e+09 -1.380985e+09 -1.540994e+09 -6.242493e+01 5.676589e+03 -1.845883e+03
-2.050673e+09 -1.850678e+09 -2.010682e+09 -2.173973e+02 -1.494977e+01 -1.055428e+01
-3.105757e+09 -2.905763e+09 -3.065766e+09 -2.591136e+02 -7.052410e+01 1.714844e+01
-3.115790e+09 -2.915795e+09 -3.075799e+09 -8.195762e+01 -5.068649e+01 2.373481e+01
-2.167616e+09 -1.967608e+09 -2.127618e+09 -1.007756e+02 2.662296e+03 -5.914230e+02
-2.590946e+09 -2.390934e+09 -2.550947e+09 -6.251394e+01 5.002371e+02 -1.017887e+03
-4.302137e+09 -4.102152e+09 -4.262155e+09 -2.430553e+03 -2.576201e+02 1.530371e+03
-1.993288e+09 -1.793293e+09 -1.953296e+09 -1.954333e+02 -8.087976e+01 2.525443e+01
-2.856762e+09 -2.656767e+09 -2.816770e+09 -2.329134e+02 2.867633e+00 5.638400e+01
-4.638699e+09 -4.438646e+09 -4.598384e+09 -7.833499e+04 4.052031e+04 -2.021480e+04
-2.969171e+09 -2.769176e+09 -2.929180e+09 -3.355981e+02 -3.475771e+01 1.529575e+02
-4.582888e+09 -4.382870e+09 -4.542892e+09 -5.230584e+02 3.625655e+02 -1.854936e+02
-1.890883e+09 -1.690888e+09 -1.850891e+09 -4.424712e+02 -1.147830e+02 2.420655e+01
-2.112698e+09 -1.912703e+09 -2.072706e+09 -4.229737e+02 -1.076636e+02 3.373101e+01
-4.999181e+09 -4.799150e+09 -4.959190e+09 -1.541758e+04 2.540512e+03 -3.015560e+03
-4.820114e+09 -4.620100e+09 -4.780067e+09 -6.614351e+04 6.762770e+03 -1.452216e+04
-2.573226e+09 -2.373231e+09 -2.533235e+09 -2.560565e+02 -7.884835e+01 5.004580e+01
-4.753234e+09 -4.553216e+09 -4.713238e+09 -5.728656e+02 2.530085e+02 7.216415e+01
-1.894600e+09 -1.694606e+09 -1.854609e+09 -1.604120e+02 -3.599225e+01 -7.661098e+00
-2.810730e+09 -2.610735e+09 -2.770738e+09 -9.333135e+00 -1.967491e+01 1.594321e+01
-4.093564e+09 -3.893546e+09 -4.053569e+09 -1.861985e+03 1.727240e+03 -9.726405e+02
-2.077515e+09 -1.877501e+09 -2.037515e+09 4.122138e+02 6.131507e+03 6.430027e+01
-1.750097e+09 -1.550101e+09 -1.710105e+09 -2.952652e+02 -4.605468e+01 -3.425465e-01
-2.281831e+09 -2.081824e+09 -2.241834e+09 5.806194e+02 9.038905e+02 9.012431e+02
-2.441245e+09 -2.241231e+09 -2.401247e+09 -1.639970e+02 4.312213e+03 -5.985089e+02
-1.883866e+09 -1.683870e+09 -1.843869e+09 1.240668e+03 1.148838e+04 -7.868906e+03
-2.866104e+09 -2.666088e+09 -2.826106e+09 -4.496958e+01 4.027918e+03 -3.129329e+02
-4.105232e+09 -3.905229e+09 -4.065238e+09 3.905431e+02 1.632428e+02 3.213029e+02
-1.953012e+09 -1.753003e+09 -1.913014e+09 -5.924068e+02 1.067952e+03 1.060671e+03
-2.675375e+09 -2.475359e+09 -2.635377e+09 -1.564275e+02 5.024632e+03 -2.144515e+02
-2.482730e+09 -2.282714e+09 -2.442733e+09 -2.263402e+02 5.093332e+03 -6.665553e+02
-4.647463e+09 -4.447476e+09 -4.607477e+09 -7.677414e+01 -8.605093e+01 1.438604e+02
-2.948797e+09 -2.748809e+09 -2.908810e+09 -4.556127e+02 -5.567464e+01 6.346932e+02
-4.991967e+09 -4.791920e+09 -4.951765e+09 -8.438571e+04 -1.339283e+03 2.682048e+03
-3.036859e+09 -2.836871e+09 -2.996873e+09 -9.800233e+02 -1.906963e+02 1.243326e+03
-2.323975e+09 -2.123987e+09 -2.283989e+09 -2.545479e+02 -1.274902e+02 1.116234e+03
-2.354953e+09 -2.154965e+09 -2.314966e+09 -2.075765e+02 -4.866903e+01 1.201108e+03
-1.878471e+09 -1.678464e+09 -1.838473e+09 1.839214e+02 5.328837e+02 8.333800e+02
-1.773422e+09 -1.573433e+09 -1.733434e+09 -3.610989e+02 -1.830533e+02 7.207062e+02
-2.635037e+09 -2.435034e+09 -2.595044e+09 -3.587330e+03 -2.720799e+03 2.351248e+03
-3.244059e+09 -3.044041e+09 -3.204064e+09 2.138083e+03 5.995821e+03 2.400158e+03
-2.191898e+09 -1.991899e+09 -2.151905e+09 -2.630343e+03 -1.871974e+03 2.035255e+03
-1.910769e+09 -1.710759e+09 -1.870770e+09 6.503977e+02 2.222126e+03 1.145325e+03
-1.587182e+09 -1.387182e+09 -1.547188e+09 -1.630290e+03 -1.299209e+03 1.608767e+03
-1.575743e+09 -1.375742e+09 -1.535748e+09 -1.423855e+03 -2.582937e+03 2.436194e+03
-3.322578e+09 -3.122576e+09 -3.282586e+09 -7.583003e+02 -2.789531e+02 8.165953e+02
-4.591090e+09 -4.391091e+09 -4.551096e+09 5.294400e+02 3.877027e+01 1.256544e+02
-1.787122e+09 -1.587123e+09 -1.747129e+09 -1.145143e+03 -9.204396e+02 9.553739e+02
-2.832496e+09 -2.632498e+09 -2.792502e+09 8.260192e+02 2.570034e+02 2.253471e+02
-4.921688e+09 -4.721690e+09 -4.881695e+09 1.121669e+02 -7.324272e-08 -3.656688e+01
-2.676563e+09 -2.476548e+09 -2.636565e+09 -1.052628e+03 5.167663e+03 -6.179476e+02
-2.668691e+09 -2.468683e+09 -2.628695e+09 2.441551e+02 3.393648e+02 1.084707e+03
-2.876224e+09 -2.676208e+09 -2.836226e+09 -6.520258e+02 4.008935e+03 -6.660981e+02
-4.742739e+09 -4.542741e+09 -4.702746e+09 1.605751e+02 5.318092e+01 -5.764757e+00
-3.275477e+09 -3.075457e+09 -3.235481e+09 -3.504895e+03 6.719742e+03 -3.961686e+02
-2.754116e+09 -2.554101e+09 -2.714118e+09 1.048361e+03 2.888724e+03 -4.296160e+02
-2.610533e+09 -2.410521e+09 -2.570535e+09 2.987003e+01 5.803699e+02 -2.573565e+02
-3.527148e+09 -3.327126e+09 -3.487151e+09 -1.054442e+03 5.138163e+03 -8.456854e+02
-4.497638e+09 -4.297640e+09 -4.457645e+09 1.310232e+02 1.147110e+01 7.112197e+01
-4.992205e+09 -4.792251e+09 -4.951997e+09 -8.617270e+04 -5.724465e+03 -4.528712e+03
-4.643331e+09 -4.443339e+09 -4.603347e+09 -5.380674e+03 -1.416085e+02 1.228338e+03
-4.300097e+09 -4.100107e+09 -4.260114e+09 -4.945854e+03 -3.366510e+02 1.584811e+03
-4.622736e+09 -4.422746e+09 -4.582752e+09 -5.381108e+03 -1.033893e+03 4.445937e+02
-4.627322e+09 -4.427329e+09 -4.587337e+09 -4.437467e+03 -3.924723e+02 1.238527e+03
-4.121406e+09 -3.921414e+09 -4.081421e+09 -4.742695e+03 -1.239836e+03 8.450764e+02
-4.917743e+09 -4.717744e+09 -4.877749e+09 1.479587e+02 -1.177128e-07 -4.455241e+01
-4.461019e+09 -4.261028e+09 -4.421034e+09 -4.026775e+03 -5.530351e+02 1.058031e+03
-4.303686e+09 -4.103683e+09 -4.263695e+09 5.081407e+03 1.178571e+03 6.471043e+02
-4.301633e+09 -4.101629e+09 -4.261648e+09 8.892838e+03 3.003611e+03 1.915191e+03
-4.644253e+09 -4.444249e+09 -4.604264e+09 7.132716e+03 7.674533e+02 1.127007e+03
-4.301690e+09 -4.101682e+09 -4.261702e+09 8.556820e+03 2.535775e+03 1.735867e+03
-4.289264e+09 -4.089257e+09 -4.249275e+09 6.657258e+03 2.478723e+03 1.268228e+03
-4.818833e+09 -4.618824e+09 -4.778846e+09 9.384626e+03 1.576959e+03 4.354426e+02
-4.118319e+09 -3.918309e+09 -4.078325e+09 -1.462169e+03 1.203517e+03 -4.791804e+02
-4.993872e+09 -4.793853e+09 -4.953881e+09 -5.350451e+03 1.276990e+03 -8.887800e+02
-4.130725e+09 -3.930721e+09 -4.090737e+09 7.390218e+03 2.141934e+03 2.166048e+03
-3.960362e+09 -3.760357e+09 -3.920373e+09 7.406512e+03 2.477285e+03 2.235678e+03
-2.483147e+09 -2.283159e+09 -2.443160e+09 1.448274e+01 -1.305694e+02 3.351220e+02
-4.495262e+09 -4.295274e+09 -4.455276e+09 -1.834460e+02 -5.523115e+01 2.168639e+02
-4.726706e+09 -4.526718e+09 -4.686720e+09 -3.141792e+02 1.929221e+01 1.324638e+02
-4.991951e+09 -4.791862e+09 -4.951748e+09 -6.676880e+04 -7.696950e+03 -2.875643e+03
-4.626630e+09 -4.426616e+09 -4.586637e+09 -1.867963e+03 6.836818e+02 -2.138639e+02
-2.543078e+09 -2.343070e+09 -2.503082e+09 -6.459702e+01 3.525443e+03 3.460341e+01
-1.691019e+09 -1.491012e+09 -1.651021e+09 1.100049e+03 5.795249e+03 2.706774e+03
-3.519476e+09 -3.319467e+09 -3.479479e+09 -1.067349e+02 3.065530e+02 -5.046175e+02
-4.814921e+09 -4.614934e+09 -4.774937e+09 -5.755293e+02 4.210039e+01 1.780152e+02
-2.949236e+09 -2.749247e+09 -2.909261e+09 1.177635e+04 -9.738705e+03 -9.364515e+03
-4.390810e+09 -4.190805e+09 -4.350816e+09 9.163254e+02 5.805882e+02 5.138240e+02
-3.381326e+09 -3.181357e+09 -3.341373e+09 1.522040e+04 -7.794214e+03 -2.506268e+03
-3.691662e+09 -3.491702e+09 -3.651706e+09 2.220020e+04 -6.762021e+03 -8.050526e+03
-3.798814e+09 -3.598848e+09 -3.758863e+09 3.183045e+04 -4.991700e+03 -7.064887e+03
-3.980165e+09 -3.780154e+09 -3.940170e+09 5.513325e+02 1.420966e+02 3.809687e+02
-4.658290e+09 -4.458288e+09 -4.618297e+09 1.605223e+03 3.471844e+02 1.485111e+02
-4.829455e+09 -4.629453e+09 -4.789461e+09 1.355873e+03 5.644844e+01 4.351424e+02
-4.168334e+09 -3.968326e+09 -4.128340e+09 2.256215e+03 7.186795e+02 3.477849e+02
-4.821645e+09 -4.621643e+09 -4.781652e+09 1.806950e+03 1.858324e+02 -1.427141e+02
-4.257556e+09 -4.057554e+09 -4.217563e+09 1.607655e+03 4.280793e+02 4.106009e+02
-3.846468e+09 -3.646469e+09 -3.806476e+09 1.313980e+03 3.248653e+02 2.572479e+02
-2.472752e+09 -2.272748e+09 -2.432757e+09 2.084216e+03 1.877406e+03 1.339548e+03
-4.249261e+09 -4.049260e+09 -4.209269e+09 1.890971e+03 3.807033e+02 3.700532e+02
-4.474154e+09 -4.274182e+09 -4.434190e+09 1.069322e+04 6.688334e+02 3.329545e+03
-2.196589e+09 -1.996582e+09 -2.156592e+09 4.017027e+02 7.300706e+01 7.471883e+02
-3.961230e+09 -3.761256e+09 -3.921263e+09 9.833491e+03 1.949708e+03 4.298835e+03
-4.992805e+09 -4.792803e+09 -4.952813e+09 2.141519e+03 -5.193638e+00 1.345871e+02
-1.634799e+09 -1.434792e+09 -1.594801e+09 2.152122e+02 6.592586e+02 1.048519e+03
-4.817110e+09 -4.617142e+09 -4.777149e+09 9.222055e+03 8.534043e+02 2.804408e+03
-4.304462e+09 -4.104492e+09 -4.264498e+09 1.020575e+04 3.645251e+02 4.802132e+03
-3.960336e+09 -3.760355e+09 -3.920361e+09 7.057994e+03 1.555149e+03 3.614556e+03
-4.130871e+09 -3.930890e+09 -4.090897e+09 7.541875e+03 1.847852e+03 2.836053e+03
-3.234267e+09 -3.034257e+09 -3.194281e+09 6.893767e+03 -8.204811e+03 -4.191327e+03
-3.467110e+09 -3.267097e+09 -3.427120e+09 4.567530e+03 -4.925706e+03 -2.659133e+03
-3.447061e+09 -3.247048e+09 -3.407073e+09 7.898714e+03 -6.648258e+03 -3.160191e+03
-2.318612e+09 -2.118610e+09 -2.278625e+09 3.180704e+03 -1.037265e+04 -5.564632e+03
-3.206724e+09 -3.006713e+09 -3.166734e+09 4.294327e+03 -6.599719e+03 -3.192818e+03
-3.878008e+09 -3.677998e+09 -3.838017e+09 1.001682e+03 -2.415571e+03 -2.336009e+02
-4.818518e+09 -4.618542e+09 -4.778549e+09 7.652683e+03 -3.023027e+02 2.478334e+03
-3.081340e+09 -2.881328e+09 -3.041345e+09 1.559291e+03 -2.994770e+03 -1.617983e+03
-4.990934e+09 -4.790956e+09 -4.950964e+09 8.328536e+03 -1.347735e+02 1.369558e+03
-1.686775e+09 -1.486767e+09 -1.646777e+09 -4.679060e+02 -7.906530e+03 -3.872763e+03
-3.888540e+09 -3.688524e+09 -3.848551e+09 5.701394e+03 -4.002898e+03 -1.809651e+03
-4.644690e+09 -4.444713e+09 -4.604721e+09 1.024827e+04 1.262046e+03 1.853802e+03
-4.301457e+09 -4.101480e+09 -4.261488e+09 1.025016e+04 1.296526e+03 3.471768e+03
-2.161105e+09 -1.961093e+09 -2.121106e+09 8.584609e+01 1.691445e+03 1.156226e+02
-1.887573e+09 -1.687561e+09 -1.847573e+09 -2.326933e+03 7.687137e+03 4.143042e+02
-2.414284e+09 -2.214270e+09 -2.374286e+09 2.641058e+02 4.478297e+03 3.192962e+01
-3.363498e+09 -3.163481e+09 -3.323502e+09 2.317996e+02 4.911604e+03 -7.248618e+02
-3.239061e+09 -3.039039e+09 -3.199065e+09 -2.105493e+03 7.119541e+03 1.651360e+02
-3.956943e+09 -3.757010e+09 -3.916980e+09 3.592594e+04 6.402814e+02 -2.959390e+03
-3.254810e+09 -3.054792e+09 -3.214814e+09 5.638278e+02 5.287972e+03 1.027007e+02
-2.640884e+09 -2.440868e+09 -2.600886e+09 6.041539e+02 4.916707e+03 2.544034e+02
-3.200798e+09 -3.000804e+09 -3.160808e+09 9.855351e+02 1.287946e+02 4.142634e+02
-3.506141e+09 -3.306118e+09 -3.466145e+09 1.780415e+02 5.256016e+03 -3.021992e+02
-2.300405e+09 -2.100409e+09 -2.260413e+09 -1.026406e+02 -1.293230e+01 -2.769886e+01
-1.806856e+09 -1.606860e+09 -1.766864e+09 -1.309717e+02 -5.973059e+01 6.726201e+01
-1.653827e+09 -1.453831e+09 -1.613835e+09 -1.197322e+02 -3.168988e+01 4.938260e+01
-3.961561e+09 -3.761577e+09 -3.921586e+09 8.571915e+03 1.733267e+03 4.064996e+03
-2.072788e+09 -1.872792e+09 -2.032796e+09 -3.258319e+02 -4.005184e+01 2.214445e+01
-5.010003e+09 -4.810010e+09 -4.970013e+09 9.225140e+02 9.384037e+01 2.432695e+02
-2.974854e+09 -2.774859e+09 -2.934877e+09 -1.063925e+04 1.048245e+04 -6.811976e+03
-2.698370e+09 -2.498374e+09 -2.658378e+09 -3.592024e+02 -1.314879e+02 1.699282e+02
-3.119826e+09 -2.919831e+09 -3.079834e+09 -4.932598e+02 -1.955836e+02 1.119993e+02
-4.320409e+09 -4.120412e+09 -4.280417e+09 -5.839297e+02 -2.614957e-01 9.157589e+01
-4.674865e+09 -4.474869e+09 -4.634874e+09 -1.149727e+03 5.477746e+00 2.860040e+02
-4.718680e+09 -4.518682e+09 -4.678688e+09 -3.537446e+02 -6.994075e+01 8.480800e+01
-4.717538e+09 -4.517541e+09 -4.677546e+09 -2.753617e+02 -5.079489e+00 1.124268e+02
-4.817635e+09 -4.617631e+09 -4.777664e+09 2.908300e+04 -3.677888e+03 -2.538512e+03
-4.992791e+09 -4.792776e+09 -4.952796e+09 -1.507650e+03 3.980096e+02 -2.251306e+02
-1.644977e+09 -1.444968e+09 -1.604977e+09 -4.332520e+01 4.758365e+02 -5.821728e+02
-4.991986e+09 -4.791990e+09 -4.952015e+09 2.837531e+04 -2.378143e+03 2.777258e+02
-4.648264e+09 -4.448280e+09 -4.608303e+09 2.654091e+04 -1.871616e+03 -1.316695e+03
-4.646409e+09 -4.446423e+09 -4.606434e+09 4.138295e+04 3.297646e+02 -1.201023e+03
-3.959905e+09 -3.759895e+09 -3.919935e+09 2.761242e+04 -5.031941e+03 -4.177630e+03
-4.815475e+09 -4.615470e+09 -4.775505e+09 1.911798e+04 -9.455036e+02 -1.666120e+03
-4.132400e+09 -3.932404e+09 -4.092419e+09 4.195181e+04 -7.290434e+03 -8.734599e+03
-3.001123e+09 -2.801113e+09 -2.961130e+09 3.429163e+03 4.637125e+03 2.708991e+03
-4.819391e+09 -4.619348e+09 -4.779397e+09 -4.287564e+02 -1.408114e+03 -4.042516e+02
-4.132926e+09 -3.932883e+09 -4.092932e+09 -3.200132e+02 -8.215112e+03 -5.249755e+01
-4.653464e+09 -4.453431e+09 -4.613471e+09 -4.304203e+02 -1.376570e+03 -3.810754e+01
-4.647116e+09 -4.447072e+09 -4.607120e+09 6.015221e+02 -1.665076e+03 2.252512e+02
-4.302044e+09 -4.101990e+09 -4.262048e+09 9.854485e+02 -6.597280e+03 -3.671239e+02
-4.648336e+09 -4.448294e+09 -4.608344e+09 -1.750409e+03 -2.164425e+03 3.792736e+02
-3.194413e+09 -2.994388e+09 -3.154420e+09 -1.657240e+03 -9.013993e+03 1.968226e+03
-4.819511e+09 -4.619473e+09 -4.779499e+09 4.498995e+04 -2.020034e+03 -4.642863e+03
-3.875108e+09 -3.675070e+09 -3.835113e+09 2.245667e+03 -6.385190e+03 -9.486283e+01
-4.643941e+09 -4.443951e+09 -4.603953e+09 1.257925e+03 7.427916e+01 2.029857e+02
-4.531800e+09 -4.331810e+09 -4.491812e+09 1.776156e+02 1.278984e+02 4.571180e+01
-4.769725e+09 -4.569734e+09 -4.729737e+09 3.344845e+02 6.744243e+01 -7.516521e+01
-3.508377e+09 -3.308367e+09 -3.468382e+09 1.538504e+03 1.544503e+03 9.009657e+02
-3.902303e+09 -3.702311e+09 -3.862314e+09 4.638075e+02 1.717332e+02 5.838062e+01
-4.026599e+09 -3.826609e+09 -3.986611e+09 3.774157e+02 1.246424e+01 9.387094e+01
-4.984218e+09 -4.784138e+09 -4.944126e+09 5.547799e+04 8.152824e+03 2.851098e+03
-4.815298e+09 -4.615308e+09 -4.775311e+09 1.093289e+03 -5.196680e+01 7.546405e+01
-2.322007e+09 -2.122015e+09 -2.282017e+09 5.612869e+02 8.017963e+01 2.491337e+02
-4.831896e+09 -4.631906e+09 -4.791909e+09 7.271389e+02 2.019473e+02 9.733296e+01
-4.830919e+09 -4.630910e+09 -4.790936e+09 4.338343e+03 -1.302713e+03 1.576309e+02
-4.276540e+09 -4.076530e+09 -4.236554e+09 5.471946e+03 -3.201292e+03 -5.546074e+02
-4.763157e+09 -4.563148e+09 -4.723171e+09 1.358181e+03 -8.720359e+02 2.476643e+02
-3.770549e+09 -3.570539e+09 -3.730561e+09 2.103077e+03 -3.549089e+03 -1.404220e+03
-3.917900e+09 -3.717892e+09 -3.877914e+09 1.607132e+03 -3.565105e+03 -4.183845e+02
-3.213577e+09 -3.013582e+09 -3.173586e+09 7.412935e+02 1.001822e+02 2.173200e+02
-3.961041e+09 -3.761047e+09 -3.921052e+09 1.933575e+03 3.397475e+02 5.636656e+02
-4.070515e+09 -3.870510e+09 -4.030533e+09 3.655895e+03 -3.085611e+03 1.782863e+02
-4.824424e+09 -4.624418e+09 -4.784446e+09 5.808016e+03 -2.204741e+03 -8.584071e+02
-4.826047e+09 -4.626058e+09 -4.786060e+09 6.374108e+02 1.364221e+02 4.638578e+01
-4.736773e+09 -4.536785e+09 -4.696787e+09 8.191948e+02 -8.772783e+01 2.573085e+02
-1.575654e+09 -1.375661e+09 -1.535664e+09 8.687072e+02 2.651932e+02 4.004236e+02
-1.637649e+09 -1.437656e+09 -1.597658e+09 1.331840e+02 1.256668e+02 1.311475e+02
-1.931085e+09 -1.731091e+09 -1.891094e+09 4.854649e+02 1.533715e+02 2.053364e+02
-4.997262e+09 -4.797274e+09 -4.957276e+09 3.309085e+02 -8.524480e+01 2.667847e+01
-2.730201e+09 -2.530213e+09 -2.690214e+09 -1.090115e+02 -6.074495e+01 1.899220e+02
-4.759440e+09 -4.559452e+09 -4.719454e+09 2.614467e+02 8.589819e+01 -4.205495e+01
-1.850224e+09 -1.650236e+09 -1.810236e+09 2.428207e+02 8.598497e+01 5.788758e+02
-3.945360e+09 -3.745340e+09 -3.905368e+09 -1.251594e+03 -1.776917e+03 1.346590e+03
-4.254520e+09 -4.054494e+09 -4.214528e+09 -3.047316e+03 -3.749018e+03 3.425400e+02
-4.629939e+09 -4.429945e+09 -4.589948e+09 -1.076173e+03 -1.559784e+02 5.995999e+01
-4.041871e+09 -3.841846e+09 -4.001878e+09 -4.199912e+03 -2.498428e+03 5.932307e+02
-4.930499e+09 -4.730511e+09 -4.890513e+09 -6.309732e+01 9.194689e+00 -1.036000e-08
-4.121897e+09 -3.921872e+09 -4.081905e+09 -3.665572e+02 -2.495833e+03 4.869892e+02
-4.759344e+09 -4.559319e+09 -4.719352e+09 -1.213314e+03 -4.310297e+02 -1.149793e+02
-2.592266e+09 -2.392268e+09 -2.552273e+09 -1.262847e+02 -3.357901e+01 3.309040e+02
-4.647447e+09 -4.447424e+09 -4.607455e+09 -2.827049e+03 -7.402982e+02 6.874477e+02
-4.820259e+09 -4.620276e+09 -4.780269e+09 -5.322848e+04 1.756327e+03 -5.657470e+03
-1.575738e+09 -1.375729e+09 -1.535738e+09 2.364892e+02 4.982882e+03 -8.818424e+02
-1.691077e+09 -1.491068e+09 -1.651078e+09 8.178343e+02 7.885898e+03 1.970604e+03
-3.753104e+09 -3.553089e+09 -3.713108e+09 2.271391e+02 4.642744e+02 1.315991e+02
-4.823404e+09 -4.623494e+09 -4.783349e+09 -6.339572e+04 -4.100655e+03 3.345838e+03
-4.995043e+09 -4.795140e+09 -4.955016e+09 -5.341440e+04 -6.873077e+03 2.226427e+03
-4.302860e+09 -4.102965e+09 -4.262887e+09 -4.336461e+04 5.433144e+02 3.484183e+03
-4.128477e+09 -3.928567e+09 -4.088497e+09 -3.938850e+04 3.102508e+03 -7.386694e+03
-4.835115e+09 -4.635193e+09 -4.795173e+09 -2.633942e+04 -1.771323e+03 8.799892e+03
-2.153449e+09 -1.953437e+09 -2.113450e+09 3.595623e+01 1.753180e+03 -2.069698e+02
-3.964292e+09 -3.764347e+09 -3.924322e+09 -4.199595e+04 1.164365e+03 2.870960e+03
-4.311122e+09 -4.111208e+09 -4.271162e+09 -4.111827e+04 -3.456771e+03 7.234000e+03
-4.526779e+09 -4.326778e+09 -4.486785e+09 3.223744e+02 5.746267e+01 2.310942e+02
-4.762008e+09 -4.562005e+09 -4.722015e+09 7.494096e+02 2.277440e+02 8.504943e+01
-3.606880e+09 -3.406880e+09 -3.566886e+09 5.670587e+02 3.122300e+02 3.052532e+02
-1.697880e+09 -1.497871e+09 -1.657880e+09 3.907343e+02 9.044631e+03 -1.038383e+03
-2.491325e+09 -2.291312e+09 -2.451327e+09 -1.148021e+03 3.306553e+03 -1.233325e+03
-3.473313e+09 -3.273289e+09 -3.433316e+09 1.043570e+03 8.127938e+03 5.419453e+01
-1.578362e+09 -1.378354e+09 -1.538362e+09 5.048576e+02 5.525723e+03 4.896792e+02
-2.756531e+09 -2.556517e+09 -2.716534e+09 1.537973e+03 3.018840e+03 2.628427e+02
-1.582415e+09 -1.382424e+09 -1.542426e+09 -5.167255e+02 -2.085703e+02 4.870659e+02
-4.767322e+09 -4.567320e+09 -4.727329e+09 5.589835e+02 -6.049275e+01 1.604044e+02
-4.658309e+09 -4.458307e+09 -4.618317e+09 2.445007e+03 1.834973e+02 2.072487e+02
-2.076870e+09 -1.876858e+09 -2.036872e+09 -1.678630e+03 -3.495246e+03 2.490385e+03
-4.051534e+09 -3.851531e+09 -4.011540e+09 7.233985e+02 2.084744e+02 2.767582e+02
-1.589721e+09 -1.389732e+09 -1.549733e+09 -6.670120e+02 -2.216636e+02 1.402094e+03
-4.829504e+09 -4.629500e+09 -4.789511e+09 1.666225e+03 6.270182e+01 5.360039e+02
-2.884090e+09 -2.684090e+09 -2.844097e+09 -1.548869e+02 -9.447885e+01 7.449160e+02
-4.410037e+09 -4.210035e+09 -4.370046e+09 -6.598254e+02 -7.398695e+01 6.979825e+02
-4.951098e+09 -4.751097e+09 -4.911107e+09 -2.262306e+03 -1.745880e+02 2.860200e+02
-4.986358e+09 -4.786363e+09 -4.946367e+09 -1.006020e+03 -3.331918e+01 4.211838e+01
-4.658364e+09 -4.458360e+09 -4.618371e+09 2.020617e+03 3.683851e+02 1.300569e+02
-4.613688e+09 -4.413681e+09 -4.573697e+09 -4.899041e+02 -2.647908e+02 7.478721e+02
-4.674927e+09 -4.474934e+09 -4.634937e+09 4.772761e+02 8.026448e+01 3.481055e+01
-3.333298e+09 -3.133287e+09 -3.293306e+09 -4.035247e+03 -4.167278e+03 2.804118e+03
-4.648375e+09 -4.448381e+09 -4.608384e+09 1.176949e+03 8.354412e+01 1.139359e+02
-4.534579e+09 -4.334586e+09 -4.494589e+09 5.162767e+02 1.021753e+02 1.134780e+02
-2.514186e+09 -2.314192e+09 -2.474195e+09 4.463270e+02 7.090633e+01 2.036673e+02
-1.913627e+09 -1.713667e+09 -1.873637e+09 1.066441e+03 -9.745984e+02 -1.029028e+04
-2.144961e+09 -1.944967e+09 -2.104970e+09 2.397196e+02 4.864659e+01 5.114639e+01
-4.642135e+09 -4.442014e+09 -4.601580e+09 -6.371249e+04 -5.303802e+04 2.267724e+04
-4.174452e+09 -3.974460e+09 -4.134463e+09 6.686828e+02 -6.804482e+01 2.368237e+02
-4.541960e+09 -4.341968e+09 -4.501970e+09 5.098300e+02 1.153749e+02 1.320252e+02
-4.644734e+09 -4.444606e+09 -4.604590e+09 1.633168e+04 -1.182184e+04 -1.930758e+03
-4.970938e+09 -4.771014e+09 -4.931020e+09 -1.140644e+04 1.240413e+03 -2.097178e+03
-4.022592e+09 -3.822601e+09 -3.982603e+09 8.098136e+02 1.538696e+01 3.114611e+02
-3.951572e+09 -3.751419e+09 -3.911306e+09 2.356939e+04 -4.232396e+04 -4.900018e+03
-3.889309e+09 -3.689315e+09 -3.849318e+09 5.685589e+02 5.580137e+01 6.934953e+01
-3.947100e+09 -3.747106e+09 -3.906984e+09 7.072389e+04 -2.143358e+04 -2.706108e+04
-4.824421e+09 -4.624426e+09 -4.784430e+09 6.952128e+02 1.699292e+02 -3.939052e+00
-2.767183e+09 -2.567203e+09 -2.727213e+09 -5.315786e+03 8.057359e+03 -5.067555e+03
-3.819843e+09 -3.619889e+09 -3.779903e+09 -2.454299e+03 5.233685e+03 4.686703e+02
-1.696250e+09 -1.496255e+09 -1.656247e+09 -6.770391e+02 1.028701e+04 -1.845819e+04
-3.085344e+09 -2.885394e+09 -3.045381e+09 -2.214338e+04 6.150473e+03 -1.111707e+04
-2.916530e+09 -2.716565e+09 -2.876570e+09 -5.783790e+02 7.187138e+03 -7.333962e+01
-4.442283e+09 -4.242289e+09 -4.402292e+09 1.797282e+02 1.196891e+02 5.589001e+01
-4.602452e+09 -4.402458e+09 -4.562461e+09 2.489326e+02 4.087065e+01 -3.801510e+01
-4.646620e+09 -4.446573e+09 -4.606621e+09 -2.981374e+04 -2.511374e+03 1.040696e+03
-4.818904e+09 -4.618862e+09 -4.778911e+09 -2.808146e+04 -5.470989e+03 3.011458e+03
-4.305969e+09 -4.105979e+09 -4.266000e+09 -2.325241e+04 7.544634e+03 -3.673188e+03
-2.627773e+09 -2.427772e+09 -2.587789e+09 -5.741625e+03 8.693670e+03 -4.034611e+03
-4.991638e+09 -4.791619e+09 -4.951656e+09 -2.648281e+04 -3.711579e+03 7.322929e+02
-2.636997e+09 -2.437004e+09 -2.597017e+09 -4.848141e+02 9.300608e+03 -5.607445e+02
-2.653953e+09 -2.453992e+09 -2.613997e+09 -1.284339e+03 7.174631e+03 2.643028e+02
-3.961502e+09 -3.761512e+09 -3.921519e+09 4.951630e+03 1.045038e+03 1.912270e+03
-4.304134e+09 -4.104122e+09 -4.264151e+09 -3.598640e+04 -1.026359e+04 5.923044e+03
-1.723506e+09 -1.523515e+09 -1.683517e+09 3.360410e+02 1.855900e+02 1.835211e+02
-4.133021e+09 -3.932987e+09 -4.093032e+09 -1.998665e+04 -9.181602e+03 3.923057e+03
-3.962667e+09 -3.762638e+09 -3.922679e+09 -1.683843e+04 -6.108082e+03 4.282335e+03
-4.647107e+09 -4.447088e+09 -4.607125e+09 -1.946121e+04 -2.131374e+03 1.501872e+03
-4.652612e+09 -4.452618e+09 -4.612622e+09 9.154920e+02 -3.551400e+01 -1.296808e+02
-3.961680e+09 -3.761661e+09 -3.921693e+09 -1.603940e+04 -4.654851e+03 4.954268e+03
-1.594998e+09 -1.395004e+09 -1.555007e+09 8.258579e+02 2.273474e+02 3.028447e+02
-1.575654e+09 -1.375661e+09 -1.535664e+09 1.139013e+03 3.942739e+02 6.247819e+02
-4.820287e+09 -4.620256e+09 -4.780299e+09 -1.894059e+04 -4.051142e+03 1.739828e+03
-3.222460e+09 -3.022439e+09 -3.182465e+09 8.512222e+02 -8.741178e+03 -4.445421e+03
-3.134735e+09 -2.934743e+09 -3.094763e+09 5.889098e+03 -8.119830e+03 -4.169506e+03
-3.048950e+09 -2.848952e+09 -3.008969e+09 1.323185e+04 -1.157656e+04 -8.303176e+03
-1.596237e+09 -1.396238e+09 -1.556241e+09 1.158579e+03 -1.297662e+04 -1.173095e+04
-4.819297e+09 -4.619274e+09 -4.779313e+09 -1.815265e+04 -9.110028e+02 9.145733e+02
-4.016343e+09 -3.816440e+09 -3.976426e+09 -4.701449e+03 4.720573e+03 1.634863e+03
-4.301046e+09 -4.100997e+09 -4.261019e+09 3.826777e+04 -5.629297e+03 -8.311957e+03
-2.206835e+09 -2.006828e+09 -2.166841e+09 7.311473e+02 -6.008321e+03 -1.564222e+03
-4.634007e+09 -4.434113e+09 -4.594091e+09 3.381140e+02 2.568895e+03 1.338300e+03
-4.992479e+09 -4.792541e+09 -4.952540e+09 2.871520e+04 -2.095890e+03 -2.856529e+03
-2.337290e+09 -2.137270e+09 -2.297291e+09 2.166057e+03 -9.658309e+03 -1.518353e+03
-1.884295e+09 -1.684288e+09 -1.844297e+09 -1.798352e+02 -7.685141e+03 -3.520445e+03
-3.805787e+09 -3.605874e+09 -3.765856e+09 8.458817e+03 -3.285439e+03 -7.099772e+03
-4.130870e+09 -3.930890e+09 -4.090891e+09 5.413359e+04 3.238947e+03 7.212280e+03
-3.339020e+09 -3.139014e+09 -3.299035e+09 1.866252e+04 -1.252441e+04 -1.182715e+04
-1.666973e+09 -1.466973e+09 -1.626979e+09 -3.753206e+02 -3.399930e+02 7.971404e+02
-2.203732e+09 -2.003726e+09 -2.163736e+09 -3.682673e+03 -6.076853e+03 4.284937e+03
-4.511408e+09 -4.311498e+09 -4.471501e+09 1.359329e+03 -1.306253e+03 9.725332e+02
-4.634525e+09 -4.434633e+09 -4.594619e+09 1.066091e+04 2.267215e+02 1.179299e+03
-2.668773e+09 -2.468765e+09 -2.628779e+09 -3.774296e+02 -4.867324e+02 2.192469e+03
-2.197956e+09 -1.997953e+09 -2.157962e+09 -3.830019e+03 -4.336289e+03 3.701611e+03
-4.811502e+09 -4.611591e+09 -4.771585e+09 1.136822e+04 -1.185352e+03 8.680199e+02
-2.981731e+09 -2.781727e+09 -2.941741e+09 -4.374924e+03 -3.877600e+03 4.005828e+03
-4.198902e+09 -3.998994e+09 -4.158990e+09 1.197960e+03 -1.312333e+03 -3.339008e+03
-4.758489e+09 -4.558583e+09 -4.718583e+09 2.174353e+03 -1.355926e+03 -2.735843e+02
-4.312413e+09 -4.112337e+09 -4.272390e+09 -2.045673e+04 8.668129e+03 -5.093814e+03
-4.643315e+09 -4.443319e+09 -4.603329e+09 -6.096316e+03 -9.742616e+02 9.122677e+02
-4.999357e+09 -4.799352e+09 -4.959366e+09 -2.409421e+03 -2.041562e+02 3.266158e+02
-4.296551e+09 -4.096477e+09 -4.256503e+09 -4.338556e+04 3.951487e+03 -5.103404e+03
-4.137368e+09 -3.937298e+09 -4.097311e+09 -5.044051e+04 7.318811e+03 -1.538233e+03
-4.649227e+09 -4.449195e+09 -4.609195e+09 -5.578926e+04 -3.988912e+03 5.187188e+03
-3.191345e+09 -2.991337e+09 -3.151355e+09 -5.676607e+03 -4.867911e+03 3.570032e+03
-3.962512e+09 -3.762517e+09 -3.922528e+09 -4.217116e+04 -2.292640e+03 1.744534e+03
-4.823832e+09 -4.623766e+09 -4.783776e+09 -5.028865e+04 -8.515261e+03 2.786063e+03
-3.826102e+09 -3.626191e+09 -3.786179e+09 -5.095897e+03 2.034034e+02 -9.317142e+01
-4.792050e+09 -4.592132e+09 -4.752134e+09 -1.366907e+04 -1.092620e+03 5.754429e+02
-4.818969e+09 -4.619030e+09 -4.778983e+09 5.143390e+04 -5.467827e+03 -6.030157e+03
-1.630115e+09 -1.430122e+09 -1.590124e+09 2.607650e+02 7.732079e+03 1.109094e+03
-4.139764e+09 -3.939682e+09 -4.099740e+09 1.177052e+04 -6.564739e+03 9.639828e+02
-4.824090e+09 -4.624193e+09 -4.784182e+09 -4.711472e+03 1.969803e+03 -3.120337e+03
-3.962477e+09 -3.762474e+09 -3.922289e+09 -8.538356e+04 4.987607e+04 -5.208025e+04
-2.683924e+09 -2.483910e+09 -2.643928e+09 3.633026e+01 -1.009491e+03 7.135342e+02
-4.995809e+09 -4.795782e+09 -4.955818e+09 -2.894695e+00 -3.314136e+02 -3.985988e+01
-4.990825e+09 -4.790760e+09 -4.950827e+09 -3.127882e+03 -5.805633e+03 -1.960016e+02
-2.455519e+09 -2.255516e+09 -2.415530e+09 -3.537460e+03 8.242485e+03 -3.460756e+03
-1.582106e+09 -1.382110e+09 -1.542114e+09 6.209443e+02 1.414946e+02 9.563174e+01
-4.647888e+09 -4.447835e+09 -4.607896e+09 -1.456948e+04 -3.460782e+03 1.535458e+03
-3.961311e+09 -3.761248e+09 -3.921301e+09 -1.029758e+04 -1.054007e+04 1.394256e+03
-4.930826e+09 -4.730799e+09 -4.890835e+09 -2.430842e+02 1.493235e-04 -2.522420e+01
-4.524248e+09 -4.324221e+09 -4.484256e+09 -5.964827e-01 -2.537237e+02 -5.264139e+01
-2.082910e+09 -1.882906e+09 -2.042916e+09 -2.994333e+03 9.897757e+03 -4.451461e+03
-3.962347e+09 -3.762305e+09 -3.922350e+09 -7.446215e+03 -8.068592e+03 1.619234e+03
-4.992811e+09 -4.792778e+09 -4.952820e+09 -7.004663e+03 -2.657414e+03 2.432977e+02
-3.057913e+09 -2.857925e+09 -3.017927e+09 -1.368488e+03 -6.100358e+02 1.407821e+03
-2.641222e+09 -2.441214e+09 -2.601230e+09 -3.657734e+03 6.718258e+03 -3.616615e+03
-2.429907e+09 -2.229905e+09 -2.389918e+09 -2.551076e+03 8.577024e+03 -3.297968e+03
-4.302079e+09 -4.102102e+09 -4.262107e+09 -3.779307e+03 -4.716221e+02 2.577029e+03
-4.625944e+09 -4.425950e+09 -4.585957e+09 -3.030144e+03 -2.464565e+02 3.228629e+01
-1.684635e+09 -1.484645e+09 -1.644646e+09 -2.814137e+02 -1.267592e+02 1.905362e+02
-3.048128e+09 -2.848141e+09 -3.008143e+09 -1.159146e+03 -4.245958e+02 1.717141e+03
-3.088109e+09 -2.888104e+09 -3.048123e+09 -2.878243e+03 6.148621e+03 -2.024143e+03
-2.856320e+09 -2.656314e+09 -2.816331e+09 -3.751844e+03 6.714196e+03 -3.086055e+03
-3.026379e+09 -2.826370e+09 -2.986388e+09 -3.762680e+03 7.051987e+03 -3.128175e+03
-3.423238e+09 -3.223253e+09 -3.383254e+09 2.699264e+02 -1.723735e+01 1.660748e+03
-4.800427e+09 -4.600417e+09 -4.760434e+09 2.194742e+03 2.422377e+02 6.303843e+02
-4.509824e+09 -4.309813e+09 -4.469830e+09 2.520425e+03 5.421886e+02 1.645076e+02
-4.731157e+09 -4.531145e+09 -4.691163e+09 1.708714e+03 4.583548e+02 -1.564663e+02
-4.643368e+09 -4.443458e+09 -4.603321e+09 5.511851e+04 -1.217801e+04 1.225818e+04
-3.461453e+09 -3.261441e+09 -3.421457e+09 1.638018e+03 1.525666e+03 1.046475e+03
-4.852017e+09 -4.652002e+09 -4.812023e+09 2.374354e+03 6.745772e+02 -1.274920e+02
-4.414316e+09 -4.214328e+09 -4.374329e+09 -1.189537e+02 -8.500277e+01 4.917560e+01
-4.926312e+09 -4.726324e+09 -4.886326e+09 -1.926626e+01 -1.294605e+00 4.453965e-10
-2.895678e+09 -2.695690e+09 -2.855691e+09 -5.558513e+01 8.924042e+01 2.229417e+02
-4.849929e+09 -4.649915e+09 -4.809935e+09 2.652188e+03 2.973687e+02 4.389125e+02
-3.957344e+09 -3.757356e+09 -3.917357e+09 -9.209765e+01 4.706545e+00 8.139791e+01
-3.982918e+09 -3.782905e+09 -3.942925e+09 3.142926e+03 1.967608e+03 6.154177e+02
-4.121471e+09 -3.921460e+09 -4.081477e+09 2.536103e+03 1.124897e+03 2.486477e+02
-3.781486e+09 -3.581472e+09 -3.741492e+09 2.805034e+03 1.860957e+03 6.690190e+02
-5.003112e+09 -4.803121e+09 -4.963124e+09 4.420803e+02 -9.070051e+01 6.465581e+01
-4.765187e+09 -4.565196e+09 -4.725199e+09 3.988868e+02 -4.657828e+01 1.681108e+02
-4.643998e+09 -4.444004e+09 -4.604009e+09 2.629533e+03 2.274186e+02 3.529112e+02
-3.063289e+09 -2.863300e+09 -3.023302e+09 5.104601e+02 1.006022e+02 5.040878e+02
-4.303250e+09 -4.103256e+09 -4.263261e+09 2.106905e+03 2.512467e+02 4.040957e+02
-4.819709e+09 -4.619716e+09 -4.779720e+09 1.890285e+03 -1.063923e+02 2.047305e+02
-4.634978e+09 -4.434986e+09 -4.594989e+09 1.674937e+03 2.733024e+02 2.579718e+02
-3.914464e+09 -3.714468e+09 -3.874472e+09 2.345757e+02 8.661438e+01 3.115712e+00
-4.084258e+09 -3.884266e+09 -4.044269e+09 1.706199e+03 7.889078e+01 6.242350e+02
-2.240905e+09 -2.040910e+09 -2.200914e+09 2.173170e+02 -2.405325e+01 2.662443e+01
-4.133243e+09 -3.933250e+09 -4.093255e+09 2.012861e+03 4.948684e+02 5.182126e+02
-2.208492e+09 -2.008481e+09 -2.168493e+09 1.642452e+02 -1.208603e+02 -1.353386e+03
-1.953697e+09 -1.753688e+09 -1.913699e+09 -7.165818e+02 -1.099373e+03 -1.859434e+03
-2.188785e+09 -1.988773e+09 -2.148787e+09 1.316092e+03 -2.424187e+03 -1.538007e+03
-4.747693e+09 -4.547697e+09 -4.707701e+09 1.654930e+02 1.204679e+01 -3.539279e+01
-3.532290e+09 -3.332292e+09 -3.492297e+09 4.881617e+02 9.066569e+01 8.416006e+01
-3.977181e+09 -3.777224e+09 -3.936965e+09 8.673710e+04 -6.101085e+04 -8.726104e+04
-2.126215e+09 -1.926205e+09 -2.086217e+09 5.410999e+02 -2.576348e+03 -4.358481e+02
-2.399710e+09 -2.199700e+09 -2.359715e+09 1.292137e+03 -3.102589e+03 -1.413337e+03
-2.071048e+09 -1.871039e+09 -2.031052e+09 6.034168e+02 -3.508656e+03 -1.354062e+03
-3.952883e+09 -3.752821e+09 -3.912640e+09 7.685551e+04 -4.142959e+04 -4.872494e+04
-2.635704e+09 -2.435693e+09 -2.595708e+09 1.868307e+02 -1.046470e+03 -1.154401e+03
-4.265669e+09 -4.065671e+09 -4.225678e+09 -2.114244e+03 -4.778390e+02 6.045946e+02
-4.820957e+09 -4.620959e+09 -4.780967e+09 -1.980480e+03 -1.464210e+02 -2.352345e+02
-1.630937e+09 -1.430940e+09 -1.590943e+09 1.305434e+02 9.814981e+03 -6.163588e+00
-1.844831e+09 -1.644834e+09 -1.804838e+09 8.481750e+01 3.254630e+00 -2.692261e+01
-1.918948e+09 -1.718951e+09 -1.878955e+09 1.315248e+02 2.045437e+01 -1.480154e+01
-2.243461e+09 -2.043464e+09 -2.203468e+09 4.166153e+02 4.373103e+01 -6.740034e+00
-3.772289e+09 -3.572293e+09 -3.732297e+09 6.238163e+01 -3.261633e+01 3.468058e+01
-3.495373e+09 -3.295386e+09 -3.455388e+09 1.113084e+03 2.086297e+02 9.925401e+02
-3.894973e+09 -3.694981e+09 -3.854983e+09 6.757938e+02 5.327155e+01 1.866376e+02
-4.078190e+09 -3.878191e+09 -4.038200e+09 -3.475502e+03 -1.028343e+03 8.038068e+02
-1.610221e+09 -1.410226e+09 -1.570230e+09 -4.128895e+02 -1.678006e+02 1.674411e+02
-5.010002e+09 -4.810011e+09 -4.970013e+09 1.010699e+03 7.382565e+01 -1.812510e+02
-4.990180e+09 -4.790182e+09 -4.950192e+09 -3.953482e+03 1.687185e+02 5.835818e+01
-4.815494e+09 -4.615497e+09 -4.775506e+09 -4.001614e+03 1.722802e+02 7.745375e+02
-3.922213e+09 -3.722216e+09 -3.882223e+09 -2.660135e+03 -7.575146e+02 8.910305e+02
-4.600326e+09 -4.400327e+09 -4.560333e+09 7.206933e+02 3.818860e+01 1.069458e+02
-4.702184e+09 -4.502185e+09 -4.662191e+09 2.533312e+02 4.722632e+01 4.009046e+01
-4.644635e+09 -4.444637e+09 -4.604642e+09 1.000755e+03 5.670874e+01 1.163116e+02
-4.207242e+09 -4.007243e+09 -4.167249e+09 7.292921e+02 8.851717e+01 6.233622e+01
-3.559890e+09 -3.359891e+09 -3.519896e+09 3.188426e+02 5.413944e+01 1.698319e+02
-4.942203e+09 -4.742204e+09 -4.902210e+09 3.059037e+02 3.993090e+00 -2.952795e+01
-4.033530e+09 -3.833525e+09 -3.993540e+09 -3.893012e+03 -1.409160e+03 1.418050e+03
-4.098560e+09 -3.898561e+09 -4.058567e+09 4.007484e+02 8.648430e+01 5.968961e+01
-2.700775e+09 -2.500778e+09 -2.660782e+09 6.878705e+01 2.462329e+01 -3.469627e+00
-1.885314e+09 -1.685305e+09 -1.845317e+09 -5.260205e+03 -1.200781e+04 3.577869e+03
-2.209135e+09 -2.009137e+09 -2.169141e+09 9.910614e+01 2.816762e+00 -3.203127e+01
-1.556311e+09 -1.356313e+09 -1.516317e+09 1.356658e+02 -5.390179e+01 9.116333e+01
-1.867477e+09 -1.667464e+09 -1.827479e+09 -5.274678e+02 -4.435742e+03 1.692420e+03
-3.795418e+09 -3.595422e+09 -3.755426e+09 -9.308215e+01 -4.167029e+01 9.256791e+00
-1.912869e+09 -1.712871e+09 -1.872876e+09 3.932093e+02 1.446259e+01 3.218795e+01
-3.539055e+09 -3.339063e+09 -3.499066e+09 -1.621881e+02 -1.724126e+02 8.707747e+01
-4.525081e+09 -4.325085e+09 -4.485089e+09 -3.752573e+02 -1.922923e+01 2.300586e+01
-2.343192e+09 -2.143197e+09 -2.303200e+09 -6.972102e+02 -1.533065e+02 1.308169e+02
-2.058728e+09 -1.858731e+09 -2.018735e+09 3.042200e+02 2.167311e+01 -8.267164e+00
-4.482683e+09 -4.282688e+09 -4.442691e+09 -2.323481e+02 -4.950731e+01 1.832760e+01
-2.243821e+09 -2.043823e+09 -2.203828e+09 1.417228e+02 2.405876e+01 -3.918186e+01
-1.586420e+09 -1.386425e+09 -1.546429e+09 7.496472e+02 2.004141e+02 1.552021e+02
-2.154185e+09 -1.954187e+09 -2.114192e+09 -1.713658e+02 -6.445250e+01 6.379174e+01
-4.965482e+09 -4.765485e+09 -4.925490e+09 -4.063684e+02 -6.939668e+00 -2.016508e+01
-2.152647e+09 -1.952650e+09 -2.112654e+09 -1.515907e+02 -5.326686e+01 5.739402e+00
-4.459459e+09 -4.259443e+09 -4.419468e+09 -8.465442e+02 -1.800153e+02 9.641780e+02
-4.698537e+09 -4.498522e+09 -4.658546e+09 -9.396313e+02 -6.839015e+01 7.348155e+02
-3.806412e+09 -3.606397e+09 -3.766420e+09 -4.329022e+02 -6.027700e+02 1.535926e+03
-3.566914e+09 -3.366899e+09 -3.526922e+09 -6.865393e+02 -4.354408e+02 1.549220e+03
-3.428707e+09 -3.228695e+09 -3.388714e+09 -1.580901e+03 -1.299043e+03 2.230821e+03
-4.386884e+09 -4.186889e+09 -4.346892e+09 -2.542163e+01 -1.745152e+01 1.255710e+01
-1.917871e+09 -1.717878e+09 -1.877881e+09 -1.918483e+02 -1.162628e+02 2.397368e+01
-2.185772e+09 -1.985782e+09 -2.145784e+09 5.641984e+02 1.753368e+02 6.553226e+02
-2.102736e+09 -1.902747e+09 -2.062748e+09 5.124218e+02 1.312645e+02 6.442735e+02
-4.752348e+09 -4.552349e+09 -4.712356e+09 -6.643870e+02 -1.814376e+02 8.244028e+01
-3.354373e+09 -3.154384e+09 -3.314386e+09 5.464749e+02 2.470051e+02 5.137491e+02
-2.195155e+09 -1.995165e+09 -2.155167e+09 8.987445e+02 2.186855e+02 8.185951e+02
-1.622543e+09 -1.422549e+09 -1.582552e+09 -8.711072e+01 -9.890067e+01 7.392765e+01
-2.157314e+09 -1.957314e+09 -2.117320e+09 -2.452171e+02 -1.188399e+02 5.377762e+02
-1.794559e+09 -1.594570e+09 -1.754572e+09 5.539112e+02 8.652605e+01 8.900837e+02
-2.740457e+09 -2.540453e+09 -2.700463e+09 -9.298753e+01 -5.001171e+02 1.378921e+03
-4.659504e+09 -4.459507e+09 -4.619513e+09 -8.325302e+02 -5.570528e+01 2.714714e+02
-4.993056e+09 -4.793058e+09 -4.953065e+09 -1.126848e+03 -6.288414e+01 1.335697e+02
-4.548851e+09 -4.348852e+09 -4.508859e+09 -8.332332e+02 -1.691426e+02 3.133645e+02
-4.746253e+09 -4.546255e+09 -4.706261e+09 -4.839495e+02 1.270801e+01 1.350939e+02
-4.118968e+09 -3.918971e+09 -4.078976e+09 -1.283086e+03 -1.453896e+02 3.437573e+02
-3.961800e+09 -3.761801e+09 -3.921808e+09 -1.414657e+03 -4.548854e+02 2.188821e+02
-3.987332e+09 -3.787330e+09 -3.947341e+09 -1.690464e+03 -5.692290e+02 4.419177e+02
-3.439534e+09 -3.239536e+09 -3.399544e+09 -3.587773e+03 -1.432385e+03 1.531222e+03
-1.629507e+09 -1.429508e+09 -1.589514e+09 -2.309412e+02 -1.583529e+02 5.932865e+02
-3.810676e+09 -3.610678e+09 -3.770685e+09 -1.554894e+03 -4.914875e+02 5.510942e+02
-4.649561e+09 -4.449559e+09 -4.609574e+09 -6.263457e+03 -9.857679e+02 8.115908e+02
-1.776808e+09 -1.576811e+09 -1.736815e+09 -8.665557e+02 -4.124007e+02 3.688919e+02
-4.789559e+09 -4.589560e+09 -4.749568e+09 -1.457716e+03 -3.359323e+01 4.705500e+02
-3.152248e+09 -2.952249e+09 -3.112256e+09 -8.002139e+02 -3.122179e+02 8.976649e+02
-1.582788e+09 -1.382782e+09 -1.542790e+09 -3.642170e+02 -4.551337e+03 3.398328e+03
-3.427220e+09 -3.227207e+09 -3.387230e+09 -7.698691e+03 -6.357589e+03 3.858597e+03
-3.137873e+09 -2.937869e+09 -3.097881e+09 -2.002664e+03 -1.708396e+03 1.787659e+03
-4.993056e+09 -4.793058e+09 -4.953065e+09 -6.659317e+02 -1.209536e+02 -7.535346e+01
-4.757400e+09 -4.557495e+09 -4.717494e+09 -8.398222e+02 5.346980e+02 -3.754706e+01
-3.938780e+09 -3.738871e+09 -3.898867e+09 -1.129367e+03 6.609621e+02 -5.372113e+03
-3.961154e+09 -3.761093e+09 -3.921157e+09 2.069681e+03 -8.551615e+03 -1.801849e+02
-3.315832e+09 -3.115934e+09 -3.275896e+09 -2.755602e+03 -7.162318e+03 -9.335231e+03
-4.697343e+09 -4.497325e+09 -4.657351e+09 8.179832e+02 -2.050643e+02 -7.093373e+02
-4.825774e+09 -4.625874e+09 -4.785864e+09 2.746297e+03 7.117110e+02 -6.099088e+02
-2.657936e+09 -2.457934e+09 -2.617942e+09 -2.801556e+02 -2.566039e+02 1.319514e+03
-2.725639e+09 -2.525723e+09 -2.685705e+09 -5.550853e+03 -2.434419e+03 -1.170860e+04
-2.954588e+09 -2.754564e+09 -2.914594e+09 1.377673e+03 -1.326981e+04 -2.294491e+03
-1.622555e+09 -1.422545e+09 -1.582556e+09 6.031340e+01 -7.457821e+02 -1.947902e+03
-2.909767e+09 -2.709750e+09 -2.869770e+09 2.850544e+01 -7.162789e+02 -4.523677e+02
-3.487498e+09 -3.287487e+09 -3.447504e+09 1.724455e+02 -1.690444e+02 -8.219206e+02
-4.763718e+09 -4.563812e+09 -4.723810e+09 9.651059e+01 -5.873666e+02 4.461236e+02
-4.491084e+09 -4.291147e+09 -4.450684e+09 7.633379e+04 -2.032300e+04 -7.063349e+04
-1.583611e+09 -1.383606e+09 -1.543612e+09 2.836228e+02 -8.004220e+03 2.228843e+03
-4.930583e+09 -4.730580e+09 -4.890592e+09 -6.729293e+02 9.750150e-05 1.643134e+02
-4.993056e+09 -4.793057e+09 -4.953064e+09 -1.675709e+03 2.101670e+02 8.012706e+01
-4.665571e+09 -4.465556e+09 -4.625576e+09 2.466758e+03 7.796956e+02 5.075626e+02
-4.063289e+09 -3.863276e+09 -4.023295e+09 9.100457e+02 1.160842e+03 5.627985e+02
-1.579987e+09 -1.379990e+09 -1.539994e+09 -6.568124e+02 -2.110711e+02 2.553902e+02
-2.861627e+09 -2.661628e+09 -2.821634e+09 -1.270352e+02 -6.951650e+01 4.389176e+02
-4.744940e+09 -4.544926e+09 -4.704946e+09 8.717922e+02 -4.728144e+01 2.820531e+02
-4.807112e+09 -4.607094e+09 -4.767118e+09 2.097817e+03 9.321937e+02 -5.779760e+01
-2.194295e+09 -1.994295e+09 -2.154301e+09 -3.276062e+02 -2.443125e+02 4.450166e+02
-4.505545e+09 -4.305546e+09 -4.465553e+09 -3.432092e+02 -6.215747e+01 3.492555e+02
-4.233295e+09 -4.033279e+09 -4.193300e+09 1.957339e+03 1.340882e+03 1.268665e+02
-3.791157e+09 -3.591142e+09 -3.751163e+09 2.473113e+03 2.201823e+03 7.581778e+02
-4.005231e+09 -3.805246e+09 -3.965253e+09 -5.027116e+03 -9.967667e+02 2.584380e+03
-3.962245e+09 -3.762262e+09 -3.922270e+09 -1.213434e+04 -1.880356e+03 4.334454e+03
-4.142880e+09 -3.942868e+09 -4.102885e+09 1.689240e+03 1.316676e+03 4.024927e+02
-3.968361e+09 -3.768371e+09 -3.928384e+09 -1.301697e+04 -2.338811e+03 4.351858e+03
-1.857081e+09 -1.657084e+09 -1.817088e+09 2.351085e+02 6.475461e+01 -1.705369e+01
-1.695438e+09 -1.495436e+09 -1.655443e+09 3.710669e+01 8.857606e+03 -2.505647e+03
-3.978328e+09 -3.778337e+09 -3.938346e+09 6.420398e+03 1.492032e+03 2.521499e+03
-4.133032e+09 -3.933033e+09 -4.093042e+09 4.714308e+03 1.308285e+03 6.697320e+02
-2.541088e+09 -2.341085e+09 -2.501099e+09 -2.146947e+03 8.675184e+03 -2.855811e+03
-4.302576e+09 -4.102574e+09 -4.262586e+09 5.247584e+03 1.163635e+03 1.064732e+03
-3.197850e+09 -2.997855e+09 -3.157873e+09 -1.374520e+03 8.316057e+03 -2.690624e+03
-2.168478e+09 -1.968475e+09 -2.128486e+09 -1.955861e+03 7.794308e+03 -2.847148e+03
-4.705869e+09 -4.505864e+09 -4.665875e+09 1.205633e+03 2.938049e+02 -1.837117e+01
-1.944615e+09 -1.744612e+09 -1.904622e+09 -2.705891e+03 8.001714e+03 -1.621717e+03
-4.819694e+09 -4.619696e+09 -4.779708e+09 6.812436e+03 4.809360e+02 1.397847e+03
-3.959234e+09 -3.759242e+09 -3.919248e+09 4.405284e+03 1.013226e+03 1.734302e+03
-2.874292e+09 -2.674270e+09 -2.834296e+09 -2.037320e+03 -6.734578e+03 1.410188e+03
-2.244947e+09 -2.044944e+09 -2.204952e+09 1.664149e+03 1.266688e+03 5.351035e+02
-2.642671e+09 -2.442652e+09 -2.602675e+09 -2.322635e+03 -7.461406e+03 1.344599e+03
-2.427161e+09 -2.227146e+09 -2.387165e+09 -1.158244e+03 -6.943179e+03 2.365246e+03
-3.116166e+09 -2.916148e+09 -3.076171e+09 -1.741644e+03 -3.973383e+03 1.353220e+03
-2.585161e+09 -2.385165e+09 -2.545169e+09 -1.193730e+02 -1.502774e+01 1.793765e+02
-1.588350e+09 -1.388351e+09 -1.548356e+09 -1.491909e+03 -9.413652e+02 1.281779e+03
-1.585229e+09 -1.385231e+09 -1.545236e+09 -7.764481e+02 -3.902364e+02 5.256231e+02
-2.547271e+09 -2.347250e+09 -2.507273e+09 -2.297053e+03 -6.865897e+03 8.689300e+02
-3.959583e+09 -3.759586e+09 -3.919594e+09 -4.041192e+03 -1.201636e+03 1.320527e+03
-4.779556e+09 -4.579556e+09 -4.739566e+09 -2.819208e+03 -4.480064e+02 -1.249710e+01
-4.821506e+09 -4.621508e+09 -4.781515e+09 -1.132245e+03 -3.801460e+01 3.047491e+02
-2.441461e+09 -2.241443e+09 -2.401465e+09 -1.914321e+03 -6.478162e+03 1.996123e+03
-4.290307e+09 -4.090387e+09 -4.250163e+09 6.479462e+04 -1.703640e+04 -4.447241e+04
-2.628446e+09 -2.428428e+09 -2.588450e+09 -2.773513e+03 -5.644544e+03 2.162402e+03
-1.774513e+09 -1.574513e+09 -1.734519e+09 -2.095987e+03 -1.789059e+03 1.646172e+03
-2.574623e+09 -2.374607e+09 -2.534628e+09 -4.154673e+03 -6.999602e+03 1.885622e+03
-3.961969e+09 -3.761927e+09 -3.921972e+09 3.007897e+04 4.097803e+03 4.795705e+03
-4.819543e+09 -4.619491e+09 -4.779535e+09 3.244669e+04 -1.385166e+02 -2.277168e+03
-4.133192e+09 -3.933139e+09 -4.093189e+09 2.270176e+04 1.041965e+04 4.385817e+03
-4.647351e+09 -4.447299e+09 -4.607346e+09 2.381965e+04 2.640765e+03 7.831770e+02
-4.647609e+09 -4.447585e+09 -4.607622e+09 1.756566e+04 2.215023e+03 1.232776e+03
-4.441979e+09 -4.241993e+09 -4.401994e+09 -3.697988e+02 1.000685e+02 5.234145e+02
-3.947822e+09 -3.747838e+09 -3.907840e+09 1.518279e+02 2.474956e+01 1.787128e+03
-4.133309e+09 -3.933280e+09 -4.093317e+09 2.213647e+04 5.133592e+03 2.746684e+03
-4.991668e+09 -4.791625e+09 -4.951669e+09 2.444551e+04 3.739566e+03 -9.215143e+01
-4.133462e+09 -3.933481e+09 -4.093485e+09 2.315681e+03 1.066577e+03 2.032444e+03
-4.991607e+09 -4.791595e+09 -4.951623e+09 3.646555e+04 3.601521e+03 3.309498e+03
-4.475240e+09 -4.275239e+09 -4.435265e+09 3.164869e+04 4.492211e+03 3.793118e+03
-4.819480e+09 -4.619432e+09 -4.779481e+09 2.319488e+04 5.032642e+03 2.103830e+03
-2.075405e+09 -1.875415e+09 -2.035417e+09 -6.765263e+02 -1.315380e+02 5.418325e+02
-2.184502e+09 -1.984513e+09 -2.144514e+09 -3.251342e+02 -7.851041e+01 5.817915e+02
-1.936999e+09 -1.737010e+09 -1.897011e+09 -1.106955e+02 -1.681727e+02 1.675344e+02
-4.134895e+09 -3.934890e+09 -4.094914e+09 1.729814e+04 3.440313e+03 3.183970e+03
-2.179883e+09 -1.979894e+09 -2.139895e+09 -1.226382e+02 -3.734112e+01 1.346340e+02
-4.015378e+09 -3.815373e+09 -3.975385e+09 1.014816e+03 2.069192e+02 3.329986e+02
-3.934146e+09 -3.734139e+09 -3.894152e+09 2.610188e+03 1.332437e+03 2.560316e+02
-3.963532e+09 -3.763533e+09 -3.923554e+09 1.967129e+04 3.036969e+03 4.566197e+03
-4.992807e+09 -4.792783e+09 -4.952816e+09 -1.213067e+03 -3.293742e+02 -2.119691e+02
-3.508510e+09 -3.308501e+09 -3.468516e+09 2.679835e+03 2.390931e+03 1.423830e+03
-4.991614e+09 -4.791600e+09 -4.951628e+09 1.368644e+04 1.469368e+03 7.985537e+02
-3.234679e+09 -3.034674e+09 -3.194685e+09 1.317822e+03 1.400750e+03 8.878869e+02
-4.809011e+09 -4.609003e+09 -4.769018e+09 2.216860e+03 1.332127e+02 5.964309e+02
-4.789444e+09 -4.589435e+09 -4.749451e+09 2.500324e+03 6.649030e+02 -8.616177e+00
-4.304806e+09 -4.104949e+09 -4.264723e+09 1.042834e+04 2.816844e+04 -3.135809e+04
-4.798541e+09 -4.598535e+09 -4.758548e+09 2.707970e+03 4.712477e+02 -1.212903e+02
-4.304238e+09 -4.104255e+09 -4.264278e+09 -3.043033e+04 6.907071e+03 -5.664397e+03
-3.961492e+09 -3.761512e+09 -3.921376e+09 -7.435826e+04 -3.131572e+04 3.331052e+04
-4.835326e+09 -4.635321e+09 -4.795333e+09 1.772807e+03 4.814670e+01 4.973638e+02
-4.552595e+09 -4.352585e+09 -4.512601e+09 -1.158782e+03 6.607540e+02 -2.059122e+02
-2.926136e+09 -2.726127e+09 -2.886141e+09 -1.261291e+03 3.394693e+03 -1.400708e+03
-3.962361e+09 -3.762396e+09 -3.922346e+09 -5.738486e+04 -6.596672e+03 7.426146e+03
-3.493414e+09 -3.293402e+09 -3.453419e+09 -2.484039e+03 2.699037e+03 -1.181731e+03
-3.041924e+09 -2.841914e+09 -3.001927e+09 -6.462322e+02 1.677104e+03 -9.083573e+02
-4.990186e+09 -4.790293e+09 -4.950275e+09 3.299004e+03 2.414360e+02 -3.321401e+03
-2.931365e+09 -2.731355e+09 -2.891369e+09 -1.152698e+03 2.919782e+03 -1.550626e+03
-3.962191e+09 -3.762267e+09 -3.922151e+09 -5.486293e+04 -1.230741e+04 1.688908e+04
-3.962611e+09 -3.762651e+09 -3.922630e+09 -3.461170e+04 5.045344e+03 -5.172911e+03
-1.861119e+09 -1.661125e+09 -1.821131e+09 -1.268557e+03 1.017175e+04 -4.101074e+03
-3.902583e+09 -3.702623e+09 -3.862630e+09 -2.190003e+04 3.513371e+03 -3.184552e+03
-4.305482e+09 -4.105511e+09 -4.265518e+09 -2.792314e+04 6.740555e+03 -3.191651e+03
-4.301524e+09 -4.101422e+09 -4.261445e+09 1.837628e+04 8.654891e+03 -3.690298e+03
-3.961312e+09 -3.761282e+09 -3.921317e+09 2.423577e+03 8.231905e+03 5.606009e+02
-3.289513e+09 -3.089572e+09 -3.249573e+09 -1.448761e+04 6.731933e+03 -1.105306e+04
-2.866401e+09 -2.666467e+09 -2.826455e+09 -1.468569e+04 4.056726e+03 -3.347320e+03
-4.801550e+09 -4.601514e+09 -4.761557e+09 -1.134276e+04 2.039835e+03 -1.308680e+03
-3.955461e+09 -3.755417e+09 -3.915463e+09 -8.672070e+03 7.654788e+03 -1.542057e+03
-2.321170e+09 -2.121217e+09 -2.281201e+09 -2.586189e+03 -2.425003e+03 -4.010816e+03
-1.987470e+09 -1.787514e+09 -1.947508e+09 -1.162633e+03 2.524628e+03 -6.699364e+03
-4.918482e+09 -4.718467e+09 -4.878486e+09 -3.891438e+02 -1.489046e-04 -4.451983e+01
-2.680360e+09 -2.480444e+09 -2.640420e+09 -9.440889e+03 -2.736022e+03 -1.260080e+04
-4.305611e+09 -4.105555e+09 -4.265612e+09 -2.366059e+03 7.479477e+03 -7.335790e+02
-4.820682e+09 -4.620800e+09 -4.780514e+09 3.963281e+04 2.090026e+03 6.821344e+03
-2.620294e+09 -2.420362e+09 -2.580334e+09 -1.455018e+04 -2.057433e+03 3.104449e+03
-4.977371e+09 -4.777343e+09 -4.937381e+09 -9.891564e+03 2.520127e+03 -8.422549e+02
-2.313303e+09 -2.113372e+09 -2.273353e+09 -4.653424e+03 2.918334e+03 -5.924269e+03
-4.988869e+09 -4.788815e+09 -4.948866e+09 -2.222240e+04 5.329280e+03 -3.103632e+03
-4.133299e+09 -3.933238e+09 -4.093286e+09 -2.300353e+04 -6.641803e+03 6.964826e+02
-4.991891e+09 -4.791862e+09 -4.951905e+09 -2.468636e+04 -3.111218e+03 1.721092e+03
-4.819624e+09 -4.619587e+09 -4.779605e+09 -5.435594e+04 -5.775906e+03 9.517603e+03
-5.003312e+09 -4.803389e+09 -4.963361e+09 -3.759161e+04 -1.827923e+03 4.666912e+03
-3.962809e+09 -3.762837e+09 -3.922840e+09 -3.299984e+04 -1.351763e+03 5.970273e+03
-4.647149e+09 -4.447100e+09 -4.607153e+09 -3.719402e+04 3.138184e+02 3.136641e+03
-3.968914e+09 -3.768926e+09 -3.928936e+09 -8.040870e+03 -1.428821e+03 2.430356e+03
-3.474911e+09 -3.274901e+09 -3.434915e+09 -1.613913e+03 2.375594e+03 -7.461902e+02
-3.092813e+09 -2.892805e+09 -3.052819e+09 -7.450971e+02 2.945449e+03 -5.111447e+02
-3.142199e+09 -2.942190e+09 -3.102203e+09 -4.543935e+02 1.934140e+03 -4.408696e+02
-2.109874e+09 -1.909865e+09 -2.069875e+09 7.838722e+01 1.280085e+03 -9.095216e+02
-4.988494e+09 -4.788530e+09 -4.948539e+09 -3.196678e+04 -4.266052e+03 3.867298e+03
-3.968754e+09 -3.768766e+09 -3.928784e+09 -1.689166e+04 -3.245837e+03 4.834504e+03
-2.093853e+09 -1.893845e+09 -2.053854e+09 -3.141174e+02 2.780882e+03 -7.683797e+02
-2.633126e+09 -2.433117e+09 -2.593130e+09 9.722215e+01 2.890280e+03 -4.594137e+02
-4.148652e+09 -3.948729e+09 -4.108707e+09 -2.447313e+04 1.437531e+02 2.407768e+03
-4.305889e+09 -4.105900e+09 -4.265918e+09 -3.228112e+04 -6.291299e+03 7.371050e+03
-2.780281e+09 -2.580272e+09 -2.740284e+09 -2.428860e+02 1.553579e+03 -4.147636e+02
-4.647557e+09 -4.447513e+09 -4.607515e+09 -5.617099e+04 4.318250e+03 -3.486796e+03
-4.303386e+09 -4.103340e+09 -4.263386e+09 -2.981181e+04 -1.116763e+04 2.822785e+03
-1.882566e+09 -1.682558e+09 -1.842568e+09 -1.651074e+02 2.207494e+03 -4.826681e+02
-1.882566e+09 -1.682558e+09 -1.842568e+09 4.035685e+01 2.155546e+03 -4.750172e+02
-3.961489e+09 -3.761506e+09 -3.921496e+09 -4.777419e+04 3.075999e+03 1.396851e+03
-4.487522e+09 -4.287430e+09 -4.447470e+09 -1.789599e+04 4.494910e+03 2.154720e+03
-4.303142e+09 -4.103302e+09 -4.263163e+09 -5.653490e+03 -1.935384e+03 1.239282e+04
-2.377761e+09 -2.177752e+09 -2.337764e+09 -3.260730e+02 1.521791e+03 -5.949703e+02
-4.644979e+09 -4.445122e+09 -4.604910e+09 -3.202270e+04 -3.996554e+03 4.031304e+04
-3.961669e+09 -3.761666e+09 -3.921667e+09 -4.553836e+04 -2.305714e+03 -5.101901e+02
-4.991329e+09 -4.791273e+09 -4.951313e+09 -3.007624e+04 6.099558e+03 -4.016427e+03
-4.991249e+09 -4.791236e+09 -4.951086e+09 -8.615816e+04 4.782171e+03 -3.860479e+03
-4.033693e+09 -3.833692e+09 -3.993704e+09 -4.372165e+03 -1.163059e+03 1.151572e+03
-2.630835e+09 -2.430826e+09 -2.590837e+09 -1.550776e+02 1.550913e+03 -4.912097e+02
-4.804857e+09 -4.604865e+09 -4.764871e+09 -3.340004e+03 -4.498516e+02 3.877833e+02
-2.068384e+09 -1.868375e+09 -2.028387e+09 -4.530237e+02 2.179932e+03 -7.983889e+02
-3.968360e+09 -3.768366e+09 -3.928383e+09 -1.251167e+04 -3.003187e+03 4.195882e+03
-3.944518e+09 -3.744526e+09 -3.904539e+09 -9.051064e+03 -1.878236e+03 2.634492e+03
-1.556074e+09 -1.356065e+09 -1.516075e+09 -1.033855e+01 2.317739e+03 -6.137046e+02
-3.959973e+09 -3.759980e+09 -3.919985e+09 3.673860e+03 6.667475e+02 1.388983e+03
-3.077057e+09 -2.877065e+09 -3.037068e+09 -5.560399e+02 -8.078715e+01 3.076897e+02
-4.985127e+09 -4.785143e+09 -4.945151e+09 8.101718e+03 4.412052e+02 5.159318e+02
-1.683420e+09 -1.483427e+09 -1.643430e+09 -2.827729e+02 -1.319189e+02 5.116206e+01
-3.106725e+09 -2.906732e+09 -3.066735e+09 -1.429122e+02 -1.286319e+02 1.075583e+02
-5.008027e+09 -4.808035e+09 -4.968044e+09 6.288249e+03 1.248832e+02 -2.192765e+02
-2.762601e+09 -2.562608e+09 -2.722611e+09 -5.970421e+02 -2.215378e+02 3.429310e+02
-4.646482e+09 -4.446489e+09 -4.606493e+09 2.106507e+03 1.294712e+02 3.844689e+02
-3.961906e+09 -3.761894e+09 -3.921922e+09 2.954841e+04 6.006530e+03 3.763598e+03
-2.101711e+09 -1.901700e+09 -2.061712e+09 6.357180e+01 1.619498e+03 2.713218e+02
-4.133045e+09 -3.933011e+09 -4.093038e+09 4.651075e+04 8.413078e+03 9.712500e+03
-2.461842e+09 -2.261850e+09 -2.421852e+09 -1.022311e+03 -1.871929e+02 5.692102e+02
-3.962341e+09 -3.762324e+09 -3.922355e+09 1.973132e+04 5.128201e+03 4.653022e+03
-2.774063e+09 -2.574070e+09 -2.734073e+09 -7.392070e+02 -1.725294e+02 2.410512e+02
-1.688954e+09 -1.488961e+09 -1.648964e+09 -3.047202e+02 -1.443662e+02 9.838171e+01
-1.923405e+09 -1.723412e+09 -1.883414e+09 -1.408000e+02 -5.264194e+01 1.351550e+02
-4.579503e+09 -4.379511e+09 -4.539514e+09 -4.781228e+02 -8.855334e+01 5.192549e+01
-4.510943e+09 -4.310951e+09 -4.470954e+09 -1.859855e+02 -1.248851e+02 5.363931e+01
-4.131384e+09 -3.931319e+09 -4.091377e+09 -6.114797e+03 -8.759019e+03 1.039567e+03
-3.965629e+09 -3.765549e+09 -3.925599e+09 1.725592e+04 -7.818028e+03 -1.486776e+03
-4.753832e+09 -4.553806e+09 -4.713840e+09 4.444669e+02 -1.821569e+02 -5.814381e+02
-2.823626e+09 -2.623633e+09 -2.783636e+09 9.383466e+02 2.612720e+02 3.131877e+02
-4.821394e+09 -4.621404e+09 -4.781407e+09 -1.152149e+03 3.540861e+01 4.328929e+01
-3.957618e+09 -3.757538e+09 -3.917604e+09 3.537814e+04 -1.399421e+03 6.932098e+03
-4.824137e+09 -4.624147e+09 -4.784149e+09 -7.608625e+02 -1.763309e+02 1.463177e+02
-4.992321e+09 -4.792200e+09 -4.952173e+09 -4.223659e+04 -6.840730e+03 -2.443970e+03
-4.826542e+09 -4.626551e+09 -4.786554e+09 -8.849533e+02 -1.963599e+01 2.007188e+02
-4.995762e+09 -4.795594e+09 -4.955185e+09 -2.709146e+04 1.390013e+04 -7.362639e+03
-4.301900e+09 -4.101994e+09 -4.261701e+09 7.423805e+04 2.845494e+04 2.197709e+04
-4.124421e+09 -3.924431e+09 -4.084433e+09 -5.269290e+02 -2.203587e+01 1.046744e+02
-5.002478e+09 -4.802406e+09 -4.961561e+09 -2.645953e+04 1.476571e+04 3.576368e+03
-4.146727e+09 -3.946549e+09 -4.106266e+09 2.847294e+04 9.044409e+04 3.163943e+04
-3.962577e+09 -3.762569e+09 -3.921292e+09 2.865055e+03 -3.401272e+04 5.739489e+04
-4.819556e+09 -4.619532e+09 -4.779553e+09 -5.082868e+04 5.414349e+03 -3.520979e+03
-4.131278e+09 -3.931302e+09 -4.091190e+09 7.885566e+04 -1.777045e+03 9.073269e+03
-3.968447e+09 -3.768309e+09 -3.928204e+09 4.752513e+04 7.068116e+04 2.782928e+04
-4.753179e+09 -4.553188e+09 -4.713191e+09 -4.160781e+02 4.278340e+01 1.711704e+02
-1.630552e+09 -1.430552e+09 -1.590558e+09 1.612058e+02 7.773633e+01 1.281442e+02
-4.659887e+09 -4.459738e+09 -4.619093e+09 -3.372024e+04 8.374555e+04 -1.891890e+04
-4.815235e+09 -4.615123e+09 -4.774550e+09 -4.397017e+04 -6.814747e+03 1.024394e+04
-4.645801e+09 -4.445746e+09 -4.604961e+09 -5.562648e+04 -5.283709e+04 6.062143e+04
-4.993537e+09 -4.793442e+09 -4.953281e+09 8.151005e+04 -7.165308e+02 -1.081475e+04
-4.818587e+09 -4.618557e+09 -4.778106e+09 -7.457462e+04 -6.338413e+04 4.099610e+04
-4.818724e+09 -4.618741e+09 -4.778122e+09 -7.182419e+04 1.861126e+04 2.042317e+04
-4.820010e+09 -4.620113e+09 -4.779226e+09 2.014661e+04 -5.438687e+04 5.077133e+04
-3.965067e+09 -3.765072e+09 -3.925083e+09 7.280098e+03 2.123357e+03 2.280961e+03
-3.962335e+09 -3.762355e+09 -3.921796e+09 -8.851640e+04 -8.407589e+04 1.407039e+05
-4.132627e+09 -3.932579e+09 -4.091565e+09 -5.389375e+03 -1.508047e+05 1.105327e+05
-4.135329e+09 -3.935328e+09 -4.095347e+09 3.571283e+04 2.468156e+03 8.257600e+02
-4.656152e+09 -4.456171e+09 -4.616183e+09 1.457569e+04 1.592359e+03 1.679550e+03
-4.658404e+09 -4.458423e+09 -4.618437e+09 3.577467e+04 -8.261531e+02 3.781918e+03
-4.301463e+09 -4.101476e+09 -4.261491e+09 1.750930e+04 3.011114e+03 4.554103e+03
-4.121029e+09 -3.921043e+09 -4.081057e+09 1.563695e+04 3.558136e+03 3.341362e+03
-4.821349e+09 -4.621338e+09 -4.781369e+09 8.299731e+03 -1.338512e+03 -3.415724e+02
-4.656389e+09 -4.456387e+09 -4.616415e+09 7.294499e+03 -2.853138e+03 1.815092e+02
-4.258230e+09 -4.058225e+09 -4.218256e+09 1.267292e+04 -4.642600e+03 -2.920119e+03
-4.466519e+09 -4.266523e+09 -4.426545e+09 1.998460e+04 3.180140e+03 2.358104e+03
-3.961919e+09 -3.761919e+09 -3.921925e+09 4.817482e+04 -2.973622e+03 3.806409e+03
-4.136178e+09 -3.936198e+09 -4.096205e+09 4.513406e+04 5.324977e+03 1.054861e+04
-4.991611e+09 -4.791594e+09 -4.951615e+09 4.378418e+04 6.041851e+03 1.601197e+03
-4.649184e+09 -4.449173e+09 -4.609203e+09 7.915846e+03 -2.017793e+03 -6.644663e+01
-4.304845e+09 -4.104753e+09 -4.264722e+09 -5.208616e+04 -4.780046e+03 -3.366015e+03
-4.819626e+09 -4.619606e+09 -4.779641e+09 3.114433e+04 4.583591e+03 4.109613e+03
-3.920431e+09 -3.720418e+09 -3.880446e+09 8.208353e+03 -4.444494e+03 -2.739284e+03
-4.326125e+09 -4.126199e+09 -4.286138e+09 5.168391e+04 3.524607e+03 4.484498e+03
-4.991291e+09 -4.791421e+09 -4.951323e+09 1.878306e+04 1.292113e+03 3.193786e+03
-4.005856e+09 -3.805852e+09 -3.965878e+09 7.304132e+03 -4.182614e+03 -1.453140e+03
-4.823401e+09 -4.623406e+09 -4.783417e+09 7.190099e+03 -1.555115e+02 1.301321e+03
-4.651622e+09 -4.451627e+09 -4.611637e+09 6.990788e+03 8.013361e+02 1.066506e+03
-3.962902e+09 -3.762909e+09 -3.922918e+09 6.682483e+03 1.541501e+03 2.196942e+03
-4.150199e+09 -3.950206e+09 -4.110216e+09 6.668396e+03 8.601002e+02 2.335403e+03
-4.133653e+09 -3.933731e+09 -4.093712e+09 3.818326e+03 -4.455503e+02 6.196463e+03
-3.962751e+09 -3.762787e+09 -3.922762e+09 4.975400e+04 -3.685617e+03 6.960486e+02
-4.296228e+09 -4.096274e+09 -4.256278e+09 2.030375e+04 2.005463e+03 5.803828e+03
-5.002801e+09 -4.802824e+09 -4.962835e+09 3.752109e+04 4.193870e+03 4.127368e+03
-4.478545e+09 -4.278548e+09 -4.438564e+09 1.150274e+04 1.472999e+03 2.725364e+03
-3.965062e+09 -3.765068e+09 -3.925081e+09 9.573327e+03 2.442304e+03 2.617698e+03
-4.828024e+09 -4.628029e+09 -4.788043e+09 9.684325e+03 6.539690e+02 2.046213e+03
-4.994760e+09 -4.794768e+09 -4.954780e+09 1.043605e+04 1.057158e+03 6.036838e+02
-4.645737e+09 -4.445891e+09 -4.605668e+09 1.883219e+04 2.860619e+03 4.064002e+04
-4.148673e+09 -3.948715e+09 -4.108710e+09 4.199864e+04 4.879993e+03 8.142849e+03
-3.950783e+09 -3.750795e+09 -3.910810e+09 2.121805e+04 2.205569e+03 5.105878e+03
-4.824779e+09 -4.624819e+09 -4.784799e+09 4.892308e+04 1.969934e+03 8.931291e+03
-4.133530e+09 -3.933686e+09 -4.093101e+09 5.466857e+04 9.832730e+04 1.334571e+05
-4.648077e+09 -4.448206e+09 -4.607196e+09 -6.954908e+03 -7.180048e+03 7.626556e+04
-4.820157e+09 -4.620226e+09 -4.779419e+09 3.678095e+04 7.703844e+04 5.693644e+04
-3.962117e+09 -3.762243e+09 -3.921851e+09 -4.922767e+04 -2.371438e+04 1.503925e+05
-4.303510e+09 -4.103550e+09 -4.262706e+09 -4.675849e+04 -8.975523e+04 8.383934e+04
-4.648381e+09 -4.448397e+09 -4.607378e+09 -1.105562e+04 -5.335150e+03 8.030968e+04
-4.991989e+09 -4.792088e+09 -4.951094e+09 -3.018886e+04 -1.683750e+04 6.046797e+03
-4.133529e+09 -3.933631e+09 -4.092658e+09 -2.974646e+04 -1.277796e+05 1.625966e+05
-4.133542e+09 -3.933648e+09 -4.092645e+09 -3.502087e+03 9.370141e+04 1.732625e+05
-4.648000e+09 -4.447899e+09 -4.607934e+09 -3.172940e+04 8.251929e+02 -1.157129e+03
-4.817853e+09 -4.617784e+09 -4.777849e+09 -6.348666e+03 -5.349150e+03 5.433869e+02
-4.992830e+09 -4.792826e+09 -4.952838e+09 3.552529e+03 1.785453e+02 1.907232e+02
-3.218771e+09 -3.018765e+09 -3.178778e+09 2.870613e+03 2.359226e+03 1.944413e+03
-3.333935e+09 -3.133932e+09 -3.293943e+09 3.299658e+03 1.992995e+03 1.483860e+03
-1.569332e+09 -1.369328e+09 -1.529335e+09 1.049505e+03 1.313905e+03 1.008223e+03
-4.646787e+09 -4.446701e+09 -4.606779e+09 -7.380016e+03 -1.667741e+03 4.342028e+02
-3.967530e+09 -3.767533e+09 -3.927548e+09 1.001925e+04 2.312662e+03 2.659789e+03
-1.637029e+09 -1.437027e+09 -1.597034e+09 2.246096e+02 1.701825e+02 3.802106e+02
-4.651393e+09 -4.451395e+09 -4.611402e+09 3.215052e+03 4.512856e+02 4.578513e+02
-4.526197e+09 -4.326184e+09 -4.486205e+09 5.095329e+03 1.223961e+03 5.952439e+02
-3.961401e+09 -3.761398e+09 -3.921414e+09 7.625749e+03 2.642887e+03 2.340430e+03
-4.819776e+09 -4.619683e+09 -4.779753e+09 -4.495679e+03 -3.226330e+03 2.474173e+03
-1.686282e+09 -1.486276e+09 -1.646285e+09 1.382849e+03 4.621556e+03 2.546019e+03
-4.309613e+09 -4.109517e+09 -4.269566e+09 -1.341916e+03 -1.496883e+04 9.742849e+02
-1.787490e+09 -1.587502e+09 -1.747502e+09 3.081617e+02 -1.055353e+02 1.410145e+03
-3.553630e+09 -3.353621e+09 -3.513636e+09 3.674330e+03 2.649723e+03 1.269937e+03
-3.917600e+09 -3.717613e+09 -3.877615e+09 -4.675669e+02 -9.463487e+01 8.644259e+02
-1.953837e+09 -1.753849e+09 -1.913849e+09 -2.536266e+02 -1.997299e+02 1.097641e+03
-3.751867e+09 -3.551879e+09 -3.711881e+09 8.606889e+01 1.456079e+01 2.872850e+02
-2.176211e+09 -1.976224e+09 -2.136225e+09 -3.478979e+01 5.223583e+01 1.936501e+03
-3.799684e+09 -3.599698e+09 -3.759700e+09 -1.175447e+03 -2.242962e+02 1.109982e+03
-2.167893e+09 -1.967889e+09 -2.127897e+09 3.219829e+02 1.290114e+02 5.098945e+02
-4.991157e+09 -4.791146e+09 -4.951168e+09 8.888133e+03 8.016166e+02 3.659826e+02
-4.454573e+09 -4.254587e+09 -4.414590e+09 -5.610275e+02 4.039131e+01 5.916865e+02
-2.180770e+09 -1.980762e+09 -2.140773e+09 2.637194e+03 4.889077e+03 2.426134e+03
-2.079508e+09 -1.879502e+09 -2.039512e+09 2.009824e+03 3.320353e+03 2.306459e+03
-4.016802e+09 -3.816796e+09 -3.976810e+09 4.040961e+03 1.785594e+03 9.483404e+02
-4.552540e+09 -4.352552e+09 -4.512554e+09 -3.936103e+02 -7.168706e+01 2.008430e+02
-4.026325e+09 -3.826337e+09 -3.986339e+09 -6.403023e+02 9.367889e+00 5.586895e+02
-3.394037e+09 -3.194050e+09 -3.354051e+09 -2.732534e+01 1.104865e+02 7.094631e+02
-2.987004e+09 -2.786999e+09 -2.947009e+09 2.705480e+02 2.414908e+02 6.508949e+02
-1.881427e+09 -1.681421e+09 -1.841431e+09 3.108140e+03 3.713436e+03 1.746212e+03
-4.086609e+09 -3.886708e+09 -4.046671e+09 -1.789716e+04 3.636488e+03 -9.641483e+03
-1.937351e+09 -1.737351e+09 -1.897357e+09 2.096429e+02 7.217605e+01 1.890074e+02
-3.962849e+09 -3.762957e+09 -3.922932e+09 -2.417442e+04 6.421241e+02 1.253231e+04
-4.134055e+09 -3.934170e+09 -4.094095e+09 -2.750087e+04 -1.168534e+04 3.800953e+03
-3.446753e+09 -3.246760e+09 -3.406764e+09 -1.476338e+03 -3.191736e+02 4.263322e+02
-4.131963e+09 -3.932124e+09 -4.091933e+09 -1.577588e+04 1.933385e+04 2.664896e+04
-1.653600e+09 -1.453605e+09 -1.613608e+09 -1.600564e+02 -5.420930e+01 -1.351292e+00
-3.955575e+09 -3.755582e+09 -3.915589e+09 -5.036207e+03 -1.167617e+03 1.524165e+03
-4.648779e+09 -4.448925e+09 -4.608856e+09 -1.130525e+04 2.455425e+04 1.164425e+03
-4.795465e+09 -4.595554e+09 -4.755535e+09 -2.498647e+04 4.765061e+03 -4.772108e+03
-4.517439e+09 -4.317449e+09 -4.477452e+09 -1.600526e+02 -9.244161e+01 5.621927e+01
-4.989579e+09 -4.789696e+09 -4.949677e+09 -7.303326e+03 1.293267e+02 -2.767600e+03
-2.964530e+09 -2.764536e+09 -2.924540e+09 -1.303875e+03 -4.606127e+02 4.627444e+02
-4.287741e+09 -4.087840e+09 -4.247799e+09 -2.941327e+04 2.026930e+03 -4.484385e+03
-3.220120e+09 -3.020131e+09 -3.180132e+09 -6.173167e+02 -1.230844e+02 5.037190e+02
-3.990680e+09 -3.790671e+09 -3.950685e+09 -5.902848e+02 1.383973e+03 -2.469179e+02
-4.308685e+09 -4.108547e+09 -4.268500e+09 -3.404678e+04 1.572382e+02 -4.448480e+03
-2.973827e+09 -2.773830e+09 -2.933834e+09 -1.030609e+02 -2.400888e+01 1.299671e+02
-4.933551e+09 -4.733541e+09 -4.893555e+09 -2.208990e+02 1.328064e+02 -7.956676e+01
-4.685775e+09 -4.485765e+09 -4.645779e+09 -2.787640e+02 2.875112e+02 -8.628536e+00
-4.778293e+09 -4.578305e+09 -4.738307e+09 -2.996441e+02 2.319757e+01 1.196764e+02
-4.416024e+09 -4.216036e+09 -4.376038e+09 -1.067785e+02 -9.059847e+01 1.170782e+02
-4.640316e+09 -4.440328e+09 -4.600330e+09 7.208828e+01 -6.289353e+00 2.061851e+02
-3.002747e+09 -2.802760e+09 -2.962762e+09 -9.905075e+01 -2.269602e+01 1.959227e+03
-1.567872e+09 -1.367884e+09 -1.527885e+09 -1.660876e+02 -6.156147e+01 1.655372e+03
-2.052777e+09 -1.852789e+09 -2.012789e+09 -2.757531e+01 -2.092727e+01 1.877492e+02
-4.992273e+09 -4.792148e+09 -4.952187e+09 -2.721329e+04 -6.864762e+03 4.800462e+02
-4.159932e+09 -3.959946e+09 -4.119948e+09 1.739083e+02 1.834700e+01 7.814471e+02
-1.580536e+09 -1.380527e+09 -1.540537e+09 2.497386e+02 5.041170e+03 -3.271431e+02
-4.136012e+09 -3.936035e+09 -4.096041e+09 -8.414415e+03 -3.922201e+02 4.335510e+03
-4.969220e+09 -4.769233e+09 -4.929235e+09 9.630432e+01 8.850558e+00 1.021168e+02
-4.820635e+09 -4.620648e+09 -4.780650e+09 3.002001e+02 2.462249e+02 5.494100e+01
-4.992427e+09 -4.792427e+09 -4.952437e+09 -3.168245e+03 -1.735158e+02 2.316982e+02
-4.992694e+09 -4.792690e+09 -4.952706e+09 -5.354581e+03 -3.568950e+02 3.680353e+02
-4.468131e+09 -4.268144e+09 -4.428145e+09 8.078459e+01 3.016770e+01 2.051437e+02
-4.318558e+09 -4.118571e+09 -4.278573e+09 -5.519052e+01 -3.326638e+00 2.522019e+02
-4.561011e+09 -4.361026e+09 -4.521028e+09 -4.081784e+02 6.257200e+00 5.010128e+02
-4.635116e+09 -4.435120e+09 -4.595123e+09 -3.407898e+01 -1.820674e+01 0.000000e+00
-2.834712e+09 -2.634716e+09 -2.794720e+09 -3.397533e+01 -2.102437e+01 7.710373e+00
-4.746976e+09 -4.546982e+09 -4.706985e+09 -2.523815e+02 -3.716109e+01 -5.924146e+01
-4.921370e+09 -4.721373e+09 -4.881378e+09 -1.247523e+02 9.952580e-05 -2.236210e+01
-3.004424e+09 -2.804415e+09 -2.964426e+09 -1.253808e+02 7.749966e+02 -4.139596e+02
-2.821582e+09 -2.621573e+09 -2.781584e+09 -3.318019e+02 4.918829e+02 -4.524050e+02
-2.780929e+09 -2.580920e+09 -2.740931e+09 -3.024025e+02 1.076448e+03 -1.933174e+02
-1.870561e+09 -1.670552e+09 -1.830562e+09 1.321103e+02 1.068316e+03 -2.623866e+02
-1.615724e+09 -1.415715e+09 -1.575725e+09 -9.911310e+01 9.012959e+02 -2.280095e+02
-3.076976e+09 -2.876982e+09 -3.037000e+09 1.379390e+03 -8.378954e+03 -2.536892e+03
-4.818450e+09 -4.618463e+09 -4.778467e+09 -2.060590e+03 -9.756406e+01 3.459705e+02
-3.435175e+09 -3.235178e+09 -3.395183e+09 -1.318580e+02 2.968562e+00 2.774330e+02
-4.091389e+09 -3.891400e+09 -4.051403e+09 -1.452512e+03 -1.499951e+02 7.258853e+02
-4.070206e+09 -3.870185e+09 -4.030210e+09 -6.686530e+02 2.434851e+03 -3.696413e+02
-3.941373e+09 -3.741383e+09 -3.901385e+09 -3.977029e+02 -2.108583e+02 1.696424e+02
-4.995385e+09 -4.795395e+09 -4.955397e+09 -3.680208e+02 6.151132e+01 2.036719e+01
-4.699171e+09 -4.499169e+09 -4.659180e+09 -1.462987e+03 -2.498870e+02 4.135338e+02
-3.868238e+09 -3.668240e+09 -3.828248e+09 -2.615134e+03 -7.468220e+02 8.339750e+02
-3.911135e+09 -3.711145e+09 -3.871147e+09 -4.237031e+02 -1.273816e+02 1.714743e+02
-2.457480e+09 -2.257464e+09 -2.417482e+09 4.657156e+02 5.066468e+03 -4.020298e+01
-4.302425e+09 -4.102438e+09 -4.262442e+09 -2.793290e+03 -4.912450e+02 1.195997e+03
-4.820081e+09 -4.620100e+09 -4.780104e+09 1.977454e+03 7.810948e+02 5.881828e+02
-4.647464e+09 -4.447490e+09 -4.607494e+09 2.541293e+03 1.561000e+02 1.515889e+03
-4.023844e+09 -3.823843e+09 -3.983851e+09 -4.497764e+02 -4.534143e+01 3.079811e+02
-4.133217e+09 -3.933241e+09 -4.093245e+09 2.328688e+03 1.338032e+03 3.272925e+03
-4.995023e+09 -4.795027e+09 -4.955036e+09 4.807770e+03 2.073344e+02 2.707967e+02
-4.647309e+09 -4.447333e+09 -4.607337e+09 3.091578e+03 3.562284e+02 1.748816e+03
-4.143689e+09 -3.943692e+09 -4.103697e+09 1.141140e+03 2.464390e+02 4.095573e+00
-4.051542e+09 -3.851545e+09 -4.011550e+09 6.442640e+02 1.342086e+02 -2.686183e+01
-4.651291e+09 -4.451293e+09 -4.611299e+09 1.476354e+03 2.069746e+02 1.736774e+02
-4.316998e+09 -4.117008e+09 -4.277016e+09 5.719292e+03 1.230141e+03 1.380278e+03
-2.342182e+09 -2.142187e+09 -2.302191e+09 4.107086e+02 3.888897e+01 7.176321e+01
-4.132803e+09 -3.932823e+09 -4.092827e+09 9.133695e+02 -6.052372e+02 2.428736e+03
-4.985019e+09 -4.785021e+09 -4.945026e+09 2.559741e+02 6.552284e+00 4.998867e+00
-1.684256e+09 -1.484259e+09 -1.644264e+09 6.447784e+02 1.569547e+02 9.375209e+01
-3.961879e+09 -3.761899e+09 -3.921902e+09 9.147138e+02 2.411609e+02 2.568756e+03
-3.963404e+09 -3.763409e+09 -3.923414e+09 1.627549e+03 1.942135e+02 3.569435e+02
-4.991735e+09 -4.791761e+09 -4.951765e+09 1.435925e+03 -2.735000e+01 3.327898e+02
-3.686415e+09 -3.486427e+09 -3.646428e+09 2.033638e+02 2.472872e+01 2.560423e+02
-4.647204e+09 -4.447229e+09 -4.607233e+09 1.274654e+03 1.517623e+02 1.810895e+03
-4.317410e+09 -4.117447e+09 -4.277451e+09 -8.613290e+03 -7.065570e+02 5.352001e+03
-4.822713e+09 -4.622747e+09 -4.782756e+09 -1.697077e+04 -1.188576e+02 1.205093e+03
-3.870782e+09 -3.670771e+09 -3.830793e+09 -4.606376e+03 4.000304e+03 -1.507846e+03
-4.916198e+09 -4.716189e+09 -4.876203e+09 -1.615859e+02 2.353059e+02 6.149352e-05
-4.317681e+09 -4.117689e+09 -4.277707e+09 -1.670101e+04 -3.491817e+03 4.520164e+03
-4.933551e+09 -4.733542e+09 -4.893556e+09 0.000000e+00 3.805588e+01 3.764271e+01
-3.957007e+09 -3.757033e+09 -3.917042e+09 -1.515320e+04 -1.768867e+03 4.580667e+03
-4.645468e+09 -4.445499e+09 -4.605510e+09 -1.751139e+04 -7.135738e+02 1.670145e+03
-4.670217e+09 -4.470242e+09 -4.630250e+09 -1.080079e+04 -1.241483e+03 2.194249e+03
-4.986706e+09 -4.786731e+09 -4.946741e+09 -1.699904e+04 -1.044823e+03 2.668594e+03
-4.473641e+09 -4.273667e+09 -4.433679e+09 -1.636657e+04 -1.762464e+03 3.927121e+03
-4.839986e+09 -4.640010e+09 -4.800019e+09 -1.118718e+04 -1.185198e+03 1.210375e+03
-4.631909e+09 -4.431901e+09 -4.591915e+09 2.305052e+03 6.006903e+02 7.550938e+02
-4.686925e+09 -4.486913e+09 -4.646932e+09 3.110529e+03 6.077973e+02 -5.924039e+01
-1.889997e+09 -1.689986e+09 -1.849997e+09 2.645008e+03 7.862003e+03 -1.060295e+03
-4.131762e+09 -3.931930e+09 -4.091728e+09 4.481392e+03 -2.135181e+04 3.119661e+04
-4.991259e+09 -4.791416e+09 -4.951178e+09 3.171793e+04 1.715536e+03 -5.414800e+03
-4.302400e+09 -4.102568e+09 -4.262282e+09 1.624399e+04 1.308562e+03 1.330076e+04
-3.962301e+09 -3.762431e+09 -3.922311e+09 -1.258797e+03 4.123578e+03 1.350806e+04
-4.305535e+09 -4.105671e+09 -4.265573e+09 -7.238871e+03 -4.485741e+03 9.798056e+03
-4.818235e+09 -4.618400e+09 -4.778214e+09 4.654613e+03 1.816726e+04 4.628711e+03
-4.763127e+09 -4.563139e+09 -4.723141e+09 2.857993e+02 -7.144188e+01 1.500574e+02
-4.296441e+09 -4.096458e+09 -4.256461e+09 1.111112e+03 5.384722e+01 1.355121e+03
-3.956864e+09 -3.756873e+09 -3.916879e+09 -4.608650e+03 -1.050215e+03 1.428794e+03
-4.819687e+09 -4.619703e+09 -4.779706e+09 -8.190707e+02 5.746436e+02 7.039017e+02
-4.590943e+09 -4.390955e+09 -4.550956e+09 2.600589e+02 2.714079e+01 1.729498e+02
-3.173956e+09 -2.973968e+09 -3.133969e+09 -1.004185e+02 -1.124928e+02 2.638676e+02
-3.501830e+09 -3.301843e+09 -3.461845e+09 1.306939e+03 2.571605e+02 1.534442e+03
-1.932872e+09 -1.732884e+09 -1.892885e+09 -1.441206e+02 -9.576502e+00 2.582040e+02
-4.096714e+09 -3.896726e+09 -4.056728e+09 -1.833714e+02 -4.396718e+01 3.780857e+02
-4.757643e+09 -4.557655e+09 -4.717657e+09 1.262485e+02 5.377979e+01 -4.780148e+00
-4.625893e+09 -4.425906e+09 -4.585908e+09 1.171158e+02 5.834041e+01 3.058659e+02
-4.992820e+09 -4.792833e+09 -4.952836e+09 2.353388e+02 -6.186785e+01 -1.163897e+02
-2.472876e+09 -2.272889e+09 -2.432890e+09 -2.786607e+02 -7.554406e+01 1.720432e+03
-4.423794e+09 -4.223807e+09 -4.383808e+09 6.447570e+01 -2.483940e+00 7.438874e+01
-1.935266e+09 -1.735278e+09 -1.895279e+09 -2.154863e+02 -8.586670e+01 4.725233e+02
-2.327843e+09 -2.127840e+09 -2.287850e+09 -2.218844e+03 -2.600733e+03 2.536000e+03
-3.995234e+09 -3.795218e+09 -3.955241e+09 -8.433827e+02 -1.584956e+02 1.085406e+03
-2.533943e+09 -2.333955e+09 -2.493956e+09 -1.149926e+02 -7.210778e+01 2.292445e+02
-3.447864e+09 -3.247876e+09 -3.407877e+09 -5.944187e+01 -5.588852e+01 1.475100e+02
-4.650843e+09 -4.450868e+09 -4.610873e+09 -4.295393e+04 2.111530e+03 1.771054e+03
-4.819999e+09 -4.620004e+09 -4.779988e+09 -6.305794e+04 -6.178296e+03 1.014071e+04
-1.909893e+09 -1.709885e+09 -1.869896e+09 -9.093480e+02 -3.582183e+03 2.623240e+03
-4.647937e+09 -4.447928e+09 -4.607941e+09 -5.065980e+04 1.669105e+03 -1.190210e+03
-4.979503e+09 -4.779474e+09 -4.939512e+09 -5.769287e+03 -8.971398e+02 5.391446e+01
-4.305051e+09 -4.105060e+09 -4.265052e+09 -5.723998e+04 -7.521371e+03 6.304345e+03
-4.526361e+09 -4.326341e+09 -4.486370e+09 -6.764756e+02 -9.001885e+00 1.013592e+03
-4.133791e+09 -3.933812e+09 -4.093804e+09 -5.371588e+04 -7.548589e+03 1.034460e+04
-3.962519e+09 -3.762540e+09 -3.922535e+09 -4.703642e+04 2.997612e+01 3.103837e+03
-4.117844e+09 -3.917857e+09 -4.077794e+09 7.078667e+04 -3.173958e+03 2.774238e+03
-4.992517e+09 -4.792503e+09 -4.952526e+09 -4.387483e+03 1.640381e+02 5.754865e+02
-4.133820e+09 -3.933792e+09 -4.093831e+09 -1.761323e+04 -5.771027e+03 3.511715e+03
-2.962793e+09 -2.762772e+09 -2.922799e+09 -2.061555e+03 -9.400234e+03 1.939497e+03
-4.765440e+09 -4.565419e+09 -4.725449e+09 -1.304161e+03 -3.200363e+02 5.581453e+02
-4.103404e+09 -3.903386e+09 -4.063413e+09 -6.468382e+02 -1.615652e+03 1.067498e+03
-3.402148e+09 -3.202131e+09 -3.362156e+09 -4.662463e+03 -5.424643e+03 2.958442e+03
-4.442334e+09 -4.242325e+09 -4.402344e+09 -1.687264e+03 -1.160221e+02 1.039758e+03
-4.808169e+09 -4.608142e+09 -4.768179e+09 -7.061891e+03 -2.056097e+03 -2.425556e+02
-4.646772e+09 -4.446755e+09 -4.606764e+09 5.604436e+04 -5.809825e+03 1.758262e+03
-4.819099e+09 -4.619092e+09 -4.779090e+09 5.412200e+04 -3.666403e+03 -7.739560e+03
-3.934111e+09 -3.734119e+09 -3.894122e+09 1.478087e+02 -5.515441e+01 7.579592e+01
-4.799512e+09 -4.599561e+09 -4.759433e+09 7.245805e+04 4.967406e+03 -9.762796e+03
-4.986623e+09 -4.786659e+09 -4.946605e+09 5.816694e+04 5.666376e+03 3.066214e+03
-4.131804e+09 -3.931809e+09 -4.091814e+09 1.738112e+03 4.467249e+02 2.701482e+02
-4.292242e+09 -4.092184e+09 -4.252182e+09 6.116065e+04 -1.200306e+03 -5.713636e+02
-3.772825e+09 -3.572830e+09 -3.732833e+09 1.066352e+02 1.408239e+01 5.522140e+01
-4.128749e+09 -3.928711e+09 -4.088699e+09 6.008905e+04 -1.498446e+03 9.446784e+03
-4.132634e+09 -3.932630e+09 -4.092632e+09 5.481914e+04 5.987791e+03 1.011409e+04
-4.652247e+09 -4.452224e+09 -4.612257e+09 3.684234e+03 -1.356423e+03 -8.898864e+02
-4.096926e+09 -3.896904e+09 -4.056936e+09 6.028347e+03 -4.003012e+03 -1.222745e+03
-4.991518e+09 -4.791524e+09 -4.951529e+09 2.083185e+03 1.099966e+02 -1.743810e+02
-4.992157e+09 -4.792164e+09 -4.952168e+09 1.692368e+03 1.288602e+01 3.997565e+01
-4.732105e+09 -4.532109e+09 -4.692113e+09 2.086170e+02 3.307024e+01 -4.245185e+01
-4.819688e+09 -4.619693e+09 -4.779697e+09 1.311911e+03 2.022445e+02 1.790243e+01
-4.923257e+09 -4.723263e+09 -4.883266e+09 1.901502e+02 -5.576221e+01 -1.893428e-07
-3.941362e+09 -3.741343e+09 -3.901369e+09 2.896436e+03 -2.497363e+03 -1.121968e+03
-4.750816e+09 -4.550819e+09 -4.710823e+09 6.361045e+02 6.558384e+01 -6.457622e+01
-4.485302e+09 -4.285306e+09 -4.445310e+09 1.050034e+02 8.120986e+01 2.411348e+01
-4.991082e+09 -4.791085e+09 -4.951090e+09 8.749804e+02 2.751849e+01 -1.525099e+01
-4.651058e+09 -4.451033e+09 -4.611068e+09 4.995156e+03 -1.387714e+03 -8.389294e+02
-3.129728e+09 -2.929738e+09 -3.089740e+09 3.608531e+02 3.333235e+02 1.458278e+02
-4.945170e+09 -4.745151e+09 -4.905178e+09 1.447479e+03 -5.061132e+02 -1.336449e+02
-4.077757e+09 -3.877737e+09 -4.037764e+09 1.482163e+03 -1.406582e+03 -1.102407e+03
-4.092495e+09 -3.892507e+09 -4.052509e+09 5.099898e+02 4.376127e+01 4.199588e+02
-3.419639e+09 -3.219649e+09 -3.379651e+09 3.995754e+02 1.317454e+02 2.350058e+02
-3.003118e+09 -2.803127e+09 -2.963130e+09 1.112260e+03 2.047736e+02 4.671850e+02
-4.820213e+09 -4.620191e+09 -4.780222e+09 3.658938e+03 -1.224499e+03 -2.306046e+02
-3.962205e+09 -3.762242e+09 -3.922244e+09 7.369170e+03 1.272150e+03 6.275325e+03
-4.655656e+09 -4.455649e+09 -4.615672e+09 -4.035512e+03 1.932117e+03 1.331558e+02
-4.991110e+09 -4.791127e+09 -4.951131e+09 2.841029e+03 -8.905620e+01 3.187933e+02
-4.647080e+09 -4.447098e+09 -4.607101e+09 2.505134e+03 3.104093e+02 1.129006e+03
-4.281048e+09 -4.081040e+09 -4.241065e+09 -7.305981e+03 3.422313e+03 -1.609181e+03
-3.839459e+09 -3.639470e+09 -3.799472e+09 1.014530e+02 2.953483e+01 1.436410e+02
-2.609211e+09 -2.409222e+09 -2.569224e+09 5.831057e+01 1.262778e+02 1.651929e+02
-4.822091e+09 -4.622104e+09 -4.782106e+09 7.972186e+02 4.023208e+00 2.296977e+02
-3.962038e+09 -3.762063e+09 -3.922067e+09 1.603360e+03 3.453059e+02 4.350028e+03
-4.995381e+09 -4.795382e+09 -4.955388e+09 8.882312e+02 5.076836e+01 -4.025495e+01
-3.459462e+09 -3.259465e+09 -3.419470e+09 6.973774e+02 1.274992e+02 1.157116e+02
-3.129670e+09 -2.929672e+09 -3.089677e+09 3.177838e+02 7.167131e+01 1.267020e+02
-3.530799e+09 -3.330803e+09 -3.490807e+09 2.075294e+02 1.121214e+02 1.084558e+02
-4.504970e+09 -4.304964e+09 -4.464984e+09 -8.578533e+02 1.766191e+03 -1.573098e+02
-3.797642e+09 -3.597637e+09 -3.757658e+09 -3.588727e+03 4.820107e+03 -1.897415e+03
-4.743864e+09 -4.543866e+09 -4.703871e+09 1.886885e+02 -2.312441e+01 -2.421919e+00
-4.071624e+09 -3.871618e+09 -4.031637e+09 -5.467604e+02 3.241519e+03 -3.225292e+02
-4.985019e+09 -4.785021e+09 -4.945026e+09 3.878450e+02 -6.762972e+01 -1.296809e+01
-4.744989e+09 -4.544982e+09 -4.705002e+09 -1.391699e+03 9.043133e+02 5.965924e+01
-3.574564e+09 -3.374564e+09 -3.534572e+09 -4.743331e+02 -1.761202e+02 7.941019e+02
-4.646539e+09 -4.446540e+09 -4.606550e+09 -3.610041e+03 -5.922420e+02 4.341100e+02
-4.284224e+09 -4.084232e+09 -4.244237e+09 -3.459605e+03 -2.435957e+02 7.849738e+02
-4.991237e+09 -4.791240e+09 -4.951254e+09 -8.125168e+03 -5.459821e+02 5.808349e+02
-4.832131e+09 -4.632127e+09 -4.792154e+09 -6.073951e+03 1.183222e+03 2.369414e+02
-4.133412e+09 -3.933412e+09 -4.093426e+09 -6.942944e+03 -2.161521e+03 1.972997e+03
-2.784638e+09 -2.584641e+09 -2.744646e+09 -1.550030e+02 -1.770772e+01 2.433000e+02
-4.992426e+09 -4.792425e+09 -4.952437e+09 -4.287097e+03 -1.626970e+01 1.900182e+02
-3.129188e+09 -2.929192e+09 -3.089196e+09 -2.672238e+02 -2.810239e+01 1.177281e+02
-4.992305e+09 -4.792304e+09 -4.952318e+09 -7.002463e+03 2.017457e+02 1.304305e+02
-3.127247e+09 -2.927251e+09 -3.087255e+09 -1.077310e+02 -1.229832e+01 7.137944e+01
-1.880036e+09 -1.680039e+09 -1.840043e+09 -1.806259e+02 -3.093439e+01 1.378224e+02
-2.998027e+09 -2.798031e+09 -2.958035e+09 -3.905840e+02 -1.657593e+02 4.239105e+01
-1.887227e+09 -1.687230e+09 -1.847234e+09 -1.225511e+02 -7.216413e+01 4.847312e+01
-4.460067e+09 -4.260081e+09 -4.420084e+09 1.379273e+03 1.782194e+02 7.583533e+02
-4.992307e+09 -4.792306e+09 -4.952319e+09 -5.417149e+03 -4.369095e+02 3.896341e+02
-3.960135e+09 -3.760139e+09 -3.920147e+09 -4.661907e+03 -1.170386e+03 1.568926e+03
-1.994055e+09 -1.794068e+09 -1.954068e+09 -1.908787e+01 -7.820499e+01 1.102946e+03
-4.650314e+09 -4.450328e+09 -4.610330e+09 9.810096e+02 -3.441241e+02 4.328620e+02
-4.808553e+09 -4.608564e+09 -4.768569e+09 -3.612466e+03 -6.514039e+02 3.905672e+02
-3.811882e+09 -3.611894e+09 -3.771896e+09 -1.661876e+03 -1.697578e+02 1.004094e+03
-4.134060e+09 -3.934075e+09 -4.094078e+09 1.890555e+03 -3.046038e+02 1.598688e+03
-4.135134e+09 -3.935144e+09 -4.095147e+09 -2.075880e+03 -4.724305e+02 6.309970e+02
-2.574340e+09 -2.374348e+09 -2.534351e+09 -1.457780e+03 -3.142796e+02 6.185319e+02
-3.427135e+09 -3.227144e+09 -3.387148e+09 -1.843562e+03 -4.075320e+02 9.860456e+02
-4.650277e+09 -4.450287e+09 -4.610291e+09 -1.786213e+03 -1.006397e+02 3.540503e+02
-4.647250e+09 -4.447262e+09 -4.607266e+09 -2.663094e+03 -1.795898e+02 7.030376e+02
-4.304445e+09 -4.104460e+09 -4.264464e+09 1.972032e+03 8.033997e+01 1.241423e+03
-3.962979e+09 -3.762989e+09 -3.922993e+09 -2.278604e+03 -3.826959e+02 1.110522e+03
-3.744216e+09 -3.544226e+09 -3.704228e+09 -6.660429e+02 -1.767185e+02 4.730270e+02
-4.992303e+09 -4.792318e+09 -4.952322e+09 1.442046e+03 -1.163242e+02 4.931521e+00
-4.819928e+09 -4.619947e+09 -4.779950e+09 2.384751e+03 -5.841985e+02 8.827717e+02
-3.963849e+09 -3.763862e+09 -3.923865e+09 1.307163e+03 2.942280e+02 1.031919e+03
-3.948101e+09 -3.748116e+09 -3.908118e+09 -9.707275e+02 -3.158385e+02 9.493542e+02
-3.951953e+09 -3.751963e+09 -3.911968e+09 -3.379236e+03 -6.630973e+02 1.286352e+03
-4.133266e+09 -3.933328e+09 -4.093326e+09 -1.368692e+04 -1.715877e+03 8.627183e+03
-4.816319e+09 -4.616414e+09 -4.776376e+09 -1.105698e+04 -2.915573e+03 3.075968e+03
-4.181077e+09 -3.981093e+09 -4.141099e+09 -5.044851e+03 -1.390357e+03 2.455167e+03
-4.134506e+09 -3.934595e+09 -4.094562e+09 -1.755126e+04 -3.260941e+03 6.117214e+03
-4.650437e+09 -4.450514e+09 -4.610493e+09 -1.102632e+04 -2.167326e+02 2.775697e+03
-4.992886e+09 -4.792895e+09 -4.952898e+09 -1.679493e+03 -4.119166e+01 9.304960e+00
-3.956866e+09 -3.756874e+09 -3.916880e+09 -3.810463e+03 -8.394855e+02 1.132209e+03
-4.837100e+09 -4.637162e+09 -4.797152e+09 -2.838766e+04 2.927945e+03 -1.225260e+03
-4.695977e+09 -4.495979e+09 -4.655984e+09 2.156470e+02 -2.321553e+01 3.899115e+01
-4.302805e+09 -4.102835e+09 -4.262840e+09 5.360538e+03 2.952224e+02 4.094273e+03
-4.304971e+09 -4.104972e+09 -4.264979e+09 2.133698e+03 1.528127e+02 2.741971e+02
-4.482407e+09 -4.282412e+09 -4.442419e+09 3.754241e+03 9.365567e+01 7.482094e+02
-3.966009e+09 -3.766092e+09 -3.926079e+09 -2.008206e+04 -2.055918e+03 3.939234e+03
-4.648962e+09 -4.448963e+09 -4.608971e+09 3.313864e+03 3.749209e+02 3.362351e+02
-3.962454e+09 -3.762453e+09 -3.922463e+09 3.908801e+03 1.147524e+03 9.881892e+02
-4.304487e+09 -4.104488e+09 -4.264498e+09 4.942619e+03 7.172255e+02 9.083799e+02
-4.484819e+09 -4.284681e+09 -4.444667e+09 1.575625e+04 -1.127689e+04 3.440248e+03
-4.987978e+09 -4.787842e+09 -4.947880e+09 2.791503e+03 6.425193e+03 4.485227e+03
-3.962455e+09 -3.762455e+09 -3.922463e+09 3.105363e+03 8.688767e+02 7.551818e+02
-2.217092e+09 -2.017104e+09 -2.177105e+09 9.055402e+02 2.075143e+02 1.637304e+03
-4.819853e+09 -4.619854e+09 -4.779861e+09 2.015002e+03 2.616391e+02 -1.553250e+02
-4.662953e+09 -4.462830e+09 -4.622845e+09 -2.859749e+03 -1.285661e+04 -1.936572e+03
-4.136435e+09 -3.936325e+09 -4.096357e+09 -2.670269e+03 -2.745631e+03 -8.397407e+02
-3.958242e+09 -3.758145e+09 -3.918184e+09 3.688265e+03 -1.319501e+03 3.090987e+03
-4.647809e+09 -4.447796e+09 -4.607826e+09 1.637985e+04 1.753952e+03 1.411941e+03
-4.987962e+09 -4.787854e+09 -4.947880e+09 8.767113e+03 5.701516e+02 -6.670225e+01
-4.817808e+09 -4.617704e+09 -4.777755e+09 2.371884e+03 -9.103880e+02 5.306362e+03
-3.958261e+09 -3.758158e+09 -3.918192e+09 1.229506e+04 1.327245e+03 2.247425e+02
-3.962060e+09 -3.762030e+09 -3.922071e+09 2.134297e+04 5.460702e+03 4.617857e+03
-4.647701e+09 -4.447653e+09 -4.607701e+09 1.390792e+04 2.868313e+03 5.602205e+02
-4.308764e+09 -4.108703e+09 -4.268698e+09 -5.879260e+04 4.944488e+03 -2.997971e+03
-4.994114e+09 -4.794047e+09 -4.954031e+09 -5.395839e+04 6.451130e+03 -7.649292e+03
-4.132015e+09 -3.931903e+09 -4.091792e+09 -6.143432e+04 -5.493042e+04 2.592214e+04
-4.648127e+09 -4.448092e+09 -4.608134e+09 7.971645e+03 2.746672e+03 8.619317e+02
-3.962439e+09 -3.762391e+09 -3.922342e+09 -6.900670e+04 -1.230567e+04 1.688241e+04
-1.580301e+09 -1.380295e+09 -1.540303e+09 6.732264e+02 2.770799e+03 1.715712e+03
-3.964464e+09 -3.764357e+09 -3.924336e+09 -4.630290e+04 -2.183340e+04 8.950671e+03
-4.632497e+09 -4.432489e+09 -4.592508e+09 6.700402e+03 1.007355e+03 6.508503e+02
-3.962141e+09 -3.762347e+09 -3.921604e+09 -2.163517e+04 -1.677163e+04 1.546141e+05
-3.944662e+09 -3.744740e+09 -3.904722e+09 -3.282446e+04 1.126683e+03 7.431868e+03
-4.647784e+09 -4.447935e+09 -4.607287e+09 -3.993803e+04 -2.221790e+04 5.817709e+04
-3.962400e+09 -3.762410e+09 -3.922365e+09 -6.675794e+04 -3.788081e+03 2.031552e+04
-4.819298e+09 -4.619439e+09 -4.779281e+09 3.836510e+04 2.014462e+04 9.784621e+03
-4.139425e+09 -3.939320e+09 -4.099318e+09 -3.647014e+04 -1.889779e+04 4.320206e+03
-4.991715e+09 -4.791888e+09 -4.951449e+09 -3.149056e+04 -4.638545e+03 -3.550136e+03
-4.825883e+09 -4.625774e+09 -4.785782e+09 -4.216876e+04 1.054307e+04 -1.606958e+03
-4.818487e+09 -4.618380e+09 -4.778270e+09 -5.912540e+04 1.013756e+04 5.308291e+03
-4.818231e+09 -4.618093e+09 -4.777903e+09 -4.612634e+04 -2.654239e+04 -7.391659e+03
-3.378176e+09 -3.178239e+09 -3.338211e+09 -2.529624e+04 3.258191e+03 -1.281025e+04
-3.644171e+09 -3.444172e+09 -3.604177e+09 5.348223e+02 9.938528e+01 1.591449e+02
-3.962836e+09 -3.762779e+09 -3.922827e+09 5.860012e+03 9.926444e+03 1.874387e+02
-3.985094e+09 -3.785001e+09 -3.945074e+09 -1.630078e+04 3.054899e+03 -1.995709e+03
-4.991998e+09 -4.792139e+09 -4.952010e+09 -1.836462e+04 7.889187e+02 -5.894031e+03
-4.986144e+09 -4.786146e+09 -4.946151e+09 2.250874e+02 1.621337e+01 -7.281234e+01
-4.819215e+09 -4.619377e+09 -4.779189e+09 2.496003e+04 -2.137290e+04 2.803298e+03
-4.992517e+09 -4.792615e+09 -4.952596e+09 3.725373e+04 3.254034e+03 -2.946538e+03
-4.990538e+09 -4.790640e+09 -4.950492e+09 5.643715e+04 5.964028e+02 -6.595498e+03
-4.040192e+09 -3.840194e+09 -4.000199e+09 6.858267e+02 4.703095e+01 1.175040e+02
-4.991881e+09 -4.791825e+09 -4.951884e+09 -5.833533e+03 3.695331e+03 -4.067002e+02
-4.827720e+09 -4.627721e+09 -4.787748e+09 -8.255808e+03 2.722264e+03 -1.439312e+03
-4.995716e+09 -4.795609e+09 -4.955632e+09 -3.477552e+04 1.140609e+04 -6.088172e+03
-4.640302e+09 -4.440304e+09 -4.600309e+09 6.450246e+02 4.468203e+01 3.853877e+01
-3.960696e+09 -3.760659e+09 -3.920701e+09 -4.666413e+03 6.416962e+03 -1.042336e+03
-4.150355e+09 -3.950357e+09 -4.110362e+09 3.463303e+02 5.595163e+01 -5.040170e+01
-4.655546e+09 -4.455524e+09 -4.615564e+09 -1.644503e+04 2.955947e+03 -1.713526e+03
-1.578511e+09 -1.378502e+09 -1.538512e+09 4.741010e+01 1.909235e+03 -9.678547e+02
-4.999179e+09 -4.799159e+09 -4.959191e+09 -1.040905e+04 7.355344e+02 -8.294898e+01
-3.962552e+09 -3.762665e+09 -3.921470e+09 -2.600190e+04 7.483526e+04 -1.954275e+05
-4.658557e+09 -4.458594e+09 -4.617572e+09 -3.515924e+04 5.437864e+04 -6.657103e+04
-4.636989e+09 -4.436925e+09 -4.596962e+09 -3.753050e+04 -3.777862e+02 6.396817e+02
-4.133426e+09 -3.933400e+09 -4.093432e+09 -4.474646e+03 4.607491e+03 -8.914229e+02
-4.830405e+09 -4.630499e+09 -4.789822e+09 -2.922426e+04 -4.102053e+04 -3.410180e+04
-4.315319e+09 -4.115360e+09 -4.274323e+09 -3.483775e+04 8.919368e+04 -9.331885e+04
-4.646614e+09 -4.446584e+09 -4.606621e+09 -5.667379e+03 1.975824e+03 -1.210264e+02
-4.660867e+09 -4.460801e+09 -4.620853e+09 -1.535828e+04 3.574708e+03 -8.299175e+02
-3.961480e+09 -3.761454e+09 -3.921492e+09 -2.417485e+04 5.834422e+03 -2.632935e+03
-4.481987e+09 -4.282015e+09 -4.441397e+09 -8.523822e+04 6.258492e+04 -5.367356e+04
-4.809338e+09 -4.609291e+09 -4.769342e+09 -1.216569e+04 5.626868e+03 -1.561148e+03
-4.997357e+09 -4.797387e+09 -4.956905e+09 -8.637236e+04 1.216356e+04 -1.457395e+04
-4.988155e+09 -4.788114e+09 -4.948162e+09 -1.467563e+04 3.976393e+03 -8.926168e+02
-4.830277e+09 -4.630266e+09 -4.789471e+09 -5.569090e+04 -1.173244e+04 -3.246820e+04
-3.961259e+09 -3.761252e+09 -3.921272e+09 -3.789427e+04 6.952597e+03 -1.063069e+03
-1.583328e+09 -1.383339e+09 -1.543340e+09 4.103607e+02 1.121049e+02 7.552042e+02
-3.810649e+09 -3.610653e+09 -3.770657e+09 -6.814727e+02 -1.290530e+02 1.803958e+02
-3.039904e+09 -2.839893e+09 -2.999907e+09 -8.773964e+02 1.826653e+03 -1.536618e+03
-2.156880e+09 -1.956870e+09 -2.116881e+09 -1.034278e+02 7.322516e+02 -4.895754e+02
-3.961506e+09 -3.761484e+09 -3.921517e+09 -1.794098e+04 7.158802e+03 -3.996032e+03
-4.999171e+09 -4.799147e+09 -4.959187e+09 -1.522970e+04 2.816190e+03 -1.434751e+03
-4.991331e+09 -4.791201e+09 -4.951102e+09 -3.674833e+04 6.702435e+02 1.590790e+03
-1.941831e+09 -1.741823e+09 -1.901833e+09 -3.588595e+02 2.783796e+03 -1.085792e+03
-3.969481e+09 -3.769460e+09 -3.929492e+09 -1.161733e+04 5.446452e+03 -2.780773e+03
-1.941831e+09 -1.741822e+09 -1.901833e+09 -5.000452e+02 2.297805e+03 -1.326356e+03
-1.746169e+09 -1.546160e+09 -1.706170e+09 9.464851e+01 2.034306e+03 -9.104002e+02
-4.758987e+09 -4.558976e+09 -4.718991e+09 -6.583649e+02 3.111015e+02 -4.531112e+00
-4.655945e+09 -4.455921e+09 -4.615955e+09 -1.021371e+04 3.221137e+03 -4.207806e+02
-4.133459e+09 -3.933467e+09 -4.093477e+09 -6.574940e+03 -5.008025e+02 2.414194e+03
-4.132827e+09 -3.932868e+09 -4.092870e+09 -4.679051e+03 -1.410599e+03 5.220616e+03
-2.829838e+09 -2.629828e+09 -2.789840e+09 -5.845645e+02 1.908912e+03 -8.520268e+02
-4.989833e+09 -4.789837e+09 -4.949846e+09 -4.387757e+03 1.421813e+01 2.962922e+01
-2.177132e+09 -1.977122e+09 -2.137133e+09 -1.563397e+02 9.457279e+02 -6.221765e+02
-3.953716e+09 -3.753722e+09 -3.913729e+09 -4.315330e+03 -1.037810e+03 1.444558e+03
-4.636868e+09 -4.436872e+09 -4.596878e+09 -2.713002e+03 -4.068515e+02 4.669661e+02
-4.646914e+09 -4.446917e+09 -4.606932e+09 -8.704278e+03 -1.440368e+03 1.146610e+03
-1.592059e+09 -1.392050e+09 -1.552060e+09 2.377222e+02 1.457472e+03 6.280014e+02
-3.960479e+09 -3.760481e+09 -3.920492e+09 -5.420763e+03 -1.754613e+03 1.730528e+03
-4.826161e+09 -4.626168e+09 -4.786184e+09 -1.231589e+04 -1.720120e+03 4.863077e+02
-4.153521e+09 -3.953544e+09 -4.113554e+09 -1.179341e+04 -1.018769e+03 5.340154e+03
-2.125905e+09 -1.925893e+09 -2.085906e+09 6.385989e+02 2.406795e+03 1.251368e+03
-3.968919e+09 -3.768928e+09 -3.928937e+09 -6.168037e+03 -1.419440e+03 2.640470e+03
-4.819161e+09 -4.619130e+09 -4.779165e+09 1.127295e+03 1.244551e+03 7.447489e+02
-2.131192e+09 -1.931180e+09 -2.091192e+09 5.980173e+01 3.775027e+02 2.278501e+02
-4.991666e+09 -4.791618e+09 -4.951667e+09 3.101293e+04 4.340045e+03 1.734034e+03
-4.816456e+09 -4.616355e+09 -4.776404e+09 1.410296e+04 -1.557509e+03 -3.914992e+03
-4.650890e+09 -4.450810e+09 -4.610863e+09 6.916439e+03 2.606639e+03 -1.838651e+02
-4.133993e+09 -3.933966e+09 -4.093998e+09 5.822307e+03 4.706919e+03 -1.851803e+02
-4.820457e+09 -4.620430e+09 -4.780464e+09 4.864684e+03 2.077240e+03 1.428003e+03
-2.746999e+09 -2.546986e+09 -2.707002e+09 1.738821e+03 2.683174e+03 8.012601e+02
-4.304895e+09 -4.104859e+09 -4.264901e+09 7.970073e+03 6.068030e+03 1.463374e+03
-4.991755e+09 -4.791731e+09 -4.951768e+09 1.479103e+04 1.996160e+03 8.629993e+02
-3.102512e+09 -2.902498e+09 -3.062515e+09 2.509132e+02 1.407286e+03 4.362912e+02
-3.209711e+09 -3.009698e+09 -3.169714e+09 2.925468e+02 1.264132e+03 7.335122e+02
-1.825987e+09 -1.625977e+09 -1.785988e+09 -5.018567e+02 1.082290e+03 6.748080e+02
-4.647635e+09 -4.447594e+09 -4.607642e+09 1.384938e+04 2.842696e+03 1.790267e+03
-3.962090e+09 -3.762051e+09 -3.922092e+09 1.515293e+04 8.262205e+03 2.686686e+03
-4.647418e+09 -4.447360e+09 -4.607415e+09 3.052094e+04 5.222152e+02 2.883902e+03
-4.648279e+09 -4.448239e+09 -4.608283e+09 7.448794e+03 2.889929e+03 4.426943e+02
-2.960273e+09 -2.760280e+09 -2.920283e+09 1.268325e+03 1.663405e+02 4.035951e+02
-1.793013e+09 -1.593018e+09 -1.753021e+09 7.630794e+02 6.286217e+01 1.552641e+02
-4.133744e+09 -3.933706e+09 -4.093748e+09 7.062793e+03 7.631448e+03 4.476605e+02
-1.782246e+09 -1.582253e+09 -1.742256e+09 8.328601e+02 1.084326e+02 4.403776e+02
-4.267987e+09 -4.067982e+09 -4.227996e+09 -3.042328e+03 -1.242075e+03 1.250678e+03
-4.633332e+09 -4.433327e+09 -4.593342e+09 -4.331010e+03 -4.943959e+02 4.247284e+02
-4.617367e+09 -4.417361e+09 -4.577376e+09 -9.164057e+02 -9.494481e+01 5.813347e+02
-4.621905e+09 -4.421901e+09 -4.581914e+09 -6.127194e+02 -9.932614e+01 5.935015e+02
-4.305794e+09 -4.105805e+09 -4.265808e+09 -2.112037e+03 -2.732442e+02 6.342099e+02
-4.263199e+09 -4.063210e+09 -4.223212e+09 -7.733623e+02 -1.201356e+02 5.115588e+02
-4.980779e+09 -4.780822e+09 -4.940842e+09 -1.701727e+04 3.217458e+03 -2.990587e+03
-2.259713e+09 -2.059729e+09 -2.219734e+09 -1.644942e+03 8.518963e+03 -7.157459e+03
-4.649026e+09 -4.449037e+09 -4.609040e+09 -2.111329e+03 -5.920937e+01 5.578572e+02
-4.819556e+09 -4.619544e+09 -4.779578e+09 -2.610229e+04 1.428657e+03 -1.049612e+03
-4.989325e+09 -4.789286e+09 -4.949336e+09 -2.167194e+04 5.628983e+03 -2.010873e+03
-4.818532e+09 -4.618485e+09 -4.778527e+09 -3.027599e+04 6.212520e+03 -1.650825e+03
-3.958455e+09 -3.758421e+09 -3.918462e+09 -1.230500e+04 6.291337e+03 -2.219701e+03
-3.962061e+09 -3.762035e+09 -3.922069e+09 1.100039e+04 6.877091e+03 2.479822e+03
-4.648989e+09 -4.449001e+09 -4.609004e+09 -1.658537e+03 -7.091736e+01 4.185520e+02
-4.822283e+09 -4.622292e+09 -4.782296e+09 -2.477880e+03 -3.294633e+02 1.979537e+02
-4.651204e+09 -4.451214e+09 -4.611217e+09 -2.245916e+03 -9.874963e+01 4.588121e+02
-4.124791e+09 -3.924800e+09 -4.084805e+09 -2.996331e+03 -7.361317e+02 8.211960e+02
-4.634461e+09 -4.434470e+09 -4.594475e+09 -3.046288e+03 -2.407115e+02 7.963887e+02
-4.133113e+09 -3.933125e+09 -4.093130e+09 -2.960031e+03 -7.692224e+02 1.181869e+03
-4.991488e+09 -4.791571e+09 -4.951547e+09 4.400265e+04 -4.049685e+03 -1.952165e+03
-4.991853e+09 -4.791788e+09 -4.951828e+09 4.256024e+04 6.157604e+03 2.239159e+03
-4.812529e+09 -4.612434e+09 -4.772463e+09 4.173918e+04 6.518786e+03 1.011113e+04
-4.818097e+09 -4.618156e+09 -4.778083e+09 6.270983e+04 -1.423799e+04 -5.375409e+03
-4.641665e+09 -4.441566e+09 -4.601069e+09 5.506725e+04 -6.402417e+04 -4.079167e+04
-4.804837e+09 -4.604767e+09 -4.764817e+09 -2.466040e+04 -2.043484e+03 2.572983e+03
-4.992101e+09 -4.792048e+09 -4.952104e+09 6.676126e+03 3.044904e+03 -1.574212e+01
-4.991822e+09 -4.791758e+09 -4.951819e+09 1.446156e+04 4.245507e+03 6.133494e+02
-4.992528e+09 -4.792455e+09 -4.952519e+09 5.650185e+03 4.526062e+03 2.788194e+02
-4.647504e+09 -4.447448e+09 -4.607506e+09 4.293463e+03 2.666612e+03 2.869389e+02
-3.961940e+09 -3.761994e+09 -3.921986e+09 8.767295e+03 6.205908e+02 7.250168e+03
-4.647277e+09 -4.447358e+09 -4.607333e+09 1.846008e+03 2.160515e+02 1.928632e+03
-4.301397e+09 -4.101445e+09 -4.261408e+09 5.982353e+04 -4.031794e+03 -4.667392e+03
-4.817014e+09 -4.617034e+09 -4.777041e+09 7.706376e+03 1.119280e+03 7.358258e+02
-4.301511e+09 -4.101587e+09 -4.261457e+09 6.414772e+04 8.451264e+03 -4.525405e+01
-4.652356e+09 -4.452382e+09 -4.612394e+09 1.802727e+04 9.464710e+02 2.052741e+03
-4.131504e+09 -3.931597e+09 -4.091494e+09 6.041674e+04 -1.021047e+04 4.298417e+03
-4.301487e+09 -4.101366e+09 -4.261381e+09 2.679035e+04 -1.891608e+04 -9.209925e+03
-4.674757e+09 -4.474677e+09 -4.634731e+09 -4.614680e+03 2.424494e+03 1.809318e+02
-4.639745e+09 -4.439642e+09 -4.598890e+09 -1.068472e+03 -7.121185e+04 -5.926105e+03
-4.302720e+09 -4.102855e+09 -4.262638e+09 4.608983e+04 9.690321e+03 6.193884e+03
-3.961245e+09 -3.761248e+09 -3.921268e+09 -3.166566e+04 4.823475e+03 -2.771342e+03
-4.134072e+09 -3.934174e+09 -4.094142e+09 2.981655e+04 -2.016859e+03 -9.630419e+03
-4.302750e+09 -4.102850e+09 -4.262765e+09 5.283827e+04 -3.527981e+03 3.681559e+03
-4.130740e+09 -3.930709e+09 -4.090746e+09 -5.836587e+03 5.832649e+03 -3.701283e+02
-4.663138e+09 -4.463002e+09 -4.622978e+09 -2.348833e+04 -2.182159e+04 5.359540e+03
-3.962450e+09 -3.762415e+09 -3.922439e+09 -3.723651e+04 5.944859e+03 -2.273934e+03
-4.266740e+09 -4.066717e+09 -4.226749e+09 5.675551e+03 -3.132213e+03 -1.418668e+03
-4.094157e+09 -3.894129e+09 -4.054166e+09 5.239408e+03 -4.498767e+03 -1.119114e+03
-3.959178e+09 -3.759120e+09 -3.919169e+09 -1.967231e+04 4.932213e+03 -4.507693e+02
-4.057445e+09 -3.857416e+09 -4.017453e+09 3.720078e+03 -4.584183e+03 -1.457001e+03
-4.989336e+09 -4.789289e+09 -4.949339e+09 -1.954367e+04 5.881756e+03 -2.433608e+03
-4.985161e+09 -4.785096e+09 -4.945161e+09 -1.425547e+04 2.935620e+03 6.203331e+02
-4.127766e+09 -3.927721e+09 -4.087765e+09 -2.219058e+04 5.868213e+03 -1.319460e+03
-4.478764e+09 -4.278706e+09 -4.438756e+09 -7.414194e+03 5.161249e+03 -1.311078e+03
-4.835970e+09 -4.635902e+09 -4.795959e+09 -1.209376e+04 2.999751e+03 1.063558e+03
-3.922306e+09 -3.722279e+09 -3.882314e+09 5.937733e+03 -5.103588e+03 -1.402850e+03
-4.653921e+09 -4.453959e+09 -4.613627e+09 -7.838584e+04 3.428709e+04 -4.119894e+04
-4.271368e+09 -4.071343e+09 -4.231377e+09 2.700849e+03 -3.464658e+03 -1.180472e+03
-4.664213e+09 -4.464340e+09 -4.623786e+09 -6.729575e+04 2.018806e+04 -5.053002e+04
-4.267048e+09 -4.067023e+09 -4.227056e+09 4.960958e+03 -3.384002e+03 -1.509661e+03
-3.716234e+09 -3.516214e+09 -3.676242e+09 2.577152e+03 -2.727753e+03 -1.665770e+03
-3.674174e+09 -3.474158e+09 -3.634182e+09 2.384211e+03 -2.435722e+03 -1.522024e+03
-4.480224e+09 -4.280354e+09 -4.440150e+09 -4.182884e+04 1.244032e+03 -2.228136e+04
-3.962289e+09 -3.762332e+09 -3.922281e+09 -5.947236e+04 1.080912e+04 -3.938910e+03
-4.668909e+09 -4.468975e+09 -4.628966e+09 -2.422983e+04 -1.605299e+03 1.380877e+03
-4.126181e+09 -3.926168e+09 -4.086201e+09 1.343483e+04 -6.103133e+03 -2.547639e+03
-2.653471e+09 -2.453467e+09 -2.613484e+09 1.856916e+03 -7.466560e+03 -2.646335e+03
-4.144363e+09 -3.944511e+09 -4.104118e+09 -3.434880e+04 9.243648e+03 -6.793249e+04
-2.095654e+09 -1.895649e+09 -2.055660e+09 3.307794e+03 -1.018244e+04 -5.027144e+03
-4.995584e+09 -4.795690e+09 -4.955633e+09 2.223869e+04 1.390670e+03 6.299894e+03
-4.820706e+09 -4.620742e+09 -4.780749e+09 1.414322e+04 1.293480e+03 4.026256e+03
-4.665040e+09 -4.465156e+09 -4.625077e+09 3.806878e+04 4.882983e+03 -1.770444e+04
-3.044632e+09 -2.844632e+09 -3.004652e+09 6.943765e+03 -9.366839e+03 -4.825422e+03
-4.991888e+09 -4.791936e+09 -4.951940e+09 9.182194e+03 5.256891e+02 3.166617e+03
-4.647040e+09 -4.447072e+09 -4.607076e+09 -2.428899e+03 -3.205212e+02 2.312165e+03
-4.821798e+09 -4.621900e+09 -4.781858e+09 -2.778152e+03 2.414285e+03 9.284482e+02
-3.125839e+09 -2.925837e+09 -3.085857e+09 1.196673e+04 -1.323760e+04 -1.062778e+04
-2.483517e+09 -2.283512e+09 -2.443528e+09 4.096969e+03 -7.755369e+03 -3.525588e+03
-3.962499e+09 -3.762590e+09 -3.922571e+09 1.027980e+04 2.464914e+03 -7.901668e+02
-2.984603e+09 -2.784595e+09 -2.944616e+09 5.414746e+03 -9.586257e+03 -4.610018e+03
-4.208304e+09 -4.008309e+09 -4.168313e+09 -3.356237e+02 -1.595042e+01 -2.399548e+01
-4.254954e+09 -4.054959e+09 -4.214963e+09 -9.034369e+02 -9.248168e+01 7.397457e+01
-4.476870e+09 -4.276865e+09 -4.436892e+09 2.343971e+04 4.732630e+03 4.473324e+03
-3.964442e+09 -3.764447e+09 -3.924465e+09 3.467977e+04 2.535853e+03 3.340137e+03
-3.348837e+09 -3.148842e+09 -3.308845e+09 -6.633902e+02 -1.412319e+02 1.816357e+02
-4.821795e+09 -4.621792e+09 -4.781817e+09 3.715987e+04 5.162993e+03 6.086183e+03
-4.809622e+09 -4.609683e+09 -4.769671e+09 3.067751e+04 -1.441646e+03 6.007006e+02
-4.995605e+09 -4.795696e+09 -4.955639e+09 1.745161e+04 -1.890093e+03 1.467922e+03
-2.832082e+09 -2.632087e+09 -2.792090e+09 -9.246368e+01 -4.608877e+01 -1.386255e+01
-3.585343e+09 -3.385348e+09 -3.545352e+09 -2.689593e+02 -9.708244e+01 1.794782e+02
-3.962022e+09 -3.762077e+09 -3.922078e+09 1.806282e+04 2.630606e+03 4.818834e+03
-3.902229e+09 -3.702234e+09 -3.862238e+09 -2.690560e+02 -9.713809e+01 2.846729e+01
-5.014287e+09 -4.814381e+09 -4.974296e+09 4.580954e+04 1.701560e+03 4.114897e+03
-3.714333e+09 -3.514339e+09 -3.674342e+09 -5.195038e+02 -4.215133e+01 1.761124e+02
-4.134164e+09 -3.934341e+09 -4.094110e+09 -4.798158e+02 8.132191e+02 -5.632769e+04
-4.072968e+09 -3.872973e+09 -4.032976e+09 -7.542085e+01 -3.039784e+01 -4.939068e+01
-4.815150e+09 -4.615188e+09 -4.775156e+09 5.494208e+04 -4.460954e+03 -9.330947e+03
-2.815529e+09 -2.615533e+09 -2.775537e+09 3.099133e+02 6.777764e+01 2.584870e+01
-4.128153e+09 -3.928296e+09 -4.088135e+09 3.667419e+04 -2.235673e+04 -3.690170e+04
-3.397700e+09 -3.197704e+09 -3.357708e+09 4.906037e+02 3.814868e+01 1.755303e+01
-2.707264e+09 -2.507267e+09 -2.667271e+09 2.985535e+02 8.130204e+01 8.555486e+01
-4.837003e+09 -4.637085e+09 -4.797007e+09 5.141807e+04 6.962302e+03 7.321356e+03
-3.161350e+09 -2.961354e+09 -3.121358e+09 2.015236e+02 2.008022e+01 -1.215360e+01
-3.085168e+09 -2.885171e+09 -3.045175e+09 1.627561e+02 4.297689e+01 -8.517845e+00
-1.878059e+09 -1.678063e+09 -1.838067e+09 1.474514e+02 3.462343e+01 -1.047075e+01
-4.986609e+09 -4.786678e+09 -4.946606e+09 5.064528e+04 -2.157197e+03 7.422987e+03
-3.962743e+09 -3.762761e+09 -3.922754e+09 4.565037e+04 -1.136692e+03 1.710510e+02
-1.885251e+09 -1.685254e+09 -1.845258e+09 7.972259e+01 1.085427e+01 5.603107e+01
-3.961591e+09 -3.761744e+09 -3.921640e+09 2.469393e+04 7.031796e+03 -3.794634e+04
-3.728597e+09 -3.528610e+09 -3.688612e+09 2.733379e+02 -8.772439e+00 8.918061e+02
-3.957856e+09 -3.757801e+09 -3.917748e+09 6.024089e+04 -2.025415e+04 -1.419482e+04
-1.860205e+09 -1.660204e+09 -1.820211e+09 -4.774071e+02 7.339520e+03 -2.206646e+03
-4.978794e+09 -4.778784e+09 -4.938800e+09 -8.468294e+02 3.348419e+02 -2.520504e+02
-2.222125e+09 -2.022119e+09 -2.182130e+09 -5.431712e+02 5.914349e+03 -1.347330e+03
-4.557310e+09 -4.357299e+09 -4.517319e+09 -2.375586e+03 9.204589e+02 -4.487032e+02
-3.636659e+09 -3.436649e+09 -3.596663e+09 -6.340001e+02 8.049798e+02 -3.276126e+02
-4.800874e+09 -4.600864e+09 -4.760882e+09 -1.653133e+03 8.507314e+02 1.056552e+02
-3.257095e+09 -3.057096e+09 -3.217116e+09 -3.185121e+03 7.698976e+03 -2.159473e+03
-1.906510e+09 -1.706504e+09 -1.866514e+09 -1.472104e+03 6.249994e+03 -1.006182e+03
-4.808670e+09 -4.608660e+09 -4.768675e+09 -1.027069e+03 6.077263e+02 -8.719047e+01
-2.057298e+09 -1.857295e+09 -2.017306e+09 -2.339307e+03 7.882925e+03 -2.893567e+03
-1.907795e+09 -1.707826e+09 -1.867819e+09 5.708304e+03 -8.647160e+03 -2.182965e+04
-3.213320e+09 -3.013330e+09 -3.173349e+09 -4.113443e+03 9.354717e+03 -2.857185e+03
-2.686365e+09 -2.486361e+09 -2.646375e+09 -1.426428e+03 5.988087e+03 -1.489491e+03
-2.175820e+09 -1.975815e+09 -2.135826e+09 -1.404851e+03 6.182141e+03 -1.873564e+03
-4.973848e+09 -4.773837e+09 -4.933859e+09 2.038332e+03 -6.883225e+02 -1.895702e+02
-3.806978e+09 -3.606969e+09 -3.766993e+09 4.455746e+03 -3.453464e+03 -1.289903e+03
-2.155688e+09 -1.955684e+09 -2.115695e+09 -1.022626e+02 6.419292e+03 -2.827974e+02
-2.184329e+09 -1.984326e+09 -2.144337e+09 4.817438e+02 -6.307122e+03 1.711584e+02
-3.171732e+09 -2.971731e+09 -3.131748e+09 -8.800916e+02 6.888668e+03 -1.509022e+03
-4.650849e+09 -4.450866e+09 -4.610893e+09 2.109908e+04 -8.693590e+02 -1.451713e+03
-3.751757e+09 -3.551771e+09 -3.711787e+09 1.549023e+04 -7.064951e+03 -7.933568e+03
-4.992713e+09 -4.792808e+09 -4.952804e+09 -7.299372e+03 1.227622e+03 -2.721842e+03
-1.625227e+09 -1.425240e+09 -1.585235e+09 1.453085e+03 1.420587e+03 -6.219752e+03
-1.625231e+09 -1.425243e+09 -1.585237e+09 -4.712725e+02 2.379966e+03 -5.012184e+03
-1.790165e+09 -1.590163e+09 -1.750175e+09 8.400205e+03 -1.217097e+04 -8.273360e+03
-2.959134e+09 -2.759191e+09 -2.919184e+09 2.488821e+03 -1.649503e+03 -3.249583e+03
-4.569158e+09 -4.369198e+09 -4.529218e+09 -9.718156e+03 2.051483e+03 9.986573e+01
-4.520868e+09 -4.320884e+09 -4.480909e+09 -2.674305e+03 2.953148e+03 -6.361541e+01
-3.588448e+09 -3.388497e+09 -3.548508e+09 -2.619065e+03 6.052603e+03 4.604249e+02
-2.709991e+09 -2.510028e+09 -2.670035e+09 5.885915e+03 -8.577917e+03 -7.197512e+03
-3.159451e+09 -2.959506e+09 -3.119493e+09 2.290891e+04 -8.710714e+03 -1.071550e+04
-2.162649e+09 -1.962680e+09 -2.122683e+09 1.316878e+04 -1.075157e+04 -1.133336e+04
-2.312219e+09 -2.112230e+09 -2.272232e+09 8.977141e+02 4.181381e+02 1.124347e+03
-1.968721e+09 -1.768729e+09 -1.928734e+09 -6.487495e+03 8.134820e+03 -3.517263e+03
-4.992705e+09 -4.792737e+09 -4.952760e+09 -1.161063e+04 2.620832e+03 -1.375835e+03
-4.759466e+09 -4.559472e+09 -4.719498e+09 -4.658792e+03 1.729213e+03 -1.553138e+03
-2.094149e+09 -1.894187e+09 -2.054185e+09 5.362552e+03 -6.563915e+03 -9.159710e+03
-1.637599e+09 -1.437595e+09 -1.597603e+09 4.826935e+01 7.867170e+03 -4.391599e+02
-2.796452e+09 -2.596512e+09 -2.756510e+09 3.782846e+03 -6.918370e+03 -5.066193e+03
-3.015425e+09 -2.815451e+09 -2.975465e+09 7.512989e+03 -8.505736e+03 -4.561492e+03
-3.779562e+09 -3.579591e+09 -3.739610e+09 -2.464102e+03 5.925974e+03 4.718037e+02
-2.910552e+09 -2.710552e+09 -2.870568e+09 -8.427456e+02 7.734256e+03 -3.824319e+02
-3.398131e+09 -3.198131e+09 -3.358151e+09 -5.247969e+03 8.922305e+03 -3.007530e+03
-4.933551e+09 -4.733541e+09 -4.893555e+09 -2.582107e+02 1.259823e+02 -2.823984e+01
-4.923181e+09 -4.723168e+09 -4.883185e+09 -3.701830e+02 5.022394e-05 -7.351295e+01
-4.475414e+09 -4.275331e+09 -4.435383e+09 2.771539e+04 -1.193452e+04 -3.059085e+03
-4.992791e+09 -4.792775e+09 -4.952795e+09 -2.033974e+03 -1.135856e+01 -3.249520e+02
-4.305897e+09 -4.105801e+09 -4.265837e+09 3.787549e+04 1.034990e+04 -6.493910e+03
-4.313523e+09 -4.113421e+09 -4.273492e+09 1.840858e+04 -7.242061e+03 -4.397133e+03
-4.115730e+09 -3.915668e+09 -4.075719e+09 2.284385e+04 -2.953926e+03 -1.863508e+03
-4.297827e+09 -4.097745e+09 -4.257817e+09 1.706370e+04 -8.662514e+03 -1.786941e+03
-4.810688e+09 -4.610626e+09 -4.770679e+09 2.994392e+04 -1.458227e+03 -9.285874e+01
-4.619775e+09 -4.419765e+09 -4.579779e+09 -3.924308e+01 2.101584e+02 0.000000e+00
-2.514158e+09 -2.314150e+09 -2.474161e+09 -1.311426e+02 1.671652e+03 -4.196202e+02
-4.987334e+09 -4.787234e+09 -4.947297e+09 4.183370e+04 -5.582756e+03 -1.003074e+04
-4.992860e+09 -4.792886e+09 -4.952909e+09 -2.535026e+04 2.754737e+03 -2.303841e+03
-4.746420e+09 -4.546494e+09 -4.706501e+09 5.419223e+03 -6.017646e+02 2.043068e+03
-4.824392e+09 -4.624468e+09 -4.784465e+09 1.919359e+04 5.698141e+02 7.120578e+02
-4.747297e+09 -4.547282e+09 -4.707301e+09 -8.784060e+02 3.731550e+02 -2.127205e+01
-4.992785e+09 -4.792767e+09 -4.952792e+09 -2.935166e+03 5.244198e+02 -4.572954e+02
-4.735230e+09 -4.535219e+09 -4.695238e+09 -2.568275e+03 8.654093e+02 -2.101979e+02
-2.804258e+09 -2.604248e+09 -2.764261e+09 -5.785491e+02 1.689209e+03 -4.550429e+02
-4.824631e+09 -4.624700e+09 -4.784709e+09 1.563259e+04 -3.408602e+03 -9.420347e+02
-3.737952e+09 -3.538057e+09 -3.698031e+09 3.846488e+03 -2.075652e+02 -3.317190e+03
-3.934640e+09 -3.734721e+09 -3.894723e+09 2.554032e+03 -1.861354e+03 -3.919097e+03
-4.011820e+09 -3.811814e+09 -3.971827e+09 2.652492e+03 9.966752e+02 1.228074e+03
-4.995765e+09 -4.795846e+09 -4.955848e+09 6.737053e+03 -2.585719e+02 -1.879224e+02
-4.134038e+09 -3.934038e+09 -4.094046e+09 2.808209e+03 3.882192e+02 8.912875e+02
-4.818059e+09 -4.618039e+09 -4.778079e+09 1.959254e+04 -1.671233e+03 -2.154530e+03
-2.889656e+09 -2.689665e+09 -2.849681e+09 -4.742858e+03 8.530779e+03 -1.820821e+03
-4.925363e+09 -4.725360e+09 -4.885369e+09 4.224302e+02 2.498879e-05 1.588025e+01
-4.991793e+09 -4.791946e+09 -4.951801e+09 1.304468e+04 -1.931766e+03 -7.722242e+03
-4.655211e+09 -4.455191e+09 -4.615227e+09 1.300610e+04 -2.183135e+03 -9.913595e+02
-4.477823e+09 -4.277790e+09 -4.437832e+09 1.779602e+04 -4.764634e+03 -2.293045e+03
-4.121219e+09 -3.921188e+09 -4.081231e+09 1.635148e+04 -5.960510e+03 -2.479338e+03
-2.994576e+09 -2.794571e+09 -2.954583e+09 3.078106e+03 2.481097e+03 2.195084e+03
-1.630110e+09 -1.430105e+09 -1.590113e+09 2.278663e+02 3.915228e+02 9.094166e+02
-4.564915e+09 -4.364917e+09 -4.524922e+09 2.325786e+02 3.127266e+01 2.919911e+01
-4.807685e+09 -4.607654e+09 -4.767700e+09 1.646408e+04 -4.092537e+03 -3.095403e+03
-4.134524e+09 -3.934498e+09 -4.094534e+09 9.668916e+03 -5.597738e+03 -3.139701e+03
-2.082605e+09 -1.882601e+09 -2.042609e+09 2.073703e+03 2.083179e+03 1.731811e+03
-4.301727e+09 -4.101871e+09 -4.261613e+09 -3.203299e+04 -4.992925e+03 3.504390e+04
-2.913832e+09 -2.713826e+09 -2.873839e+09 -5.852621e+01 4.235820e+03 -1.126381e+03
-2.895319e+09 -2.695312e+09 -2.855326e+09 8.010849e+01 4.226616e+03 -5.236665e+02
-2.620631e+09 -2.420624e+09 -2.580635e+09 -1.334880e+03 3.373950e+03 -9.070418e+02
-4.137138e+09 -3.937138e+09 -4.097145e+09 1.969401e+03 4.503894e+02 1.022751e+02
-4.923950e+09 -4.723950e+09 -4.883956e+09 2.048022e+02 -1.420547e-07 -3.884269e+01
-1.841125e+09 -1.641116e+09 -1.801126e+09 -3.902232e+02 2.961406e+03 -3.763359e+02
-1.599704e+09 -1.399697e+09 -1.559706e+09 6.496567e+00 3.630799e+03 -6.106718e+02
-4.810982e+09 -4.610960e+09 -4.770992e+09 -8.117598e+03 -1.780813e+03 7.449520e+01
-3.200026e+09 -3.000011e+09 -3.160032e+09 -3.623604e+03 -7.307942e+03 4.315167e+03
-2.978522e+09 -2.778507e+09 -2.938528e+09 -3.684030e+03 -7.110363e+03 3.667142e+03
-3.236337e+09 -3.036312e+09 -3.196342e+09 -2.620525e+03 -9.347095e+03 3.394582e+03
-3.470999e+09 -3.270990e+09 -3.431004e+09 -6.066722e+01 1.182013e+03 1.383180e+02
-2.205247e+09 -2.005236e+09 -2.165250e+09 -1.430624e+03 -3.693332e+03 2.526083e+03
-1.624860e+09 -1.424853e+09 -1.584862e+09 9.581663e-01 4.364504e+03 -2.369262e+02
-3.202650e+09 -3.002637e+09 -3.162656e+09 -2.428030e+03 -3.425284e+03 2.598713e+03
-3.192324e+09 -2.992306e+09 -3.152330e+09 -3.453322e+03 -6.282453e+03 3.730373e+03
-4.501381e+09 -4.301371e+09 -4.461387e+09 9.222907e+02 3.526599e+02 4.348084e+02
-4.465028e+09 -4.265124e+09 -4.425086e+09 2.017171e+04 -9.394877e+02 -1.326337e+03
-4.977529e+09 -4.777517e+09 -4.937536e+09 2.095953e+03 3.556034e+02 1.163514e+02
-4.575286e+09 -4.375355e+09 -4.535362e+09 1.071746e+04 -1.544946e+03 2.048737e+02
-4.986872e+09 -4.786862e+09 -4.946878e+09 2.079913e+03 1.872562e+02 1.092080e+02
-4.747753e+09 -4.547744e+09 -4.707759e+09 9.511521e+02 2.701674e+02 8.881677e+01
-4.977529e+09 -4.777518e+09 -4.937536e+09 2.691511e+03 6.624091e+02 2.171001e+02
-4.743432e+09 -4.543495e+09 -4.703506e+09 7.991781e+03 -1.662977e+03 -2.307360e+03
-4.994987e+09 -4.795036e+09 -4.955049e+09 2.488101e+04 -6.738768e+02 -2.962817e+03
-2.547903e+09 -2.347901e+09 -2.507909e+09 2.044958e+03 7.665135e+02 6.489900e+02
-3.901808e+09 -3.701802e+09 -3.861813e+09 4.100107e+02 1.870437e+02 3.231329e+02
-4.475018e+09 -4.275014e+09 -4.435024e+09 7.259701e+02 2.605190e+02 3.236752e+02
-4.262184e+09 -4.062230e+09 -4.222244e+09 2.506965e+04 -6.596421e+03 -6.542203e+03
-4.700661e+09 -4.500665e+09 -4.660668e+09 -5.386013e+01 -9.461413e-01 2.061029e+01
-4.648657e+09 -4.448697e+09 -4.608703e+09 3.239557e+04 -1.041726e+03 -1.146784e+03
-4.133627e+09 -3.933659e+09 -4.093671e+09 3.300223e+04 -6.197625e+03 -7.938226e+03
-4.819048e+09 -4.619098e+09 -4.779095e+09 4.187730e+04 -3.022788e+03 -8.379914e+03
-4.510316e+09 -4.310336e+09 -4.470361e+09 2.962350e+03 -3.078612e+03 4.119061e+01
-4.992780e+09 -4.792839e+09 -4.952852e+09 7.834216e+03 5.570884e+02 -1.939440e+03
-3.739008e+09 -3.539015e+09 -3.699018e+09 -1.015646e+02 -2.625941e+01 7.961645e+01
-2.797879e+09 -2.597885e+09 -2.757888e+09 -4.139000e+02 -7.968531e+01 1.250784e+02
-3.139576e+09 -2.939581e+09 -3.099585e+09 -7.819479e+02 -1.296032e+02 3.608613e+02
-4.284805e+09 -4.084784e+09 -4.244810e+09 8.529010e+02 2.604351e+03 3.426395e+02
-1.643202e+09 -1.443207e+09 -1.603210e+09 -3.763952e+01 -4.276579e+01 3.479417e+01
-4.130191e+09 -3.930173e+09 -4.090194e+09 -1.887919e+02 1.182539e+03 -2.331898e+02
-4.090943e+09 -3.890946e+09 -4.050951e+09 -3.424412e+02 -7.810834e+01 8.868592e+01
-4.992692e+09 -4.792673e+09 -4.952697e+09 2.855726e+01 1.391309e+02 -1.714459e+01
-4.300844e+09 -4.100772e+09 -4.260788e+09 4.183374e+04 -1.202597e+04 7.655941e+03
-4.299175e+09 -4.099154e+09 -4.259186e+09 4.428990e+04 -4.941236e+03 -7.419154e+03
-2.169194e+09 -1.969198e+09 -2.129202e+09 -5.497608e+02 -4.545124e+01 2.476062e+02
-4.535186e+09 -4.335190e+09 -4.495194e+09 -4.617891e+02 -2.244765e+01 6.470852e+01
-4.985025e+09 -4.785030e+09 -4.945033e+09 -4.927108e+02 7.707126e+00 -1.094118e+02
-4.515072e+09 -4.315076e+09 -4.475080e+09 -1.505098e+02 -5.313260e+00 1.059061e+01
-4.644237e+09 -4.444216e+09 -4.604249e+09 5.333448e+04 8.531602e+02 -2.671834e+02
-4.816699e+09 -4.616641e+09 -4.776661e+09 5.045438e+04 -7.491072e+03 3.291046e+03
-3.959459e+09 -3.759420e+09 -3.919443e+09 4.296265e+04 -4.880026e+03 -2.405812e+03
-4.296788e+09 -4.096737e+09 -4.256771e+09 4.382038e+04 -5.096691e+03 -6.537941e+03
-4.133260e+09 -3.933218e+09 -4.093215e+09 5.786918e+04 1.844894e+03 7.445113e+03
-4.090128e+09 -3.890130e+09 -4.050135e+09 8.229726e+02 4.638440e+01 4.623021e+01
-4.149951e+09 -3.949954e+09 -4.109958e+09 1.073906e+02 -1.221547e+01 1.482416e+01
-3.981130e+09 -3.781132e+09 -3.941137e+09 5.584821e+02 6.171818e+01 4.003983e+01
-1.589994e+09 -1.389997e+09 -1.550001e+09 2.622393e-09 4.800449e+00 2.059475e+00
-2.849949e+09 -2.649952e+09 -2.809957e+09 5.641135e+02 1.086016e+02 1.212790e+02
-4.806815e+09 -4.606818e+09 -4.766822e+09 3.294886e+02 7.170473e+01 -1.704271e+00
-2.186484e+09 -1.986530e+09 -2.146515e+09 -5.274254e+03 -2.060104e+02 -1.714995e+04
-3.001897e+09 -2.801901e+09 -2.961905e+09 1.000611e+02 -4.460855e+00 7.310490e+00
-2.113373e+09 -1.913414e+09 -2.073409e+09 -1.818408e+03 2.060815e+03 -1.129335e+03
-2.174003e+09 -1.974007e+09 -2.134011e+09 1.250944e+02 -2.202553e+01 4.347073e+00
-3.386278e+09 -3.186370e+09 -3.346349e+09 -1.526590e+03 -2.419792e+03 -1.043831e+04
-2.716095e+09 -2.516147e+09 -2.676144e+09 -1.050751e+04 4.914803e+03 -1.385819e+03
-4.055657e+09 -3.855668e+09 -4.015693e+09 -1.393825e+04 6.181260e+03 -2.522217e+03
-4.476711e+09 -4.276871e+09 -4.436757e+09 4.717734e+02 -2.202660e+03 9.678839e+03
-3.919114e+09 -3.719115e+09 -3.879121e+09 1.504246e+03 2.703459e+02 3.251343e+02
-2.124314e+09 -1.924361e+09 -2.084348e+09 1.146448e+02 -3.627366e+03 -1.200827e+04
-3.287825e+09 -3.087827e+09 -3.247832e+09 -1.492122e-04 8.056236e+00 1.205791e+01
-1.867007e+09 -1.667034e+09 -1.827027e+09 3.270622e+03 -5.924662e+02 -1.348263e+03
-3.752726e+09 -3.552699e+09 -3.712732e+09 4.428446e+01 -3.659598e+03 3.771042e+01
-4.263305e+09 -4.063271e+09 -4.223311e+09 -4.394536e+02 -4.916828e+03 1.944355e+02
-4.204741e+09 -4.004714e+09 -4.164747e+09 3.779731e+02 -2.018124e+03 -4.028454e+02
-3.760833e+09 -3.560808e+09 -3.720840e+09 3.005149e+02 -3.436936e+03 1.551020e+02
-4.825198e+09 -4.625168e+09 -4.785207e+09 8.115835e+02 -1.157210e+03 -3.675526e+02
-4.824515e+09 -4.624482e+09 -4.784523e+09 4.893320e+02 -1.021743e+03 3.111086e+02
-1.629829e+09 -1.429831e+09 -1.589836e+09 9.873887e+01 3.508863e+01 2.733300e+01
-4.762656e+09 -4.562629e+09 -4.722665e+09 8.021145e+01 -2.640330e+02 3.869503e+02
-4.301650e+09 -4.101679e+09 -4.261674e+09 4.846592e+04 -5.544765e+03 -5.713577e+03
-4.990452e+09 -4.790477e+09 -4.950467e+09 5.779362e+04 -3.583955e+03 -5.750824e+03
-2.133050e+09 -1.933052e+09 -2.093057e+09 5.469075e+01 -2.177731e+01 -2.325733e+01
-4.990836e+09 -4.790835e+09 -4.950846e+09 4.317443e+04 -2.588308e+03 -1.154971e+03
-2.992993e+09 -2.792992e+09 -2.952999e+09 3.912363e+02 7.780246e+01 4.977031e+02
-4.521198e+09 -4.321198e+09 -4.481204e+09 2.640348e+02 4.900495e+01 1.658304e+02
-1.624852e+09 -1.424853e+09 -1.584859e+09 1.192188e+02 4.554780e+01 5.172538e+01
-4.133054e+09 -3.933071e+09 -4.093087e+09 3.663196e+04 -3.553947e+03 2.676978e+02
-4.474097e+09 -4.274113e+09 -4.434086e+09 5.237335e+04 -4.641030e+02 4.109161e+03
-4.644016e+09 -4.444006e+09 -4.604036e+09 3.097368e+04 -2.720941e+03 -1.774443e+03
-4.642404e+09 -4.442383e+09 -4.602404e+09 4.428475e+04 -2.600548e+03 -1.170487e+03
-4.132585e+09 -3.932573e+09 -4.092569e+09 5.863118e+04 -3.280021e+02 -3.000659e+03
-3.286336e+09 -3.086340e+09 -3.246345e+09 -6.157331e+02 -1.360332e+02 1.925912e+02
-2.131771e+09 -1.931774e+09 -2.091778e+09 -1.724629e+02 -6.226698e+00 1.282414e+02
-4.588280e+09 -4.388288e+09 -4.548315e+09 -6.533004e+03 2.197530e+03 -7.361696e+02
-2.592397e+09 -2.392438e+09 -2.552438e+09 -1.816523e+03 1.991615e+03 -1.019034e+03
-1.949387e+09 -1.749441e+09 -1.909440e+09 9.358627e+02 -2.575479e+03 -1.357795e+04
-3.516780e+09 -3.316900e+09 -3.476832e+09 -3.734828e+03 -2.444785e+03 -1.126483e+04
-3.338540e+09 -3.138553e+09 -3.298563e+09 2.523496e+04 -1.091156e+04 -1.357753e+04
-3.922248e+09 -3.722360e+09 -3.882319e+09 -1.915209e+04 -2.589824e+03 -1.928612e+03
-3.021856e+09 -2.821859e+09 -2.981863e+09 -2.608539e+02 -2.517485e+01 2.012871e+02
-2.145602e+09 -1.945604e+09 -2.105609e+09 -6.666275e+02 -2.974983e+02 3.848585e+02
-3.157250e+09 -2.957252e+09 -3.117258e+09 -5.543193e+02 -2.101059e+02 6.370889e+02
-3.307315e+09 -3.107404e+09 -3.267356e+09 -1.739027e+04 3.040614e+03 -8.712757e+03
-2.648680e+09 -2.448682e+09 -2.608687e+09 -1.861223e+02 -4.131050e+01 4.543282e+02
-3.387716e+09 -3.187717e+09 -3.347723e+09 8.785703e+02 3.256871e+02 1.519077e+02
-1.816291e+09 -1.616324e+09 -1.776325e+09 -8.290227e+02 2.513579e+03 -6.257734e+03
-3.774361e+09 -3.574413e+09 -3.734414e+09 -1.173402e+04 6.663598e+03 -8.444615e+03
-1.967892e+09 -1.767911e+09 -1.927912e+09 7.122786e+03 8.931446e+03 -3.355916e+03
-2.687004e+09 -2.487049e+09 -2.647048e+09 -1.198544e+03 3.042372e+03 -9.346789e+02
-2.892508e+09 -2.692552e+09 -2.852551e+09 -6.396809e+01 5.487963e+03 2.127654e+02
-3.801751e+09 -3.601741e+09 -3.761760e+09 3.123955e+02 -2.194247e+03 -4.190870e+02
-3.096517e+09 -2.896519e+09 -3.056524e+09 3.483807e+02 1.085643e+02 -1.701838e+01
-2.597525e+09 -2.397526e+09 -2.557532e+09 1.363839e+03 3.546058e+02 2.692372e+02
-4.652759e+09 -4.452744e+09 -4.612773e+09 7.480252e+03 -1.804306e+03 -1.259838e+03
-2.833835e+09 -2.633818e+09 -2.793838e+09 3.870865e+02 -2.169810e+03 -2.468887e+03
-2.810095e+09 -2.610082e+09 -2.770099e+09 1.980835e+02 -5.639434e+02 -2.007786e+03
-3.150702e+09 -2.950704e+09 -3.110708e+09 2.041196e+02 8.261445e+00 9.764550e+01
-1.663330e+09 -1.463321e+09 -1.623332e+09 7.228360e+01 -1.754254e+03 -1.876826e+03
-4.369086e+09 -4.169074e+09 -4.329093e+09 1.477128e+02 -2.575762e+02 -3.258485e+02
-1.629418e+09 -1.429409e+09 -1.589419e+09 7.421103e+01 -7.506490e+02 -1.683457e+03
-2.852663e+09 -2.652651e+09 -2.812668e+09 -1.401203e+02 -2.489942e+03 -2.940654e+03
-4.931092e+09 -4.731081e+09 -4.891100e+09 5.966510e+02 -2.508310e+02 -3.657522e+01
-3.043910e+09 -2.843912e+09 -3.003916e+09 5.865445e+02 8.352615e+01 1.237153e+02
-3.783590e+09 -3.583580e+09 -3.743600e+09 2.680183e+03 -2.597948e+03 -1.109773e+03
-3.421908e+09 -3.221893e+09 -3.381917e+09 5.288350e+03 -6.391060e+03 -3.474160e+03
-1.680314e+09 -1.480315e+09 -1.640320e+09 2.473863e+02 5.828023e+01 1.054441e+02
-2.158901e+09 -1.958902e+09 -2.118907e+09 1.646546e+02 1.998415e+01 -1.192164e+01
-2.398541e+09 -2.198536e+09 -2.358553e+09 9.431302e+03 -1.224760e+04 -8.331198e+03
-2.987919e+09 -2.787898e+09 -2.947925e+09 2.152932e+03 -8.959980e+03 -2.535252e+03
-3.044279e+09 -2.844296e+09 -3.004309e+09 1.383298e+04 -9.410908e+03 -8.940380e+03
-3.955831e+09 -3.755860e+09 -3.915880e+09 6.423924e+03 -7.198484e+03 -4.162508e+03
-2.736257e+09 -2.536281e+09 -2.696291e+09 -3.368031e+03 8.340336e+03 1.873193e+03
-1.637820e+09 -1.437824e+09 -1.597823e+09 2.660178e+02 1.438180e+04 -1.724763e+04
-1.632086e+09 -1.432100e+09 -1.592099e+09 2.115657e+01 5.302612e+03 2.403248e+03
-1.910494e+09 -1.710500e+09 -1.870507e+09 6.002075e+03 -1.047740e+04 -3.348328e+03
-1.585548e+09 -1.385546e+09 -1.545548e+09 9.637245e+02 1.223427e+04 -5.692720e+03
-2.193227e+09 -1.993229e+09 -2.153239e+09 -6.084989e+02 7.933143e+03 -1.671883e+02
-1.584994e+09 -1.384995e+09 -1.544993e+09 1.794114e+03 1.430477e+04 -7.350485e+03
-4.578251e+09 -4.378251e+09 -4.538279e+09 5.368524e+03 -2.037364e+03 -4.111570e+02
-3.836888e+09 -3.636935e+09 -3.796950e+09 -1.556712e+04 1.700898e+03 -2.513374e+03
-4.258226e+09 -4.058294e+09 -4.218291e+09 2.357552e+04 -5.564583e+03 -8.432905e+03
-2.810599e+09 -2.610581e+09 -2.770603e+09 2.058717e+03 -6.318592e+03 -1.452841e+03
-2.874665e+09 -2.674651e+09 -2.834669e+09 8.161914e+00 -9.473099e+02 -1.484188e+03
-4.261505e+09 -4.061578e+09 -4.221579e+09 1.679412e+04 -5.695504e+03 -9.164029e+03
-3.967364e+09 -3.767256e+09 -3.927341e+09 7.256563e+03 3.552350e+03 -5.237808e+02
-2.579192e+09 -2.379179e+09 -2.539195e+09 2.341370e+02 -5.999933e+02 -2.122461e+03
-3.815660e+09 -3.615636e+09 -3.775667e+09 2.331838e+03 -2.860950e+03 -8.539863e+02
-4.133183e+09 -3.933194e+09 -4.093220e+09 2.727457e+04 -7.681244e+03 -7.022472e+03
-1.610627e+09 -1.410618e+09 -1.570628e+09 -3.142985e+02 -2.183783e+03 -2.097905e+03
-4.828828e+09 -4.628828e+09 -4.788857e+09 9.124432e+03 -2.782933e+03 -1.485485e+03
-4.129010e+09 -3.929006e+09 -4.089038e+09 2.004309e+04 -7.445565e+03 -3.773646e+03
-4.996811e+09 -4.796816e+09 -4.956846e+09 1.686862e+04 -1.350603e+03 -1.538121e+03
-2.969267e+09 -2.769311e+09 -2.929321e+09 4.106279e+03 -9.797340e+03 -6.924861e+03
-1.886286e+09 -1.686276e+09 -1.846287e+09 1.048297e+03 -1.195838e+03 -1.724602e+03
-2.071196e+09 -1.871183e+09 -2.031196e+09 5.552185e+02 -3.412695e+03 -2.426292e+03
-3.372620e+09 -3.172693e+09 -3.332690e+09 1.273396e+04 -3.672356e+03 -9.498959e+03
-1.622869e+09 -1.422860e+09 -1.582870e+09 3.753996e+01 -9.200677e+02 -1.979616e+03
-3.146127e+09 -2.946175e+09 -3.106183e+09 2.185241e+03 -7.855951e+03 -4.207695e+03
-2.939016e+09 -2.739072e+09 -2.899074e+09 5.617387e+03 -5.571903e+03 -3.043172e+03
-2.186318e+09 -1.986302e+09 -2.146317e+09 -1.419488e+03 -1.505162e+04 3.277380e+03
-2.192796e+09 -1.992838e+09 -2.152835e+09 1.778844e+03 -6.085299e+03 2.062695e+03
-2.689276e+09 -2.489309e+09 -2.649317e+09 4.900477e+03 -8.510690e+03 -6.583595e+03
-1.798704e+09 -1.598715e+09 -1.758719e+09 7.721186e+03 -9.014872e+03 -4.082745e+03
-4.103281e+09 -3.903257e+09 -4.063288e+09 4.090434e+02 -1.701175e+03 -1.052545e+03
-3.658548e+09 -3.458525e+09 -3.618554e+09 -1.445066e+02 -5.041891e+02 -7.815424e+01
-3.963481e+09 -3.763456e+09 -3.923488e+09 5.515745e+02 -2.246705e+03 -7.975868e+02
-3.199879e+09 -2.999858e+09 -3.159885e+09 1.930122e+03 -7.084658e+03 -3.166071e+03
-1.880843e+09 -1.680831e+09 -1.840844e+09 -6.645739e+03 -1.371092e+04 -6.243162e+01
-3.596622e+09 -3.396603e+09 -3.556629e+09 -5.958080e+02 -4.807138e+02 1.460079e+03
-1.687280e+09 -1.487274e+09 -1.647281e+09 -1.074283e+03 -1.467770e+04 -3.355571e+03
-4.822925e+09 -4.622894e+09 -4.782936e+09 1.056635e+04 -2.786781e+03 -1.838440e+03
-3.409586e+09 -3.209555e+09 -3.369588e+09 -4.104619e+03 -1.315316e+04 1.953159e+03
-2.163909e+09 -1.963896e+09 -2.123910e+09 -1.319995e+03 -4.159814e+03 1.951771e+03
-4.586792e+09 -4.386765e+09 -4.546800e+09 4.351836e+02 -6.735738e+02 -8.556479e+01
-4.635317e+09 -4.435305e+09 -4.595329e+09 -5.197818e+03 -8.086821e+02 6.503864e+02
-4.305008e+09 -4.105002e+09 -4.265017e+09 -8.788940e+02 -3.466889e+02 1.104546e+03
-4.651392e+09 -4.451363e+09 -4.611402e+09 8.929953e+03 -2.520111e+03 -2.062514e+02
-2.818801e+09 -2.618799e+09 -2.778809e+09 -1.789146e+03 -1.404411e+03 1.757870e+03
-3.963405e+09 -3.763367e+09 -3.923411e+09 9.361108e+03 -7.303129e+03 -9.531784e+02
-1.699260e+09 -1.499252e+09 -1.659262e+09 -1.489319e+02 -2.668796e+03 6.351860e+02
-1.581656e+09 -1.381650e+09 -1.541656e+09 -1.788632e+02 -8.418712e+03 9.478227e+02
-3.422981e+09 -3.222963e+09 -3.382990e+09 -7.711750e+03 -8.103540e+03 4.033077e+03
-4.135479e+09 -3.935441e+09 -4.095485e+09 8.476804e+03 -6.496264e+03 -1.527709e+03
-4.990050e+09 -4.790005e+09 -4.950057e+09 1.457064e+04 -3.308682e+03 -2.229298e+03
-4.123866e+09 -3.923832e+09 -4.083878e+09 1.323419e+04 -8.461295e+03 -4.461452e+03
-1.679422e+09 -1.479425e+09 -1.639429e+09 6.990797e+02 1.003541e+04 -4.555662e+03
-4.806579e+09 -4.606536e+09 -4.766587e+09 1.649004e+04 -5.104448e+03 -1.774842e+03
-1.585548e+09 -1.385547e+09 -1.545549e+09 1.260932e+03 1.082893e+04 -6.527514e+03
-4.639452e+09 -4.439418e+09 -4.599464e+09 1.219811e+04 -2.514718e+03 -1.036092e+03
-4.817703e+09 -4.617638e+09 -4.776864e+09 -3.460913e+04 -7.223538e+04 4.389865e+04
-4.819052e+09 -4.619031e+09 -4.778046e+09 -3.351319e+04 -4.780867e+03 2.260820e+04
-4.128843e+09 -3.928744e+09 -4.087918e+09 3.560640e+04 -9.771373e+04 -3.142907e+04
-3.782447e+09 -3.582425e+09 -3.742456e+09 -2.660831e+03 -3.057658e+03 1.519794e+03
-3.129456e+09 -2.929436e+09 -3.089464e+09 -5.359467e+03 -9.262896e+03 4.825555e+03
-2.641854e+09 -2.441842e+09 -2.601859e+09 -2.513160e+02 -7.163707e+02 1.976210e+03
-4.296497e+09 -4.096394e+09 -4.255607e+09 -8.321088e+02 -1.033017e+05 -1.637376e+04
-4.132248e+09 -3.932182e+09 -4.091072e+09 1.122721e+04 -1.772117e+05 -6.412816e+04
-4.646871e+09 -4.446847e+09 -4.605710e+09 -6.110948e+03 -4.959921e+04 -5.535307e+03
-1.632772e+09 -1.432767e+09 -1.592775e+09 -2.638312e+02 -5.150760e+02 2.092241e+03
-3.150681e+09 -2.950665e+09 -3.110686e+09 2.548200e+03 -4.240743e+03 -2.737584e+03
-2.050578e+09 -1.850566e+09 -2.010579e+09 8.116971e+02 -3.604273e+03 -2.321702e+03
-2.754958e+09 -2.554946e+09 -2.714963e+09 3.446415e+02 -3.214399e+03 -1.944281e+03
-2.877784e+09 -2.677773e+09 -2.837789e+09 -1.351217e+02 -7.306395e+02 1.818585e+03
-1.589566e+09 -1.389562e+09 -1.549570e+09 -3.432477e+02 -1.152766e+03 2.111041e+03
-3.072188e+09 -2.872174e+09 -3.032194e+09 1.365781e+03 -3.271267e+03 -2.015754e+03
-2.270635e+09 -2.070622e+09 -2.230638e+09 -2.101842e+03 -6.750477e+03 2.411732e+03
-3.114876e+09 -2.914862e+09 -3.074880e+09 3.943505e+02 -1.562296e+03 -2.444790e+03
-2.344654e+09 -2.144649e+09 -2.304660e+09 -2.168278e+03 -3.000518e+03 2.283195e+03
-2.453969e+09 -2.253963e+09 -2.413976e+09 -3.656941e+03 -3.707146e+03 3.100116e+03
-2.545017e+09 -2.345004e+09 -2.505021e+09 8.414371e+02 -3.664945e+03 -2.450229e+03
-1.683730e+09 -1.483742e+09 -1.643742e+09 -1.763233e+02 -6.724380e+01 2.556714e+02
-3.111616e+09 -2.911631e+09 -3.071633e+09 -6.025540e+02 -2.673613e+02 1.826554e+03
-3.070081e+09 -2.870064e+09 -3.030084e+09 4.889692e+02 -2.006410e+03 -2.313486e+03
-1.899949e+09 -1.699961e+09 -1.859961e+09 -5.907666e+02 -5.082328e+02 1.388389e+03
-1.589721e+09 -1.389732e+09 -1.549733e+09 -5.137077e+02 -2.016579e+02 8.458792e+02
-1.585163e+09 -1.385174e+09 -1.545174e+09 -8.815049e+02 -3.982531e+02 1.135041e+03
-1.886601e+09 -1.686589e+09 -1.846602e+09 -1.212557e+03 -1.589096e+03 -2.396131e+03
-2.120736e+09 -1.920723e+09 -2.080737e+09 2.829899e+02 -3.962175e+02 -1.820350e+03
-2.623125e+09 -2.423119e+09 -2.583131e+09 -6.456659e+02 -1.256066e+03 2.323354e+03
-5.009737e+09 -4.809749e+09 -4.969751e+09 -6.603636e+02 -7.806343e+01 2.372813e+02
-3.374133e+09 -3.174128e+09 -3.334141e+09 -5.446983e+02 -7.278544e+02 1.474883e+03
-3.534587e+09 -3.334583e+09 -3.494595e+09 -8.196059e+02 -7.044815e+02 1.112534e+03
-2.974508e+09 -2.774521e+09 -2.934534e+09 -1.486190e+04 9.819205e+03 -8.500012e+03
-4.375866e+09 -4.175860e+09 -4.335875e+09 -6.260544e+02 -1.021745e+02 9.950928e+02
-4.613791e+09 -4.413782e+09 -4.573800e+09 -1.192654e+03 -1.998993e+02 7.148971e+02
-1.591319e+09 -1.391327e+09 -1.551329e+09 8.602506e+02 2.990801e+02 5.502841e+02
-4.806391e+09 -4.606379e+09 -4.766406e+09 -7.174875e+03 6.339059e+02 -1.349421e+03
-4.811525e+09 -4.611510e+09 -4.771538e+09 -7.783962e+03 2.705776e+03 -4.106935e+02
-4.126492e+09 -3.926476e+09 -4.086508e+09 -1.138311e+04 4.657021e+03 -2.893751e+03
-1.575654e+09 -1.375662e+09 -1.535664e+09 6.308694e+02 1.270472e+02 3.208053e+02
-1.591318e+09 -1.391327e+09 -1.551329e+09 6.104496e+02 1.459060e+02 4.411695e+02
-1.886814e+09 -1.686822e+09 -1.846825e+09 1.045424e+03 5.436280e+02 8.126518e+02
-4.308529e+09 -4.108501e+09 -4.268539e+09 -1.789094e+04 7.845253e+03 -3.533446e+03
-4.475781e+09 -4.275760e+09 -4.435795e+09 -1.066782e+04 4.288398e+03 -2.098093e+03
-3.962347e+09 -3.762344e+09 -3.922364e+09 1.165279e+04 3.425556e+03 3.085187e+03
-3.961987e+09 -3.761970e+09 -3.921997e+09 -7.985526e+03 3.987636e+03 -2.700618e+03
-4.487074e+09 -4.287044e+09 -4.446426e+09 -7.800809e+04 6.434910e+04 -5.452909e+04
-3.966127e+09 -3.765972e+09 -3.925502e+09 -2.890421e+04 1.837817e+05 -5.360819e+04
-3.978872e+09 -3.778678e+09 -3.938535e+09 8.093623e+03 1.116877e+05 1.467263e+03
-2.875100e+09 -2.675141e+09 -2.835145e+09 1.176028e+03 -6.313160e+03 1.348456e+02
-4.991949e+09 -4.791928e+09 -4.951220e+09 -6.211370e+04 2.067977e+04 -2.296582e+03
-3.881451e+09 -3.681439e+09 -3.841464e+09 5.655029e+03 -3.508144e+03 -1.644153e+03
-4.314601e+09 -4.114503e+09 -4.273580e+09 2.596526e+03 1.221602e+05 -9.752834e+03
-4.832172e+09 -4.632099e+09 -4.791143e+09 -1.108111e+04 5.957311e+04 -1.482063e+04
-1.697733e+09 -1.497728e+09 -1.657736e+09 -9.399609e+01 -1.099397e+04 -6.528351e+03
-4.660526e+09 -4.460474e+09 -4.619468e+09 -3.592917e+04 5.554813e+04 -1.856540e+04
-4.991472e+09 -4.791472e+09 -4.951486e+09 8.802917e+03 1.174356e+02 4.119991e+02
-4.507170e+09 -4.307181e+09 -4.467183e+09 4.071906e+02 5.400750e+01 1.526745e+02
-4.644866e+09 -4.444861e+09 -4.604880e+09 8.901877e+03 1.018941e+03 1.017779e+03
-4.607162e+09 -4.407172e+09 -4.567174e+09 2.082899e+02 8.253544e+01 3.130517e+00
-4.394903e+09 -4.194915e+09 -4.354917e+09 7.896231e+02 7.786444e+01 2.966370e+02
-1.889733e+09 -1.689742e+09 -1.849738e+09 5.784334e+02 1.303734e+04 -9.664670e+03
-3.544143e+09 -3.344154e+09 -3.504156e+09 6.008206e+02 2.345673e+02 4.452150e+02
-4.273419e+09 -4.073427e+09 -4.233431e+09 1.264796e+03 9.543843e+01 3.250078e+02
-4.298947e+09 -4.098956e+09 -4.258959e+09 9.484435e+02 1.131555e+02 4.229670e+02
-4.460068e+09 -4.260081e+09 -4.420084e+09 2.355306e+03 6.539442e+02 5.637724e+02
-4.239659e+09 -4.039669e+09 -4.199672e+09 1.265689e+03 1.145278e+02 3.400125e+02
-4.631557e+09 -4.431568e+09 -4.591571e+09 1.778216e+03 1.240038e+02 5.506662e+02
-4.990728e+09 -4.790738e+09 -4.950743e+09 2.217426e+03 4.528560e+01 1.749469e+02
-3.927405e+09 -3.727414e+09 -3.887417e+09 1.903500e+03 3.882995e+02 7.001184e+02
-4.630977e+09 -4.431077e+09 -4.591047e+09 -3.013138e+04 -3.309346e+02 4.973306e+03
-1.584994e+09 -1.384996e+09 -1.545000e+09 -5.205078e+01 1.268394e+04 -6.768069e+03
-4.048627e+09 -3.848637e+09 -4.008640e+09 1.206578e+03 3.160606e+02 2.953608e+02
-1.940172e+09 -1.740198e+09 -1.900194e+09 6.313911e+03 5.796518e+03 -2.381398e+03
-3.034436e+09 -2.834495e+09 -2.994499e+09 -2.954312e+03 6.752044e+03 -7.137114e+03
-1.938205e+09 -1.738219e+09 -1.898221e+09 -7.920883e+03 6.915325e+03 -3.912191e+03
-4.979941e+09 -4.779858e+09 -4.939906e+09 -2.377699e+04 7.059405e+03 3.213275e+03
-3.244880e+09 -3.044935e+09 -3.204940e+09 -6.844651e+03 6.564198e+03 -7.290209e+03
-3.178222e+09 -2.978282e+09 -3.138284e+09 -1.489760e+03 7.305769e+03 -7.288861e+03
-3.022199e+09 -2.822240e+09 -2.982241e+09 -8.995582e+03 6.070948e+03 -6.719746e+03
-2.273092e+09 -2.073082e+09 -2.233097e+09 -4.144418e+03 -6.751383e+03 5.037258e+03
-3.228722e+09 -3.028702e+09 -3.188727e+09 2.013649e+01 -2.352235e+03 -5.370787e+02
-4.820738e+09 -4.620725e+09 -4.780751e+09 -1.021480e+04 -2.213390e+03 1.432612e+03
-3.202380e+09 -3.002358e+09 -3.162384e+09 -2.375768e+02 -3.218071e+03 1.126952e+02
-4.989109e+09 -4.789095e+09 -4.949122e+09 -8.043613e+03 -2.058997e+03 9.590792e+02
-2.666933e+09 -2.466921e+09 -2.626935e+09 -3.628836e+02 2.188594e+03 -1.112340e+03
-2.462325e+09 -2.262311e+09 -2.422326e+09 -3.077506e+02 3.660031e+03 -1.070119e+03
-2.793469e+09 -2.593455e+09 -2.753471e+09 -1.318643e+03 3.207076e+03 -1.136739e+03
-2.148467e+09 -1.948455e+09 -2.108467e+09 -3.345396e+02 2.408103e+03 -7.898034e+02
-2.178947e+09 -1.978934e+09 -2.138947e+09 -7.709747e+01 2.838997e+02 -6.903922e+02
-2.472302e+09 -2.272311e+09 -2.432323e+09 3.965890e+03 -1.059111e+04 -5.548465e+03
-3.803483e+09 -3.603499e+09 -3.763521e+09 1.777244e+03 -5.821754e+03 -1.970235e+02
-1.585163e+09 -1.385174e+09 -1.545175e+09 -4.218938e+02 -1.987871e+02 6.215453e+02
-1.878514e+09 -1.678531e+09 -1.838526e+09 -2.379286e+03 -1.059905e+04 -7.080578e+03
-3.166144e+09 -2.966153e+09 -3.126155e+09 -4.150098e+02 -2.214890e+02 1.505718e+02
-1.725364e+09 -1.525365e+09 -1.685371e+09 6.192117e+01 -1.015511e+04 -3.092759e+03
-4.925556e+09 -4.725566e+09 -4.885568e+09 -1.744465e+02 4.260636e+01 -4.987072e-05
-4.817736e+09 -4.617730e+09 -4.777749e+09 8.662444e+03 5.309081e+02 9.269459e+02
-4.930810e+09 -4.730822e+09 -4.890824e+09 -1.373457e+02 1.074537e+01 -2.635413e-08
-3.961612e+09 -3.761568e+09 -3.921611e+09 -2.955417e+04 2.442003e+03 5.922646e+02
-2.158030e+09 -1.958034e+09 -2.118043e+09 2.473982e+03 -9.374543e+03 -4.351656e+03
-2.256203e+09 -2.056215e+09 -2.216223e+09 6.160437e+03 -1.031445e+04 -6.060573e+03
-1.930741e+09 -1.730751e+09 -1.890753e+09 -1.628420e+02 -2.964486e+01 2.226757e+02
-3.803804e+09 -3.603815e+09 -3.763816e+09 -9.387521e+01 -1.534778e+01 1.466113e+02
-2.765005e+09 -2.565020e+09 -2.725032e+09 3.187306e+03 -7.813263e+03 1.001623e+03
-1.623004e+09 -1.423008e+09 -1.583012e+09 7.907197e+01 5.963261e+01 4.519135e+01
-2.119848e+09 -1.919852e+09 -2.079856e+09 8.940036e+01 -1.579945e+01 2.106439e+01
-4.763088e+09 -4.563095e+09 -4.723098e+09 3.435885e+02 -1.374671e+01 1.256825e+02
-3.682553e+09 -3.482556e+09 -3.642560e+09 -5.589341e+02 -1.591301e+02 3.373884e+02
-2.071394e+09 -1.871396e+09 -2.031401e+09 -9.846779e+02 -5.109743e+02 7.186600e+02
-2.858045e+09 -2.658048e+09 -2.818052e+09 3.704088e+00 -2.938891e+01 -1.221217e+00
-2.050956e+09 -1.850959e+09 -2.010964e+09 -7.603106e+02 -3.582359e+02 4.896333e+02
-1.642710e+09 -1.442713e+09 -1.602718e+09 3.352201e+01 2.501604e+01 2.131815e+01
-3.079050e+09 -2.879053e+09 -3.039057e+09 4.890713e+01 -6.881428e+00 1.153971e+01
-3.108044e+09 -2.908046e+09 -3.068051e+09 -2.249284e+02 -6.699856e+01 4.018518e+02
-1.589994e+09 -1.389996e+09 -1.550001e+09 5.021041e+01 4.312780e+00 2.580196e+00
-3.118155e+09 -2.918155e+09 -3.078162e+09 -3.797622e+02 -2.429111e+02 6.961682e+02
-1.674633e+09 -1.474634e+09 -1.634639e+09 -3.296000e+02 -1.997378e+02 4.969869e+02
-1.909250e+09 -1.709252e+09 -1.869257e+09 -2.531372e+02 -1.779425e+02 2.951635e+02
-1.556310e+09 -1.356313e+09 -1.516317e+09 4.269803e+02 1.700827e+02 7.043361e+01
-4.120026e+09 -3.920018e+09 -4.080032e+09 5.181085e+02 3.488872e+02 5.856195e+02
-3.335540e+09 -3.135532e+09 -3.295545e+09 1.636582e+03 1.363597e+03 1.370685e+03
-1.952917e+09 -1.752911e+09 -1.912920e+09 6.738926e+02 5.323877e+02 6.723990e+02
-2.230045e+09 -2.030037e+09 -2.190047e+09 1.122357e+03 1.761681e+03 8.426483e+02
-4.991633e+09 -4.791645e+09 -4.951649e+09 -2.085003e+03 -1.713399e+02 1.683360e+02
-3.693927e+09 -3.493940e+09 -3.653942e+09 -1.951012e+02 -8.751007e+01 8.108486e+02
-2.762081e+09 -2.562073e+09 -2.722085e+09 4.796373e+02 2.613515e+02 9.668525e+02
-4.518237e+09 -4.318248e+09 -4.478250e+09 -1.629442e+02 -1.036338e+02 7.553661e+01
-4.132289e+09 -3.932302e+09 -4.092305e+09 -2.732581e+03 -4.215267e+01 1.341034e+03
-3.490371e+09 -3.290384e+09 -3.450386e+09 -6.345681e+02 6.180584e+01 9.980484e+02
-3.073946e+09 -2.873937e+09 -3.033950e+09 5.834733e+02 8.670688e+02 1.291788e+03
-2.708699e+09 -2.508712e+09 -2.668713e+09 -6.118740e+02 -3.594627e+02 1.421236e+03
-2.476927e+09 -2.276920e+09 -2.436931e+09 1.556773e+03 2.187262e+03 1.548904e+03
-1.762708e+09 -1.562720e+09 -1.722721e+09 -3.032524e+02 -1.551510e+02 1.126008e+03
-1.780326e+09 -1.580338e+09 -1.740338e+09 -6.361633e+02 -5.871715e+01 1.406290e+03
-2.813890e+09 -2.613884e+09 -2.773894e+09 8.899955e+02 5.721437e+02 1.099330e+03
-4.309798e+09 -4.109800e+09 -4.269805e+09 1.115606e+03 -5.056544e+01 3.236358e+01
-4.080866e+09 -3.880868e+09 -4.040874e+09 1.454800e+03 3.030749e+02 4.203616e+01
-3.910372e+09 -3.710374e+09 -3.870379e+09 1.498030e+03 3.505771e+02 3.375355e+02
-4.133387e+09 -3.933388e+09 -4.093395e+09 2.164859e+03 1.638741e+02 6.366266e+02
-1.572104e+09 -1.372115e+09 -1.532116e+09 -3.043087e+02 -1.038820e+02 7.932276e+02
-4.255511e+09 -4.055513e+09 -4.215519e+09 1.275434e+03 1.373068e+02 1.115779e+02
-3.634665e+09 -3.434678e+09 -3.594679e+09 -2.100665e+02 -1.271918e+02 2.196419e+02
-4.932518e+09 -4.732531e+09 -4.892532e+09 -1.828588e+02 1.689948e+01 1.172494e+01
-4.755827e+09 -4.555842e+09 -4.715844e+09 -2.639154e+02 3.072213e+02 2.971871e+02
-4.822642e+09 -4.622643e+09 -4.782650e+09 1.363078e+03 -7.115072e-01 1.350732e+02
-3.197123e+09 -2.997120e+09 -3.157138e+09 -2.039388e+03 6.327472e+03 -1.339316e+03
-3.063724e+09 -2.863716e+09 -3.023730e+09 -5.031279e+02 3.473875e+03 -5.101245e+02
-1.579531e+09 -1.379543e+09 -1.539544e+09 -1.125012e+02 -5.803469e+01 8.488901e+02
-2.848827e+09 -2.648839e+09 -2.808840e+09 -1.575692e+02 -5.223655e+01 2.159238e+02
-3.173927e+09 -2.973918e+09 -3.133931e+09 -2.386569e+02 2.294726e+03 -4.019199e+02
-2.917684e+09 -2.717692e+09 -2.877694e+09 7.809333e+02 3.667239e+01 3.887431e+02
-2.807430e+09 -2.607438e+09 -2.767440e+09 2.212325e+02 1.656248e+02 4.600742e+01
-1.632526e+09 -1.432534e+09 -1.592536e+09 3.447687e+02 1.655437e+02 1.151569e+02
-1.883902e+09 -1.683914e+09 -1.843904e+09 1.286533e+03 1.248940e+04 -1.133679e+04
-4.126585e+09 -3.926533e+09 -4.086589e+09 -1.503198e+04 9.883171e+03 -3.727555e+03
-1.896607e+09 -1.696602e+09 -1.856611e+09 -2.258684e+02 5.526663e+03 -1.693095e+03
-3.162721e+09 -2.962716e+09 -3.122732e+09 -5.849492e+02 5.264535e+03 -1.146728e+03
-1.704033e+09 -1.504027e+09 -1.664037e+09 -4.920467e+01 5.474334e+03 -9.762924e+02
-2.320512e+09 -2.120494e+09 -2.280513e+09 9.521138e+01 -5.430480e+03 -7.117547e+02
-4.603477e+09 -4.403456e+09 -4.563486e+09 4.190614e+03 -1.031572e+03 -5.793935e+02
-1.940475e+09 -1.740468e+09 -1.900479e+09 -9.269854e+02 4.383066e+03 -4.924018e+02
-2.555225e+09 -2.355230e+09 -2.515233e+09 -1.949990e+02 -3.401767e+01 4.340375e+01
-2.781063e+09 -2.581067e+09 -2.741071e+09 -7.046182e+02 -1.958053e+02 3.010257e+02
-3.916064e+09 -3.716026e+09 -3.876068e+09 -9.405483e+02 -5.505983e+03 7.591816e+02
-3.032445e+09 -2.832424e+09 -2.992450e+09 3.542701e+01 -3.185391e+03 4.412489e+02
-2.473282e+09 -2.273269e+09 -2.433288e+09 -2.562788e+03 -6.921046e+03 2.717371e+03
-1.961798e+09 -1.761786e+09 -1.921799e+09 -2.207897e+03 -2.012361e+03 -1.909658e+02
-2.816646e+09 -2.616650e+09 -2.776654e+09 -1.881989e+02 -3.369231e+01 2.166621e+01
-4.420018e+09 -4.220022e+09 -4.380026e+09 -1.766628e+02 -2.928220e+01 2.773756e+01
-1.631303e+09 -1.431296e+09 -1.591304e+09 -1.626665e+02 -1.327456e+03 -6.016727e+02
-3.517936e+09 -3.317941e+09 -3.477944e+09 -5.268758e+01 -3.294858e+01 1.163617e+01
-3.703740e+09 -3.503744e+09 -3.663748e+09 -8.412644e+01 -4.223003e+00 2.613366e+01
-2.776784e+09 -2.576788e+09 -2.736792e+09 -3.598156e+01 -3.644713e+01 -2.671719e+00
-4.105505e+09 -3.905509e+09 -4.065513e+09 -1.373730e+02 -3.971017e+01 8.321077e+01
-3.713779e+09 -3.513873e+09 -3.673853e+09 -2.006311e+04 3.474769e+03 -6.791256e+03
-2.643549e+09 -2.443634e+09 -2.603616e+09 2.946508e+03 6.688580e+03 -1.813116e+04
-2.070967e+09 -1.871009e+09 -2.031004e+09 1.416903e+03 -4.578462e+03 -8.320264e+03
-1.913301e+09 -1.713340e+09 -1.873306e+09 -8.658085e+03 2.047873e+03 -9.440671e+03
-4.302128e+09 -4.102073e+09 -4.262127e+09 4.072850e+03 -1.128667e+04 -1.613774e+03
-4.131732e+09 -3.931667e+09 -4.091727e+09 2.304254e+03 -1.090462e+04 -8.473033e+02
-4.301170e+09 -4.101114e+09 -4.261169e+09 -1.359304e+03 -1.143798e+04 1.300052e+03
-4.301807e+09 -4.101738e+09 -4.261805e+09 -1.377793e+03 -9.500959e+03 6.179203e+02
-4.305306e+09 -4.105240e+09 -4.265307e+09 7.356695e+03 -1.006077e+04 -1.547624e+03
-3.776497e+09 -3.576472e+09 -3.736505e+09 -5.201915e+02 -3.443237e+03 4.374273e+02
-2.178319e+09 -1.978305e+09 -2.138320e+09 -7.860234e+02 -4.608725e+03 1.177694e+03
-4.992928e+09 -4.792880e+09 -4.952934e+09 -3.659842e+03 -6.627476e+02 -1.397725e+02
-3.244367e+09 -3.044346e+09 -3.204371e+09 -6.251513e+02 -3.000426e+03 8.418049e+02
-4.757401e+09 -4.557374e+09 -4.717409e+09 -1.262668e+02 -2.999933e+02 -5.058198e+02
-4.584268e+09 -4.384352e+09 -4.544352e+09 4.353650e+03 -1.630350e+03 -1.304611e+03
-1.712656e+09 -1.512649e+09 -1.672659e+09 5.323912e+02 -3.253554e+03 2.997783e+02
-3.782966e+09 -3.583053e+09 -3.743040e+09 2.290351e+03 -1.358022e+03 -3.389807e+03
-3.454819e+09 -3.254792e+09 -3.414823e+09 -6.623947e+03 -1.121932e+04 3.002533e+03
-4.046030e+09 -3.846013e+09 -4.006039e+09 -6.810333e+03 -3.468728e+03 1.717518e+03
-1.637023e+09 -1.437016e+09 -1.597025e+09 -4.324169e+01 -1.095602e+03 1.136217e+03
-3.639431e+09 -3.439511e+09 -3.599509e+09 -7.459587e+02 6.936037e+02 2.387372e+03
-4.821633e+09 -4.621595e+09 -4.781641e+09 -1.372003e+03 -2.857052e+03 4.485754e+02
-4.810608e+09 -4.610593e+09 -4.770618e+09 -3.420824e+03 -3.997699e+02 9.676118e+02
-4.982066e+09 -4.782049e+09 -4.942076e+09 -3.280041e+03 -5.282102e+02 1.626772e+02
-3.620207e+09 -3.420282e+09 -3.580282e+09 3.539803e+03 -2.199882e+03 -9.277926e+02
-4.134624e+09 -3.934594e+09 -4.094600e+09 -4.989113e+04 -6.397841e+03 3.768800e+03
-4.532708e+09 -4.332690e+09 -4.492717e+09 -1.396608e+03 -2.151756e+02 9.547181e+02
-5.003090e+09 -4.803068e+09 -4.963098e+09 -3.319678e+03 1.361158e+02 -2.517426e+02
-4.133066e+09 -3.933042e+09 -4.093035e+09 -5.808691e+04 1.079131e+04 -3.450780e+03
-4.589878e+09 -4.389861e+09 -4.549887e+09 -2.426420e+03 -7.993080e+02 6.211080e+02
-2.032602e+09 -1.832593e+09 -1.992603e+09 -7.286157e+01 -9.043519e+03 -1.385928e+03
-1.582788e+09 -1.382782e+09 -1.542790e+09 -2.506113e+02 -4.513829e+03 3.300082e+03
-4.979929e+09 -4.779856e+09 -4.939903e+09 -3.737276e+04 8.393605e+03 -5.951306e+03
-3.975907e+09 -3.775896e+09 -3.935916e+09 -3.854674e+03 -1.990131e+03 9.295666e+02
-4.992125e+09 -4.792090e+09 -4.952128e+09 -4.717998e+04 3.963112e+03 -1.938007e+03
-4.647378e+09 -4.447412e+09 -4.607336e+09 -7.436370e+04 -2.835650e+02 1.811521e+04
-4.476319e+09 -4.276362e+09 -4.436349e+09 -4.632939e+04 8.526415e+01 3.411234e+03
-4.818373e+09 -4.618369e+09 -4.778387e+09 -4.406581e+04 -3.107241e+03 1.562566e+03
-3.009015e+09 -2.809002e+09 -2.969021e+09 -1.217879e+03 -2.291708e+03 2.324922e+03
-4.991363e+09 -4.791361e+09 -4.951369e+09 -4.815150e+04 3.837794e+03 -5.765446e+03
-4.476546e+09 -4.276584e+09 -4.436590e+09 -3.323320e+04 6.863443e+03 -6.895466e+03
-4.132661e+09 -3.932650e+09 -4.092668e+09 -3.709307e+04 2.050961e+03 -2.552174e+03
-2.553026e+09 -2.353010e+09 -2.513030e+09 3.103401e+03 -6.030266e+03 -2.692104e+03
-3.954487e+09 -3.754464e+09 -3.914495e+09 -1.292356e+03 -2.183279e+03 1.079835e+03
-3.530266e+09 -3.330247e+09 -3.490273e+09 4.702337e+02 -4.975595e+02 -1.499676e+03
-1.580536e+09 -1.380528e+09 -1.540536e+09 3.655354e+02 5.543842e+03 -2.857439e+02
-2.034320e+09 -1.834307e+09 -1.994320e+09 3.054480e+02 2.751294e+03 1.529833e+02
-2.637929e+09 -2.437929e+09 -2.597936e+09 -1.786538e+02 -1.821015e+02 9.032157e+02
-1.915731e+09 -1.715732e+09 -1.875738e+09 -1.953391e+02 -1.460981e+02 5.093864e+02
-4.993020e+09 -4.793026e+09 -4.953034e+09 4.545228e+03 1.431468e+02 3.274487e+02
-3.076610e+09 -2.876595e+09 -3.036612e+09 -5.818889e+01 1.806766e+03 -3.477514e+02
-3.960583e+09 -3.760586e+09 -3.920593e+09 2.524363e+03 3.649364e+02 5.925281e+02
-3.794811e+09 -3.594792e+09 -3.754814e+09 -6.233326e+02 2.039839e+03 -2.518493e+02
-2.877506e+09 -2.677491e+09 -2.837508e+09 -2.284263e+02 1.673513e+03 -2.336396e+02
-4.135092e+09 -3.935099e+09 -4.095101e+09 2.750735e+02 1.904031e+02 -4.428791e+01
-4.992601e+09 -4.792607e+09 -4.952617e+09 6.658204e+03 3.422383e+02 4.843381e+02
-4.645761e+09 -4.445776e+09 -4.605785e+09 9.238761e+03 5.507452e+02 1.683847e+03
-3.708363e+09 -3.508353e+09 -3.668367e+09 8.655415e+01 7.290648e+02 -2.211261e+02
-3.031982e+09 -2.831972e+09 -2.991984e+09 -5.791831e+02 1.002860e+03 -5.435648e+02
-4.990667e+09 -4.790681e+09 -4.950688e+09 4.770332e+03 3.508607e+02 6.765230e+02
-4.977585e+09 -4.777592e+09 -4.937596e+09 1.364281e+03 1.855934e+01 5.894087e+01
-1.673010e+09 -1.473001e+09 -1.633011e+09 1.262321e+02 7.989983e+02 -8.287209e+02
-4.302958e+09 -4.102962e+09 -4.262968e+09 2.175637e+03 3.115220e+02 1.872395e+02
-4.646626e+09 -4.446633e+09 -4.606641e+09 4.970957e+03 4.348480e+02 7.764587e+02
-3.471577e+09 -3.271600e+09 -3.431611e+09 -2.680763e+04 1.273159e+04 -1.419503e+04
-1.637819e+09 -1.437824e+09 -1.597819e+09 -4.952779e+01 1.122273e+04 -1.596199e+04
-2.171748e+09 -1.971774e+09 -2.131777e+09 -1.072783e+04 7.451394e+03 -2.912000e+03
-3.748915e+09 -3.548905e+09 -3.708918e+09 6.577353e+01 4.224730e+02 -4.080906e+02
-4.642287e+09 -4.442278e+09 -4.602298e+09 -2.699190e+03 1.529154e+03 3.767743e+01
-3.484960e+09 -3.284950e+09 -3.444963e+09 -1.710176e+02 7.000455e+02 -2.681936e+02
-1.687740e+09 -1.487744e+09 -1.647744e+09 1.023080e+03 1.061109e+04 -1.509249e+04
-1.584583e+09 -1.384586e+09 -1.544583e+09 4.927775e+02 1.270845e+04 -1.470126e+04
-2.570430e+09 -2.370440e+09 -2.530451e+09 -1.318620e+04 3.287191e+03 -2.873387e+03
-3.962172e+09 -3.762276e+09 -3.922188e+09 -3.429904e+04 -8.852522e+02 3.270072e+03
-1.590902e+09 -1.390906e+09 -1.550898e+09 2.265360e+02 6.783702e+03 -1.935397e+04
-3.920661e+09 -3.720712e+09 -3.880719e+09 -3.006322e+04 1.027921e+03 -5.889340e+03
-3.915265e+09 -3.715245e+09 -3.875271e+09 4.136408e+03 3.698629e+03 1.045408e+03
-4.975987e+09 -4.775970e+09 -4.935993e+09 2.318163e+03 5.910403e+02 8.145693e+01
-3.445662e+09 -3.245643e+09 -3.405667e+09 3.994186e+03 6.855778e+03 1.812547e+03
-3.962189e+09 -3.762147e+09 -3.922189e+09 -3.891370e+03 8.642441e+03 -7.934835e+02
-1.935566e+09 -1.735559e+09 -1.895569e+09 -2.131115e+02 4.211653e+03 -1.304435e+03
-4.305046e+09 -4.105006e+09 -4.265048e+09 7.447980e+03 7.670245e+03 1.177880e+03
-4.995494e+09 -4.795475e+09 -4.955498e+09 -1.102446e+03 3.536226e+02 -1.280547e+02
-1.973477e+09 -1.773468e+09 -1.933477e+09 -2.915092e+02 1.400867e+03 -4.578192e+02
-3.114706e+09 -2.914712e+09 -3.074731e+09 -5.932865e+03 8.979122e+03 -3.292437e+03
-4.993631e+09 -4.793610e+09 -4.953635e+09 -5.231751e+02 2.878919e+02 -5.564279e+01
-4.921986e+09 -4.721969e+09 -4.881990e+09 -3.445099e+02 3.754773e-07 -6.103374e+01
-4.131832e+09 -3.931791e+09 -4.091836e+09 -6.374294e+03 7.830206e+03 -1.403037e+02
-3.961309e+09 -3.761270e+09 -3.921313e+09 3.304605e+03 6.441938e+03 4.142212e+02
-4.295173e+09 -4.095129e+09 -4.255177e+09 -1.923485e+04 7.579093e+03 -2.110713e+03
-2.924752e+09 -2.724743e+09 -2.884754e+09 -2.821746e+02 8.836631e+02 -3.793825e+02
-3.962391e+09 -3.762364e+09 -3.922396e+09 4.596068e+03 5.515022e+03 5.494006e+02
-4.475653e+09 -4.275598e+09 -4.435658e+09 -5.759050e+03 -4.758342e+03 2.846574e+02
-2.472668e+09 -2.272658e+09 -2.432670e+09 -9.144066e+02 1.810811e+03 -7.180158e+02
-2.998802e+09 -2.798792e+09 -2.958803e+09 -1.749713e+02 7.374469e+02 -2.399005e+02
-3.961680e+09 -3.761664e+09 -3.921693e+09 -1.224463e+04 -4.711389e+03 3.201697e+03
-2.950475e+09 -2.750484e+09 -2.910486e+09 -3.499464e+02 -2.941156e+02 1.066521e+02
-3.962064e+09 -3.762029e+09 -3.922071e+09 -1.128499e+04 -8.570809e+03 3.384419e+03
-4.095763e+09 -3.895731e+09 -4.055771e+09 -4.961853e+03 -4.536183e+03 2.028127e+03
-4.992808e+09 -4.792769e+09 -4.952818e+09 -8.879057e+03 -2.654186e+03 2.413581e+02
-4.129028e+09 -3.929031e+09 -4.089040e+09 -4.105256e+03 -1.382087e+03 7.196059e+02
-2.708552e+09 -2.508562e+09 -2.668564e+09 -1.910750e+02 -1.473456e+02 2.359281e+01
-3.137951e+09 -2.937959e+09 -3.097961e+09 -1.562559e+02 -1.913889e+02 1.444518e+02
-2.714959e+09 -2.514967e+09 -2.674970e+09 -2.021909e+02 -1.305417e+02 -1.068383e+01
-4.653618e+09 -4.453623e+09 -4.613640e+09 -1.212421e+04 -2.130475e+03 1.954020e+03
-4.647404e+09 -4.447342e+09 -4.607378e+09 -5.159861e+04 7.143869e+03 2.364256e+03
-4.649112e+09 -4.449040e+09 -4.609103e+09 3.030331e+03 -2.975151e+03 -1.208994e+02
-2.762551e+09 -2.562560e+09 -2.722562e+09 -7.646052e+02 -2.129962e+02 3.163624e+02
-1.940265e+09 -1.740274e+09 -1.900276e+09 -1.931657e+02 -1.492087e+02 9.256924e+01
-3.962353e+09 -3.762303e+09 -3.922350e+09 -1.595761e+04 -1.077173e+04 3.120550e+03
-2.180999e+09 -1.981007e+09 -2.141009e+09 -1.548082e+02 -2.786295e+01 9.954616e+01
-1.896620e+09 -1.696620e+09 -1.856626e+09 1.296122e+03 5.097732e+02 4.129632e+02
-4.820990e+09 -4.620945e+09 -4.780997e+09 -6.223961e+03 -4.675725e+03 -5.799577e+02
-3.959637e+09 -3.759606e+09 -3.919643e+09 -1.479407e+04 8.545889e+03 -3.774501e+03
-4.132423e+09 -3.932374e+09 -4.092426e+09 -7.132687e+03 -9.980196e+03 4.800818e+02
-4.591612e+09 -4.391587e+09 -4.551620e+09 -1.387593e+03 -4.456220e+02 3.299269e+02
-4.135299e+09 -3.935231e+09 -4.095291e+09 2.490210e+03 -1.106610e+04 -2.276844e+02
-4.992040e+09 -4.791983e+09 -4.952045e+09 -1.140353e+04 -4.033460e+03 6.182056e+02
-3.959583e+09 -3.759588e+09 -3.919595e+09 -2.937148e+03 -7.133621e+02 6.955260e+02
-2.959995e+09 -2.759997e+09 -2.920004e+09 -1.857981e+03 -7.283309e+02 1.133692e+03
-3.116526e+09 -2.916526e+09 -3.076532e+09 7.455654e+02 3.123118e+02 7.502699e+01
-4.809281e+09 -4.609287e+09 -4.769295e+09 -4.302956e+03 6.344866e+01 7.796072e+02
-3.003611e+09 -2.803637e+09 -2.963641e+09 -2.044002e+04 1.036980e+04 -1.029739e+04
-4.806495e+09 -4.606500e+09 -4.766506e+09 -2.643331e+03 -2.925178e+02 1.148643e+02
-3.544393e+09 -3.344394e+09 -3.504400e+09 1.452672e+03 4.477668e+02 3.594851e+02
-4.440424e+09 -4.240433e+09 -4.400440e+09 -4.861563e+03 -4.248602e+02 1.209545e+03
-3.069335e+09 -2.869335e+09 -3.029341e+09 1.576588e+03 6.607218e+02 6.780221e+02
-4.804016e+09 -4.604022e+09 -4.764027e+09 -1.552714e+03 8.687322e+01 1.758050e+02
-4.655381e+09 -4.455392e+09 -4.615400e+09 -6.381478e+03 -4.185957e+02 1.555919e+03
-2.844850e+09 -2.644834e+09 -2.804851e+09 1.132700e+03 3.547802e+03 7.941412e+02
-4.817866e+09 -4.617822e+09 -4.777870e+09 1.974834e+03 2.658550e+03 5.707609e+02
-3.383324e+09 -3.183307e+09 -3.343328e+09 1.299166e+03 4.751091e+03 3.864388e+02
-3.962184e+09 -3.762128e+09 -3.922185e+09 -5.407499e+03 7.282623e+03 -1.104720e+03
-3.215140e+09 -3.015122e+09 -3.175145e+09 3.417090e+03 7.419665e+03 1.311145e+02
-4.260366e+09 -4.060347e+09 -4.220371e+09 1.348698e+03 2.294247e+03 2.439165e+02
-4.818173e+09 -4.618151e+09 -4.778179e+09 3.622918e+03 1.984481e+03 -3.222031e+02
-3.389038e+09 -3.189020e+09 -3.349042e+09 4.452212e+02 5.415510e+03 6.310144e+01
-3.961542e+09 -3.761545e+09 -3.921557e+09 -6.493358e+03 -2.177171e+03 2.339325e+03
-2.847007e+09 -2.646993e+09 -2.807009e+09 3.375139e+02 1.330409e+03 6.493155e+02
-3.784765e+09 -3.584748e+09 -3.744770e+09 7.802974e+02 1.652056e+03 3.458377e+02
-4.818409e+09 -4.618359e+09 -4.778414e+09 7.677139e+02 -3.958910e+03 2.918066e+01
-3.962343e+09 -3.762301e+09 -3.922349e+09 -4.960635e+03 -7.141200e+03 2.117835e+03
-4.134524e+09 -3.934481e+09 -4.094531e+09 -5.129634e+03 -7.421806e+03 1.942319e+03
-4.817987e+09 -4.617992e+09 -4.778005e+09 -9.067209e+03 -1.090825e+02 1.617706e+03
-4.818859e+09 -4.618857e+09 -4.778882e+09 -1.740335e+04 -2.489966e+03 2.044640e+03
-4.989882e+09 -4.789888e+09 -4.949901e+09 -8.871169e+03 -2.899228e+02 5.276836e+02
-4.133607e+09 -3.933605e+09 -4.093620e+09 -7.164670e+03 -2.114117e+03 1.860929e+03
-4.131710e+09 -3.931641e+09 -4.091701e+09 -5.170157e+03 -9.735666e+03 3.486366e+02
-4.301963e+09 -4.101891e+09 -4.261948e+09 -5.584699e+03 -1.190276e+04 1.894150e+02
-4.653520e+09 -4.453578e+09 -4.613571e+09 -1.874858e+04 -6.904867e+02 3.025312e+03
-4.818174e+09 -4.618103e+09 -4.778170e+09 -2.777473e+03 -4.369376e+03 -3.215514e+02
-4.302674e+09 -4.102610e+09 -4.262675e+09 -8.486142e+03 -9.731082e+03 1.543651e+03
-4.134000e+09 -3.933959e+09 -4.093952e+09 6.734430e+04 -4.351747e+03 3.900806e+03
-4.649099e+09 -4.449002e+09 -4.609037e+09 5.098817e+04 -1.438224e+02 9.280002e+02
-4.988698e+09 -4.788551e+09 -4.948206e+09 5.798940e+04 1.188612e+04 7.165046e+03
-4.991010e+09 -4.790943e+09 -4.951002e+09 -8.897276e+03 -3.627890e+03 -5.246996e+02
-3.962580e+09 -3.762511e+09 -3.922448e+09 7.357945e+04 2.042434e+04 1.441903e+04
-4.990763e+09 -4.790604e+09 -4.950569e+09 2.171676e+04 -4.880175e+03 -1.566330e+03
-4.988650e+09 -4.788497e+09 -4.948182e+09 2.562313e+04 3.372064e+03 2.063071e+04
-2.728782e+09 -2.528775e+09 -2.688790e+09 1.693791e+03 -5.424663e+03 -1.883464e+03
-4.820081e+09 -4.620144e+09 -4.779769e+09 8.610547e+04 -2.531225e+04 9.629199e+03
-2.138386e+09 -1.938378e+09 -2.098390e+09 1.729523e+02 -4.919839e+03 -2.476956e+02
-4.992603e+09 -4.792573e+09 -4.952175e+09 9.051599e+04 3.701436e+03 5.257177e+03
-4.992497e+09 -4.792541e+09 -4.952143e+09 7.899404e+04 6.900471e+03 -5.124141e+03
-4.304017e+09 -4.103998e+09 -4.263968e+09 7.506108e+04 7.108390e+03 4.305706e+03
-4.990992e+09 -4.791002e+09 -4.950812e+09 9.265084e+04 -1.342135e+03 -1.404103e+03
-3.749305e+09 -3.549299e+09 -3.709323e+09 3.880283e+03 -4.949356e+03 -1.815234e+03
-2.965032e+09 -2.765026e+09 -2.925042e+09 1.401586e+03 -5.706678e+03 -1.158316e+03
-3.264883e+09 -3.064879e+09 -3.224899e+09 7.333909e+02 -6.020977e+03 -1.011751e+03
-4.137938e+09 -3.937850e+09 -4.097912e+09 -4.432444e+02 -1.047692e+04 3.241030e+03
-3.963779e+09 -3.763724e+09 -3.923574e+09 7.950207e+04 5.420313e+04 3.822736e+04
-4.820614e+09 -4.620543e+09 -4.780493e+09 6.793487e+04 -3.875412e+03 -7.939035e+03
-4.134068e+09 -3.934041e+09 -4.093850e+09 8.916608e+04 5.562011e+04 4.155052e+04
-4.647228e+09 -4.447209e+09 -4.607125e+09 7.503899e+04 7.386968e+03 9.742845e+03
-4.819682e+09 -4.619666e+09 -4.779697e+09 1.548083e+04 7.177306e+02 1.134473e+03
-4.818201e+09 -4.618132e+09 -4.778198e+09 1.283842e+03 -3.245783e+03 -5.513832e+02
-4.645041e+09 -4.444973e+09 -4.605044e+09 -1.387460e+03 -3.575244e+03 -1.189209e+03
-4.992433e+09 -4.792339e+09 -4.952395e+09 -7.024997e+03 -4.295591e+03 -7.951270e+02
-4.303271e+09 -4.103253e+09 -4.263287e+09 2.800146e+04 7.441079e+03 5.891899e+03
-4.992038e+09 -4.792018e+09 -4.952054e+09 2.056513e+04 2.234023e+03 1.554331e+03
-3.967315e+09 -3.767188e+09 -3.927221e+09 -3.162949e+03 6.025419e+02 1.139837e+03
-4.134245e+09 -3.934134e+09 -4.094177e+09 -1.544307e+04 -9.546931e+02 -7.822659e+03
-1.583612e+09 -1.383607e+09 -1.543613e+09 -3.659933e+01 -7.483666e+03 2.385411e+03
-3.961127e+09 -3.761066e+09 -3.921126e+09 -5.202423e+03 -7.702064e+03 8.533974e+02
-4.303883e+09 -4.103839e+09 -4.263887e+09 6.298363e+02 -7.994344e+03 -5.462767e+02
-4.995317e+09 -4.795174e+09 -4.955142e+09 -2.403230e+04 -4.520745e+03 7.879529e+02
-4.998129e+09 -4.798016e+09 -4.957889e+09 5.764578e+04 -8.496796e+02 -2.918834e+03
-1.931463e+09 -1.731466e+09 -1.891470e+09 5.099288e+00 -1.176778e+00 7.295891e+00
-3.962448e+09 -3.762492e+09 -3.921868e+09 9.354544e+04 6.403226e+04 1.726974e+05
-2.788312e+09 -2.588314e+09 -2.748319e+09 1.984126e+02 1.555869e+01 5.510507e+01
-4.304736e+09 -4.104866e+09 -4.263600e+09 -6.956171e+03 -1.490613e+04 1.023807e+05
-4.135428e+09 -3.935416e+09 -4.094238e+09 -2.638892e+04 1.414582e+05 1.119151e+05
-3.964187e+09 -3.764127e+09 -3.923019e+09 -1.475559e+04 1.605091e+05 8.180100e+04
-3.965336e+09 -3.765467e+09 -3.925302e+09 -2.966199e+04 2.045977e+03 -3.384595e+04
-3.264451e+09 -3.064454e+09 -3.224458e+09 1.605399e+02 -2.812412e+01 2.760222e+01
-2.112137e+09 -1.912140e+09 -2.072144e+09 1.768926e+02 7.096463e-03 -3.618000e+01
-3.147500e+09 -2.947504e+09 -3.107508e+09 5.953249e+01 2.333069e+01 1.495906e+01
-2.637340e+09 -2.437344e+09 -2.597348e+09 1.165467e+02 2.492889e+00 -3.747610e+01
-4.132704e+09 -3.932725e+09 -4.092730e+09 4.257542e+03 1.437674e+03 2.632467e+03
-4.820270e+09 -4.620300e+09 -4.779156e+09 -1.293709e+04 4.978995e+04 4.271925e+04
-4.138474e+09 -3.938304e+09 -4.098206e+09 4.173323e+04 7.453774e+04 3.716990e+04
-4.127906e+09 -3.927749e+09 -4.087276e+09 3.975815e+04 9.868725e+04 1.428921e+04
-4.992428e+09 -4.792414e+09 -4.951269e+09 -1.406742e+04 1.305529e+04 -2.890727e+03
-4.133064e+09 -3.933087e+09 -4.093091e+09 4.011836e+03 -1.811345e+02 3.559191e+03
-3.966091e+09 -3.765883e+09 -3.925454e+09 -4.352879e+04 9.572267e+04 -3.209146e+04
-4.819682e+09 -4.619707e+09 -4.779711e+09 2.695059e+03 -7.943195e+02 1.259554e+03
-4.991902e+09 -4.791926e+09 -4.951931e+09 3.425667e+03 -2.254120e+02 2.151984e+02
-4.143754e+09 -3.943744e+09 -4.102947e+09 -8.998825e+04 1.951716e+05 -1.224413e+05
-4.820896e+09 -4.620827e+09 -4.780172e+09 -6.954716e+04 9.500512e+04 -2.497668e+04
-4.302003e+09 -4.101842e+09 -4.261397e+09 -5.716513e+04 3.358310e+04 -2.834287e+04
-4.304395e+09 -4.104426e+09 -4.264430e+09 3.423794e+03 4.808814e+02 4.103199e+03
-4.645256e+09 -4.445205e+09 -4.604701e+09 6.075881e+04 5.499002e+04 4.583638e+04
-4.991902e+09 -4.791934e+09 -4.951939e+09 3.660856e+03 -2.496239e+02 5.309679e+02
-4.991833e+09 -4.791998e+09 -4.951261e+09 -7.208842e+03 -2.063295e+03 7.468321e+03
-4.133383e+09 -3.933414e+09 -4.093418e+09 4.503887e+03 -2.911758e+02 5.132279e+03
-3.962196e+09 -3.762225e+09 -3.922230e+09 4.130536e+03 9.212442e+02 4.815564e+03
-4.990138e+09 -4.790166e+09 -4.950172e+09 6.185378e+03 9.225050e+01 1.263320e+03
-4.991979e+09 -4.792083e+09 -4.951056e+09 2.240808e+04 1.378866e+04 1.123041e+04
-3.959007e+09 -3.758822e+09 -3.918455e+09 5.236006e+04 1.066206e+05 2.086606e+04
-4.645543e+09 -4.445561e+09 -4.605567e+09 5.563693e+03 5.936938e+02 1.282974e+03
-4.305157e+09 -4.105220e+09 -4.265206e+09 1.456098e+04 -3.779857e+03 4.750092e+03
-4.647479e+09 -4.447537e+09 -4.607532e+09 4.972936e+03 2.551595e+02 3.451607e+03
-4.992195e+09 -4.792288e+09 -4.952262e+09 8.021786e+03 8.582324e+02 5.130949e+03
-4.991048e+09 -4.791141e+09 -4.951116e+09 -6.114142e+03 -5.529605e+02 4.136935e+03
-2.066207e+09 -1.866193e+09 -2.026208e+09 -1.053135e+03 -4.189912e+03 2.102477e+03
-3.131189e+09 -2.931173e+09 -3.091194e+09 -2.383976e+03 -3.372128e+03 1.590199e+03
-4.647018e+09 -4.447044e+09 -4.607048e+09 -1.828226e+03 -1.521978e+02 1.570182e+03
-3.962841e+09 -3.762880e+09 -3.922881e+09 -1.743621e+04 -1.727955e+03 6.366329e+03
-2.231733e+09 -2.031720e+09 -2.191735e+09 -4.071368e+01 -2.985986e+03 9.560527e+02
-4.304890e+09 -4.104981e+09 -4.264955e+09 -1.428317e+04 -1.073322e+03 6.155544e+03
-2.164626e+09 -1.964613e+09 -2.124627e+09 -1.494404e+02 -5.149744e+02 1.282552e+03
-3.174251e+09 -2.974233e+09 -3.134256e+09 -4.445781e+02 -2.395346e+03 1.807868e+03
-4.987229e+09 -4.787346e+09 -4.947170e+09 5.837382e+04 -2.484992e+03 4.969331e+03
-3.237321e+09 -3.037302e+09 -3.197325e+09 -1.142233e+03 -2.426372e+03 1.569307e+03
-4.990633e+09 -4.790780e+09 -4.949885e+09 3.620054e+02 6.986794e+02 -1.969573e+04
-3.832659e+09 -3.632637e+09 -3.792665e+09 -3.457674e+02 -5.560729e+02 4.507126e+02
-4.649987e+09 -4.450005e+09 -4.608840e+09 -3.207428e+03 3.409973e+04 4.403968e+04
-2.865479e+09 -2.665457e+09 -2.825483e+09 1.184206e+03 -7.112576e+03 -1.736373e+03
-2.216731e+09 -2.016718e+09 -2.176732e+09 -5.757071e+02 -4.575366e+03 2.757317e+02
-2.759556e+09 -2.559541e+09 -2.719561e+09 -2.122563e+02 -1.078146e+03 4.172574e+02
-2.761947e+09 -2.561931e+09 -2.721951e+09 7.503817e+01 -8.659515e+02 -6.182258e+02
-4.312082e+09 -4.112175e+09 -4.271632e+09 2.312916e+03 -1.785046e+02 -8.460779e+04
-3.955947e+09 -3.755820e+09 -3.915524e+09 4.828828e+04 -1.072676e+05 -6.713714e+04
-4.478913e+09 -4.278937e+09 -4.438952e+09 2.956787e+04 3.671566e+03 4.487994e+03
-4.643370e+09 -4.443374e+09 -4.602456e+09 3.881454e+04 -5.883422e+04 -6.131441e+04
-3.967062e+09 -3.767085e+09 -3.927094e+09 2.671505e+04 3.074417e+03 4.479333e+03
-4.825774e+09 -4.625818e+09 -4.785819e+09 3.457758e+04 1.137988e+03 6.170236e+03
-4.991459e+09 -4.791437e+09 -4.950771e+09 7.173542e+04 -2.375841e+04 -3.683515e+03
-4.315171e+09 -4.115190e+09 -4.275203e+09 3.549659e+04 4.795724e+03 6.936370e+03
-4.819942e+09 -4.619932e+09 -4.778745e+09 2.299958e+02 -4.180437e+04 -1.376355e+04
-4.990999e+09 -4.790940e+09 -4.949969e+09 -1.275176e+04 -2.056492e+04 9.184298e+03
-4.994625e+09 -4.794742e+09 -4.954683e+09 4.369606e+03 -4.796478e+02 3.480950e+03
-4.833955e+09 -4.633980e+09 -4.793994e+09 2.216205e+04 7.937547e+02 4.433634e+02
-3.958996e+09 -3.759030e+09 -3.919038e+09 2.055857e+04 3.211225e+03 4.674063e+03
-4.325481e+09 -4.125571e+09 -4.285524e+09 3.582063e+04 1.418250e+02 5.092514e+03
-3.961609e+09 -3.761736e+09 -3.921602e+09 1.650243e+04 -1.617701e+03 -9.564595e+03
-4.129852e+09 -3.929945e+09 -4.089900e+09 -9.984673e+03 6.599810e+03 2.064939e+03
-4.136478e+09 -3.936576e+09 -4.096533e+09 7.730611e+03 6.276617e+03 2.796253e+03
-3.965894e+09 -3.765993e+09 -3.925937e+09 2.679278e+04 1.212003e+03 -1.157627e+04
-3.984584e+09 -3.784677e+09 -3.944601e+09 3.576342e+04 -6.144786e+03 -5.346725e+03
-3.965911e+09 -3.765998e+09 -3.925945e+09 2.171877e+04 1.097399e+03 6.630354e+03
-4.644481e+09 -4.444518e+09 -4.604525e+09 2.477234e+04 9.345291e+02 1.005540e+03
-4.658708e+09 -4.458737e+09 -4.618749e+09 2.149215e+04 2.410027e+03 1.703946e+03
-4.824861e+09 -4.624880e+09 -4.784888e+09 -7.132933e+03 -7.910388e+02 1.164839e+03
-4.330935e+09 -4.130918e+09 -4.290941e+09 4.778200e+03 1.970120e+03 8.652006e+02
-4.816157e+09 -4.616141e+09 -4.776166e+09 7.072478e+03 1.690616e+03 -4.057123e+01
-3.961847e+09 -3.761829e+09 -3.921856e+09 7.121118e+03 5.058743e+03 2.115314e+03
-4.860775e+09 -4.660759e+09 -4.820783e+09 4.384839e+03 1.216887e+03 -2.447078e+02
-4.327491e+09 -4.127510e+09 -4.287516e+09 -7.765431e+03 -7.716975e+02 2.629578e+03
-4.300493e+09 -4.100476e+09 -4.260503e+09 7.831611e+03 4.293312e+03 1.620430e+03
-4.991346e+09 -4.791365e+09 -4.951371e+09 -4.176826e+03 -2.876468e+02 7.526983e+02
-4.059216e+09 -3.859198e+09 -4.019220e+09 -9.944405e+01 1.142098e+03 -3.162001e+02
-1.882902e+09 -1.682895e+09 -1.842906e+09 3.126168e+03 4.733689e+03 1.876488e+03
-2.685659e+09 -2.485650e+09 -2.645663e+09 2.926292e+02 4.251453e+02 1.154315e+03
-2.188381e+09 -1.988375e+09 -2.148386e+09 2.792106e+03 3.755754e+03 2.337757e+03
-4.519086e+09 -4.319103e+09 -4.479108e+09 -4.894949e+03 -5.370457e+02 1.402890e+03
-3.962553e+09 -3.762570e+09 -3.922577e+09 -5.796426e+03 -1.341087e+03 3.560716e+03
-4.133690e+09 -3.933653e+09 -4.093694e+09 6.743578e+03 6.535085e+03 2.082021e+03
-4.861832e+09 -4.661847e+09 -4.821852e+09 -4.665995e+03 1.450181e+02 5.471454e+02
-4.663839e+09 -4.463852e+09 -4.623858e+09 -5.235566e+03 -1.648348e+02 1.140741e+03
-4.326315e+09 -4.126330e+09 -4.286337e+09 -5.919009e+03 -4.242804e+02 1.748438e+03
-1.778371e+09 -1.578368e+09 -1.738375e+09 -7.261145e+02 -1.955986e+03 1.780761e+03
-2.570936e+09 -2.370928e+09 -2.530943e+09 -4.281505e+03 -3.817026e+03 2.672420e+03
-2.782486e+09 -2.582478e+09 -2.742492e+09 -3.687075e+03 -3.892834e+03 2.610119e+03
-1.579008e+09 -1.379020e+09 -1.539021e+09 -5.192019e+02 -3.000600e+02 1.520683e+03
-3.197348e+09 -2.997341e+09 -3.157357e+09 -3.785977e+03 -3.449593e+03 3.712496e+03
-3.300014e+09 -3.100017e+09 -3.260022e+09 -4.470020e+02 -8.020304e+01 1.237950e+02
-1.578501e+09 -1.378499e+09 -1.538506e+09 -1.620038e+03 -3.776940e+03 2.980857e+03
-1.572104e+09 -1.372116e+09 -1.532116e+09 -2.616287e+02 -1.215403e+02 8.029913e+02
-4.512833e+09 -4.312822e+09 -4.472837e+09 -2.425400e+02 1.721562e+02 -3.180074e+02
-4.917821e+09 -4.717810e+09 -4.877825e+09 -1.484305e+02 -7.443340e-05 -6.549489e+01
-4.373621e+09 -4.173611e+09 -4.333625e+09 -9.460688e+01 1.785179e+02 -1.376050e+02
-1.954637e+09 -1.754634e+09 -1.914642e+09 -2.220148e+03 -2.460672e+03 2.498079e+03
-4.828023e+09 -4.628005e+09 -4.788041e+09 1.225296e+04 -2.508896e+03 1.905216e+02
-4.989610e+09 -4.789601e+09 -4.949635e+09 1.979145e+04 -1.635859e+03 -1.370518e+02
-4.300780e+09 -4.100770e+09 -4.260794e+09 3.096391e+04 -7.731873e+03 -3.676649e+03
-4.464453e+09 -4.264425e+09 -4.424466e+09 1.701841e+04 -3.945095e+03 -3.172193e+03
-3.807586e+09 -3.607572e+09 -3.767590e+09 2.617590e+02 3.058708e+02 3.060730e+02
-4.993865e+09 -4.793842e+09 -4.953880e+09 2.009409e+04 -2.183438e+03 -8.821063e+02
-4.643708e+09 -4.443690e+09 -4.603727e+09 2.098847e+04 -2.731317e+03 -1.520952e+03
-4.127345e+09 -3.927330e+09 -4.087365e+09 1.916704e+04 -5.673125e+03 -3.724848e+03
-4.141559e+09 -3.941540e+09 -4.101575e+09 1.179395e+04 -5.263886e+03 -4.092207e+03
-4.466402e+09 -4.266450e+09 -4.426436e+09 3.767143e+04 2.393475e+03 4.957946e+03
-4.748019e+09 -4.548003e+09 -4.708024e+09 7.400263e+02 2.756413e+02 -1.827406e+02
-4.493762e+09 -4.293847e+09 -4.453728e+09 4.702246e+04 -1.009295e+04 -1.222068e+04
-4.664028e+09 -4.464012e+09 -4.624034e+09 2.332063e+03 1.044758e+03 4.661322e+02
-2.207584e+09 -2.007572e+09 -2.167585e+09 -2.079042e+02 1.535309e+03 -7.185289e+02
-5.014277e+09 -4.814374e+09 -4.974292e+09 3.375961e+04 -2.562882e+03 5.359286e+03
-3.533554e+09 -3.333538e+09 -3.493558e+09 1.370910e+02 4.728781e+02 1.842846e+02
-2.590339e+09 -2.390327e+09 -2.550341e+09 5.242852e+01 5.732100e+02 2.552875e+02
-4.326125e+09 -4.126199e+09 -4.286145e+09 4.140169e+04 -2.162915e+03 4.317560e+03
-4.295064e+09 -4.095021e+09 -4.255069e+09 -7.513441e+03 9.189110e+03 -2.840868e+03
-4.818982e+09 -4.619048e+09 -4.779019e+09 4.226975e+04 4.153533e+03 6.193234e+03
-3.772917e+09 -3.572901e+09 -3.732920e+09 -1.875726e+02 4.353182e+02 -4.730992e+02
-1.908990e+09 -1.708980e+09 -1.868991e+09 -3.247257e+02 2.075292e+03 -1.183650e+03
-4.996899e+09 -4.796878e+09 -4.956904e+09 -2.606769e+03 5.060197e+02 -1.331243e+02
-1.644978e+09 -1.444969e+09 -1.604980e+09 -3.119505e-01 -2.526278e+03 -2.213802e+02
-4.727694e+09 -4.527683e+09 -4.687704e+09 6.078568e+02 -7.965160e+02 -4.641587e+01
-3.877887e+09 -3.677851e+09 -3.837892e+09 -4.389272e+03 -5.095455e+03 1.119205e+03
-4.475088e+09 -4.275182e+09 -4.435150e+09 2.571965e+04 -4.314218e+02 1.747248e+03
-4.300171e+09 -4.100243e+09 -4.260217e+09 2.441443e+04 -1.074287e+03 2.790469e+03
-4.132520e+09 -3.932582e+09 -4.092549e+09 4.122283e+04 -3.741034e+03 -6.266891e+03
-1.889859e+09 -1.689864e+09 -1.849868e+09 -9.297596e+02 -2.909013e+02 1.995314e+02
-2.459789e+09 -2.259796e+09 -2.419799e+09 -9.190602e+02 -1.718533e+02 4.156376e+02
-2.835212e+09 -2.635218e+09 -2.795221e+09 -8.324899e+02 -2.394956e+02 4.064657e+02
-1.784240e+09 -1.584247e+09 -1.744250e+09 -7.050414e+02 -1.083658e+02 3.296096e+02
-2.648153e+09 -2.448158e+09 -2.608162e+09 -6.009292e+02 -1.334194e+02 1.678359e+02
-2.782154e+09 -2.582159e+09 -2.742163e+09 -7.920793e+02 -1.641858e+02 3.524180e+02
-2.223646e+09 -2.023637e+09 -2.183649e+09 5.198390e+02 -4.437329e+03 -1.022149e+03
-4.256250e+09 -4.056236e+09 -4.216260e+09 3.969602e+03 -2.209910e+03 -1.278000e+03
-2.138974e+09 -1.938980e+09 -2.098983e+09 -5.751663e+02 -7.091941e+01 7.656675e+01
-4.173067e+09 -3.973040e+09 -4.133073e+09 -4.645970e+02 -2.429963e+03 -5.871227e+00
-3.608270e+09 -3.408261e+09 -3.568279e+09 9.511766e+02 -2.239401e+03 -7.438189e+02
-4.973847e+09 -4.773836e+09 -4.933858e+09 1.531757e+03 -4.697410e+02 -3.753255e+02
-4.929107e+09 -4.729099e+09 -4.889121e+09 6.335263e+02 -6.277851e+02 -7.102113e-06
-4.133373e+09 -3.933348e+09 -4.093380e+09 2.578165e+02 -2.060219e+03 -6.259045e+02
-4.240503e+09 -4.040476e+09 -4.200511e+09 -2.265803e+03 -2.388169e+03 2.618182e+02
-1.947864e+09 -1.747854e+09 -1.907866e+09 -1.821719e+03 -1.935411e+03 4.143394e+02
-3.141332e+09 -2.941337e+09 -3.101341e+09 5.011869e+02 5.378564e+00 1.257894e+02
-2.197004e+09 -1.996990e+09 -2.157006e+09 1.896241e+01 -4.612039e+02 6.615069e+02
-3.204443e+09 -3.004423e+09 -3.164448e+09 -3.229827e+02 -2.950105e+03 1.126568e+03
-2.713843e+09 -2.513829e+09 -2.673847e+09 -1.850369e+02 -9.135804e+02 1.222633e+03
-3.378366e+09 -3.178342e+09 -3.338372e+09 -3.371029e+03 -7.488566e+03 2.126447e+03
-2.087687e+09 -1.887672e+09 -2.047687e+09 -4.274786e+02 -4.668715e+03 1.208736e+03
-4.590202e+09 -4.390228e+09 -4.550253e+09 9.843645e+03 -2.384096e+03 -6.328342e+02
-5.010002e+09 -4.810010e+09 -4.970013e+09 7.036134e+02 1.490200e+01 5.399599e+01
-4.503615e+09 -4.303621e+09 -4.463624e+09 5.317455e+02 9.330489e+01 1.112454e+02
-3.828224e+09 -3.628188e+09 -3.788232e+09 7.761234e+02 -5.903411e+03 -4.882553e+02
-3.714931e+09 -3.514936e+09 -3.674940e+09 1.160199e+03 1.617228e+02 2.608412e+02
-4.251551e+09 -4.051553e+09 -4.211558e+09 9.997351e+02 1.086874e+02 1.146988e+02
-3.961459e+09 -3.761451e+09 -3.921470e+09 6.883937e+03 3.093375e+03 1.932994e+03
-4.063794e+09 -3.863785e+09 -4.023811e+09 4.966579e+03 -4.055355e+03 -9.945846e+02
-2.190851e+09 -1.990852e+09 -2.150858e+09 1.671617e+03 7.430450e+02 7.321495e+02
-4.930677e+09 -4.730675e+09 -4.890683e+09 3.508981e+02 -2.370945e-07 -3.783803e+01
-2.997032e+09 -2.797023e+09 -2.957043e+09 3.845047e+03 -7.279273e+03 -3.695227e+03
-1.916758e+09 -1.716759e+09 -1.876764e+09 1.334049e+02 7.204330e+01 7.376158e+00
-3.325059e+09 -3.125056e+09 -3.285067e+09 3.228636e+03 1.142337e+03 1.130726e+03
-1.590319e+09 -1.390319e+09 -1.550325e+09 1.300785e+03 6.429628e+02 6.601470e+02
-4.931231e+09 -4.731231e+09 -4.891238e+09 2.892537e+02 -2.651564e-07 -5.133473e+01
-3.190521e+09 -2.990517e+09 -3.150526e+09 9.997374e+02 6.527873e+02 8.629695e+02
-3.218645e+09 -3.018639e+09 -3.178659e+09 4.251686e+03 -7.258445e+03 -3.159751e+03
-4.087600e+09 -3.887588e+09 -4.047608e+09 1.187397e+03 -1.522508e+03 -8.439126e+02
-4.253516e+09 -4.053506e+09 -4.213529e+09 3.260138e+03 -2.962060e+03 -1.520237e+03
-3.313752e+09 -3.113742e+09 -3.273759e+09 7.216219e+02 -1.559951e+03 -3.140027e+02
-4.960472e+09 -4.760472e+09 -4.920480e+09 -8.443163e+02 -1.145419e+02 6.336322e+01
-3.696097e+09 -3.496086e+09 -3.656104e+09 1.072485e+03 -1.335550e+03 -3.723932e+02
-4.801683e+09 -4.601671e+09 -4.761696e+09 3.578838e+03 -2.173177e+02 -6.198598e+02
-4.740966e+09 -4.540955e+09 -4.700976e+09 8.337483e+02 -5.624319e+02 -3.358109e+02
-4.499749e+09 -4.299752e+09 -4.459756e+09 9.418854e+01 5.047294e+01 1.708510e+01
-4.719763e+09 -4.519763e+09 -4.679771e+09 -5.457154e+02 7.471500e+00 2.244298e+02
-2.720530e+09 -2.520529e+09 -2.680535e+09 2.064405e+02 3.242872e+01 2.995046e+02
-2.695579e+09 -2.495577e+09 -2.655584e+09 2.397076e+02 6.817416e+01 4.925899e+02
-3.490658e+09 -3.290659e+09 -3.450664e+09 1.215134e+02 2.765631e+01 1.207443e+02
-4.980491e+09 -4.780494e+09 -4.940499e+09 1.619991e+02 -3.995363e+01 2.719181e+01
-2.160726e+09 -1.960724e+09 -2.120731e+09 7.724187e+02 4.466335e+02 4.146028e+02
-2.057690e+09 -1.857696e+09 -2.017707e+09 -4.972953e+03 1.001493e+04 -5.542432e+03
-3.169863e+09 -2.969861e+09 -3.129869e+09 6.513987e+02 2.264391e+02 6.146150e+02
-2.792226e+09 -2.592225e+09 -2.752232e+09 9.741031e+02 4.558111e+02 5.191003e+02
-3.961801e+09 -3.761756e+09 -3.921770e+09 5.099697e+04 6.405213e+03 6.496372e+03
-4.300999e+09 -4.100979e+09 -4.261001e+09 5.330407e+04 -6.727596e+03 -2.188119e+03
-3.962524e+09 -3.762494e+09 -3.922429e+09 6.850393e+04 1.985103e+04 2.308412e+04
-3.456221e+09 -3.256307e+09 -3.416287e+09 -7.557395e+03 6.732886e+02 -1.221217e+04
-4.121121e+09 -3.921119e+09 -4.081142e+09 -8.211463e+02 4.224799e+03 -3.744611e+02
-4.998920e+09 -4.798918e+09 -4.958946e+09 -8.253746e+03 1.098427e+03 -1.179473e+03
-4.303867e+09 -4.103858e+09 -4.263881e+09 -2.681202e+04 8.675295e+03 -4.031127e+03
-4.646045e+09 -4.446054e+09 -4.605950e+09 8.139193e+04 1.329933e+04 1.647974e+04
-2.579166e+09 -2.379197e+09 -2.539206e+09 -9.852884e+03 1.012370e+04 -9.593004e+03
-3.961125e+09 -3.761126e+09 -3.921146e+09 5.526782e+04 3.317801e+03 1.154462e+03
-4.974345e+09 -4.774433e+09 -4.934407e+09 -3.558146e+04 1.877209e+03 -5.908313e+03
-4.817350e+09 -4.617322e+09 -4.777330e+09 5.628785e+04 -4.803947e+00 -9.948609e+03
-4.475685e+09 -4.275702e+09 -4.435673e+09 7.030997e+04 1.513025e+03 -2.677067e+03
-4.644418e+09 -4.444464e+09 -4.604380e+09 7.703547e+04 3.326151e+03 2.204500e+04
-4.817984e+09 -4.617998e+09 -4.778003e+09 -3.486923e+03 -1.682639e+02 9.024882e+02
-4.991862e+09 -4.791972e+09 -4.951877e+09 -4.549165e+04 2.786161e+03 -7.110849e+03
-4.320606e+09 -4.120620e+09 -4.280626e+09 -5.027292e+03 -7.672067e+02 1.682270e+03
-4.175367e+09 -3.975382e+09 -4.135387e+09 -4.603202e+03 -1.189013e+03 1.875674e+03
-4.474752e+09 -4.274766e+09 -4.434772e+09 -3.518228e+03 -4.711058e+02 1.274762e+03
-3.601427e+09 -3.401434e+09 -3.561455e+09 -1.639031e+03 6.889071e+03 -2.318475e+01
-3.831227e+09 -3.631231e+09 -3.791254e+09 -1.275967e+03 4.980426e+03 -2.955981e+02
-4.610558e+09 -4.410571e+09 -4.570576e+09 -4.056328e+03 -3.363035e+02 7.758744e+02
-4.987472e+09 -4.787456e+09 -4.947481e+09 2.534825e+03 -5.795867e+02 -5.406848e+02
-2.840792e+09 -2.640797e+09 -2.800800e+09 5.894852e+02 1.805266e+02 1.192433e+02
-4.996802e+09 -4.796788e+09 -4.956813e+09 2.895714e+03 -6.889616e+02 -2.062907e+02
-4.000275e+09 -3.800257e+09 -3.960282e+09 6.843633e+02 -1.288683e+03 -1.533817e+03
-4.978292e+09 -4.778278e+09 -4.938300e+09 1.609778e+03 -2.687078e+02 -2.300155e+02
-3.002460e+09 -2.802465e+09 -2.962469e+09 2.578918e+02 1.182543e+02 1.043510e+00
-2.084678e+09 -1.884683e+09 -2.044686e+09 8.344489e+02 1.098910e+02 2.050749e+02
-1.934742e+09 -1.734746e+09 -1.894750e+09 5.452388e+02 2.530184e+01 3.725211e+01
-4.643424e+09 -4.443422e+09 -4.603432e+09 -7.035494e+02 -9.003796e+01 4.902437e+02
-4.915744e+09 -4.715731e+09 -4.875751e+09 3.316138e+02 -1.031988e-06 -1.742730e+02
-1.780120e+09 -1.580124e+09 -1.740128e+09 6.638085e+02 6.822888e+01 2.036837e+02
-4.682861e+09 -4.482849e+09 -4.642869e+09 5.798679e+02 -2.151951e+02 -1.460880e+02
-2.176020e+09 -1.976023e+09 -2.136027e+09 3.395110e+02 3.540099e+01 2.498823e+01
-1.837161e+09 -1.637165e+09 -1.797169e+09 3.089306e+02 9.936022e+01 1.050982e+02
-3.440763e+09 -3.240750e+09 -3.400767e+09 -1.221830e+03 2.618595e+03 -1.408968e+03
-4.995674e+09 -4.795653e+09 -4.955679e+09 -3.401428e+02 4.200000e+02 6.134821e+01
-2.188021e+09 -1.988011e+09 -2.148022e+09 -1.185714e+02 8.403816e+02 -9.532633e+02
-1.573527e+09 -1.373526e+09 -1.533532e+09 -9.199056e+02 -1.555710e+03 1.770780e+03
-4.823440e+09 -4.623419e+09 -4.783445e+09 1.087116e+03 8.083408e+02 -7.474274e+01
-2.225193e+09 -2.025182e+09 -2.185194e+09 -4.344524e+02 1.695514e+03 -1.331701e+03
-3.282176e+09 -3.082164e+09 -3.242180e+09 -1.401427e+03 2.762806e+03 -1.673175e+03
-3.070550e+09 -2.870534e+09 -3.030552e+09 -1.980411e+02 2.688158e+03 -4.845234e+02
-3.962488e+09 -3.762459e+09 -3.922494e+09 -1.838074e+03 5.007531e+03 -3.565940e+02
-4.990399e+09 -4.790356e+09 -4.950402e+09 -4.429615e+03 2.779190e+03 -1.059692e+03
-4.304822e+09 -4.104796e+09 -4.264828e+09 -2.526443e+03 4.160395e+03 -1.277438e+03
-4.992185e+09 -4.792155e+09 -4.952192e+09 -1.948438e+03 1.765871e+03 -6.724080e+02
-4.996900e+09 -4.796882e+09 -4.956905e+09 -1.863015e+03 3.935858e+02 -6.429561e+01
-3.228942e+09 -3.028926e+09 -3.188946e+09 -1.089974e+03 5.443439e+03 -2.519390e+03
-4.921693e+09 -4.721684e+09 -4.881701e+09 -4.087748e+02 3.570495e+02 -2.015583e-04
-1.786130e+09 -1.586121e+09 -1.746131e+09 -3.368643e+02 3.466715e+03 -1.634630e+03
-4.992667e+09 -4.792644e+09 -4.952672e+09 -2.800276e+03 8.692380e+02 -2.329885e+02
-4.995291e+09 -4.795267e+09 -4.955296e+09 -1.690576e+03 6.476851e+02 -1.561512e+02
-4.647024e+09 -4.447058e+09 -4.607061e+09 2.273149e+03 1.413236e+02 2.036626e+03
-4.969220e+09 -4.769233e+09 -4.929235e+09 -7.216955e+01 7.540596e+01 1.430098e+02
-2.668171e+09 -2.468160e+09 -2.628174e+09 -1.440679e+03 3.195036e+03 -1.028190e+03
-1.969829e+09 -1.769820e+09 -1.929830e+09 -2.371143e+02 2.432733e+03 -1.502659e+03
-4.303687e+09 -4.103703e+09 -4.263707e+09 -8.717093e+02 -8.060358e+01 1.451181e+03
-3.961416e+09 -3.761430e+09 -3.921433e+09 2.228119e+03 3.778172e+02 1.545494e+03
-4.140129e+09 -3.940144e+09 -4.100154e+09 -9.080324e+03 -2.330858e+03 2.618971e+03
-4.819529e+09 -4.619552e+09 -4.779557e+09 3.848033e+03 9.361926e+02 7.525534e+02
-4.115737e+09 -3.915746e+09 -4.075758e+09 -1.055211e+04 -1.620582e+03 2.966235e+03
-4.837801e+09 -4.637820e+09 -4.797831e+09 -1.137063e+04 -7.915673e+02 2.876307e+03
-4.133077e+09 -3.933045e+09 -4.093084e+09 1.523154e+04 5.765727e+03 2.893740e+03
-4.826597e+09 -4.626610e+09 -4.786621e+09 -1.006541e+04 -3.480492e+02 7.351931e+02
-3.962256e+09 -3.762233e+09 -3.922263e+09 6.344609e+03 6.094202e+03 1.891780e+03
-3.963369e+09 -3.763349e+09 -3.923375e+09 5.577607e+03 4.043894e+03 1.493581e+03
-4.648435e+09 -4.448406e+09 -4.608441e+09 5.446118e+03 2.487043e+03 5.096777e+02
-4.128227e+09 -3.928246e+09 -4.088260e+09 -1.495175e+04 -3.106092e+03 5.546922e+03
-4.151337e+09 -3.951355e+09 -4.111365e+09 -1.088361e+04 -2.243911e+03 3.339999e+03
-4.986703e+09 -4.786723e+09 -4.946739e+09 -1.702479e+04 -2.214029e+03 2.597949e+03
-4.139576e+09 -3.939588e+09 -4.099601e+09 -1.241308e+04 -2.509562e+03 3.098341e+03
-4.991186e+09 -4.791087e+09 -4.950959e+09 -7.238189e+04 3.206692e+03 -1.320480e+03
-4.991917e+09 -4.791983e+09 -4.951849e+09 -7.243470e+04 5.004290e+03 -5.205199e+03
-3.904758e+09 -3.704776e+09 -3.864794e+09 -1.995090e+04 5.388305e+03 -3.492280e+03
-3.920111e+09 -3.720173e+09 -3.880182e+09 -7.252312e+03 5.044156e+03 -5.393631e+03
-4.986872e+09 -4.786863e+09 -4.946878e+09 1.066471e+03 1.081390e+02 -8.687307e+01
-4.992298e+09 -4.792356e+09 -4.952323e+09 -5.462518e+04 2.458930e+03 -7.610153e+03
-4.992722e+09 -4.792762e+09 -4.952775e+09 -2.298489e+04 3.548592e+03 -2.077959e+03
-4.613822e+09 -4.413818e+09 -4.573829e+09 2.776759e+03 3.211021e+02 3.813671e+02
-2.870607e+09 -2.670608e+09 -2.830613e+09 9.131646e+01 4.207225e+01 7.068366e+01
-4.022455e+09 -3.822452e+09 -3.982461e+09 1.621341e+03 6.745539e+02 1.544979e+02
-4.821665e+09 -4.621662e+09 -4.781672e+09 2.878018e+03 -4.990382e+01 6.190036e+02
-4.613385e+09 -4.413380e+09 -4.573394e+09 3.960000e+03 6.780564e+02 3.333244e+02
-4.134816e+09 -3.934811e+09 -4.094825e+09 4.234049e+03 1.176490e+03 1.553348e+03
-4.820778e+09 -4.620779e+09 -4.780787e+09 3.228471e+03 4.844285e+02 -1.082365e+02
-4.651185e+09 -4.451181e+09 -4.611195e+09 -3.063517e+03 -5.693431e+02 3.662175e+02
-2.581466e+09 -2.381456e+09 -2.541475e+09 4.698169e+03 -6.714029e+03 -3.482103e+03
-4.992045e+09 -4.792043e+09 -4.952063e+09 1.372225e+04 1.148228e+03 8.893945e+02
-3.961776e+09 -3.761777e+09 -3.921788e+09 7.086591e+03 1.698973e+03 1.931966e+03
-4.132072e+09 -3.932072e+09 -4.092084e+09 6.052008e+03 1.558941e+03 1.542322e+03
-3.960656e+09 -3.760652e+09 -3.920672e+09 -9.014731e+03 -3.150002e+03 3.214814e+03
-1.585938e+09 -1.385933e+09 -1.545940e+09 -2.073667e+02 -8.064057e+03 -3.875029e+03
-4.647794e+09 -4.447787e+09 -4.607817e+09 -2.935084e+04 -5.436274e+02 2.931503e+03
-2.142977e+09 -1.942973e+09 -2.102986e+09 1.953158e+03 -8.494643e+03 -2.926000e+03
-2.103546e+09 -1.903541e+09 -2.063554e+09 2.924770e+03 -7.900745e+03 -3.515443e+03
-4.969221e+09 -4.769215e+09 -4.929232e+09 -4.947723e+03 -2.726670e+02 3.762328e+02
-3.962609e+09 -3.762609e+09 -3.922620e+09 -5.511564e+03 -1.369605e+03 1.709238e+03
-1.786343e+09 -1.586336e+09 -1.746347e+09 1.319252e+03 -9.296090e+03 -4.411181e+03
-4.818700e+09 -4.618692e+09 -4.778718e+09 -1.469375e+04 -2.074610e+03 1.618269e+03
-4.303223e+09 -4.103219e+09 -4.263239e+09 -9.196896e+03 -2.865176e+03 2.336443e+03
-2.208808e+09 -2.008800e+09 -2.168813e+09 2.164530e+03 -7.005060e+03 -2.567660e+03
-2.764614e+09 -2.564603e+09 -2.724618e+09 1.301023e+03 -2.591551e+03 -2.114697e+03
-1.880532e+09 -1.680521e+09 -1.840534e+09 -9.285417e+02 -1.387370e+03 -9.463822e+02
-3.439262e+09 -3.239247e+09 -3.399270e+09 4.139129e+03 -4.412383e+03 -2.501590e+03
-4.992417e+09 -4.792409e+09 -4.952431e+09 -6.993779e+03 -1.053408e+03 -4.004245e+01
-4.645657e+09 -4.445670e+09 -4.605674e+09 -2.791825e+03 -1.802579e+02 8.322541e+02
-4.818818e+09 -4.618836e+09 -4.778840e+09 -2.963828e+03 3.252068e+02 7.389923e+02
-4.131301e+09 -3.931323e+09 -4.091328e+09 -3.738335e+03 -1.472589e+03 2.638073e+03
-3.178879e+09 -2.978865e+09 -3.138886e+09 1.488701e+03 -6.626936e+03 -3.868243e+03
-4.753687e+09 -4.553684e+09 -4.713696e+09 -1.157860e+03 -2.828419e+02 1.644473e+02
-2.798770e+09 -2.598757e+09 -2.758776e+09 1.837280e+03 -6.141856e+03 -3.376163e+03
-3.424797e+09 -3.224791e+09 -3.384808e+09 -6.409285e+03 -4.387842e+03 3.560167e+03
-4.991192e+09 -4.791209e+09 -4.951213e+09 -3.213078e+02 8.726369e+00 -3.741332e+01
-3.957502e+09 -3.757511e+09 -3.917514e+09 -7.929773e+02 -2.399532e+01 3.772634e+02
-2.859865e+09 -2.659873e+09 -2.819875e+09 -9.214526e+02 -2.424170e+02 4.351143e+02
-4.977520e+09 -4.777536e+09 -4.937539e+09 8.395830e+01 -2.625556e+00 2.090761e+02
-1.582415e+09 -1.382424e+09 -1.542426e+09 -1.011959e+03 -4.182064e+02 9.787228e+02
-2.236496e+09 -2.036506e+09 -2.196507e+09 -2.312792e+02 -3.681787e+01 1.055424e+02
-3.106425e+09 -2.906435e+09 -3.066437e+09 -6.282882e+02 -1.852719e+02 4.455303e+02
-2.740205e+09 -2.540215e+09 -2.700217e+09 -4.154341e+02 -1.857620e+02 4.105216e+02
-4.991759e+09 -4.791712e+09 -4.951767e+09 -1.552033e+04 -3.503085e+03 9.855370e+02
-3.963111e+09 -3.763074e+09 -3.923120e+09 -8.477507e+03 -5.906890e+03 2.532212e+03
-2.465565e+09 -2.265574e+09 -2.425576e+09 -1.099433e+03 -1.809029e+02 7.577679e+02
-1.878646e+09 -1.678655e+09 -1.838657e+09 -5.128290e+02 -2.135542e+02 4.079003e+02
-3.809496e+09 -3.609495e+09 -3.769502e+09 1.502389e+03 5.108162e+02 3.739895e+02
-4.990690e+09 -4.790638e+09 -4.950693e+09 -2.264755e+03 -3.732491e+03 -4.639728e+02
-4.477636e+09 -4.277592e+09 -4.437645e+09 -4.438545e+03 -5.981666e+03 8.419309e+02
-4.383884e+09 -4.183888e+09 -4.343892e+09 -1.068347e+02 -1.014386e+01 3.220167e+01
-3.314383e+09 -3.114381e+09 -3.274389e+09 1.167287e+03 4.125067e+02 5.656413e+02
-3.274970e+09 -3.074967e+09 -3.234976e+09 1.647213e+03 9.377801e+02 8.064682e+02
-3.947674e+09 -3.747645e+09 -3.907681e+09 -9.895830e+03 5.797204e+03 -1.621895e+03
-4.651763e+09 -4.451735e+09 -4.611774e+09 -1.774442e+04 2.682376e+03 -9.466842e+02
-4.649995e+09 -4.449994e+09 -4.610002e+09 1.890985e+03 1.814183e+02 9.666394e+01
-2.947481e+09 -2.747479e+09 -2.907487e+09 4.799754e+02 1.792054e+02 6.759079e+02
-4.079659e+09 -3.879644e+09 -4.039663e+09 -3.035915e+02 7.468256e+02 -6.599068e+02
-4.265881e+09 -4.065866e+09 -4.225886e+09 -2.773719e+03 2.153436e+03 -8.072063e+02
-2.700978e+09 -2.500982e+09 -2.660996e+09 -9.434679e+02 8.822395e+03 1.353701e+01
-4.268021e+09 -4.068030e+09 -4.228055e+09 -1.097609e+04 6.251855e+03 -4.150492e+03
-4.981652e+09 -4.781661e+09 -4.941666e+09 -3.127783e+03 -1.712551e+02 2.211493e+02
-3.790660e+09 -3.590668e+09 -3.750691e+09 -7.242020e+03 5.960860e+03 -3.199956e+03
-3.953718e+09 -3.753724e+09 -3.913730e+09 -3.268405e+03 -8.119707e+02 1.128677e+03
-4.843202e+09 -4.643208e+09 -4.803213e+09 -1.828070e+03 -1.748852e+02 7.135391e+01
-4.296738e+09 -4.096748e+09 -4.256753e+09 -2.712555e+03 -4.329203e+02 5.606812e+02
-3.955416e+09 -3.755422e+09 -3.915428e+09 -3.001769e+03 -5.647139e+02 8.947894e+02
-4.097191e+09 -3.897202e+09 -4.057208e+09 -4.436119e+03 -1.297598e+03 1.837870e+03
-4.464639e+09 -4.264648e+09 -4.424655e+09 -5.013989e+03 -6.394459e+02 1.024109e+03
-4.987169e+09 -4.787176e+09 -4.947182e+09 -3.510289e+03 -1.275886e+02 2.319813e+02
-4.630112e+09 -4.430116e+09 -4.590123e+09 -3.191638e+03 -3.339403e+02 3.728286e+02
-3.134587e+09 -2.934587e+09 -3.094607e+09 -4.492893e+03 7.542377e+03 -2.510761e+03
-4.640128e+09 -4.440134e+09 -4.600138e+09 -1.317032e+03 -3.879054e+01 1.240224e+02
-4.118762e+09 -3.918767e+09 -4.078791e+09 -1.466238e+03 5.240082e+03 -2.951513e+02
-3.962816e+09 -3.762845e+09 -3.922849e+09 -5.301693e+03 -1.010466e+03 5.254393e+03
-4.133846e+09 -3.933858e+09 -4.093861e+09 -1.921310e+03 -4.692630e+02 7.743112e+02
-4.646499e+09 -4.446520e+09 -4.606523e+09 2.093502e+02 4.692309e+01 1.346006e+03
-3.948763e+09 -3.748765e+09 -3.908787e+09 -3.802701e+03 5.949712e+03 -1.369779e+03
-2.266630e+09 -2.066620e+09 -2.226634e+09 1.405907e+03 -4.530797e+03 -1.569477e+03
-4.645551e+09 -4.445571e+09 -4.605575e+09 -1.885543e+03 -1.447189e+02 1.043043e+03
-4.646839e+09 -4.446873e+09 -4.606876e+09 -1.198499e+03 -8.708304e+01 2.163962e+03
-4.991636e+09 -4.791692e+09 -4.951689e+09 8.277412e+03 2.947203e+02 2.728851e+03
-4.991081e+09 -4.791096e+09 -4.951100e+09 -3.028594e+03 2.311834e+01 2.983337e+02
-3.962166e+09 -3.762219e+09 -3.922219e+09 4.342527e+03 7.842313e+02 6.806813e+03
-4.646530e+09 -4.446605e+09 -4.606599e+09 -4.015499e+03 -4.864981e+02 2.922617e+03
-3.961665e+09 -3.761719e+09 -3.921719e+09 -1.993724e+03 -4.777792e+02 6.881823e+03
-4.819424e+09 -4.619450e+09 -4.779454e+09 7.588896e+02 -8.766379e+02 1.185989e+03
-2.372955e+09 -2.172945e+09 -2.332959e+09 1.946862e+03 -4.586067e+03 -2.446657e+03
-4.991739e+09 -4.791759e+09 -4.951764e+09 1.674369e+03 -7.161716e+01 1.394971e+02
-4.991641e+09 -4.791666e+09 -4.951671e+09 3.001490e+02 -8.378874e+00 7.238803e+02
-2.686818e+09 -2.486811e+09 -2.646827e+09 1.197567e+03 -5.475073e+03 -1.004425e+03
-4.991894e+09 -4.791923e+09 -4.951929e+09 4.320991e+03 9.213087e+01 1.185542e+03
-4.624891e+09 -4.424908e+09 -4.584910e+09 5.530829e+02 7.474053e+01 9.912422e+02
-4.474859e+09 -4.274894e+09 -4.434898e+09 1.048074e+04 1.246722e+03 4.182126e+03
-3.949122e+09 -3.749068e+09 -3.909120e+09 1.436589e+04 -1.320551e+04 -3.969557e+03
-3.961064e+09 -3.761007e+09 -3.921067e+09 9.653117e+03 -8.418273e+03 -2.338074e+03
-4.995174e+09 -4.795177e+09 -4.955182e+09 -5.240984e+02 -2.047693e+01 -5.230368e+01
-2.999203e+09 -2.799196e+09 -2.959218e+09 8.841580e+03 -1.090926e+04 -5.355314e+03
-1.947380e+09 -1.747373e+09 -1.907385e+09 2.049057e+03 -6.065471e+03 -1.313019e+03
-4.997009e+09 -4.796883e+09 -4.956918e+09 1.278852e+02 -5.254276e+03 -2.097483e+02
-4.655328e+09 -4.455328e+09 -4.615357e+09 1.346777e+04 -2.513762e+03 -8.114229e+02
-4.300841e+09 -4.100755e+09 -4.260795e+09 3.017991e+04 8.630148e+03 -4.785945e+03
-2.193604e+09 -1.993593e+09 -2.153609e+09 3.610099e+03 -1.011145e+04 -5.780618e+03
-3.892369e+09 -3.692359e+09 -3.852374e+09 -1.067094e+03 1.349317e+03 -6.484676e+02
-4.987312e+09 -4.787251e+09 -4.947296e+09 3.371872e+04 -4.826233e+03 -1.518121e+03
-3.209805e+09 -3.009796e+09 -3.169812e+09 -2.399364e+03 4.043537e+03 -1.504105e+03
-2.372308e+09 -2.172298e+09 -2.332310e+09 -1.143964e+03 3.118776e+03 -1.389639e+03
-2.662510e+09 -2.462498e+09 -2.622512e+09 -5.972056e+02 2.197357e+03 -1.183303e+03
-3.029434e+09 -2.829423e+09 -2.989438e+09 -1.484787e+03 3.804151e+03 -1.733227e+03
-4.988445e+09 -4.788434e+09 -4.948468e+09 1.130438e+04 -1.347408e+03 -1.033814e+03
-2.188104e+09 -1.988103e+09 -2.148109e+09 7.017263e+02 3.161985e+02 2.420376e+02
-4.644920e+09 -4.444871e+09 -4.604869e+09 5.543713e+04 -1.854710e+03 -2.840165e+03
-4.296250e+09 -4.096202e+09 -4.256250e+09 -6.249441e+03 9.017717e+03 -2.213338e+03
-2.183265e+09 -1.983266e+09 -2.143271e+09 4.051935e+02 1.062740e+02 4.706750e+01
-4.290997e+09 -4.090944e+09 -4.251000e+09 -1.386331e+04 8.859767e+03 -4.085458e+03
-4.988885e+09 -4.788819e+09 -4.948871e+09 -2.086130e+04 5.062512e+03 -1.982530e+03
-4.123595e+09 -3.923535e+09 -4.083592e+09 -1.369517e+04 8.143557e+03 -3.282176e+03
-5.008023e+09 -4.808034e+09 -4.968043e+09 7.833711e+03 1.173934e+02 2.446107e+02
-3.967593e+09 -3.767604e+09 -3.927616e+09 9.739289e+03 2.074664e+03 3.440684e+03
-4.817711e+09 -4.617731e+09 -4.777742e+09 1.114589e+04 1.012413e+03 5.845766e+02
-3.967595e+09 -3.767605e+09 -3.927616e+09 8.045471e+03 2.642159e+03 3.743766e+03
-4.825831e+09 -4.625846e+09 -4.785858e+09 1.229114e+04 2.928817e+02 1.351313e+03
-4.473257e+09 -4.273297e+09 -4.433301e+09 1.661217e+04 1.178793e+03 3.160519e+03
-3.138745e+09 -2.938745e+09 -3.098751e+09 1.898718e+02 6.912838e+01 1.747889e+02
-2.202392e+09 -2.002395e+09 -2.162399e+09 3.623185e+02 5.558743e+01 2.222135e+00
-4.313199e+09 -4.113211e+09 -4.273218e+09 6.582145e+03 1.197576e+03 2.001611e+03
-4.990281e+09 -4.790285e+09 -4.950291e+09 3.333538e+03 -7.246316e+01 1.991643e+02
-3.176593e+09 -2.976592e+09 -3.136599e+09 2.539766e+02 1.443640e+02 3.662182e+02
-1.688169e+09 -1.488170e+09 -1.648175e+09 2.943776e+02 1.155057e+02 1.929434e+02
-1.930313e+09 -1.730313e+09 -1.890318e+09 1.774762e+02 1.124999e+02 6.539697e+01
-4.993840e+09 -4.793744e+09 -4.953812e+09 -1.569210e+03 4.163973e+03 -4.384408e+02
-4.657309e+09 -4.457270e+09 -4.616943e+09 7.814711e+04 -5.146993e+04 -2.942105e+04
-4.822384e+09 -4.622307e+09 -4.782367e+09 3.470690e+03 3.369908e+03 -6.747507e+02
-4.995702e+09 -4.795662e+09 -4.955227e+09 5.826415e+04 -1.178780e+04 -5.180345e+03
-4.992287e+09 -4.792182e+09 -4.952241e+09 2.929524e+04 6.117292e+03 -3.834628e+00
-4.621529e+09 -4.421411e+09 -4.581199e+09 5.815206e+04 -4.393410e+04 -1.838785e+04
-4.129993e+09 -3.929892e+09 -4.089944e+09 1.542508e+04 3.650769e+03 5.251828e+03
-4.992295e+09 -4.792207e+09 -4.952248e+09 2.251595e+04 5.431592e+03 -5.490574e+02
-3.952908e+09 -3.752890e+09 -3.912698e+09 1.016080e+05 -9.353793e+04 -4.277367e+04
-4.998936e+09 -4.798835e+09 -4.958883e+09 -7.206812e+03 4.075395e+03 -9.913846e+02
-3.957871e+09 -3.757848e+09 -3.917765e+09 7.603625e+04 -3.023794e+04 -1.106773e+04
-4.987561e+09 -4.787496e+09 -4.947439e+09 5.973453e+04 8.986912e+03 -2.632448e+03
-4.134325e+09 -3.934236e+09 -4.094277e+09 2.108015e+04 3.474819e+02 -5.552898e+03
-4.644764e+09 -4.444663e+09 -4.604702e+09 1.828648e+04 -3.203080e+03 5.777563e+02
-3.962227e+09 -3.762281e+09 -3.922175e+09 -7.116375e+04 -9.077795e+03 4.471887e+04
-3.873739e+09 -3.673742e+09 -3.833746e+09 1.084437e+02 1.690527e+01 1.194085e+01
-4.819751e+09 -4.619901e+09 -4.779328e+09 -2.182407e+04 -6.003459e+04 4.150574e+04
-3.605325e+09 -3.405327e+09 -3.565332e+09 2.791935e+01 9.228162e+00 2.764392e+01
-3.612939e+09 -3.412942e+09 -3.572946e+09 8.765282e+01 1.247369e+01 2.411330e+01
-3.962747e+09 -3.762739e+09 -3.922774e+09 -2.360114e+04 4.938706e+03 -3.328289e+03
-3.246598e+09 -3.046600e+09 -3.206605e+09 1.116343e+02 9.006760e+00 -2.536704e+01
-4.303006e+09 -4.102989e+09 -4.263020e+09 -3.588352e+04 6.906911e+03 -5.757677e+03
-3.618244e+09 -3.418246e+09 -3.578251e+09 1.014605e+02 5.571113e+01 3.025557e+01
-2.170472e+09 -1.970474e+09 -2.130479e+09 8.521610e+01 -1.175415e+01 -9.584549e-01
-4.987955e+09 -4.787831e+09 -4.947873e+09 9.601943e+03 4.593795e+03 3.281980e+02
-2.974119e+09 -2.774121e+09 -2.934125e+09 9.683609e+01 -6.697619e+00 -2.468898e+00
-3.080877e+09 -2.880880e+09 -3.040884e+09 8.486252e+01 3.067193e+00 -2.073293e+01
-3.952210e+09 -3.752213e+09 -3.912217e+09 4.255030e+02 8.812127e+00 6.919607e+00
-2.162595e+09 -1.962589e+09 -2.122601e+09 1.382059e+03 -6.327202e+03 -2.434476e+03
-1.821084e+09 -1.621089e+09 -1.781096e+09 1.988875e+03 -9.718993e+03 -4.065416e+03
-4.849740e+09 -4.649641e+09 -4.809702e+09 -9.579597e+03 2.398973e+03 8.985469e+02
-4.319915e+09 -4.119777e+09 -4.279772e+09 -2.293367e+04 -7.291924e+03 -6.490783e+03
-4.991350e+09 -4.791209e+09 -4.951108e+09 -2.634434e+04 1.075823e+03 -2.572398e+03
-4.298884e+09 -4.098763e+09 -4.258286e+09 -6.363200e+04 -6.490334e+04 3.262023e+04
-4.131945e+09 -3.931915e+09 -4.091763e+09 -7.772095e+04 -4.412881e+04 3.301201e+04
-2.652253e+09 -2.452255e+09 -2.612274e+09 6.551506e+03 -9.268043e+03 -3.780320e+03
-4.823283e+09 -4.623353e+09 -4.783341e+09 -1.171322e+04 -6.941356e+02 5.348875e+03
-3.905596e+09 -3.705644e+09 -3.865658e+09 5.945698e+03 -5.787182e+03 -4.618344e+03
-2.531917e+09 -2.331918e+09 -2.491935e+09 4.109573e+03 -8.912278e+03 -3.316681e+03
-2.849284e+09 -2.649287e+09 -2.809304e+09 7.791226e+03 -9.867167e+03 -4.383712e+03
-4.992214e+09 -4.792293e+09 -4.952268e+09 6.224485e+03 3.524275e+02 3.246421e+03
-3.869182e+09 -3.669180e+09 -3.829206e+09 1.264280e+04 -6.237127e+03 -3.875378e+03
-4.272958e+09 -4.072960e+09 -4.232988e+09 1.058191e+04 -4.015293e+03 -2.971528e+03
-4.487550e+09 -4.287553e+09 -4.447557e+09 -1.098901e+02 -1.844200e+01 6.165156e+01
-2.850193e+09 -2.650208e+09 -2.810223e+09 8.878955e+03 -1.054011e+04 -7.618090e+03
-4.132160e+09 -3.932236e+09 -4.092219e+09 -7.910032e+03 -2.195784e+03 7.907548e+03
-4.045266e+09 -3.845267e+09 -4.005293e+09 1.269640e+04 -6.204895e+03 -3.501473e+03
-2.155825e+09 -1.955821e+09 -2.115833e+09 3.998608e+03 -1.222624e+04 -7.666950e+03
-1.898139e+09 -1.698138e+09 -1.858143e+09 -8.845256e+01 -1.096525e+04 -5.595304e+03
-4.478561e+09 -4.278560e+09 -4.438587e+09 3.758248e+04 4.453978e+03 5.486882e+03
-4.119403e+09 -3.919416e+09 -4.079435e+09 2.451559e+04 4.890633e+03 6.196166e+03
-4.300143e+09 -4.100146e+09 -4.259242e+09 3.890863e+04 -9.374497e+04 -8.275827e+04
-3.958800e+09 -3.758654e+09 -3.918145e+09 -1.105703e+03 -1.557541e+05 -3.509001e+04
-4.820670e+09 -4.620745e+09 -4.780733e+09 2.312957e+04 2.142874e+03 9.250555e+03
-3.961839e+09 -3.761863e+09 -3.921869e+09 6.417123e+03 1.332332e+03 3.958379e+03
-4.996264e+09 -4.796326e+09 -4.956289e+09 4.640329e+04 3.168546e+03 5.516722e+03
-3.973609e+09 -3.773672e+09 -3.933654e+09 -3.381503e+04 1.338043e+03 2.050666e+03
-3.759785e+09 -3.559790e+09 -3.719793e+09 -3.832303e+02 -5.894611e+01 1.543282e+02
-4.989164e+09 -4.789261e+09 -4.949211e+09 -1.372630e+04 3.818927e+02 4.595022e+03
-4.126336e+09 -3.926210e+09 -4.085591e+09 3.331990e+04 -1.378262e+05 -3.633835e+04
-4.826532e+09 -4.626614e+09 -4.786572e+09 -3.584163e+04 8.084011e+02 -3.681740e+03
-4.995704e+09 -4.795787e+09 -4.955771e+09 -2.019136e+04 -3.220869e+02 5.041745e+03
-4.815273e+09 -4.615187e+09 -4.774353e+09 1.491400e+04 -5.679073e+04 -1.147255e+04
-4.825550e+09 -4.625572e+09 -4.785232e+09 -8.892094e+04 3.183312e+04 -4.568128e+04
-4.995059e+09 -4.795192e+09 -4.955032e+09 -4.558839e+04 -4.063179e+03 1.042346e+03
-4.812839e+09 -4.612729e+09 -4.772136e+09 2.223770e+04 -3.332226e+04 1.174349e+04
-3.958559e+09 -3.758511e+09 -3.917837e+09 7.006217e+04 -1.377411e+05 -1.066640e+05
-4.647428e+09 -4.447362e+09 -4.606804e+09 8.225527e+04 -5.311919e+04 -5.731021e+04
-5.003310e+09 -4.803383e+09 -4.963360e+09 -2.963625e+04 1.224273e+03 4.618043e+03
-4.650312e+09 -4.450361e+09 -4.610367e+09 -1.930717e+04 -1.760695e+03 2.944817e+03
-4.643020e+09 -4.442952e+09 -4.602057e+09 4.364651e+04 -6.346511e+04 -1.402143e+04
-4.284703e+09 -4.084698e+09 -4.244632e+09 7.373688e+04 -4.358595e+03 -1.116531e+03
-4.815703e+09 -4.615673e+09 -4.774986e+09 6.029580e+04 1.593184e+03 -2.068537e+04
-4.477390e+09 -4.277553e+09 -4.437252e+09 6.805463e+03 -2.396198e+03 -3.460975e+03
-4.303930e+09 -4.103911e+09 -4.263939e+09 4.074977e+04 8.046506e+03 6.546668e+03
-4.755156e+09 -4.555133e+09 -4.715165e+09 -9.697383e+02 3.058570e+01 4.041401e+02
-4.819261e+09 -4.619249e+09 -4.779275e+09 4.005235e+04 -6.112465e+02 -2.070907e+03
-4.976819e+09 -4.776851e+09 -4.936692e+09 8.450077e+04 -8.758007e+02 5.812477e+03
-4.986633e+09 -4.786690e+09 -4.946614e+09 5.855044e+04 2.851534e+02 3.159526e+03
-4.819557e+09 -4.619516e+09 -4.779558e+09 3.391063e+04 5.639863e+03 4.262911e+03
-3.962161e+09 -3.762134e+09 -3.922165e+09 4.127874e+04 4.772484e+02 5.360059e+03
-3.957500e+09 -3.757640e+09 -3.917480e+09 4.113855e+04 -2.324057e+04 -3.412813e+04
-4.992442e+09 -4.792454e+09 -4.952454e+09 4.794348e+04 7.114599e+03 3.078848e+03
-4.655291e+09 -4.455383e+09 -4.614781e+09 3.087031e+03 -1.528446e+03 -1.003820e+05
-4.469149e+09 -4.269258e+09 -4.429182e+09 -1.751515e+04 -2.187531e+03 8.546964e+03
-4.477390e+09 -4.277549e+09 -4.437339e+09 7.999265e+03 -1.676222e+03 -5.422028e+04
-4.642661e+09 -4.442689e+09 -4.602661e+09 5.902175e+04 -7.077282e+03 -1.017454e+03
-4.300757e+09 -4.100875e+09 -4.260674e+09 5.222045e+04 -2.721238e+04 -1.767581e+04
-1.813648e+09 -1.613679e+09 -1.773677e+09 -1.012947e+04 -5.636741e+03 -4.762867e+03
-4.748681e+09 -4.548765e+09 -4.708768e+09 5.638427e+03 -1.620139e+03 -1.735745e+03
-4.132794e+09 -3.932784e+09 -4.092810e+09 4.007212e+04 8.905338e+03 9.376155e+03
-2.185391e+09 -1.985384e+09 -2.145398e+09 -6.256944e+03 1.252759e+04 -8.472761e+03
-4.135556e+09 -3.935623e+09 -4.095628e+09 9.660473e+03 -4.713146e+03 -3.824046e+03
-3.740165e+09 -3.540220e+09 -3.700217e+09 2.179887e+04 -7.570401e+03 -8.626776e+03
-1.958888e+09 -1.758908e+09 -1.918910e+09 1.143648e+04 -8.108047e+03 -5.026148e+03
-3.223836e+09 -3.023830e+09 -3.183854e+09 -1.008942e+04 1.039395e+04 -5.686651e+03
-3.483833e+09 -3.283828e+09 -3.443852e+09 -1.031992e+04 9.210690e+03 -5.868966e+03
-3.785926e+09 -3.585929e+09 -3.745957e+09 1.078139e+04 -5.574269e+03 -3.095407e+03
-2.884587e+09 -2.684585e+09 -2.844601e+09 -2.520902e+03 7.679075e+03 -2.141015e+03
-2.548032e+09 -2.348028e+09 -2.508045e+09 -7.564911e+03 7.474645e+03 -3.701421e+03
-1.887076e+09 -1.687076e+09 -1.847080e+09 2.378758e+02 1.090679e+04 -5.242323e+03
-4.125678e+09 -3.925667e+09 -4.085682e+09 -7.721029e+02 4.943770e+02 -4.194148e+02
-1.621536e+09 -1.421549e+09 -1.581550e+09 -1.018694e+02 -8.397818e+03 2.146790e+03
-1.588826e+09 -1.388821e+09 -1.548828e+09 1.037663e+02 -9.727889e+03 -4.592585e+03
-2.570433e+09 -2.370433e+09 -2.530449e+09 7.530699e+02 -8.395710e+03 -7.216831e+02
-2.823928e+09 -2.623951e+09 -2.783960e+09 1.269736e+03 -7.665418e+03 -4.275880e+02
-3.443856e+09 -3.243845e+09 -3.403861e+09 -1.849169e+03 2.403604e+03 -1.270769e+03
-4.262094e+09 -4.062080e+09 -4.222099e+09 -1.900673e+03 1.901475e+03 -7.902518e+02
-4.624957e+09 -4.424944e+09 -4.584963e+09 -2.499060e+03 6.520813e+02 -3.183633e+02
-3.550977e+09 -3.350972e+09 -3.510990e+09 -7.054622e+02 4.902234e+03 -2.250060e+02
-4.923949e+09 -4.723945e+09 -4.883967e+09 -9.919435e+02 7.404020e+02 1.858370e-04
-3.506432e+09 -3.306424e+09 -3.466441e+09 -3.347777e+02 3.582209e+03 -2.997988e+02
-4.186063e+09 -3.986050e+09 -4.146066e+09 -8.624784e+02 3.968163e+02 -5.721457e+02
-1.975574e+09 -1.775606e+09 -1.935612e+09 -4.411446e+03 9.373102e+03 -6.022479e+03
-1.726211e+09 -1.526215e+09 -1.686219e+09 -6.541907e+02 8.111313e+03 -5.521813e+03
-3.813482e+09 -3.613469e+09 -3.773486e+09 -1.205858e+03 1.208273e+03 -5.929932e+02
-2.206754e+09 -2.006798e+09 -2.166794e+09 -1.480066e+03 2.434400e+03 -2.548933e+02
-4.228379e+09 -4.028477e+09 -4.188469e+09 -5.272256e+03 -2.291789e+02 -1.583441e+03
-3.422893e+09 -3.222918e+09 -3.382934e+09 -1.527553e+04 1.055045e+04 -8.990912e+03
-4.515174e+09 -4.315162e+09 -4.475178e+09 -3.562539e+02 1.228811e+02 -3.657514e+02
-4.750038e+09 -4.550026e+09 -4.710043e+09 -8.045671e+02 3.147380e+02 -4.889451e+01
-2.558755e+09 -2.358738e+09 -2.518756e+09 1.098116e+03 5.030741e+03 1.914527e+02
-2.612542e+09 -2.412529e+09 -2.572544e+09 7.876121e+01 2.858773e+03 -4.026208e+02
-1.771507e+09 -1.571499e+09 -1.731508e+09 6.237556e+02 4.785300e+03 6.560848e+02
-2.069339e+09 -1.869325e+09 -2.029339e+09 7.465811e+02 6.002979e+03 8.050532e+02
-2.576998e+09 -2.376982e+09 -2.537000e+09 2.799692e+02 5.068766e+03 -2.031758e+02
-3.117694e+09 -2.917681e+09 -3.077695e+09 -2.012578e+02 1.631664e+02 -8.884686e+02
-2.364841e+09 -2.164853e+09 -2.324854e+09 -2.129134e+02 -7.298258e+01 5.997091e+02
-1.964026e+09 -1.764038e+09 -1.924039e+09 -4.112146e+02 -2.344491e+02 9.849252e+02
-4.029434e+09 -3.829417e+09 -3.989438e+09 -1.199145e+03 1.568000e+03 -4.378801e+02
-2.427893e+09 -2.227905e+09 -2.387906e+09 1.022499e+02 1.518118e+02 1.073481e+03
-3.236914e+09 -3.036927e+09 -3.196928e+09 -3.873987e+02 -1.659600e+02 1.219688e+03
-2.258422e+09 -2.058403e+09 -2.218423e+09 5.115631e+02 -8.265913e+03 -1.769441e+03
-1.879864e+09 -1.679851e+09 -1.839863e+09 -2.363364e+03 -8.661687e+03 -4.684761e+03
-3.547453e+09 -3.347439e+09 -3.507456e+09 -2.515874e+02 3.547062e+02 -7.429848e+02
-1.699812e+09 -1.499802e+09 -1.659812e+09 6.270908e+01 1.430669e+03 -7.811606e+02
-4.825326e+09 -4.625306e+09 -4.785331e+09 -3.868398e+02 5.536420e+02 -5.831200e+02
-3.588529e+09 -3.388518e+09 -3.548536e+09 -8.137571e+02 -3.724337e+02 1.910598e+03
-2.140059e+09 -1.940047e+09 -2.100062e+09 5.611012e+02 -5.876031e+03 -3.024297e+03
-2.458032e+09 -2.258017e+09 -2.418037e+09 1.963026e+03 -5.681099e+03 -2.778213e+03
-2.081450e+09 -1.881436e+09 -2.041451e+09 1.764340e+03 -6.781891e+03 -3.777834e+03
-1.840313e+09 -1.640318e+09 -1.800305e+09 -6.446374e+03 1.017581e+04 -1.810788e+04
-4.992810e+09 -4.792808e+09 -4.952816e+09 6.134701e+02 9.717652e+01 -1.185902e+02
-2.933690e+09 -2.733751e+09 -2.893749e+09 -8.579736e+03 4.331279e+03 -1.493355e+04
-4.991414e+09 -4.791417e+09 -4.951422e+09 7.749591e+02 7.099800e+00 3.461765e-01
-3.795833e+09 -3.595832e+09 -3.755839e+09 2.451824e+02 1.536683e+02 1.335001e+02
-3.303580e+09 -3.103577e+09 -3.263586e+09 1.156253e+03 5.891060e+02 5.833021e+02
-4.528715e+09 -4.328712e+09 -4.488721e+09 3.808891e+02 5.196036e+01 3.532875e+02
-3.236796e+09 -3.036856e+09 -3.196856e+09 -2.153773e+04 6.708499e+03 -7.947233e+03
-4.760071e+09 -4.560071e+09 -4.720078e+09 4.662082e+02 -4.220130e+01 8.885433e+01
-3.448413e+09 -3.248415e+09 -3.408420e+09 1.501850e+03 3.133001e+02 3.158761e+02
-1.580210e+09 -1.380206e+09 -1.540213e+09 -6.248166e+02 -4.008410e+03 3.248190e+03
-2.963168e+09 -2.763159e+09 -2.923173e+09 -1.267858e+03 3.228892e+03 -1.267971e+03
-1.879699e+09 -1.679694e+09 -1.839701e+09 -1.929012e+02 8.030486e+03 -3.490789e+03
-1.913548e+09 -1.713544e+09 -1.873553e+09 1.709334e+03 7.294964e+03 -1.204385e+03
-2.086852e+09 -1.886857e+09 -2.046865e+09 -6.080283e+03 1.458849e+04 -9.299390e+03
-3.211591e+09 -3.011590e+09 -3.171609e+09 -8.318859e+03 9.550096e+03 -5.675320e+03
-4.990833e+09 -4.790820e+09 -4.950837e+09 -1.267727e+03 3.460961e+02 -2.333415e+02
-2.614573e+09 -2.414566e+09 -2.574578e+09 -5.390040e+02 4.014587e+03 -9.683034e+02
-2.220564e+09 -2.020561e+09 -2.180573e+09 -8.762907e+02 7.550188e+03 -2.496324e+03
-2.164959e+09 -1.964975e+09 -2.124980e+09 -9.861479e+02 9.498668e+03 -4.051954e-01
-1.781351e+09 -1.581344e+09 -1.741354e+09 -8.953246e+02 9.071367e+03 -4.119104e+03
-4.819766e+09 -4.619701e+09 -4.779759e+09 -2.547009e+04 -6.215947e+03 2.602066e+03
-3.205468e+09 -3.005469e+09 -3.165474e+09 2.133512e+02 5.761069e+00 4.628635e+01
-2.922352e+09 -2.722354e+09 -2.882359e+09 6.904507e+02 1.458180e+02 1.296156e+02
-4.646884e+09 -4.446827e+09 -4.606887e+09 -2.483217e+04 -2.186338e+03 3.046119e+03
-3.961399e+09 -3.761356e+09 -3.921407e+09 -2.509661e+04 -6.963417e+03 5.625299e+03
-4.646823e+09 -4.446787e+09 -4.606836e+09 -2.601317e+04 -2.053867e+03 2.922458e+03
-1.630195e+09 -1.430199e+09 -1.590203e+09 6.074272e+01 4.708741e+01 3.124444e+01
-4.990679e+09 -4.790681e+09 -4.950686e+09 6.285436e+02 7.255355e+00 -4.952616e+01
-1.589994e+09 -1.389997e+09 -1.550001e+09 1.036181e+02 3.494502e+00 2.169945e+01
-4.132984e+09 -3.932896e+09 -4.092960e+09 -1.278984e+04 -1.113728e+04 4.031521e+03
-4.133284e+09 -3.933209e+09 -4.093207e+09 -5.048922e+04 1.028923e+04 -1.595873e+04
-3.504493e+09 -3.304496e+09 -3.464500e+09 4.316454e+02 9.329061e+01 1.879397e+01
-3.961998e+09 -3.761938e+09 -3.921990e+09 -3.421062e+04 -1.800073e+03 3.815550e+03
-3.071668e+09 -2.871660e+09 -3.031674e+09 -5.402677e+02 -2.761862e+02 1.588585e+03
-3.958803e+09 -3.758851e+09 -3.918843e+09 -2.718354e+04 -1.226354e+03 4.849670e+03
-2.731802e+09 -2.531790e+09 -2.691806e+09 -3.503664e+02 -5.450340e+02 1.930959e+03
-4.133066e+09 -3.932994e+09 -4.093040e+09 -3.842354e+04 -1.104929e+04 7.933791e+03
-4.991619e+09 -4.791567e+09 -4.951602e+09 -4.073566e+04 -6.226441e+03 8.395679e+01
-4.303916e+09 -4.103867e+09 -4.263917e+09 -3.719756e+04 -8.297747e+03 4.636563e+03
-3.473362e+09 -3.273356e+09 -3.433367e+09 1.259866e+03 6.583210e+02 1.102151e+03
-4.034235e+09 -3.834211e+09 -3.994243e+09 -2.492615e+03 -2.977078e+03 8.099491e+02
-2.871221e+09 -2.671208e+09 -2.831225e+09 -1.564455e+02 -8.834949e+02 1.483860e+03
-3.043819e+09 -2.843801e+09 -3.003822e+09 -4.320241e+02 6.358810e+03 -6.468576e+02
-2.106785e+09 -1.906776e+09 -2.066788e+09 1.366562e+03 2.259920e+03 1.274171e+03
-1.779848e+09 -1.579840e+09 -1.739850e+09 1.122997e+03 3.251596e+03 1.560499e+03
-3.908412e+09 -3.708392e+09 -3.868417e+09 -1.947517e+03 3.314862e+03 -7.362652e+02
-2.592352e+09 -2.392343e+09 -2.552357e+09 2.938899e+03 3.300876e+03 1.529849e+03
-1.878168e+09 -1.678161e+09 -1.838171e+09 5.883797e+02 4.036880e+03 2.599931e+03
-1.568039e+09 -1.368030e+09 -1.528039e+09 1.995808e+02 3.740889e+03 -1.685340e+03
-4.110487e+09 -3.910478e+09 -4.070494e+09 3.123977e+03 1.321492e+03 8.126234e+02
-3.963380e+09 -3.763357e+09 -3.923387e+09 -4.684279e+03 4.826701e+03 -1.316940e+03
-2.121824e+09 -1.921828e+09 -2.081832e+09 -1.339494e+02 -5.969304e+00 3.405011e+01
-2.155105e+09 -1.955093e+09 -2.115105e+09 -2.585128e+02 2.675896e+03 -5.835764e+02
-1.575738e+09 -1.375729e+09 -1.535737e+09 3.050839e+02 5.304855e+03 -1.037599e+03
-2.098254e+09 -1.898246e+09 -2.058256e+09 1.396879e+03 1.739264e+03 1.245147e+03
-1.764411e+09 -1.564402e+09 -1.724411e+09 -1.137376e+02 4.537343e+03 -1.143609e+03
-1.877108e+09 -1.677096e+09 -1.837107e+09 1.591030e+03 6.453879e+03 -2.100234e+03
-3.113349e+09 -2.913335e+09 -3.073352e+09 -6.546514e+02 2.458322e+03 -7.452812e+02
-2.199132e+09 -1.999120e+09 -2.159133e+09 -8.454201e+01 1.335968e+03 -7.547205e+02
-2.725216e+09 -2.525204e+09 -2.685219e+09 -1.612128e+03 2.753845e+03 -1.346627e+03
-4.821993e+09 -4.621934e+09 -4.781991e+09 -3.498312e+03 3.484046e+03 -2.115277e+02
-2.616022e+09 -2.416034e+09 -2.576044e+09 5.295492e+03 -1.051663e+04 -6.448180e+03
-1.828020e+09 -1.628009e+09 -1.788020e+09 -3.019702e+02 2.219802e+03 -1.167909e+03
-2.995794e+09 -2.795789e+09 -2.955808e+09 -6.218473e+03 9.120707e+03 -4.755217e+03
-3.233807e+09 -3.033799e+09 -3.193820e+09 -6.464696e+03 8.054781e+03 -4.672743e+03
-4.065941e+09 -3.865937e+09 -4.025961e+09 -6.719247e+03 4.085135e+03 -1.910083e+03
-1.864845e+09 -1.664840e+09 -1.824852e+09 2.671668e+03 -8.179336e+03 -1.804008e+03
-4.819278e+09 -4.619267e+09 -4.779298e+09 -1.147545e+04 7.697725e+02 -1.487624e+03
-1.895248e+09 -1.695238e+09 -1.855253e+09 3.367465e+03 -1.024032e+04 -5.962666e+03
-4.828409e+09 -4.628403e+09 -4.788428e+09 -5.384847e+03 1.953025e+03 -6.860516e+02
-3.937188e+09 -3.737177e+09 -3.897202e+09 -7.042287e+03 4.197491e+03 -2.003268e+03
-4.632555e+09 -4.432544e+09 -4.592571e+09 -7.751849e+03 1.628894e+03 -6.419993e+02
-2.841165e+09 -2.641157e+09 -2.801179e+09 5.805078e+03 -8.877956e+03 -5.629687e+03
-4.788253e+09 -4.588310e+09 -4.748321e+09 -1.536862e+04 9.614450e+02 1.559562e+03
-4.548427e+09 -4.348487e+09 -4.508500e+09 -8.612136e+03 1.862658e+03 -6.892422e+02
-4.492450e+09 -4.292522e+09 -4.452532e+09 -3.467164e+03 1.942934e+03 8.402802e+02
-4.265718e+09 -4.065807e+09 -4.225801e+09 -1.107340e+04 1.409857e+03 -6.201645e+03
-1.892529e+09 -1.692530e+09 -1.852537e+09 -6.893293e+02 9.016625e+03 -3.227787e+03
-4.071372e+09 -3.871427e+09 -4.031430e+09 -2.693135e+04 2.297172e+03 -1.793492e+03
-1.700621e+09 -1.500624e+09 -1.660621e+09 1.665529e+03 -9.665840e+03 -1.469752e+04
-1.798604e+09 -1.598627e+09 -1.758623e+09 -5.536134e+03 -7.478861e+03 -2.923723e+03
-4.970941e+09 -4.771015e+09 -4.931021e+09 -6.778174e+03 -6.416727e+02 -1.577520e+03
-3.051219e+09 -2.851234e+09 -3.011246e+09 1.819417e+04 -1.234483e+04 -9.286876e+03
-3.978843e+09 -3.778918e+09 -3.938922e+09 -5.641221e+03 4.903633e+03 -4.143250e+03
-1.627895e+09 -1.427894e+09 -1.587901e+09 1.823584e+02 -8.960132e+03 -2.463225e+03
-4.286737e+09 -4.086866e+09 -4.246786e+09 -1.062340e+03 -1.621374e+03 -1.071921e+04
-4.819417e+09 -4.619421e+09 -4.779426e+09 2.163124e+03 -9.632627e+01 2.737014e+02
-4.142282e+09 -3.942285e+09 -4.102290e+09 1.622904e+03 3.547298e+02 5.486803e+01
-4.305682e+09 -4.105684e+09 -4.265692e+09 2.453300e+03 1.500949e+02 3.170493e+02
-4.989676e+09 -4.789678e+09 -4.949684e+09 1.518189e+03 -1.411709e+02 -5.425864e+01
-5.003040e+09 -4.803043e+09 -4.963048e+09 1.612979e+03 1.245314e+02 -7.764546e+01
-4.144021e+09 -3.944024e+09 -4.104029e+09 1.150223e+03 -2.072593e-01 2.854557e+02
-4.830155e+09 -4.630158e+09 -4.790162e+09 1.029640e+03 -7.741396e+01 1.307454e+02
-4.830487e+09 -4.630489e+09 -4.790494e+09 1.042198e+03 1.385802e+02 -1.111186e+02
-4.305020e+09 -4.105016e+09 -4.263768e+09 8.116598e+03 -1.026711e+04 -6.229749e+04
-4.133497e+09 -3.933495e+09 -4.092221e+09 2.828564e+04 -1.719724e+04 -4.915489e+04
-3.962533e+09 -3.762489e+09 -3.921471e+09 -3.771901e+04 -1.214017e+05 1.414945e+05
-2.672430e+09 -2.472439e+09 -2.632441e+09 -5.035348e+02 -2.040300e+02 3.464848e+02
-4.132286e+09 -3.932214e+09 -4.091890e+09 -7.967788e+04 -8.949493e+04 6.431676e+04
-4.650281e+09 -4.450275e+09 -4.609079e+09 3.508966e+03 3.092748e+04 6.947211e+02
-4.303572e+09 -4.103547e+09 -4.262253e+09 -6.129309e+03 -8.117079e+04 -6.520146e+03
-1.688388e+09 -1.488397e+09 -1.648399e+09 -1.272447e+03 -5.709790e+02 1.024520e+03
-4.992513e+09 -4.792542e+09 -4.952548e+09 -5.740813e+03 1.358537e+02 5.522733e+02
-2.976795e+09 -2.776805e+09 -2.936808e+09 -1.610261e+03 -6.174107e+02 1.312239e+03
-4.819215e+09 -4.619240e+09 -4.779244e+09 -2.064483e+03 7.871316e+02 1.275149e+03
-4.133591e+09 -3.933621e+09 -4.093624e+09 -3.989635e+03 -1.671368e+03 3.970077e+03
-4.320038e+09 -4.120070e+09 -4.280077e+09 -8.287774e+03 -1.350707e+03 4.611663e+03
-1.625229e+09 -1.425242e+09 -1.585236e+09 -2.060524e+03 2.441458e+03 -4.986264e+03
-4.991479e+09 -4.791506e+09 -4.951513e+09 3.608961e+04 -3.304800e+03 -1.751506e+03
-4.991547e+09 -4.791588e+09 -4.951590e+09 -6.706216e+03 1.264043e+02 1.366719e+03
-4.304621e+09 -4.104661e+09 -4.264665e+09 -5.734938e+03 -7.760196e+02 5.062483e+03
-3.962807e+09 -3.762842e+09 -3.922847e+09 -6.910196e+03 -1.438442e+03 5.203806e+03
-4.133644e+09 -3.933682e+09 -4.093686e+09 -7.503916e+03 -5.121401e+02 6.265402e+03
-3.911865e+09 -3.711867e+09 -3.871872e+09 1.083755e+03 2.380652e+02 2.195542e+02
-4.077641e+09 -3.877643e+09 -4.037648e+09 1.071043e+03 2.165351e+02 -1.585240e+01
-4.314368e+09 -4.114371e+09 -4.274376e+09 9.954599e+02 9.817973e+01 7.769164e+01
-1.750689e+09 -1.550708e+09 -1.710692e+09 5.645146e+01 3.107391e+03 -8.649034e+03
-4.657601e+09 -4.457604e+09 -4.617609e+09 9.945445e+02 1.146530e+02 8.674962e+01
-4.995759e+09 -4.795844e+09 -4.955846e+09 1.195207e+04 -1.770338e+03 -8.248714e+02
-1.631833e+09 -1.431847e+09 -1.591838e+09 4.530654e+02 -2.874887e+02 -1.202185e+04
-3.878163e+09 -3.678166e+09 -3.838171e+09 7.195513e+02 8.515220e+01 -2.326047e+01
-3.997459e+09 -3.797547e+09 -3.957548e+09 6.919060e+03 -1.902468e+03 -2.503496e+03
-4.489639e+09 -4.289642e+09 -4.449647e+09 6.438086e+01 3.311006e+01 1.962323e+01
-3.188306e+09 -2.988297e+09 -3.148314e+09 -1.557900e+03 -1.434963e+03 2.258300e+03
-4.751148e+09 -4.551150e+09 -4.711155e+09 6.111480e+02 -2.697482e+01 4.625091e+01
-1.577219e+09 -1.377216e+09 -1.537223e+09 -8.993328e+02 -1.867294e+03 1.816676e+03
-3.870248e+09 -3.670251e+09 -3.830255e+09 7.727263e+02 7.918543e+01 6.454948e+01
-2.129406e+09 -1.929394e+09 -2.089406e+09 -4.872160e+01 5.404826e+02 -4.162809e+02
-2.928210e+09 -2.728210e+09 -2.888218e+09 -1.819100e+03 -9.730593e+02 1.236736e+03
-2.670529e+09 -2.470516e+09 -2.630531e+09 1.625910e+01 5.947750e+02 -6.196934e+02
-3.143727e+09 -2.943712e+09 -3.103729e+09 -1.960858e+02 1.553472e+03 -8.017439e+02
-1.628215e+09 -1.428205e+09 -1.588216e+09 1.521067e+01 7.299263e+02 -6.384321e+02
-1.888484e+09 -1.688472e+09 -1.848485e+09 -2.350321e+02 2.499414e+03 -8.794972e+02
-3.439851e+09 -3.239832e+09 -3.399854e+09 3.050706e+02 5.063883e+03 -3.414591e+02
-2.575681e+09 -2.375669e+09 -2.535683e+09 5.983167e+01 5.864342e+02 -1.584144e+02
-3.012843e+09 -2.812824e+09 -2.972847e+09 -1.379067e+03 8.085067e+03 -1.302329e+03
-1.577091e+09 -1.377082e+09 -1.537092e+09 1.290786e+02 4.242747e+03 -1.292655e+03
-1.845391e+09 -1.645382e+09 -1.805394e+09 2.357587e+03 -6.882774e+03 -2.878388e+03
-2.757679e+09 -2.557664e+09 -2.717681e+09 -1.475718e+03 3.912646e+03 -6.541951e+02
-4.654039e+09 -4.454019e+09 -4.614044e+09 -1.556947e+02 9.262418e+02 -9.255417e+01
-3.426682e+09 -3.226664e+09 -3.386686e+09 -6.744463e+02 4.861737e+03 -8.682483e+02
-2.788787e+09 -2.588794e+09 -2.748812e+09 5.972757e+03 -9.386251e+03 -4.423049e+03
-4.822681e+09 -4.622682e+09 -4.782715e+09 1.685369e+04 -2.866503e+03 -2.238228e+03
-3.115051e+09 -2.915053e+09 -3.075073e+09 3.687941e+03 -7.875458e+03 -2.712427e+03
-3.959916e+09 -3.759905e+09 -3.919936e+09 2.007493e+04 -7.429808e+03 -3.945817e+03
-4.992312e+09 -4.792246e+09 -4.952214e+09 5.830486e+04 -7.329928e+03 -1.374843e+04
-4.584807e+09 -4.384819e+09 -4.544846e+09 6.905521e+03 -2.376315e+03 -2.202974e+02
-4.482429e+09 -4.282383e+09 -4.442437e+09 2.717941e+04 -4.633043e+03 -2.141623e+03
-4.640024e+09 -4.439973e+09 -4.600016e+09 4.401048e+04 1.676515e+02 2.491905e+03
-4.019239e+09 -3.819226e+09 -3.979247e+09 1.700826e+03 -2.011102e+03 -1.322484e+03
-1.890280e+09 -1.690276e+09 -1.850290e+09 -8.176486e+03 1.533340e+04 -1.134950e+04
-2.571326e+09 -2.371328e+09 -2.531342e+09 -9.733947e+03 6.272749e+03 -3.808728e+03
-3.374673e+09 -3.174656e+09 -3.334677e+09 -4.850522e+02 4.620998e+03 -1.123298e+03
-4.824387e+09 -4.624366e+09 -4.784392e+09 -7.173351e+01 8.037984e+02 5.219696e+02
-4.819802e+09 -4.619773e+09 -4.779809e+09 -6.412869e+03 1.393510e+03 -1.129253e+02
-4.306428e+09 -4.106419e+09 -4.266453e+09 -1.722278e+04 5.461069e+03 -2.960585e+03
-4.303550e+09 -4.103533e+09 -4.263571e+09 -2.522238e+04 7.244818e+03 -3.989009e+03
-2.951594e+09 -2.751591e+09 -2.911611e+09 -8.332156e+03 1.087703e+04 -5.684885e+03
-3.961008e+09 -3.760970e+09 -3.921011e+09 -6.496574e+03 5.996361e+03 -5.750319e+02
-4.130653e+09 -3.930617e+09 -4.090657e+09 -5.996511e+03 5.738243e+03 -1.311790e+03
-4.985158e+09 -4.785112e+09 -4.945164e+09 -1.038571e+04 4.017913e+03 -2.122527e+03
-3.078753e+09 -2.878734e+09 -3.038758e+09 9.334237e+02 -4.447556e+03 -4.031334e+01
-4.810057e+09 -4.609996e+09 -4.770052e+09 -1.666447e+04 4.102511e+03 -6.332601e+02
-4.995808e+09 -4.795778e+09 -4.955817e+09 -1.813700e+02 -1.155445e+03 6.583385e+01
-4.990851e+09 -4.790785e+09 -4.950855e+09 4.087702e+03 -3.518174e+03 -8.317715e+02
-2.880894e+09 -2.680876e+09 -2.840898e+09 6.166314e+02 -2.281489e+03 -2.356841e+03
-2.085809e+09 -1.885798e+09 -2.045810e+09 3.820605e+01 -7.832673e+02 -1.914420e+03
-2.182968e+09 -1.982957e+09 -2.142971e+09 2.518926e+03 -8.627834e+03 -4.555875e+03
-4.650735e+09 -4.450702e+09 -4.610742e+09 1.450250e+03 -9.876531e+02 2.014311e+01
-4.289965e+09 -4.089936e+09 -4.249972e+09 -7.694905e+03 5.376719e+03 -2.015478e+03
-2.778735e+09 -2.578719e+09 -2.738741e+09 -3.694377e+03 -4.195699e+03 2.440697e+03
-4.648538e+09 -4.448472e+09 -4.608537e+09 7.416683e+03 -2.196364e+03 9.435147e+02
-4.117630e+09 -3.917599e+09 -4.077637e+09 -8.818102e+03 4.799338e+03 -1.508137e+03
-4.286432e+09 -4.086413e+09 -4.246439e+09 -3.916625e+03 2.910563e+03 -1.584152e+03
-3.961133e+09 -3.761087e+09 -3.921134e+09 -3.391592e+03 -1.316683e+04 1.237243e+03
-3.283539e+09 -3.083518e+09 -3.243543e+09 1.766423e+02 -2.338264e+03 -5.720060e+02
-3.487974e+09 -3.287946e+09 -3.447979e+09 3.734103e+03 -8.184628e+03 -2.608834e+03
-4.527210e+09 -4.327190e+09 -4.487219e+09 1.758438e+03 -5.460815e+02 -7.011598e+02
-3.753707e+09 -3.553683e+09 -3.713716e+09 -1.924200e+03 -4.021736e+03 9.818118e+02
-1.942363e+09 -1.742356e+09 -1.902366e+09 8.602769e+02 -1.162662e+03 2.429838e+03
-3.231951e+09 -3.031948e+09 -3.191961e+09 -5.032200e+03 -3.431569e+03 2.708322e+03
-2.685740e+09 -2.485729e+09 -2.645745e+09 -4.759780e+02 -6.015418e+02 2.428063e+03
-4.821087e+09 -4.621102e+09 -4.781121e+09 -3.045454e+04 -5.589582e+02 -2.300675e+01
-4.457621e+09 -4.257606e+09 -4.417630e+09 -4.988454e+03 2.411964e+03 -9.001147e+02
-4.821584e+09 -4.621567e+09 -4.781594e+09 -5.846697e+03 1.931586e+03 -1.131635e+03
-3.961970e+09 -3.761951e+09 -3.921978e+09 -3.701437e+04 -5.529484e+03 3.978598e+03
-4.989111e+09 -4.789093e+09 -4.949122e+09 -6.800317e+03 -1.142043e+03 4.730642e+02
-4.797816e+09 -4.597802e+09 -4.757821e+09 -2.222907e+03 5.245899e+02 8.341048e+01
-3.940115e+09 -3.740102e+09 -3.900121e+09 -3.401714e+03 2.499081e+03 -8.614330e+02
-2.448898e+09 -2.248890e+09 -2.408904e+09 -2.014203e+03 -3.647591e+03 3.043359e+03
-4.648933e+09 -4.448919e+09 -4.608945e+09 -1.091625e+04 -2.646923e+03 6.277459e+02
-2.252136e+09 -2.052125e+09 -2.212139e+09 -4.153540e+02 -2.306438e+03 2.001819e+03
-4.991379e+09 -4.791361e+09 -4.951394e+09 -1.243673e+04 -2.084596e+03 5.853498e+02
-2.985036e+09 -2.785019e+09 -2.945041e+09 -6.746076e+02 -2.498387e+03 2.017140e+03
-2.139416e+09 -1.939420e+09 -2.099424e+09 1.212714e+02 -1.748375e+01 4.612465e+01
-2.583185e+09 -2.383189e+09 -2.543193e+09 8.033915e+01 7.648242e+01 2.189996e+01
-4.649099e+09 -4.449096e+09 -4.609107e+09 3.405555e+03 4.280696e+02 2.923275e+02
-4.133020e+09 -3.933016e+09 -4.093029e+09 5.001822e+03 1.536947e+03 1.179703e+03
-2.200209e+09 -2.000214e+09 -2.160218e+09 1.729245e+02 -5.595976e+00 3.930654e+01
-4.274743e+09 -4.074741e+09 -4.234751e+09 2.453691e+03 7.472218e+02 6.561197e+02
-3.865273e+09 -3.665271e+09 -3.825280e+09 2.323297e+03 6.623730e+02 6.628718e+02
-3.794573e+09 -3.594578e+09 -3.754582e+09 1.538399e+03 2.409295e+02 3.173049e+02
-4.111305e+09 -3.911310e+09 -4.071313e+09 1.632816e+02 4.996702e+01 -6.661529e+01
-4.990291e+09 -4.790294e+09 -4.950298e+09 2.369207e+02 -6.401548e+01 4.968584e+01
-4.083409e+09 -3.883408e+09 -4.043416e+09 3.219058e+02 -7.115919e+00 2.328735e+02
-4.304017e+09 -4.104029e+09 -4.264034e+09 -2.666232e+03 -4.901059e+02 1.067094e+03
-1.862702e+09 -1.662700e+09 -1.822707e+09 7.449149e+02 4.749582e+02 6.492745e+02
-4.132733e+09 -3.932775e+09 -4.092624e+09 -7.636661e+04 -3.946661e+04 3.449580e+04
-4.303412e+09 -4.103499e+09 -4.263334e+09 -6.722889e+04 -6.004209e+03 2.056868e+04
-4.819863e+09 -4.619942e+09 -4.779747e+09 -7.056933e+04 -3.159355e+04 1.938514e+04
-2.202239e+09 -2.002243e+09 -2.162247e+09 -2.512017e+01 -6.246097e+00 -2.563019e+01
-1.886394e+09 -1.686398e+09 -1.846402e+09 -1.027509e+02 -3.239766e+01 8.327480e-01
-1.631598e+09 -1.431602e+09 -1.591606e+09 -4.974625e+01 -8.637100e+00 2.102629e+01
-4.819821e+09 -4.619942e+09 -4.779427e+09 -5.701216e+04 3.745149e+04 2.216458e+04
-4.991901e+09 -4.792016e+09 -4.951413e+09 -5.715028e+04 -9.760919e+03 -2.871352e+03
-4.647795e+09 -4.447856e+09 -4.607420e+09 -7.206328e+04 -3.709709e+04 3.978788e+04
-1.845077e+09 -1.645067e+09 -1.805078e+09 1.113311e+03 -1.536951e+03 -1.828083e+03
-4.133305e+09 -3.933335e+09 -4.092995e+09 -8.589295e+04 -8.422448e+04 6.905959e+04
-4.303863e+09 -4.103874e+09 -4.263646e+09 -8.701830e+04 -1.607906e+04 2.610886e+04
-3.070057e+09 -2.870040e+09 -3.030061e+09 9.042074e+02 -2.318297e+03 -2.041469e+03
-2.168764e+09 -1.968753e+09 -2.128766e+09 -3.643654e+02 -3.494637e+02 1.541844e+03
-1.637562e+09 -1.437553e+09 -1.597563e+09 -6.219221e+01 -9.848521e+02 4.940529e+02
-3.964115e+09 -3.764085e+09 -3.922909e+09 -2.349630e+03 1.534197e+05 -6.217395e+04
-4.145749e+09 -3.945679e+09 -4.104720e+09 -3.064636e+04 9.574648e+04 -2.758632e+04
-2.206074e+09 -2.006065e+09 -2.166077e+09 -5.322068e+02 -2.139550e+03 2.316009e+03
-4.992640e+09 -4.792652e+09 -4.952654e+09 -1.227382e+03 -6.450282e+01 1.254386e+02
-4.648187e+09 -4.448254e+09 -4.607584e+09 3.444111e+04 8.839686e+03 9.557807e+04
-4.992161e+09 -4.792196e+09 -4.950946e+09 -2.954583e+03 -4.892793e+03 3.669274e+03
-4.982593e+09 -4.782476e+09 -4.942070e+09 -6.821227e+04 2.300134e+04 5.729936e+03
-4.828160e+09 -4.628058e+09 -4.787301e+09 -1.577525e+04 3.401955e+04 1.434824e+04
-1.672288e+09 -1.472280e+09 -1.632290e+09 1.377471e+01 -2.586085e+03 1.487379e+03
-4.993749e+09 -4.793741e+09 -4.952676e+09 1.131892e+04 2.136744e+04 2.709577e+03
-4.821830e+09 -4.621783e+09 -4.780907e+09 2.215287e+04 7.162849e+04 4.108175e+04
-4.131313e+09 -3.931193e+09 -4.090492e+09 2.825445e+04 1.581625e+05 6.145077e+04
-4.995759e+09 -4.795715e+09 -4.955769e+09 3.525391e+04 -5.606634e+03 -2.578631e+03
-3.962474e+09 -3.762332e+09 -3.921609e+09 7.491639e+04 1.487909e+05 9.855563e+04
-4.648434e+09 -4.448494e+09 -4.608415e+09 -5.951491e+04 -4.966352e+03 6.574733e+03
-4.133772e+09 -3.933772e+09 -4.093714e+09 -6.425596e+04 -2.058779e+04 1.332995e+04
-4.819285e+09 -4.619235e+09 -4.779166e+09 -6.976827e+04 -2.059153e+04 1.140018e+04
-4.991106e+09 -4.791063e+09 -4.950935e+09 -7.193179e+04 3.094138e+03 -7.414580e+03
-4.647149e+09 -4.447211e+09 -4.607007e+09 -7.446953e+04 -1.583875e+04 2.216153e+04
-3.962670e+09 -3.762551e+09 -3.922520e+09 5.137429e+04 2.371110e+04 7.411743e+03
-4.305042e+09 -4.105125e+09 -4.265053e+09 -5.400652e+04 2.448850e+03 -1.779867e+02
-4.134487e+09 -3.934441e+09 -4.094481e+09 3.912647e+04 -5.428843e+03 -1.428463e+03
-3.961561e+09 -3.761533e+09 -3.921399e+09 -8.316413e+04 -2.856723e+04 4.339810e+04
-4.132657e+09 -3.932641e+09 -4.092437e+09 -8.232011e+04 -5.904438e+03 2.553581e+04
-4.818644e+09 -4.618553e+09 -4.778623e+09 3.160154e+04 -8.815727e+03 -1.390016e+03
-3.966078e+09 -3.766038e+09 -3.926075e+09 2.584970e+04 -8.684159e+03 -4.889936e+03
-4.646279e+09 -4.446259e+09 -4.606050e+09 -7.662648e+04 -2.597604e+04 2.471652e+04
-4.991792e+09 -4.791817e+09 -4.951471e+09 -7.829927e+04 -3.474240e+03 -8.680496e+03
-3.264513e+09 -3.064494e+09 -3.224517e+09 3.919203e+02 7.160633e+03 -1.532187e+03
-4.651784e+09 -4.451763e+09 -4.611790e+09 -4.838778e+03 1.690277e+03 -1.881419e+02
-3.830957e+09 -3.630922e+09 -3.790964e+09 -2.658600e+03 -5.278585e+03 7.535068e+02
-4.659731e+09 -4.459711e+09 -4.619736e+09 -1.587659e+03 9.355258e+02 -3.759143e+02
-3.961143e+09 -3.761100e+09 -3.921143e+09 1.931487e+03 8.015823e+03 -2.722555e+02
-4.303907e+09 -4.103878e+09 -4.263912e+09 -1.610626e+01 4.314703e+03 -2.973180e+02
-4.817185e+09 -4.617141e+09 -4.777188e+09 -1.130439e+02 2.123927e+03 -9.547432e+02
-3.215113e+09 -3.015092e+09 -3.175120e+09 -7.909913e+03 -1.003241e+04 2.422257e+03
-1.782341e+09 -1.582335e+09 -1.742341e+09 -4.572738e+02 -7.586248e+03 2.777665e+03
-1.881784e+09 -1.681772e+09 -1.841783e+09 4.366538e+03 -1.235802e+04 3.879442e+03
-4.131883e+09 -3.931904e+09 -4.091909e+09 -4.897096e+03 -1.018030e+02 3.039655e+03
-3.962058e+09 -3.762084e+09 -3.922088e+09 -6.760990e+02 -2.113029e+02 4.281141e+03
-1.888144e+09 -1.688134e+09 -1.848146e+09 -5.808883e+03 -1.285252e+04 2.237761e+03
-3.961652e+09 -3.761668e+09 -3.921673e+09 -3.478699e+03 -9.211428e+02 2.595302e+03
-3.480275e+09 -3.280269e+09 -3.440281e+09 3.142868e+03 1.721465e+03 1.522180e+03
-1.986621e+09 -1.786633e+09 -1.946633e+09 -9.006884e+01 6.568970e+01 5.572862e+02
-3.855169e+09 -3.655177e+09 -3.815179e+09 -4.695505e+02 -2.031876e+02 1.025455e+02
-1.583561e+09 -1.383556e+09 -1.543564e+09 1.299927e+03 2.737532e+03 1.883840e+03
-1.955117e+09 -1.755114e+09 -1.915122e+09 1.514393e+03 1.548561e+03 1.217672e+03
-4.995384e+09 -4.795395e+09 -4.955397e+09 -6.745800e+02 -3.661102e+01 6.366921e+01
-4.133221e+09 -3.933238e+09 -4.093240e+09 -6.872311e+02 -7.859959e+02 1.394300e+03
-3.961729e+09 -3.761746e+09 -3.921750e+09 -2.616497e+03 -5.032882e+02 2.105956e+03
-2.559112e+09 -2.359108e+09 -2.519117e+09 3.817877e+02 5.551455e+02 1.039468e+03
-4.131435e+09 -3.931449e+09 -4.091453e+09 -2.124296e+03 -5.729283e+02 1.279019e+03
-3.218757e+09 -3.018753e+09 -3.178762e+09 5.490543e+02 2.503204e+02 9.269133e+02
-4.287781e+09 -4.087763e+09 -4.247786e+09 -1.545306e+03 1.865007e+03 -7.355765e+02
-4.093779e+09 -3.893761e+09 -4.053783e+09 -2.315437e+03 2.223872e+03 -9.766423e+02
-4.505085e+09 -4.305069e+09 -4.465089e+09 -3.739351e+02 1.574247e+02 -3.651829e+02
-4.156671e+09 -3.956655e+09 -4.116674e+09 -7.347062e+02 8.912436e+02 -5.245712e+02
-4.750579e+09 -4.550563e+09 -4.710584e+09 -6.851228e+02 2.640305e+02 2.890369e+01
-2.186014e+09 -1.986013e+09 -2.146019e+09 1.941443e+03 1.129320e+03 1.043881e+03
-4.484792e+09 -4.284797e+09 -4.444812e+09 9.906359e+03 1.658258e+03 2.082963e+03
-3.909767e+09 -3.709752e+09 -3.869771e+09 -6.608908e+02 9.884994e+02 -7.535137e+02
-4.506502e+09 -4.306488e+09 -4.466506e+09 -3.714286e+02 1.513186e+02 -4.076936e+02
-4.994764e+09 -4.794769e+09 -4.954781e+09 7.217905e+03 -4.367635e+01 3.539798e+02
-2.916040e+09 -2.716052e+09 -2.876053e+09 -1.040092e+02 -6.706973e+01 1.945971e+02
-1.585257e+09 -1.385250e+09 -1.545259e+09 -3.201065e+02 -6.306634e+03 -3.473491e+03
-4.296219e+09 -4.096184e+09 -4.256231e+09 1.236085e+04 -7.784000e+03 -4.176561e+03
-4.641397e+09 -4.441382e+09 -4.601409e+09 3.890375e+03 -1.039585e+03 -4.170532e+02
-1.599635e+09 -1.399646e+09 -1.559647e+09 6.703853e+02 2.399796e+02 1.350837e+03
-1.891504e+09 -1.691515e+09 -1.851516e+09 3.707315e+02 1.484514e+02 5.154054e+02
-3.957652e+09 -3.757608e+09 -3.917655e+09 2.115643e+04 -7.752417e+03 -3.359525e+03
-4.819514e+09 -4.619490e+09 -4.779517e+09 4.455110e+04 5.655845e+03 6.925710e+03
-4.304367e+09 -4.104371e+09 -4.264362e+09 5.379670e+04 7.333556e+03 1.983578e+03
-4.639674e+09 -4.439664e+09 -4.599702e+09 1.937165e+04 -2.815696e+03 -2.704536e+03
-3.961907e+09 -3.761899e+09 -3.921925e+09 3.490502e+04 3.424952e+03 5.393371e+03
-4.306215e+09 -4.106213e+09 -4.266232e+09 4.083054e+04 7.906682e+03 4.803716e+03
-4.818482e+09 -4.618468e+09 -4.778500e+09 2.811461e+04 5.029203e+02 4.134161e+02
-4.980501e+09 -4.780456e+09 -4.940513e+09 2.189787e+04 -2.680819e+03 1.080544e+02
-4.991604e+09 -4.791588e+09 -4.951621e+09 3.111881e+04 4.236630e+03 1.930073e+03
-4.132015e+09 -3.932003e+09 -4.092035e+09 2.871847e+04 8.475304e+03 7.341542e+03
-3.949117e+09 -3.749054e+09 -3.909110e+09 1.932287e+04 -5.352814e+03 -2.034134e+03
-3.960354e+09 -3.760308e+09 -3.920360e+09 1.311995e+04 -6.946564e+03 -2.953047e+03
-3.950809e+09 -3.750768e+09 -3.910817e+09 1.643293e+04 -6.847711e+03 -1.201715e+03
-4.304368e+09 -4.104363e+09 -4.264389e+09 2.376874e+04 4.071643e+03 3.238561e+03
-4.997057e+09 -4.796948e+09 -4.957024e+09 9.107246e+03 -6.789778e+03 -8.345493e+02
-3.962287e+09 -3.762266e+09 -3.922300e+09 2.897477e+04 4.336497e+03 5.386990e+03
-4.133408e+09 -3.933383e+09 -4.093419e+09 3.374288e+04 9.717622e+03 7.539367e+03
-3.962646e+09 -3.762553e+09 -3.922589e+09 2.614796e+04 -2.735054e+03 1.735301e+03
-2.281174e+09 -2.081160e+09 -2.241176e+09 1.218763e+02 -3.721856e+03 -7.347997e+02
-2.188114e+09 -1.988097e+09 -2.148116e+09 -2.003008e+03 -6.320948e+03 -9.082135e+02
-4.659303e+09 -4.459214e+09 -4.619276e+09 1.171967e+04 -4.181909e+03 -9.780395e+02
-3.957658e+09 -3.757603e+09 -3.917656e+09 2.454797e+04 -6.391073e+03 7.090047e+02
-2.185382e+09 -1.985365e+09 -2.145381e+09 -1.038390e+03 -1.637482e+04 1.545592e+03
-4.997064e+09 -4.796970e+09 -4.957031e+09 5.901484e+03 -5.267288e+03 -2.209462e+02
-4.995312e+09 -4.795216e+09 -4.955292e+09 2.873362e+04 -5.389208e+03 -9.980561e+02
-4.648236e+09 -4.448209e+09 -4.608244e+09 -2.300090e+03 -1.372729e+03 8.232356e+02
-4.810158e+09 -4.610077e+09 -4.770137e+09 2.306207e+04 -1.267332e+03 -3.505780e+02
-3.036388e+09 -2.836367e+09 -2.996392e+09 -8.317786e+02 -8.693853e+03 -1.784252e+02
-3.962059e+09 -3.762040e+09 -3.922070e+09 1.146411e+04 5.800651e+03 3.007493e+03
-4.132860e+09 -3.932835e+09 -4.092870e+09 1.153140e+04 6.770864e+03 1.766930e+03
-4.304120e+09 -4.104084e+09 -4.264125e+09 1.713158e+04 8.174631e+03 2.389355e+03
-4.647107e+09 -4.447087e+09 -4.607117e+09 1.035580e+04 1.985177e+03 1.538256e+03
-3.962057e+09 -3.762041e+09 -3.922067e+09 9.630915e+03 4.238914e+03 2.996551e+03
-4.647324e+09 -4.447294e+09 -4.607334e+09 1.530424e+04 2.409120e+03 1.902608e+03
-4.834710e+09 -4.634740e+09 -4.794748e+09 -9.722986e+03 -1.191694e+03 6.991916e+02
-4.303970e+09 -4.104027e+09 -4.264026e+09 9.654207e+02 7.203134e+01 6.918785e+03
-3.961793e+09 -3.761848e+09 -3.921841e+09 -5.954458e+03 -1.175353e+03 8.014619e+03
-1.581656e+09 -1.381652e+09 -1.541657e+09 -3.788526e+01 -8.317894e+03 7.990958e+02
-3.961999e+09 -3.762031e+09 -3.922034e+09 -2.666482e+03 -4.899729e+02 5.708247e+03
-4.656077e+09 -4.456122e+09 -4.616126e+09 -1.106857e+04 -1.412374e+03 2.640560e+03
-3.966032e+09 -3.766088e+09 -3.926079e+09 -1.522406e+04 -1.451085e+02 8.759084e+03
-4.997710e+09 -4.797760e+09 -4.957760e+09 -2.168897e+04 -3.767345e+02 3.167679e+03
-4.833038e+09 -4.633072e+09 -4.793079e+09 -8.853992e+03 1.502916e+02 2.691525e+03
-2.121577e+09 -1.921586e+09 -2.081588e+09 7.729035e+02 2.132867e+02 5.484748e+02
-2.829831e+09 -2.629841e+09 -2.789843e+09 6.695103e+02 6.398370e+01 4.245420e+02
-1.786475e+09 -1.586484e+09 -1.746486e+09 8.629592e+02 1.346959e+02 6.686079e+02
-4.818307e+09 -4.618330e+09 -4.778335e+09 -3.138982e+03 -9.801257e+02 7.075208e+02
-3.961850e+09 -3.761890e+09 -3.921891e+09 -6.497560e+03 -1.125602e+03 6.390259e+03
-2.802437e+09 -2.602445e+09 -2.762448e+09 1.286233e+03 2.338926e+02 8.553826e+02
-2.336632e+09 -2.136640e+09 -2.296643e+09 1.577812e+03 3.848026e+02 7.634235e+02
-4.819472e+09 -4.619498e+09 -4.779502e+09 -1.333297e+03 -9.728451e+02 1.061281e+03
-4.810476e+09 -4.610407e+09 -4.770176e+09 -7.881192e+04 3.030022e+04 -4.462384e+04
-4.649123e+09 -4.449133e+09 -4.609152e+09 -3.227364e+04 4.644846e+01 2.834874e+03
-1.776849e+09 -1.576843e+09 -1.736849e+09 -4.230204e+02 -8.374308e+03 1.588067e+03
-2.279758e+09 -2.079739e+09 -2.239762e+09 -2.688642e+03 -1.016043e+04 3.205294e+03
-1.894279e+09 -1.694268e+09 -1.854278e+09 2.775307e+03 -9.997910e+03 4.563997e+03
-3.962081e+09 -3.762069e+09 -3.922099e+09 -1.710455e+04 -5.780833e+03 4.716100e+03
-2.726181e+09 -2.526170e+09 -2.686188e+09 -1.576582e+03 -3.257928e+03 2.309256e+03
-4.647162e+09 -4.447137e+09 -4.607177e+09 -3.515630e+04 -2.508378e+02 3.433904e+03
-3.962252e+09 -3.762235e+09 -3.922237e+09 -5.453320e+04 2.922153e+03 -3.525122e+03
-2.106723e+09 -1.906713e+09 -2.066726e+09 -1.988515e+03 -3.996106e+03 2.547015e+03
-3.961942e+09 -3.761930e+09 -3.921960e+09 -3.026285e+04 -3.795663e+03 6.298473e+03
-1.783978e+09 -1.583972e+09 -1.743979e+09 -7.064790e+02 -6.459368e+03 3.335118e+03
-2.764591e+09 -2.564574e+09 -2.724596e+09 1.094182e+02 -5.816572e+03 1.296102e+03
-1.587147e+09 -1.387142e+09 -1.547148e+09 -1.904149e+02 -7.101231e+03 3.527220e+03
-4.304282e+09 -4.104259e+09 -4.264291e+09 3.358791e+04 1.040568e+04 4.457649e+03
-4.477752e+09 -4.277709e+09 -4.437761e+09 -8.014120e+03 -5.698699e+03 1.095644e+03
-4.631498e+09 -4.431467e+09 -4.591507e+09 -4.690401e+03 -2.272438e+03 1.056550e+03
-4.647842e+09 -4.447816e+09 -4.607856e+09 2.215896e+04 1.881472e+03 2.623037e+03
-4.820723e+09 -4.620728e+09 -4.780751e+09 2.869302e+04 3.809943e+03 4.902428e+03
-4.134407e+09 -3.934366e+09 -4.094413e+09 -9.109612e+03 -7.577449e+03 1.274329e+03
-4.990780e+09 -4.790696e+09 -4.950067e+09 -6.215802e+04 -1.074050e+04 1.043460e+04
-4.134127e+09 -3.934089e+09 -4.094134e+09 -8.627558e+03 -6.646272e+03 3.155427e+03
-4.306632e+09 -4.106586e+09 -4.265597e+09 4.184380e+04 9.000941e+04 9.660098e+04
-4.820424e+09 -4.620390e+09 -4.780434e+09 -1.081135e+04 -5.878382e+02 8.957542e+02
-4.991762e+09 -4.791724e+09 -4.951770e+09 -1.143320e+04 -1.848386e+03 -7.248503e+02
-4.302000e+09 -4.101948e+09 -4.261391e+09 6.050678e+04 9.128494e+04 4.757553e+04
-3.961801e+09 -3.761884e+09 -3.921565e+09 7.935101e+04 3.646437e+04 1.150548e+05
-3.929370e+09 -3.729341e+09 -3.889378e+09 -6.807650e+03 -5.336224e+03 1.607172e+03
-4.840298e+09 -4.640125e+09 -4.799835e+09 -1.552531e+04 3.008477e+04 2.294350e+04
-4.657860e+09 -4.457764e+09 -4.616906e+09 7.724086e+02 7.790209e+04 -1.221943e+03
-3.960034e+09 -3.759871e+09 -3.919272e+09 6.619650e+03 1.886271e+05 4.211892e+04
-2.855959e+09 -2.655949e+09 -2.815964e+09 6.153975e+02 -1.822103e+03 -3.855459e+02
-3.958812e+09 -3.758651e+09 -3.918126e+09 -2.104799e+04 -1.585563e+05 4.796113e+04
-3.693177e+09 -3.493165e+09 -3.653183e+09 7.454711e+02 -8.942052e+02 -1.122083e+03
-4.990905e+09 -4.790780e+09 -4.950494e+09 -6.334468e+04 -1.280074e+03 7.272059e+02
-4.309972e+09 -4.109853e+09 -4.269852e+09 -3.849948e+04 -7.039969e+03 1.999751e+03
-4.823098e+09 -4.623085e+09 -4.782559e+09 7.852746e+04 -3.509307e+04 4.354201e+03
-3.960968e+09 -3.760934e+09 -3.920365e+09 -7.106960e+04 -1.319577e+05 1.113851e+05
-4.990846e+09 -4.790762e+09 -4.950476e+09 -6.612330e+04 -1.141909e+03 -2.948700e+02
-3.905605e+09 -3.705594e+09 -3.865611e+09 -2.973790e+01 -8.309220e+02 -3.888715e+00
-3.961151e+09 -3.761073e+09 -3.920780e+09 -6.588138e+04 -9.779023e+04 6.244248e+04
-4.314593e+09 -4.114426e+09 -4.274153e+09 -2.246737e+04 -9.175539e+04 2.264634e+04
-3.011443e+09 -2.811432e+09 -2.971447e+09 1.489112e+02 -1.010453e+03 -5.283473e+02
-4.998616e+09 -4.798626e+09 -4.958635e+09 -6.122990e+03 -7.808845e+01 8.551073e+01
-4.280243e+09 -4.080166e+09 -4.240070e+09 7.649581e+04 -1.363097e+04 -9.960278e+03
-4.476689e+09 -4.276699e+09 -4.436707e+09 -6.352971e+03 -8.393586e+02 1.178199e+03
-4.986905e+09 -4.786948e+09 -4.946953e+09 3.247158e+04 3.291068e+03 7.333420e+03
-4.135041e+09 -3.935072e+09 -4.095079e+09 2.188474e+04 1.115435e+03 3.906848e+03
-4.128238e+09 -3.928290e+09 -4.088288e+09 2.068034e+04 9.851821e+02 3.349161e+03
-2.039401e+09 -1.839411e+09 -1.999412e+09 3.621408e+02 1.571353e+02 1.968298e+02
-4.124726e+09 -3.924734e+09 -4.084742e+09 -6.467676e+03 -1.778709e+03 1.423054e+03
-4.476693e+09 -4.276700e+09 -4.436710e+09 -6.765514e+03 -7.159090e+02 1.785099e+03
-4.983415e+09 -4.783421e+09 -4.943428e+09 -4.669074e+03 -3.778048e+02 8.781553e+01
-4.629219e+09 -4.429226e+09 -4.589232e+09 -3.667331e+03 -2.680574e+02 7.346405e+02
-4.133752e+09 -3.933819e+09 -4.092885e+09 -2.776431e+04 -7.084751e+03 -1.290461e+05
-4.806013e+09 -4.606021e+09 -4.766028e+09 -4.206598e+03 -4.095030e+02 6.053341e+02
-4.287357e+09 -4.087362e+09 -4.247371e+09 -4.721942e+03 -7.743046e+02 1.174627e+03
-3.962554e+09 -3.762692e+09 -3.922353e+09 -5.315993e+04 9.049999e+03 -7.257492e+04
-4.659207e+09 -4.459370e+09 -4.618998e+09 -1.498714e+04 1.268791e+04 -6.537870e+04
-5.002450e+09 -4.802604e+09 -4.962034e+09 -2.569506e+04 8.751814e+02 -2.049731e+04
-1.632138e+09 -1.432150e+09 -1.592150e+09 -5.424833e+00 -3.841460e+01 2.334065e+02
-3.967599e+09 -3.767620e+09 -3.927197e+09 -8.287546e+04 7.364037e+04 -1.171508e+05
-5.002555e+09 -4.802635e+09 -4.962065e+09 -2.112256e+04 6.881368e+02 -9.381237e+03
-4.129285e+09 -3.929290e+09 -4.089300e+09 -5.899097e+03 -1.291025e+03 1.634851e+03
-4.989886e+09 -4.789892e+09 -4.949902e+09 -6.911044e+03 -4.494831e+02 6.723813e+02
-4.308587e+09 -4.108720e+09 -4.268610e+09 -2.696940e+04 7.264827e+03 -8.162118e+03
-4.306861e+09 -4.106958e+09 -4.266931e+09 2.399159e+03 6.910325e+02 5.402612e+03
-3.964951e+09 -3.765055e+09 -3.924991e+09 1.923669e+02 9.510460e+02 1.622935e+03
-4.648069e+09 -4.448201e+09 -4.608068e+09 6.915883e+03 -1.082442e+04 -4.000191e+03
-4.136305e+09 -3.936307e+09 -4.096315e+09 3.575178e+03 9.395115e+02 4.223885e+02
-4.137615e+09 -3.937619e+09 -4.097626e+09 3.990084e+03 7.889393e+02 8.914600e+02
-3.957412e+09 -3.757515e+09 -3.917445e+09 -2.032875e+04 5.716346e+02 -1.210093e+04
-4.992604e+09 -4.792609e+09 -4.952618e+09 5.175583e+03 1.022857e+02 2.138191e+00
-4.134176e+09 -3.934306e+09 -4.094209e+09 -1.584501e+04 9.024798e+03 -1.623494e+04
-4.135582e+09 -3.935714e+09 -4.095611e+09 6.683598e+03 -1.272715e+04 -6.886281e+03
-4.310289e+09 -4.110347e+09 -4.270344e+09 -1.874088e+04 -1.907042e+03 5.683277e+03
-4.609538e+09 -4.409531e+09 -4.569544e+09 7.794229e+02 1.180013e+02 2.735397e+02
-4.821658e+09 -4.621664e+09 -4.781672e+09 5.013376e+03 -6.186497e+01 7.849245e+02
-4.647367e+09 -4.447356e+09 -4.607378e+09 7.444019e+03 1.269561e+03 8.068678e+02
-4.988374e+09 -4.788357e+09 -4.948383e+09 6.319547e+03 9.093930e+02 3.034616e+02
-2.284544e+09 -2.084535e+09 -2.244547e+09 4.131143e+02 1.106448e+03 8.716720e+02
-3.371926e+09 -3.171915e+09 -3.331931e+09 2.455035e+03 3.044875e+03 2.023010e+03
-4.137196e+09 -3.937200e+09 -4.097209e+09 5.314510e+03 5.534844e+02 1.595069e+03
-2.864154e+09 -2.664152e+09 -2.824159e+09 8.842192e+01 8.953599e+01 4.446373e+02
-3.965324e+09 -3.765329e+09 -3.925337e+09 5.127879e+03 1.196338e+03 1.398152e+03
-1.601835e+09 -1.401837e+09 -1.561842e+09 9.104126e+02 2.238968e+02 2.847208e+02
-4.532170e+09 -4.332171e+09 -4.492177e+09 4.034965e+02 1.590208e+01 1.149068e+02
-4.992189e+09 -4.792192e+09 -4.952202e+09 5.144248e+03 -4.282975e+01 1.299899e+02
-3.293403e+09 -3.093403e+09 -3.253410e+09 1.219867e+03 5.021027e+02 6.549420e+02
-4.651884e+09 -4.451888e+09 -4.611898e+09 5.474544e+03 5.252247e+02 6.953418e+02
-2.573850e+09 -2.373837e+09 -2.533853e+09 -1.475477e+02 -8.751434e+02 -2.211207e+03
-2.990260e+09 -2.790244e+09 -2.950267e+09 3.023720e+03 -6.883302e+03 -3.472707e+03
-4.992810e+09 -4.792809e+09 -4.952816e+09 1.116245e+03 7.771519e+01 1.303188e+02
-4.697555e+09 -4.497536e+09 -4.657563e+09 1.531762e+03 -5.131934e+02 -2.405246e+02
-2.994850e+09 -2.794834e+09 -2.954854e+09 1.813680e+03 -4.843051e+03 -3.446208e+03
-3.587984e+09 -3.387984e+09 -3.547991e+09 2.623504e+02 6.887229e+01 3.133121e+02
-2.185131e+09 -1.985137e+09 -2.145140e+09 -1.182598e+03 -2.525856e+02 4.156244e+02
-4.815439e+09 -4.615442e+09 -4.775448e+09 -1.480946e+03 -1.015256e+02 1.363476e+02
-1.688324e+09 -1.488329e+09 -1.648333e+09 -9.782241e+02 -3.035827e+02 2.770131e+02
-3.947123e+09 -3.747108e+09 -3.907131e+09 2.689055e+03 -2.008763e+03 -9.725090e+02
-2.617913e+09 -2.417923e+09 -2.577925e+09 1.423748e+03 3.135375e+02 6.928212e+02
-2.189965e+09 -1.989968e+09 -2.149973e+09 -1.627837e+03 -7.211749e+02 9.192727e+02
-1.889021e+09 -1.689031e+09 -1.849033e+09 9.343306e+02 5.391011e+02 1.047942e+03
-1.563664e+09 -1.363669e+09 -1.523673e+09 -2.283386e+02 -2.156575e+01 5.536393e+01
-2.602442e+09 -2.402452e+09 -2.562454e+09 7.130590e+02 2.963772e+02 6.824351e+02
-4.747229e+09 -4.547232e+09 -4.707237e+09 -2.493644e+02 -4.167676e+01 5.593987e+01
-2.850130e+09 -2.650140e+09 -2.810141e+09 6.089665e+02 2.124593e+02 3.646554e+02
-4.575503e+09 -4.375503e+09 -4.535512e+09 -2.068041e+03 -2.687424e+02 3.706535e+02
-1.778485e+09 -1.578495e+09 -1.738497e+09 6.591006e+02 9.249576e+01 7.858197e+02
-1.579987e+09 -1.379990e+09 -1.539994e+09 -6.725045e+02 -2.766801e+02 3.884387e+02
-1.926420e+09 -1.726429e+09 -1.886431e+09 5.303181e+02 2.315604e+02 4.007051e+02
-3.278403e+09 -3.078414e+09 -3.238415e+09 1.080757e+02 1.383110e+02 5.585116e+01
-3.754717e+09 -3.554728e+09 -3.714729e+09 2.528883e+02 1.429051e+02 2.388986e+02
-2.325950e+09 -2.125960e+09 -2.285961e+09 5.406495e+02 2.460051e+01 5.114040e+02
-2.822981e+09 -2.622992e+09 -2.782993e+09 2.761676e+02 5.035334e+01 2.959453e+02
-2.933774e+09 -2.733775e+09 -2.893781e+09 -3.117331e+02 -1.142540e+02 5.850030e+02
-4.504632e+09 -4.304635e+09 -4.464639e+09 -1.428036e+02 -9.187303e+00 1.444545e+02
-2.911399e+09 -2.711409e+09 -2.871410e+09 8.963645e+02 2.158237e+02 6.421691e+02
-4.735804e+09 -4.535808e+09 -4.695812e+09 -1.816710e+02 -4.036895e+01 6.483894e+00
-2.962380e+09 -2.762391e+09 -2.922393e+09 -4.893324e+02 -4.295512e+01 4.863265e+02
-2.707746e+09 -2.507757e+09 -2.667758e+09 -1.375244e+02 -1.282560e+02 5.716491e+01
-4.985025e+09 -4.785030e+09 -4.945033e+09 -2.972956e+02 1.215995e+00 2.141977e+01
-2.604342e+09 -2.404353e+09 -2.564354e+09 -5.921351e+02 -2.814788e+02 5.149085e+02
-2.546306e+09 -2.346318e+09 -2.506319e+09 -8.148746e+02 -1.279370e+02 1.252745e+03
-4.730147e+09 -4.530151e+09 -4.690155e+09 -1.299674e+02 3.454752e+00 6.745861e+00
-3.196822e+09 -2.996832e+09 -3.156833e+09 -1.160951e+02 -1.774490e+02 1.613836e+02
-2.831201e+09 -2.631210e+09 -2.791212e+09 -9.153349e+02 -2.387568e+02 5.432011e+02
-1.927518e+09 -1.727528e+09 -1.887530e+09 -1.398373e+02 -1.322171e+02 1.306099e+02
-2.169307e+09 -1.969317e+09 -2.129318e+09 -1.310961e+02 -3.763912e+01 1.251570e+02
-2.934629e+09 -2.734620e+09 -2.894637e+09 2.017904e+03 -5.429399e+03 -2.474573e+03
-2.928836e+09 -2.728824e+09 -2.888842e+09 1.949385e+03 -4.413092e+03 -2.739710e+03
-1.913875e+09 -1.713863e+09 -1.873877e+09 5.053775e+02 -4.104807e+03 -2.591972e+03
-1.797552e+09 -1.597542e+09 -1.757553e+09 7.280903e+02 -2.388699e+03 -1.024690e+03
-2.900835e+09 -2.700825e+09 -2.860839e+09 8.399921e+01 -1.798485e+03 -9.895772e+02
-4.820325e+09 -4.620298e+09 -4.780332e+09 5.599201e+03 2.276116e+03 -5.854177e+02
-4.735803e+09 -4.535790e+09 -4.695811e+09 1.045884e+03 -3.421832e+02 -1.671586e+02
-4.931092e+09 -4.731081e+09 -4.891100e+09 0.000000e+00 -5.586761e+01 -9.055299e-01
-4.261651e+09 -4.061637e+09 -4.221656e+09 2.430829e+03 1.335204e+03 4.716228e+02
-3.883201e+09 -3.683183e+09 -3.843207e+09 3.546716e+03 3.135182e+03 1.184716e+03
-4.815943e+09 -4.615925e+09 -4.775953e+09 7.097945e+03 8.133028e+02 1.107575e+03
-4.991545e+09 -4.791525e+09 -4.951555e+09 7.317404e+03 9.172279e+02 -1.776486e+02
-4.134171e+09 -3.934151e+09 -4.094179e+09 5.708086e+03 3.622896e+03 2.137565e+03
-4.931225e+09 -4.731226e+09 -4.891251e+09 -1.493850e+03 1.005610e+03 -1.760395e-04
-4.764435e+09 -4.564433e+09 -4.724458e+09 -2.894005e+03 1.543290e+03 -7.493347e+02
-4.134578e+09 -3.934555e+09 -4.094585e+09 7.109921e+03 5.399166e+03 6.418683e+02
-3.947671e+09 -3.747654e+09 -3.907678e+09 4.660223e+03 3.227642e+03 1.113054e+03
-4.992760e+09 -4.792763e+09 -4.952790e+09 -7.115842e+03 1.872103e+03 -9.682180e+02
-3.200744e+09 -3.000748e+09 -3.160752e+09 7.834559e+02 1.662187e+02 1.287251e+02
-3.955535e+09 -3.755538e+09 -3.915542e+09 2.398235e+02 3.631500e+01 1.734011e+01
-1.736232e+09 -1.536234e+09 -1.696239e+09 2.709621e+02 2.636040e+01 -6.895544e+01
-3.050649e+09 -2.850653e+09 -3.010657e+09 2.892180e+02 -1.639892e+01 8.011727e+01
-4.133089e+09 -3.933078e+09 -4.093108e+09 -2.629710e+04 7.730666e+03 -5.062439e+03
-2.655816e+09 -2.455817e+09 -2.615822e+09 4.202349e+02 7.978338e+01 1.054952e+02
-4.647102e+09 -4.447094e+09 -4.607123e+09 -2.677768e+04 1.943266e+03 -1.620050e+03
-2.997126e+09 -2.797128e+09 -2.957144e+09 -1.140646e+03 7.952525e+03 -1.641696e+03
-4.983809e+09 -4.783795e+09 -4.943826e+09 -1.060733e+04 2.200054e+03 -1.134062e+03
-4.747076e+09 -4.547060e+09 -4.707080e+09 -5.633813e+02 2.459979e+01 -3.412326e+02
-1.920965e+09 -1.720967e+09 -1.880972e+09 4.031146e+02 5.845031e+01 -1.880386e+01
-2.254242e+09 -2.054244e+09 -2.214249e+09 6.747335e+02 1.075269e+02 8.969960e+01
-2.236380e+09 -2.036371e+09 -2.196383e+09 -9.564404e+02 2.960278e+03 -8.522376e+02
-4.494813e+09 -4.294803e+09 -4.454817e+09 -7.421355e+02 7.673849e+02 -2.493082e+02
-4.092992e+09 -3.892980e+09 -4.052999e+09 -2.606718e+03 1.979946e+03 -9.598437e+02
-3.370982e+09 -3.170982e+09 -3.330988e+09 8.021403e+02 1.745017e+02 2.114782e+02
-3.138166e+09 -2.938155e+09 -3.098171e+09 -2.340612e+03 3.418106e+03 -1.806404e+03
-2.197195e+09 -1.997185e+09 -2.157196e+09 -7.684442e+02 1.499564e+03 -7.987195e+02
-3.851283e+09 -3.651271e+09 -3.811288e+09 -1.976309e+03 1.141187e+03 -5.692383e+02
-1.805819e+09 -1.605810e+09 -1.765819e+09 -3.428182e+02 1.263644e+03 -5.847381e+02
-3.392455e+09 -3.192445e+09 -3.352467e+09 4.174613e+03 -5.474416e+03 -2.979095e+03
-2.884563e+09 -2.684553e+09 -2.844565e+09 6.798726e+01 5.025508e+02 -6.720835e+02
-4.346536e+09 -4.146533e+09 -4.306558e+09 4.793370e+02 -2.520674e+03 2.436987e+02
-3.290548e+09 -3.090533e+09 -3.250560e+09 1.385471e+04 -1.217518e+04 -8.492346e+03
-4.449570e+09 -4.249560e+09 -4.409574e+09 -4.182104e+02 3.281176e+02 -1.556632e+02
-2.968028e+09 -2.768019e+09 -2.928035e+09 -1.993908e+03 4.710813e+03 -2.101737e+03
-3.765373e+09 -3.565378e+09 -3.725400e+09 1.380270e+03 -5.561517e+03 -4.767017e+02
-2.104378e+09 -1.904370e+09 -2.064381e+09 -6.091516e+02 4.113138e+03 -1.072190e+03
-4.994568e+09 -4.794586e+09 -4.954613e+09 1.112999e+04 -2.825008e+03 -1.346128e+03
-4.652403e+09 -4.452460e+09 -4.612471e+09 2.188158e+04 -8.809970e+01 -3.772729e+02
-2.947664e+09 -2.747675e+09 -2.907691e+09 2.296016e+03 -9.057211e+03 -2.163827e+03
-2.085664e+09 -1.885657e+09 -2.045668e+09 -7.456313e+02 4.385198e+03 -1.454177e+03
-1.582355e+09 -1.382355e+09 -1.542359e+09 9.912613e+00 -1.216841e+04 -4.984466e+03
-2.961232e+09 -2.761245e+09 -2.921260e+09 5.244973e+03 -8.700377e+03 -4.205244e+03
-4.592032e+09 -4.392028e+09 -4.552052e+09 9.997132e+02 -2.089754e+03 -2.306729e+02
-2.327997e+09 -2.127989e+09 -2.288002e+09 -2.713745e+03 4.561702e+03 -6.183513e+02
-2.433780e+09 -2.233770e+09 -2.393783e+09 -1.984689e+03 4.241420e+03 -2.158420e+03
-2.072773e+09 -1.872769e+09 -2.032779e+09 -2.562365e+03 5.817035e+03 -2.722089e+03
-1.683859e+09 -1.483852e+09 -1.643861e+09 -2.494074e+02 8.011826e+03 -3.706844e+03
-4.068003e+09 -3.868010e+09 -4.028013e+09 -1.691637e+02 -7.889311e+01 -1.432184e+01
-1.622856e+09 -1.422863e+09 -1.582865e+09 -1.075737e+02 -1.286203e+02 1.068984e+02
-2.178270e+09 -1.978277e+09 -2.138279e+09 -4.297806e+02 -9.646788e+01 2.475280e+02
-2.948819e+09 -2.748827e+09 -2.908829e+09 -2.845677e+02 -2.115403e+02 3.445297e+01
-3.496177e+09 -3.296183e+09 -3.456187e+09 -1.097673e+03 -1.486432e+02 2.520689e+02
-4.657140e+09 -4.457148e+09 -4.617151e+09 -9.618934e+02 -1.555090e+02 1.117727e+02
-3.226373e+09 -3.026379e+09 -3.186383e+09 -1.124492e+03 -3.750021e+02 3.662730e+02
-3.005252e+09 -2.805259e+09 -2.965262e+09 -1.110967e+03 -3.447849e+02 5.082906e+02
-4.763326e+09 -4.563330e+09 -4.723334e+09 -1.749336e+02 -1.373999e+01 1.993770e+00
-2.152008e+09 -1.952015e+09 -2.112018e+09 -1.350300e+02 -1.208155e+01 4.789629e+01
-2.842328e+09 -2.642335e+09 -2.802338e+09 -8.038551e+02 -2.042399e+02 3.246642e+02
-4.916140e+09 -4.716146e+09 -4.876149e+09 -1.225898e+02 4.821133e+01 -4.984353e-05
-3.551998e+09 -3.352003e+09 -3.512006e+09 -7.721525e+01 -7.485684e+01 3.655496e+01
-4.992320e+09 -4.792326e+09 -4.952329e+09 -9.380824e+02 3.262743e+01 4.472639e+00
-1.589940e+09 -1.389946e+09 -1.549949e+09 -6.561020e+02 -2.470496e+02 2.062176e+02
-4.993080e+09 -4.793054e+09 -4.953087e+09 -5.460768e+03 1.469332e+03 -5.605756e+02
-2.991414e+09 -2.791420e+09 -2.951423e+09 -6.890837e+02 -1.705049e+02 1.633867e+02
-1.578511e+09 -1.378502e+09 -1.538512e+09 6.125788e+01 1.934483e+03 -9.491307e+02
-4.315946e+09 -4.116133e+09 -4.275686e+09 -1.643404e+04 4.753740e+04 -9.263820e+04
-3.961935e+09 -3.761947e+09 -3.921951e+09 -2.170883e+03 -3.792579e+02 1.292231e+03
-3.962078e+09 -3.762195e+09 -3.921519e+09 -7.507960e+04 7.831999e+04 -1.255749e+05
-4.347376e+09 -4.147395e+09 -4.307400e+09 -5.656975e+03 -5.667798e+02 1.649302e+03
-4.647139e+09 -4.447151e+09 -4.607153e+09 -1.121754e+03 -8.954370e+01 2.104328e+02
-3.961385e+09 -3.761399e+09 -3.921402e+09 -2.519271e+03 -5.902493e+02 1.595822e+03
-4.992619e+09 -4.792635e+09 -4.952637e+09 -5.212101e+02 1.400704e+01 2.833882e+02
-4.320530e+09 -4.120617e+09 -4.280131e+09 -7.046411e+04 4.027580e+04 -7.729814e+04
-4.828507e+09 -4.628663e+09 -4.788103e+09 4.047339e+03 -3.185743e+03 -1.349790e+04
-3.960884e+09 -3.761070e+09 -3.920221e+09 5.257339e+03 1.887626e+03 -1.723035e+05
-4.130248e+09 -3.930383e+09 -4.089696e+09 2.082723e+03 4.817809e+04 -1.209032e+05
-3.961383e+09 -3.761398e+09 -3.921401e+09 -3.238001e+03 -8.461964e+02 1.969626e+03
-4.829208e+09 -4.629322e+09 -4.788573e+09 -1.844770e+04 6.342374e+04 -5.339026e+04
-4.657048e+09 -4.457173e+09 -4.616302e+09 -2.535553e+04 1.537022e+04 -8.392797e+04
-4.991427e+09 -4.791444e+09 -4.951449e+09 -2.585046e+03 -1.071494e+02 3.983096e+02
-3.961732e+09 -3.761747e+09 -3.921751e+09 -2.026914e+03 -5.317596e+02 2.185010e+03
-4.569586e+09 -4.369601e+09 -4.529602e+09 1.331718e+02 3.636449e+01 6.096529e+02
-2.776293e+09 -2.576283e+09 -2.736296e+09 -3.402386e+02 1.709283e+03 -1.001154e+03
-2.056727e+09 -1.856713e+09 -2.016727e+09 -8.983064e+02 5.154332e+03 -1.744319e+03
-3.793854e+09 -3.593866e+09 -3.753868e+09 -8.223198e+02 -2.170479e+02 5.864848e+02
-1.895391e+09 -1.695401e+09 -1.855403e+09 -1.253595e+03 -1.277451e+02 1.396066e+03
-1.577475e+09 -1.377468e+09 -1.537477e+09 2.271706e+02 3.799565e+03 -1.431989e+03
-4.063852e+09 -3.863844e+09 -4.023861e+09 -3.682831e+02 2.190279e+03 -3.514328e+02
-3.459855e+09 -3.259843e+09 -3.419859e+09 -1.163595e+03 2.576085e+03 -1.715520e+03
-1.861872e+09 -1.661862e+09 -1.821873e+09 -5.562794e+02 1.823829e+03 -1.050377e+03
-2.210073e+09 -2.010063e+09 -2.170075e+09 -1.576278e+03 5.171512e+03 -2.195921e+03
-2.268184e+09 -2.068173e+09 -2.228185e+09 -1.473782e+03 3.370879e+03 -1.981360e+03
-2.992625e+09 -2.792612e+09 -2.952630e+09 -2.126264e+03 5.030116e+03 -2.416365e+03
-1.911716e+09 -1.711707e+09 -1.871718e+09 -2.234802e+03 5.032938e+03 -1.634504e+03
-4.645235e+09 -4.445250e+09 -4.605267e+09 -3.931880e+04 -2.117458e+02 1.727666e+03
-4.993110e+09 -4.793096e+09 -4.953132e+09 -1.665790e+04 1.898840e+03 -1.220673e+03
-4.134049e+09 -3.934045e+09 -4.094075e+09 -1.748174e+04 7.291016e+03 -3.654539e+03
-4.819776e+09 -4.619812e+09 -4.779830e+09 -3.694456e+04 4.341417e+03 -4.282625e+03
-4.991184e+09 -4.791217e+09 -4.951067e+09 -7.321385e+04 1.628620e+03 -9.384361e+03
-1.927852e+09 -1.727841e+09 -1.887852e+09 6.473555e+02 9.155967e+02 -1.252253e+03
-2.628749e+09 -2.428729e+09 -2.588753e+09 1.740896e+03 -7.918221e+03 -1.595215e+03
-4.922982e+09 -4.722967e+09 -4.882987e+09 5.275054e+02 -9.973022e-05 -2.698893e+01
-4.084232e+09 -3.884209e+09 -4.044236e+09 2.254976e+03 3.177671e+03 -4.843483e+01
-3.966891e+09 -3.766875e+09 -3.926896e+09 1.907611e+03 1.423149e+03 6.696469e+02
-4.993067e+09 -4.793044e+09 -4.953074e+09 5.844431e+03 8.772029e+02 1.456611e+02
-2.457232e+09 -2.257215e+09 -2.417236e+09 5.023577e+02 -6.799411e+03 -2.482823e+03
-1.772264e+09 -1.572256e+09 -1.732265e+09 6.143062e+02 4.499020e+03 1.070704e+03
-1.877717e+09 -1.677704e+09 -1.837718e+09 3.216408e+02 -4.273188e+03 -2.024416e+03
-1.886280e+09 -1.686267e+09 -1.846279e+09 -4.341859e+03 -1.267173e+04 -3.226639e+03
-4.992085e+09 -4.792048e+09 -4.952092e+09 6.332901e+03 2.124209e+03 3.254466e+02
-4.304539e+09 -4.104512e+09 -4.264545e+09 1.224081e+03 4.284944e+03 -6.655320e+02
-4.270711e+09 -4.070691e+09 -4.230716e+09 -1.632652e+02 2.577656e+03 -1.637642e+02
-3.224649e+09 -3.024625e+09 -3.184655e+09 1.746457e+03 -8.212819e+03 -2.429543e+03
-2.808797e+09 -2.608779e+09 -2.768801e+09 -1.414972e+03 -4.798282e+03 -1.555163e+03
-1.913050e+09 -1.713037e+09 -1.873052e+09 -2.730327e+02 -5.096532e+03 -1.293419e+03
-4.977371e+09 -4.777347e+09 -4.937382e+09 -7.851652e+03 1.129995e+03 -1.173232e+03
-4.132363e+09 -3.932349e+09 -4.092370e+09 -4.220734e+03 2.496875e+03 -1.675310e+03
-1.853740e+09 -1.653728e+09 -1.813741e+09 1.191533e+02 -3.222894e+03 -2.455051e+03
-4.641595e+09 -4.441583e+09 -4.601606e+09 -4.709275e+03 1.347970e+03 -4.599849e+02
-4.993078e+09 -4.793055e+09 -4.953086e+09 -4.995593e+03 1.004011e+03 -1.005311e+03
-2.035830e+09 -1.835817e+09 -1.995830e+09 -8.884673e+01 2.892973e+03 -3.249857e+02
-4.580773e+09 -4.380750e+09 -4.540781e+09 1.452586e+03 -5.577736e+02 -5.963850e+02
-3.190092e+09 -2.990074e+09 -3.150098e+09 2.569195e+03 -6.016584e+03 -3.476279e+03
-3.446764e+09 -3.246733e+09 -3.406769e+09 4.128853e+03 -1.199833e+04 -2.815649e+03
-3.013866e+09 -2.813851e+09 -2.973872e+09 2.849412e+03 -4.588884e+03 -2.296560e+03
-4.978795e+09 -4.778785e+09 -4.938801e+09 -9.727508e+02 3.941709e+02 -1.169949e+02
-2.245985e+09 -2.045973e+09 -2.205988e+09 2.301990e+03 -5.202654e+03 -3.653135e+03
-2.916892e+09 -2.716877e+09 -2.876896e+09 -1.082832e+02 -1.001918e+03 8.623343e+02
-1.884610e+09 -1.684601e+09 -1.844614e+09 3.463477e+03 -8.379938e+03 -3.782083e+03
-3.961585e+09 -3.761733e+09 -3.921528e+09 4.378937e+04 1.028605e+04 7.433098e+04
-4.992021e+09 -4.792052e+09 -4.951448e+09 -7.336878e+04 -4.622186e+03 1.047866e+04
-2.779809e+09 -2.579798e+09 -2.739817e+09 2.918438e+03 -5.474889e+03 -2.289077e+03
-4.992442e+09 -4.792435e+09 -4.952470e+09 -2.379164e+04 2.534284e+03 -1.891754e+03
-3.544125e+09 -3.344107e+09 -3.504131e+09 1.018925e+03 -7.891184e+02 -1.528149e+03
-4.991074e+09 -4.791058e+09 -4.951088e+09 -2.718507e+04 2.497320e+03 -1.079625e+03
-4.991192e+09 -4.791168e+09 -4.951211e+09 -2.434648e+04 2.681099e+03 -1.713918e+03
-4.300536e+09 -4.100504e+09 -4.260549e+09 -2.297092e+04 6.686523e+03 -3.810285e+03
-4.303221e+09 -4.103194e+09 -4.263234e+09 -3.318969e+04 8.394713e+03 -5.887204e+03
-4.807284e+09 -4.607219e+09 -4.767264e+09 -3.271501e+04 -2.948524e+02 -1.781558e+03
-4.651998e+09 -4.451938e+09 -4.611936e+09 -5.877764e+04 -3.385864e+03 7.350949e+03
-3.962387e+09 -3.762376e+09 -3.922328e+09 -6.009261e+04 -1.447385e+04 1.481782e+04
-4.991298e+09 -4.791191e+09 -4.951092e+09 -4.687980e+04 5.146826e+03 -3.518420e+03
-3.197832e+09 -2.997816e+09 -3.157841e+09 4.993477e+03 -6.732556e+03 -3.565978e+03
-3.925227e+09 -3.725205e+09 -3.885237e+09 6.498345e+03 -4.494845e+03 -1.272673e+03
-4.983414e+09 -4.783420e+09 -4.943428e+09 -4.103114e+03 -2.217335e+02 2.816039e+02
-4.990177e+09 -4.790179e+09 -4.950191e+09 -5.374108e+03 -2.731091e+02 2.930156e+02
-2.981371e+09 -2.781375e+09 -2.941380e+09 1.015958e+03 3.227563e+02 2.794082e+02
-2.991987e+09 -2.791991e+09 -2.951995e+09 7.565158e+02 1.673124e+02 1.749483e+02
-4.989830e+09 -4.789835e+09 -4.949845e+09 -5.928170e+03 -3.568992e+02 3.092809e+02
-3.966874e+09 -3.766888e+09 -3.926896e+09 -7.082344e+03 -1.523665e+03 3.088898e+03
-4.986563e+09 -4.786572e+09 -4.946578e+09 -4.294534e+03 -2.093573e+02 5.794735e+02
-3.955572e+09 -3.755580e+09 -3.915588e+09 -6.312493e+03 -1.570142e+03 2.044728e+03
-4.286879e+09 -4.086883e+09 -4.246889e+09 -3.196564e+03 -4.665388e+02 8.733054e+02
-4.989281e+09 -4.789285e+09 -4.949293e+09 -3.828380e+03 -8.944851e+01 1.462219e+02
-5.010444e+09 -4.810450e+09 -4.970454e+09 -1.965995e+03 -1.693968e+02 2.100259e+01
-1.886664e+09 -1.686668e+09 -1.846672e+09 8.794173e+02 1.225813e+02 2.763784e+02
-2.189797e+09 -1.989801e+09 -2.149805e+09 4.366101e+02 1.018966e+02 -2.045568e+01
-4.135208e+09 -3.935142e+09 -4.095203e+09 1.128854e+04 -1.170479e+04 -2.207373e+03
-4.993097e+09 -4.793064e+09 -4.953109e+09 9.289607e+03 -1.837747e+03 -1.665856e+03
-2.159853e+09 -1.959857e+09 -2.119861e+09 1.380021e+02 -1.449965e+01 1.171130e+01
-3.510644e+09 -3.310648e+09 -3.470652e+09 9.209023e+02 7.216748e+01 2.310829e+02
-3.240008e+09 -3.040012e+09 -3.200016e+09 9.290884e+02 1.885318e+02 2.617941e+02
-3.028204e+09 -2.828208e+09 -2.988212e+09 5.046412e+02 7.442353e+01 1.582922e+02
-4.991684e+09 -4.791725e+09 -4.951730e+09 -3.723268e+03 -1.256866e+02 1.777117e+03
-4.992062e+09 -4.792068e+09 -4.952084e+09 -1.216173e+04 -4.145807e+02 6.229268e+02
-4.132992e+09 -3.933005e+09 -4.093007e+09 -1.819748e+03 -3.696572e+02 9.411996e+02
-4.991024e+09 -4.791042e+09 -4.951046e+09 -1.576011e+03 7.026239e+01 3.990202e+02
-4.992247e+09 -4.792267e+09 -4.952275e+09 -6.746116e+03 -4.622924e+02 8.731416e+02
-5.034929e+09 -4.834944e+09 -4.994951e+09 -4.881683e+03 -1.659761e+02 4.832573e+02
-3.808950e+09 -3.608954e+09 -3.768958e+09 7.310022e+02 9.463344e+01 1.915457e+02
-2.873074e+09 -2.673079e+09 -2.833082e+09 4.062673e+02 6.051807e+01 9.153377e+01
-4.112113e+09 -3.912127e+09 -4.072134e+09 -6.160324e+03 -8.838251e+02 2.581227e+03
-4.818471e+09 -4.618487e+09 -4.778492e+09 -3.398642e+03 -5.811442e+02 3.365438e+02
-4.306517e+09 -4.106544e+09 -4.266550e+09 -6.649393e+03 -6.070978e+02 4.063210e+03
-4.302707e+09 -4.102724e+09 -4.262728e+09 -2.957887e+03 -3.983993e+02 1.460760e+03
-2.190973e+09 -1.990957e+09 -2.150972e+09 9.143369e+02 -1.513270e+04 -2.584843e+03
-4.647058e+09 -4.447087e+09 -4.607091e+09 -4.794194e+03 -6.400624e+02 2.165287e+03
-4.817767e+09 -4.617789e+09 -4.777794e+09 -3.693811e+03 5.369722e+02 1.187535e+03
-2.198723e+09 -1.998707e+09 -2.158724e+09 1.148426e+02 -7.338557e+01 -9.395903e+02
-2.710149e+09 -2.510131e+09 -2.670154e+09 -2.268134e+03 -5.558290e+03 4.013760e+02
-4.991965e+09 -4.791953e+09 -4.951943e+09 -6.401335e+04 -5.073227e+03 3.561516e+03
-2.275007e+09 -2.074989e+09 -2.235009e+09 2.282763e+03 -5.963582e+03 -1.385352e+02
-4.133842e+09 -3.933894e+09 -4.093835e+09 -6.609577e+04 4.570075e+03 7.968038e+03
-4.993992e+09 -4.794041e+09 -4.954023e+09 -4.788698e+04 -3.276647e+03 5.192644e+03
-1.955539e+09 -1.755530e+09 -1.915541e+09 2.369980e+03 -2.584790e+03 3.746497e+02
-2.685455e+09 -2.485439e+09 -2.645459e+09 -1.048209e+02 -1.000319e+03 -2.110628e+02
-4.134073e+09 -3.934083e+09 -4.094098e+09 -3.394101e+04 -3.427313e+03 3.398253e+03
-2.733170e+09 -2.533155e+09 -2.693174e+09 3.180964e+02 -5.656692e+02 -1.021447e+03
-1.956937e+09 -1.756926e+09 -1.916939e+09 -2.967613e+03 -2.693132e+03 -1.832767e+03
-4.304105e+09 -4.104077e+09 -4.264103e+09 -5.064735e+04 -6.313834e+03 6.901427e+03
-2.672676e+09 -2.472662e+09 -2.632681e+09 2.742217e+03 -5.117412e+03 -2.677713e+03
-4.133019e+09 -3.932991e+09 -4.093021e+09 -3.587170e+04 -3.743279e+03 1.222085e+03
-4.647178e+09 -4.447112e+09 -4.607148e+09 -4.038000e+04 1.317152e+02 -7.533486e+02
-4.751396e+09 -4.551374e+09 -4.711405e+09 1.340133e+03 -4.644296e+02 -1.610141e+02
-3.214333e+09 -3.014313e+09 -3.174342e+09 5.873267e+03 -8.406956e+03 -3.320615e+03
-4.658875e+09 -4.458845e+09 -4.618883e+09 4.046440e+03 -1.507204e+03 -7.549269e+02
-4.822281e+09 -4.622260e+09 -4.782293e+09 6.216057e+03 -1.664891e+03 -4.932786e+02
-3.955468e+09 -3.755413e+09 -3.915464e+09 -1.025876e+04 6.892659e+03 -2.706857e+02
-4.478975e+09 -4.278979e+09 -4.438984e+09 1.057025e+03 6.448995e+01 6.281373e+01
-4.126600e+09 -3.926545e+09 -4.086598e+09 -8.280048e+03 5.665393e+03 -7.694440e+02
-4.994089e+09 -4.794018e+09 -4.954082e+09 -3.707176e+03 4.934509e+03 -8.019285e+02
-4.645156e+09 -4.445177e+09 -4.605182e+09 -4.127890e+03 -5.680180e+02 1.756786e+03
-4.990953e+09 -4.790979e+09 -4.950984e+09 -5.625013e+03 -1.937496e+02 8.364981e+02
-4.649749e+09 -4.449776e+09 -4.609783e+09 -6.634830e+03 -5.358256e+02 1.846106e+03
-3.118955e+09 -2.918959e+09 -3.078963e+09 1.098429e+03 2.113716e+02 3.015852e+02
-3.116648e+09 -2.916652e+09 -3.076656e+09 2.320412e+02 6.613952e+01 4.334713e+01
-3.765773e+09 -3.565777e+09 -3.725781e+09 4.825720e+02 8.795485e+01 1.053715e+02
-4.176755e+09 -3.976772e+09 -4.136778e+09 -6.405555e+03 -5.452732e+02 2.970123e+03
-4.819516e+09 -4.619543e+09 -4.779549e+09 -5.991623e+03 -1.282224e+03 9.617637e+02
-4.836936e+09 -4.636950e+09 -4.796957e+09 -5.396846e+03 -5.085824e+02 7.378429e+02
-4.994178e+09 -4.794207e+09 -4.954215e+09 -9.666226e+03 -2.701335e+02 6.970583e+02
-4.991255e+09 -4.791274e+09 -4.951284e+09 1.004633e+04 3.726584e+02 7.130609e+02
-4.997288e+09 -4.797303e+09 -4.957314e+09 1.149076e+04 7.516654e+02 6.436835e+02
-4.641329e+09 -4.441338e+09 -4.601357e+09 1.640530e+04 1.135400e+03 1.456022e+03
-4.991900e+09 -4.791940e+09 -4.951943e+09 7.264003e+03 -5.732659e+00 1.951055e+03
-4.626418e+09 -4.426422e+09 -4.586426e+09 8.332022e+02 5.334498e+01 4.869961e+01
-2.875877e+09 -2.675880e+09 -2.835885e+09 -6.449183e+02 -2.070351e+02 2.860041e+02
-3.971458e+09 -3.771473e+09 -3.931487e+09 1.360505e+04 3.525187e+03 6.969190e+03
-4.990926e+09 -4.790956e+09 -4.950963e+09 1.096416e+04 1.048539e+03 1.409891e+03
-3.003970e+09 -2.803974e+09 -2.963978e+09 -9.003210e+02 -3.014189e+02 4.588278e+02
-4.147490e+09 -3.947514e+09 -4.107528e+09 2.257298e+04 4.396054e+03 7.278854e+03
-3.962196e+09 -3.762234e+09 -3.922238e+09 4.518858e+03 7.783659e+02 5.223155e+03
-2.977158e+09 -2.777162e+09 -2.937167e+09 -1.339273e+03 -3.755539e+02 6.913332e+02
-4.990409e+09 -4.790432e+09 -4.950442e+09 1.198034e+04 -3.729944e+02 1.588804e+03
-4.304245e+09 -4.104303e+09 -4.264294e+09 4.968603e+03 -9.764734e+02 7.759132e+03
-3.306090e+09 -3.106094e+09 -3.266098e+09 -9.971498e+02 -2.511604e+02 3.692177e+02
-4.851844e+09 -4.651848e+09 -4.811852e+09 -1.027262e+03 -3.526886e+01 1.210670e+02
-4.647204e+09 -4.447261e+09 -4.607261e+09 9.594528e+02 -1.039002e+02 3.251116e+03
-3.648930e+09 -3.448934e+09 -3.608938e+09 -6.295220e+02 -1.329520e+02 1.510397e+02
-4.818088e+09 -4.618125e+09 -4.778129e+09 7.289524e+03 1.297381e+03 1.635800e+03
-4.131624e+09 -3.931659e+09 -4.091664e+09 8.414215e+03 8.071301e+02 6.150128e+03
-4.819852e+09 -4.619892e+09 -4.779896e+09 6.308366e+03 -6.158350e+02 2.818163e+03
-4.990404e+09 -4.790430e+09 -4.950441e+09 1.500291e+04 4.021137e+02 1.968067e+03
-4.305255e+09 -4.105316e+09 -4.265307e+09 1.684599e+04 1.569522e+03 6.389389e+03
-4.133051e+09 -3.933075e+09 -4.093079e+09 2.344454e+03 -6.073431e+02 3.687465e+03
-3.742934e+09 -3.542938e+09 -3.702942e+09 -4.437705e+02 -7.261313e+01 1.380274e+02
-4.645669e+09 -4.445697e+09 -4.605702e+09 5.586239e+03 6.801925e+02 2.373396e+03
-3.962601e+09 -3.762619e+09 -3.922622e+09 2.052415e+03 3.918379e+02 2.452645e+03
-4.812052e+09 -4.612068e+09 -4.772071e+09 1.122550e+03 -5.521890e+02 5.921974e+02
-3.962605e+09 -3.762620e+09 -3.922624e+09 1.562741e+03 2.710814e+02 1.971912e+03
-4.651512e+09 -4.451517e+09 -4.611521e+09 -7.836524e+02 -4.954948e+01 7.673316e+01
-3.963400e+09 -3.763368e+09 -3.923409e+09 8.944707e+03 -7.123179e+03 -2.379188e+03
-4.129079e+09 -3.929128e+09 -4.089127e+09 -1.014221e+04 -1.696361e+03 5.233356e+03
-4.151571e+09 -3.951574e+09 -4.111578e+09 2.424813e+02 7.044988e+00 1.136866e+01
-2.617251e+09 -2.417254e+09 -2.577258e+09 5.061885e+01 3.050610e+01 5.610306e-01
-2.804877e+09 -2.604880e+09 -2.764884e+09 1.687998e+01 1.278263e+01 2.050980e+01
-3.792339e+09 -3.592342e+09 -3.752346e+09 4.017624e+01 -1.560596e+01 2.036567e+01
-3.561735e+09 -3.361719e+09 -3.521738e+09 -1.836476e+02 4.495139e+02 -3.546712e+02
-4.502916e+09 -4.302898e+09 -4.462920e+09 -1.165672e+02 1.443182e+02 -1.649653e+02
-4.310515e+09 -4.110634e+09 -4.270569e+09 1.542519e+04 9.524495e+02 3.354634e+03
-4.819100e+09 -4.619075e+09 -4.779069e+09 6.054419e+04 5.705557e+03 1.154508e+04
-4.751371e+09 -4.551353e+09 -4.711375e+09 -2.014524e+02 7.873212e+01 -3.176421e+02
-4.147551e+09 -3.947533e+09 -4.107554e+09 -4.797897e+02 1.012708e+03 -3.178484e+02
-4.991427e+09 -4.791413e+09 -4.951397e+09 5.892001e+04 7.416442e+03 2.410678e+03
-4.138314e+09 -3.938358e+09 -4.098331e+09 4.610293e+04 -1.582192e+03 -4.197910e+03
-5.006891e+09 -4.806906e+09 -4.966607e+09 8.082162e+04 2.392094e+03 -5.551281e+03
-3.961738e+09 -3.761757e+09 -3.921711e+09 6.648171e+04 -1.346209e+04 -6.956943e+03
-4.995759e+09 -4.795684e+09 -4.955245e+09 7.745493e+04 -1.161362e+04 -5.383926e+03
-4.150532e+09 -3.950620e+09 -4.110533e+09 5.125963e+04 -1.293318e+04 -1.749358e+04
-4.650149e+09 -4.450126e+09 -4.610153e+09 9.060853e+02 6.756587e+02 -3.901096e+01
-4.649036e+09 -4.449190e+09 -4.608877e+09 -2.791792e+04 -6.752805e+03 6.451088e+03
-4.825686e+09 -4.625779e+09 -4.785356e+09 -6.458724e+04 -8.084207e+03 -3.484273e+04
-4.138711e+09 -3.938793e+09 -4.098241e+09 -6.977228e+04 1.820174e+04 -1.024646e+05
-4.820651e+09 -4.620825e+09 -4.780491e+09 -1.311465e+04 1.501798e+03 2.361206e+03
-3.962532e+09 -3.762636e+09 -3.922468e+09 -6.429013e+04 1.430863e+04 -3.613093e+04
-3.204063e+09 -3.004068e+09 -3.164091e+09 1.029333e+04 -1.026462e+04 -7.980405e+03
-4.573891e+09 -4.373872e+09 -4.533895e+09 -1.756494e+02 3.574943e+02 -8.396961e+01
-3.742801e+09 -3.542783e+09 -3.702805e+09 -5.630384e+02 1.975328e+03 -3.647987e+02
-4.649375e+09 -4.449348e+09 -4.609381e+09 -7.750437e+02 1.397308e+03 -1.782204e+01
-4.991870e+09 -4.791871e+09 -4.951880e+09 -2.263296e+03 2.683271e+02 3.731891e+01
-3.217025e+09 -3.017027e+09 -3.177033e+09 -1.965449e+03 -7.626080e+02 1.064709e+03
-4.923172e+09 -4.723167e+09 -4.883192e+09 1.100618e+03 -9.612705e+02 5.976283e-06
-3.005440e+09 -2.805442e+09 -2.965448e+09 -1.989834e+03 -9.120409e+02 1.252783e+03
-2.674910e+09 -2.474910e+09 -2.634917e+09 -2.502549e+02 -1.072693e+02 7.383462e+02
-3.650769e+09 -3.450767e+09 -3.610788e+09 1.935838e+03 -4.696072e+03 -1.655258e+02
-4.617461e+09 -4.417461e+09 -4.577470e+09 -1.799231e+03 -2.810708e+02 1.161650e+02
-3.266768e+09 -3.066755e+09 -3.226774e+09 -3.170253e+03 4.025103e+03 -1.615950e+03
-2.077568e+09 -1.877560e+09 -2.037570e+09 -8.640590e+00 3.175731e+03 -1.505018e+02
-4.303421e+09 -4.103466e+09 -4.263465e+09 5.710933e+02 1.428105e+02 6.494122e+03
-4.303228e+09 -4.103270e+09 -4.263273e+09 -1.644384e+03 -3.087092e+02 5.533325e+03
-2.197053e+09 -1.997044e+09 -2.157054e+09 -1.559492e+02 1.276740e+03 -4.198091e+02
-3.665750e+09 -3.465741e+09 -3.625755e+09 -5.398129e+02 1.491084e+03 -3.400202e+02
-3.962029e+09 -3.762060e+09 -3.922064e+09 2.172674e+03 5.032714e+02 4.957340e+03
-4.819516e+09 -4.619541e+09 -4.779545e+09 1.954267e+03 9.985122e+02 9.844462e+02
-4.991878e+09 -4.791922e+09 -4.951922e+09 3.273072e+03 -8.327429e+01 7.177296e+02
-4.133305e+09 -3.933363e+09 -4.093358e+09 3.776640e+03 -7.295235e+01 7.753266e+03
-3.902675e+09 -3.702687e+09 -3.862689e+09 -3.175193e+02 -1.671314e+02 3.581689e+02
-2.188623e+09 -1.988614e+09 -2.148623e+09 -3.921035e+01 3.991544e+02 -2.973539e+02
-4.643586e+09 -4.443599e+09 -4.603601e+09 -6.881768e+02 -2.268191e+01 1.946210e+02
-2.104369e+09 -1.904381e+09 -2.064381e+09 -4.794460e+01 -7.957651e+01 1.219089e+02
-3.029722e+09 -2.829713e+09 -2.989725e+09 -6.729511e+01 1.211504e+03 -6.967880e+01
-3.765325e+09 -3.565336e+09 -3.725338e+09 -2.443789e+02 9.741111e+00 2.080128e+02
-4.819198e+09 -4.619180e+09 -4.779208e+09 4.091956e+03 -6.692182e+02 1.063567e+02
-1.631833e+09 -1.431845e+09 -1.591839e+09 8.626264e+02 -3.971596e+03 -1.572623e+04
-1.622344e+09 -1.422357e+09 -1.582356e+09 4.748508e+02 -4.079439e+03 1.938051e+03
-3.213597e+09 -3.013609e+09 -3.173610e+09 -5.189662e+02 -1.210643e+02 7.244882e+02
-3.740622e+09 -3.540682e+09 -3.700688e+09 1.022521e+04 -3.527140e+03 -2.902057e+03
-1.932061e+09 -1.732053e+09 -1.892063e+09 -1.409837e+02 4.078293e+02 -1.578070e+02
-2.879628e+09 -2.679619e+09 -2.839631e+09 6.705407e+01 1.704992e+03 -3.278575e+02
-1.949597e+09 -1.749608e+09 -1.909611e+09 -2.250161e+04 1.639931e+04 -1.931076e+04
-2.831557e+09 -2.631611e+09 -2.791604e+09 -1.059565e+02 -8.575567e+02 1.617961e+03
-3.059102e+09 -2.859118e+09 -3.019128e+09 -1.555720e+04 1.218050e+04 -6.094113e+03
-2.191722e+09 -1.991731e+09 -2.151731e+09 -1.376006e+04 1.407376e+04 -2.029124e+04
-4.992776e+09 -4.792838e+09 -4.952850e+09 1.380273e+04 -2.396226e+03 -2.704913e+03
-3.150401e+09 -2.950446e+09 -3.110454e+09 -1.568345e+04 8.037443e+03 -1.280469e+04
-2.672698e+09 -2.472715e+09 -2.632727e+09 -1.460856e+04 1.073884e+04 -7.922177e+03
-1.892401e+09 -1.692404e+09 -1.852412e+09 -1.402617e+04 1.719039e+04 -1.852922e+04
-4.132362e+09 -3.932501e+09 -4.092199e+09 6.050238e+04 5.504046e+04 6.090209e+04
-3.566421e+09 -3.366482e+09 -3.526485e+09 4.473161e+03 -4.128570e+03 -1.525045e+03
-3.770723e+09 -3.570799e+09 -3.730786e+09 5.668806e+03 -2.229263e+03 -8.294663e+03
-2.594129e+09 -2.394188e+09 -2.554168e+09 1.088907e+04 -1.488062e+03 -5.720306e+03
-3.324059e+09 -3.124119e+09 -3.284118e+09 9.193991e+03 -7.633292e+03 -7.049634e+03
-1.922457e+09 -1.722458e+09 -1.882463e+09 2.079934e+02 3.006528e+01 9.470115e+01
-3.050402e+09 -2.850400e+09 -3.010408e+09 1.092071e+03 6.123598e+02 4.212257e+02
-3.806701e+09 -3.606701e+09 -3.766707e+09 2.133165e+02 1.204831e+02 7.184073e+01
-4.942203e+09 -4.742204e+09 -4.902210e+09 5.914249e+02 1.151464e+01 -6.764486e+01
-3.209246e+09 -3.009305e+09 -3.169307e+09 3.192641e+03 -7.339939e+03 -5.785342e+03
-2.060304e+09 -1.860354e+09 -2.020347e+09 -2.821168e+03 -1.076364e+03 -7.734357e+03
-3.756844e+09 -3.556853e+09 -3.716855e+09 7.096976e+02 1.532722e+02 3.775426e+02
-2.951263e+09 -2.751272e+09 -2.911274e+09 2.210164e+02 1.708667e+02 4.352404e+01
-1.637591e+09 -1.437590e+09 -1.597596e+09 1.926223e+02 1.217422e+02 2.418460e+02
-2.640596e+09 -2.440594e+09 -2.600601e+09 1.650697e+02 1.626104e+02 6.176443e+02
-2.813261e+09 -2.613255e+09 -2.773267e+09 2.702960e+03 2.671322e+03 1.391605e+03
-4.924599e+09 -4.724591e+09 -4.884604e+09 5.503711e+02 -2.500627e-05 -1.396742e+01
-5.010003e+09 -4.810011e+09 -4.970013e+09 4.433461e+02 -1.252629e+02 3.111315e+01
-4.990711e+09 -4.790732e+09 -4.950649e+09 7.486820e+04 -6.832240e+03 -5.511199e+02
-4.390743e+09 -4.190751e+09 -4.350754e+09 2.176762e+02 1.010687e+02 4.770311e+01
-1.884955e+09 -1.684962e+09 -1.844965e+09 -4.353722e+02 -1.882009e+02 1.342978e+02
-4.976149e+09 -4.776160e+09 -4.936163e+09 1.388626e+03 1.860343e+02 1.272604e+02
-3.404225e+09 -3.204234e+09 -3.364237e+09 1.118165e+03 2.079249e+02 6.838737e+02
-2.765355e+09 -2.565348e+09 -2.725359e+09 1.876480e+03 1.940627e+03 1.200484e+03
-2.682196e+09 -2.482204e+09 -2.642206e+09 8.431877e+02 1.630633e+02 3.527459e+02
-3.037131e+09 -2.837141e+09 -2.997143e+09 1.215645e+03 3.750719e+02 1.167386e+03
-4.498840e+09 -4.298831e+09 -4.458848e+09 2.964513e+03 7.411619e+02 5.053462e+02
-3.023412e+09 -2.823423e+09 -2.983426e+09 1.495143e+03 5.770057e+02 1.390564e+03
-5.000615e+09 -4.800612e+09 -4.960622e+09 2.013160e+03 -2.346770e+02 1.311371e+02
-3.250799e+09 -3.050809e+09 -3.210812e+09 1.502519e+03 2.829781e+02 1.276549e+03
-2.977005e+09 -2.777014e+09 -2.937018e+09 1.650943e+03 6.311200e+02 1.204130e+03
-4.953726e+09 -4.753729e+09 -4.913733e+09 9.615333e+01 1.140950e+01 -1.772114e+01
-3.762463e+09 -3.562475e+09 -3.722478e+09 1.733068e+03 2.170728e+02 8.892510e+02
-4.985019e+09 -4.785021e+09 -4.945026e+09 1.457208e+02 4.158377e+01 -4.683543e+01
-3.468123e+09 -3.268133e+09 -3.428135e+09 8.405403e+02 2.022786e+02 5.673968e+02
-2.164138e+09 -1.964145e+09 -2.124148e+09 -1.377155e+02 -2.796140e+01 8.263492e+01
-2.758186e+09 -2.558170e+09 -2.718191e+09 2.834001e+03 -5.583313e+03 -2.459179e+03
-2.757357e+09 -2.557359e+09 -2.717365e+09 -8.921610e+02 -3.852182e+02 6.766512e+02
-4.986144e+09 -4.786146e+09 -4.946151e+09 4.054729e+02 -2.074353e+01 1.455962e+01
-3.910827e+09 -3.710830e+09 -3.870836e+09 -1.859183e+03 -3.962118e+02 5.563347e+02
-3.558946e+09 -3.358948e+09 -3.518953e+09 7.887721e+01 9.814773e+00 4.436952e+01
-4.980491e+09 -4.780494e+09 -4.940499e+09 3.916451e+02 -9.181046e+00 -8.172490e+01
-4.188474e+09 -3.988476e+09 -4.148481e+09 5.666976e+02 -5.804845e-01 3.146047e+01
-4.639950e+09 -4.439953e+09 -4.599957e+09 1.642985e+01 5.336488e+00 4.973799e-05
-2.841239e+09 -2.641241e+09 -2.801247e+09 -1.477222e+03 -6.929219e+02 9.658054e+02
-3.249893e+09 -3.049896e+09 -3.209902e+09 -1.738690e+03 -4.979141e+02 7.488874e+02
-1.601835e+09 -1.401837e+09 -1.561842e+09 4.568208e+02 1.843728e+02 4.990961e+00
-3.978594e+09 -3.778595e+09 -3.938600e+09 1.745905e+02 1.576122e+01 1.501831e+01
-2.384369e+09 -2.184372e+09 -2.344376e+09 1.998413e+02 2.899685e+01 5.538428e+01
-1.643245e+09 -1.443247e+09 -1.603252e+09 5.876678e+01 1.468139e+01 -2.871727e+00
-1.891359e+09 -1.691361e+09 -1.851366e+09 3.632155e+02 1.308997e+02 9.665307e+01
-2.895909e+09 -2.695911e+09 -2.855915e+09 2.774654e+01 5.980247e+00 -3.037428e+01
-3.203694e+09 -3.003695e+09 -3.163702e+09 -1.550277e+03 -7.100746e+02 1.161468e+03
-3.506923e+09 -3.306926e+09 -3.466931e+09 -1.864153e+03 -5.293695e+02 7.182386e+02
-2.581619e+09 -2.381620e+09 -2.541627e+09 -2.185318e+03 -8.623110e+02 9.601372e+02
-2.593738e+09 -2.393733e+09 -2.553742e+09 1.457447e+03 1.160864e+03 1.177089e+03
-3.430160e+09 -3.230239e+09 -3.390237e+09 -5.066100e+03 4.284429e+03 -4.205132e+03
-3.395329e+09 -3.195335e+09 -3.355339e+09 -8.542278e+02 -1.217352e+02 2.737117e+02
-3.338269e+09 -3.138277e+09 -3.298280e+09 -5.998934e+02 -1.710742e+02 1.021294e+02
-1.589940e+09 -1.389946e+09 -1.549949e+09 -8.982033e+02 -3.545793e+02 3.969718e+02
-3.234334e+09 -3.034340e+09 -3.194344e+09 -1.184731e+03 -3.026864e+02 3.941060e+02
-1.662556e+09 -1.462559e+09 -1.622563e+09 -2.687070e+02 -1.181076e+02 2.902122e+02
-1.642710e+09 -1.442714e+09 -1.602718e+09 -5.557296e+01 -1.419344e+01 3.886761e+01
-4.547768e+09 -4.347770e+09 -4.507776e+09 -5.284022e+02 -5.666729e+01 1.842761e+02
-1.947935e+09 -1.747940e+09 -1.907944e+09 1.752777e+01 -2.026405e+01 2.678284e+01
-5.029539e+09 -4.829543e+09 -4.989548e+09 -1.106487e+03 -3.975140e+01 -2.246365e+01
-2.556158e+09 -2.356161e+09 -2.516167e+09 -1.716337e+03 -5.180884e+02 6.041887e+02
-2.450735e+09 -2.250736e+09 -2.410742e+09 -1.572468e+03 -6.268817e+02 6.567488e+02
-2.568080e+09 -2.368084e+09 -2.528089e+09 -1.251880e+03 -3.305438e+02 3.416015e+02
-3.032047e+09 -2.832050e+09 -2.992055e+09 -1.394559e+03 -4.459146e+02 7.037674e+02
-4.752699e+09 -4.552711e+09 -4.712713e+09 9.456277e+01 -5.533610e+01 4.122200e+01
-3.300379e+09 -3.100394e+09 -3.260396e+09 3.292460e+02 1.447834e+02 1.683361e+03
-3.814154e+09 -3.614181e+09 -3.774204e+09 -1.710392e+04 4.819531e+03 -2.865728e+03
-2.599129e+09 -2.399149e+09 -2.559156e+09 -1.765164e+04 4.015185e+03 -3.338953e+03
-4.986054e+09 -4.786044e+09 -4.946062e+09 -1.612781e+03 5.058683e+02 -1.120939e+02
-1.686773e+09 -1.486765e+09 -1.646774e+09 -9.184542e+01 4.808015e+03 -1.789958e+03
-1.615724e+09 -1.415715e+09 -1.575725e+09 -3.485415e-07 5.591832e+02 -1.398881e+02
-4.655391e+09 -4.455404e+09 -4.615406e+09 6.181103e+02 -6.075298e+01 2.908321e+02
-1.629837e+09 -1.429829e+09 -1.589839e+09 -5.463983e+01 2.712849e+03 -1.813235e+02
-3.806371e+09 -3.606352e+09 -3.766375e+09 1.573015e+03 1.943278e+03 3.328230e+02
-3.078301e+09 -2.878292e+09 -3.038303e+09 -1.059869e+02 3.350516e+02 -4.810414e+02
-3.883597e+09 -3.683589e+09 -3.843606e+09 -9.501900e+02 2.556695e+03 -2.236326e+02
-1.686773e+09 -1.486765e+09 -1.646774e+09 -2.062188e+02 4.481068e+03 -2.100856e+03
-4.114391e+09 -3.914373e+09 -4.074397e+09 -4.283883e+03 3.154130e+03 -1.611921e+03
-4.991688e+09 -4.791670e+09 -4.951697e+09 -6.276252e+03 2.071414e+03 -1.923734e+03
-4.970958e+09 -4.770942e+09 -4.930965e+09 -3.592848e+03 8.388662e+02 -4.012358e+02
-3.248176e+09 -3.048154e+09 -3.208180e+09 -1.219837e+03 7.066449e+03 9.374998e+02
-1.876195e+09 -1.676184e+09 -1.836196e+09 -1.759673e+03 7.496559e+03 1.276777e+03
-2.444862e+09 -2.244847e+09 -2.404864e+09 7.870694e+02 4.873780e+03 3.832787e+02
-1.594998e+09 -1.395004e+09 -1.555007e+09 5.836660e+02 7.120705e+01 3.537669e+02
-3.493848e+09 -3.293825e+09 -3.453851e+09 1.352285e+03 5.404953e+03 2.117687e+02
-4.351617e+09 -4.151695e+09 -4.311701e+09 -1.500179e+03 1.257828e+03 2.146565e+03
-2.251471e+09 -2.051460e+09 -2.211473e+09 1.189272e+03 2.423184e+03 6.704661e+02
-3.345432e+09 -3.145417e+09 -3.305436e+09 1.659448e+03 2.992018e+03 1.012135e+03
-2.112966e+09 -1.912955e+09 -2.072967e+09 9.547512e+02 3.191344e+03 8.872853e+02
-2.849936e+09 -2.649942e+09 -2.809946e+09 2.767879e+02 8.238474e+01 -4.296729e+01
-4.623979e+09 -4.423984e+09 -4.583988e+09 6.757364e+02 1.718567e+02 4.511146e+01
-2.988057e+09 -2.788041e+09 -2.948061e+09 1.267206e+03 5.675448e+03 8.115347e+02
-1.778665e+09 -1.578656e+09 -1.738666e+09 8.021256e+02 4.103294e+03 1.448279e+03
-2.555629e+09 -2.355614e+09 -2.515631e+09 1.687965e+03 4.656569e+03 7.436657e+02
-2.614915e+09 -2.414919e+09 -2.574923e+09 1.186009e+02 9.051667e+01 1.823034e+01
-1.623024e+09 -1.423029e+09 -1.583032e+09 1.129674e+02 8.924241e+01 7.174136e+01
-3.962485e+09 -3.762454e+09 -3.922436e+09 6.109980e+04 8.644195e+02 6.233893e+03
-4.475913e+09 -4.275866e+09 -4.435919e+09 3.035866e+04 -3.505028e+03 -6.661067e+02
-4.282285e+09 -4.082224e+09 -4.242264e+09 2.690811e+04 -8.576995e+03 -7.303004e+03
-4.462535e+09 -4.262543e+09 -4.422546e+09 3.991594e+02 1.502925e+02 3.105829e+01
-4.625523e+09 -4.425461e+09 -4.585511e+09 2.676603e+04 -3.964816e+03 2.097794e+03
-4.642478e+09 -4.442424e+09 -4.602483e+09 3.108021e+04 -2.785349e+03 1.333527e+03
-4.819101e+09 -4.619048e+09 -4.779099e+09 3.487085e+04 -6.011740e+03 -6.044831e+02
-1.596782e+09 -1.396791e+09 -1.556791e+09 1.250461e+03 -4.172394e+03 -7.830254e+03
-4.247439e+09 -4.047537e+09 -4.207529e+09 6.593800e+03 -6.824737e+02 -3.059064e+03
-4.637262e+09 -4.437230e+09 -4.597277e+09 2.281487e+04 -6.459480e+03 -4.420254e+03
-4.460646e+09 -4.260608e+09 -4.420654e+09 2.334567e+04 -5.980256e+03 -2.913587e+03
-2.227741e+09 -2.027797e+09 -2.187756e+09 1.730196e+04 -6.200051e+03 -1.843844e+04
-3.056829e+09 -2.856911e+09 -3.016873e+09 1.177145e+04 -4.526190e+03 -8.472147e+03
-3.097524e+09 -2.897603e+09 -3.057595e+09 5.718468e+03 -3.485582e+03 -7.738452e+03
-4.804892e+09 -4.604833e+09 -4.764890e+09 1.704016e+04 -3.287090e+02 -9.745845e+02
-1.559594e+09 -1.359605e+09 -1.519598e+09 -2.152046e+03 -1.615941e+03 -7.577564e+03
-4.629965e+09 -4.430092e+09 -4.590026e+09 6.422248e+03 -7.146949e+03 -9.335595e+03
-1.559594e+09 -1.359607e+09 -1.519598e+09 -2.302109e+03 -1.062596e+03 -7.688819e+03
-4.978815e+09 -4.778750e+09 -4.938809e+09 1.947898e+04 -5.063758e+03 -3.018120e+03
-1.565496e+09 -1.365502e+09 -1.525498e+09 1.464442e+03 -9.053797e+03 -3.170284e+03
-1.908426e+09 -1.708424e+09 -1.868439e+09 1.443705e+04 -1.701650e+04 -1.501206e+04
-4.629952e+09 -4.429905e+09 -4.589959e+09 1.854918e+04 -1.904790e+03 -7.313888e+02
-3.048282e+09 -2.848340e+09 -3.008322e+09 2.302676e+04 -4.009837e+03 -6.442447e+03
-3.612281e+09 -3.412293e+09 -3.572315e+09 4.995310e+03 -6.799623e+03 -2.110034e+03
-4.120113e+09 -3.920072e+09 -4.080121e+09 1.532016e+04 -5.601619e+03 -2.080561e+03
-3.131772e+09 -2.931778e+09 -3.091781e+09 -5.194143e+02 -1.020893e+02 1.115758e+02
-4.075656e+09 -3.875730e+09 -4.035734e+09 2.473579e+03 -4.173346e+03 -2.332720e+03
-2.580220e+09 -2.380225e+09 -2.540229e+09 -1.428517e+02 -3.889754e+01 -2.967559e+01
-1.643213e+09 -1.443203e+09 -1.603214e+09 4.647379e+01 -5.795724e+02 -1.062129e+03
-4.992154e+09 -4.792144e+09 -4.952129e+09 6.447252e+04 -6.806355e+03 -4.358848e+03
-2.108808e+09 -1.908796e+09 -2.068810e+09 1.094057e+02 -2.430664e+03 -2.212901e+03
-2.583716e+09 -2.383722e+09 -2.543725e+09 -3.770970e+02 -1.302222e+02 1.511068e+02
-2.785108e+09 -2.585113e+09 -2.745116e+09 -8.784108e+01 -6.754854e+01 6.319896e+01
-4.981247e+09 -4.781124e+09 -4.941011e+09 4.690012e+04 4.458603e+03 -5.968411e+03
-1.556251e+09 -1.356242e+09 -1.516252e+09 -1.915715e+02 -2.272509e+03 -1.823717e+03
-3.951561e+09 -3.751471e+09 -3.911364e+09 7.069850e+04 -6.457042e+04 -1.198717e+04
-4.113379e+09 -3.913294e+09 -4.073105e+09 7.167124e+04 -5.475330e+04 -3.837063e+04
-4.806190e+09 -4.606134e+09 -4.766016e+09 7.408312e+04 -1.823901e+04 -2.368509e+04
-4.799868e+09 -4.599777e+09 -4.759621e+09 6.790063e+04 2.505940e+03 9.628108e+03
-4.625083e+09 -4.424986e+09 -4.584922e+09 5.729040e+04 -1.605325e+04 -6.455135e+03
-4.981264e+09 -4.781160e+09 -4.941023e+09 6.700926e+04 2.348621e+03 -2.727741e+03
-2.142209e+09 -1.942206e+09 -2.102214e+09 1.570815e+03 7.388018e+02 8.512214e+02
-2.246624e+09 -2.046622e+09 -2.206629e+09 1.630586e+03 1.225558e+03 1.176794e+03
-3.519141e+09 -3.319141e+09 -3.479147e+09 1.936908e+03 6.673370e+02 5.690854e+02
-4.668340e+09 -4.468363e+09 -4.628371e+09 -8.570581e+03 -6.171534e+02 1.898134e+03
-2.666564e+09 -2.466565e+09 -2.626571e+09 1.438081e+03 6.350083e+02 3.235857e+02
-4.992534e+09 -4.792572e+09 -4.952581e+09 -1.961146e+04 -1.723572e+03 2.258845e+03
-3.273560e+09 -3.073560e+09 -3.233567e+09 1.905561e+03 6.809643e+02 6.544887e+02
-4.819016e+09 -4.619003e+09 -4.779025e+09 -4.471464e+03 3.430892e+02 -1.118068e+03
-4.818828e+09 -4.618814e+09 -4.778836e+09 -4.288201e+03 1.281854e+03 1.744527e+02
-4.990676e+09 -4.790722e+09 -4.950639e+09 6.297675e+04 3.817168e+02 -8.101851e+03
-2.202530e+09 -2.002519e+09 -2.162531e+09 -3.435184e+03 -1.039053e+04 4.703052e+03
-3.962194e+09 -3.762171e+09 -3.922207e+09 -1.923524e+04 -7.505195e+03 4.509203e+03
-2.838192e+09 -2.638184e+09 -2.798199e+09 -2.323850e+03 4.717742e+03 -1.766735e+03
-2.181258e+09 -1.981249e+09 -2.141263e+09 -3.748049e+03 9.102392e+03 -5.029463e+03
-1.577219e+09 -1.377216e+09 -1.537223e+09 -1.020718e+03 -2.117479e+03 1.972409e+03
-5.003828e+09 -4.803813e+09 -4.963843e+09 7.676927e+03 -5.761375e+02 -4.463770e+01
-4.992963e+09 -4.792953e+09 -4.952974e+09 -4.061352e+03 7.026705e+02 -2.506194e+02
-3.423647e+09 -3.223635e+09 -3.383656e+09 2.839470e+03 -4.480821e+03 -2.382092e+03
-3.187670e+09 -2.987657e+09 -3.147676e+09 2.182703e+03 -3.430248e+03 -2.573422e+03
-4.474297e+09 -4.274285e+09 -4.434305e+09 1.594102e+03 -1.025067e+03 -5.945232e+02
-2.247708e+09 -2.047699e+09 -2.207712e+09 2.996902e+03 -7.427399e+03 -3.539420e+03
-3.982818e+09 -3.782799e+09 -3.942827e+09 4.222605e+03 -3.063468e+03 -2.364715e+03
-3.463617e+09 -3.263620e+09 -3.423624e+09 7.492666e+02 6.933452e+01 1.044567e+02
-4.631669e+09 -4.431610e+09 -4.591670e+09 1.419787e+04 -2.091053e+03 3.967976e+02
-3.789282e+09 -3.589270e+09 -3.749288e+09 2.817022e+02 -4.974988e+02 -7.977758e+02
-4.737894e+09 -4.537897e+09 -4.697901e+09 1.545074e+02 -1.470248e+01 6.432441e+01
-4.993802e+09 -4.793776e+09 -4.953816e+09 9.503287e+03 -1.603208e+03 -1.508988e+03
-3.408082e+09 -3.208069e+09 -3.368091e+09 5.231096e+03 -6.665721e+03 -3.171921e+03
-2.050189e+09 -1.850183e+09 -2.010194e+09 1.318663e+03 -6.006585e+03 -3.013147e+03
-2.733736e+09 -2.533738e+09 -2.693743e+09 1.751332e+02 2.438965e+01 -5.019972e+01
-4.812645e+09 -4.612634e+09 -4.772668e+09 1.249126e+04 -7.751321e+02 -1.637675e+03
-2.805899e+09 -2.605899e+09 -2.765916e+09 6.881039e+02 -7.776923e+03 -4.319649e+02
-2.104177e+09 -1.904177e+09 -2.064188e+09 7.551078e+02 -7.975587e+03 -7.104479e+02
-3.168365e+09 -2.968368e+09 -3.128372e+09 9.727152e+01 -1.750393e+01 -4.834732e+00
-2.448023e+09 -2.248020e+09 -2.408030e+09 -3.259750e+03 -3.150452e+03 3.015116e+03
-1.869511e+09 -1.669509e+09 -1.829516e+09 -4.084187e+02 -4.152766e+02 1.071367e+03
-2.891424e+09 -2.691427e+09 -2.851431e+09 8.446088e+01 3.304391e+00 -1.452471e+01
-1.920964e+09 -1.720967e+09 -1.880972e+09 3.343502e+02 2.337056e+01 2.363953e+01
-2.918429e+09 -2.718432e+09 -2.878437e+09 6.201100e+02 2.600451e+01 1.638410e+01
-1.769915e+09 -1.569918e+09 -1.729922e+09 1.161974e+02 3.657589e+01 1.996276e+01
-4.737776e+09 -4.537765e+09 -4.697782e+09 -1.457986e+03 7.025452e+02 -1.184127e+02
-2.666956e+09 -2.466947e+09 -2.626958e+09 -5.760405e+01 2.407048e+02 -2.799802e+02
-2.799981e+09 -2.599972e+09 -2.759984e+09 -7.347814e+02 1.936643e+03 -7.797858e+02
-4.644404e+09 -4.444348e+09 -4.604406e+09 -1.362980e+03 -3.211454e+03 1.821764e+02
-2.080507e+09 -1.880491e+09 -2.040508e+09 -1.607625e+03 -9.596652e+03 3.366199e+03
-4.132112e+09 -3.932102e+09 -4.092118e+09 -1.132439e+03 1.292397e+03 -2.230001e+02
-3.690609e+09 -3.490616e+09 -3.650619e+09 6.597168e+01 9.597629e+01 5.650564e+01
-3.137163e+09 -2.937170e+09 -3.097173e+09 4.746005e+02 1.835030e+02 2.659084e+02
-2.599910e+09 -2.399915e+09 -2.559918e+09 9.914572e+01 6.665273e+01 4.752196e+01
-3.354495e+09 -3.154502e+09 -3.314505e+09 2.434433e+02 1.068552e+02 1.796230e+02
-4.624130e+09 -4.424137e+09 -4.584140e+09 2.174493e+02 7.115323e+01 4.774172e+00
-3.179864e+09 -2.979857e+09 -3.139872e+09 -2.220992e+03 4.748746e+03 -1.695940e+03
-3.201411e+09 -3.001400e+09 -3.161415e+09 -7.656720e+02 1.986555e+03 -1.449682e+03
-1.629504e+09 -1.429510e+09 -1.589513e+09 1.166853e+02 1.013688e+02 9.198104e+01
-1.567775e+09 -1.367782e+09 -1.527785e+09 3.453364e+02 1.673219e+02 7.739042e+01
-4.651439e+09 -4.451430e+09 -4.611453e+09 -4.130822e+03 1.552777e+03 -2.719548e+02
-2.668331e+09 -2.468321e+09 -2.628333e+09 -7.233423e+02 1.588264e+03 -9.885053e+02
-1.594998e+09 -1.395004e+09 -1.555007e+09 6.265026e+02 9.838637e+01 2.136866e+02
-3.009253e+09 -2.809260e+09 -2.969262e+09 8.147590e+01 7.315707e+01 8.881638e+01
-2.990645e+09 -2.790637e+09 -2.950652e+09 -2.079670e+03 4.640588e+03 -1.861157e+03
-2.611262e+09 -2.411254e+09 -2.571266e+09 -5.799666e+02 2.686379e+03 -2.430742e+02
-4.989130e+09 -4.789250e+09 -4.949201e+09 -1.818172e+04 -9.370437e+01 6.251246e+03
-2.665490e+09 -2.465496e+09 -2.625499e+09 9.687534e+01 1.306792e+02 5.563259e+01
-4.300641e+09 -4.100754e+09 -4.260670e+09 -1.809459e+04 7.818800e+02 -7.146477e+03
-1.724493e+09 -1.524499e+09 -1.684502e+09 3.181424e+02 1.002915e+02 5.309683e+01
-4.987111e+09 -4.787201e+09 -4.947143e+09 -3.862678e+04 -4.297899e+03 7.852284e+03
-4.814934e+09 -4.615026e+09 -4.774961e+09 -4.364338e+04 -9.179658e+02 7.541399e+03
-3.973616e+09 -3.773695e+09 -3.933657e+09 -2.916696e+04 3.067062e+02 1.220475e+03
-2.865014e+09 -2.665026e+09 -2.825028e+09 -6.217774e+02 -3.579082e+02 6.948189e+02
-4.140060e+09 -3.940147e+09 -4.100111e+09 -3.424369e+04 -1.939242e+03 6.845975e+03
-2.610463e+09 -2.410469e+09 -2.570472e+09 -9.256191e+01 -1.334264e+02 5.315186e+01
-2.226972e+09 -2.026982e+09 -2.186984e+09 -1.714769e+02 -1.913853e+01 1.373769e+02
-2.188718e+09 -1.988728e+09 -2.148729e+09 -4.821608e+02 -1.454134e+02 4.263372e+02
-4.992988e+09 -4.792995e+09 -4.952998e+09 -3.815768e+02 8.945880e+01 6.117823e+00
-1.926424e+09 -1.726433e+09 -1.886435e+09 -1.610022e+02 -3.367782e+01 2.026527e+02
-4.649866e+09 -4.449916e+09 -4.609884e+09 -5.458268e+04 5.098745e+03 -3.321966e+02
-1.884617e+09 -1.684628e+09 -1.844629e+09 -4.076717e+02 -2.108429e+02 4.553184e+02
-3.021747e+09 -2.821753e+09 -2.981756e+09 -7.817062e+01 -4.442662e+01 2.373437e+01
-1.891442e+09 -1.691452e+09 -1.851454e+09 -1.369080e+03 -2.613788e+02 1.205495e+03
-4.992626e+09 -4.792639e+09 -4.952642e+09 -9.878287e+02 -1.419086e+02 1.806301e+02
-3.126408e+09 -2.926419e+09 -3.086422e+09 -1.181855e+03 -5.761164e+02 1.535620e+03
-1.885213e+09 -1.685219e+09 -1.845222e+09 -1.060073e+03 -2.158222e+02 5.393102e+02
-4.745373e+09 -4.545380e+09 -4.705383e+09 -3.082936e+02 -5.067719e+01 -6.210535e+01
-1.585163e+09 -1.385174e+09 -1.545175e+09 -6.660449e+02 -2.706989e+02 6.653303e+02
-2.232327e+09 -2.032338e+09 -2.192339e+09 -1.722235e+02 -6.010548e+01 1.806711e+02
-4.136411e+09 -3.936510e+09 -4.096419e+09 -4.952706e+04 2.364550e+03 4.196661e+03
-4.921486e+09 -4.721472e+09 -4.881494e+09 5.813408e+02 9.774501e-05 -1.667442e+02
-3.414310e+09 -3.214294e+09 -3.374317e+09 -6.242385e+03 -5.391958e+03 2.735925e+03
-4.207354e+09 -4.007336e+09 -4.167362e+09 -5.234312e+03 -2.642105e+03 1.814769e+03
-3.204260e+09 -3.004247e+09 -3.164270e+09 -6.876626e+03 -6.767858e+03 3.896603e+03
-2.180763e+09 -1.980770e+09 -2.140773e+09 -1.291249e+03 -3.537818e+02 6.365678e+02
-3.774935e+09 -3.574921e+09 -3.734943e+09 1.839518e+03 -1.922889e+03 -1.234043e+03
-2.640741e+09 -2.440732e+09 -2.600747e+09 -4.165451e+03 -5.296958e+03 2.585081e+03
-4.991096e+09 -4.791049e+09 -4.951104e+09 -2.518181e+04 -3.969225e+03 1.377296e+03
-2.970810e+09 -2.770801e+09 -2.930818e+09 -4.344735e+03 -5.348144e+03 3.640212e+03
-2.704645e+09 -2.504636e+09 -2.664650e+09 2.913835e+02 -2.469977e+03 -8.609918e+02
-3.135802e+09 -2.935791e+09 -3.095810e+09 -4.097446e+03 -4.197218e+03 3.029010e+03
-4.304147e+09 -4.104132e+09 -4.264163e+09 -1.582835e+04 -4.548576e+03 3.532908e+03
-3.961681e+09 -3.761668e+09 -3.921695e+09 -1.027189e+04 -5.958903e+03 3.293032e+03
-4.993633e+09 -4.793611e+09 -4.953641e+09 1.436594e+03 -2.852562e+02 -6.102205e+01
-4.817532e+09 -4.617476e+09 -4.777535e+09 -2.567090e+03 -2.424061e+03 -6.214919e+02
-4.645087e+09 -4.445080e+09 -4.605103e+09 -1.355322e+04 -1.196154e+03 2.143947e+03
-4.925571e+09 -4.725544e+09 -4.885579e+09 1.607182e+02 4.953006e-05 -7.245425e+01
-4.477378e+09 -4.277365e+09 -4.437391e+09 -9.527258e+03 -2.573238e+03 2.064720e+03
-4.820608e+09 -4.620600e+09 -4.780624e+09 -1.046968e+04 -6.368536e+02 9.306091e+02
-4.303762e+09 -4.103755e+09 -4.263778e+09 -1.111232e+04 -3.801003e+03 2.653791e+03
-4.457387e+09 -4.257397e+09 -4.417406e+09 -6.637605e+03 -6.512702e+02 1.214707e+03
-4.279504e+09 -4.079514e+09 -4.239522e+09 -5.070439e+03 -1.153715e+03 1.811640e+03
-1.587419e+09 -1.387412e+09 -1.547420e+09 -7.951973e+02 -8.469331e+03 -1.908212e+03
-3.267336e+09 -3.067310e+09 -3.227341e+09 7.884897e+02 -7.778759e+03 -4.223487e+02
-4.515424e+09 -4.315398e+09 -4.475432e+09 3.311192e+02 -3.226778e+02 -3.010817e+02
-4.114156e+09 -3.914166e+09 -4.074175e+09 -6.100123e+03 -1.462468e+03 1.666167e+03
-3.662258e+09 -3.462236e+09 -3.622264e+09 4.750269e+02 -7.336104e+02 -6.911238e+02
-3.407253e+09 -3.207222e+09 -3.367257e+09 1.914262e+03 -1.317553e+04 -1.018475e+03
-3.684353e+09 -3.484342e+09 -3.644359e+09 3.540699e+02 -5.349685e+02 -3.196448e+02
-4.620994e+09 -4.420982e+09 -4.581005e+09 2.188473e+03 -9.860800e+02 -6.285790e+02
-2.367161e+09 -2.167149e+09 -2.327164e+09 1.958925e+03 -4.485900e+03 -2.570440e+03
-1.580449e+09 -1.380439e+09 -1.540450e+09 -2.486408e+02 -3.461908e+03 -1.545688e+03
-1.556252e+09 -1.356243e+09 -1.516253e+09 -1.912926e+02 -3.164642e+03 -1.804777e+03
-4.669548e+09 -4.469563e+09 -4.629571e+09 -5.995621e+03 -4.042355e+02 1.404413e+03
-3.993141e+09 -3.793137e+09 -3.953150e+09 -1.916930e+03 -4.319464e+02 8.229229e+02
-4.965968e+09 -4.765979e+09 -4.925986e+09 -4.697736e+03 -3.047365e+02 1.064815e+02
-4.643328e+09 -4.443339e+09 -4.603346e+09 -4.762557e+03 -6.434901e+02 6.054287e+02
-4.991523e+09 -4.791459e+09 -4.951477e+09 5.632968e+04 -8.052769e+03 -8.975039e+03
-4.122087e+09 -3.922099e+09 -4.082104e+09 -3.558245e+03 -2.472779e+02 1.489990e+03
-4.783656e+09 -4.583667e+09 -4.743673e+09 -4.257510e+03 1.170775e+02 5.937474e+02
-4.965966e+09 -4.765980e+09 -4.925986e+09 -5.810750e+03 -2.107329e+02 4.985234e+02
-1.583561e+09 -1.383571e+09 -1.543572e+09 1.070917e+03 4.015370e+02 1.008335e+03
-2.911488e+09 -2.711493e+09 -2.871496e+09 7.153577e+01 1.557468e+01 4.502357e+01
-4.644082e+09 -4.444093e+09 -4.604096e+09 8.339184e+02 3.648408e+01 2.479657e+02
-4.992185e+09 -4.792198e+09 -4.952201e+09 1.141337e+03 -1.444953e+02 -3.321988e+01
-3.961029e+09 -3.761041e+09 -3.921044e+09 2.351107e+03 3.900354e+02 1.206459e+03
-3.318610e+09 -3.118621e+09 -3.278624e+09 1.640344e+03 3.635837e+02 1.438845e+03
-2.312452e+09 -2.112463e+09 -2.272465e+09 8.667464e+02 9.906000e+00 1.130151e+03
-4.131050e+09 -3.931060e+09 -4.091065e+09 3.662990e+03 6.097705e+02 1.155312e+03
-4.817826e+09 -4.617838e+09 -4.777843e+09 3.999040e+03 5.948959e+02 4.087928e+02
-3.961422e+09 -3.761433e+09 -3.921437e+09 2.805379e+03 7.559155e+02 1.222137e+03
-4.288946e+09 -4.088881e+09 -4.248938e+09 -2.812797e+04 2.865537e+03 -2.685866e+03
-3.955433e+09 -3.755445e+09 -3.915453e+09 5.853135e+03 1.646707e+03 2.746713e+03
-3.961416e+09 -3.761429e+09 -3.921433e+09 2.179424e+03 2.059518e+02 1.614746e+03
-4.163273e+09 -3.963173e+09 -4.123223e+09 -1.118651e+04 6.392692e+03 -6.473406e+03
-4.132246e+09 -3.932261e+09 -4.092265e+09 3.839177e+03 6.034426e+01 2.097845e+03
-3.962370e+09 -3.762375e+09 -3.922387e+09 -9.772395e+03 -2.123128e+03 2.943236e+03
-3.961841e+09 -3.761841e+09 -3.921856e+09 -7.139592e+03 -2.377671e+03 2.716594e+03
-4.991540e+09 -4.791539e+09 -4.951555e+09 -8.423423e+03 -3.861817e+02 5.253825e+02
-4.645790e+09 -4.445791e+09 -4.605804e+09 -5.918819e+03 -9.144301e+02 6.366081e+02
-4.828396e+09 -4.628234e+09 -4.788073e+09 -2.070622e+04 8.230567e+03 1.625923e+04
-3.959177e+09 -3.759115e+09 -3.919166e+09 -1.482482e+04 2.388478e+03 -2.441704e+03
-4.828782e+09 -4.628684e+09 -4.788742e+09 -4.073092e+03 2.912373e+03 -3.406599e+03
-4.133107e+09 -3.933095e+09 -4.093120e+09 -1.140964e+04 -4.664251e+03 2.724691e+03
-4.991377e+09 -4.791357e+09 -4.951392e+09 -1.623798e+04 -2.234832e+03 9.450870e+02
-3.963989e+09 -3.763926e+09 -3.923940e+09 -4.555004e+04 -2.544610e+03 3.590164e+03
-4.124514e+09 -3.924493e+09 -4.084526e+09 -9.150112e+03 -4.376624e+03 3.217885e+03
-4.626805e+09 -4.426787e+09 -4.586815e+09 -5.224712e+03 -7.409672e+02 4.741753e+02
-4.652487e+09 -4.452413e+09 -4.612481e+09 1.109299e+03 2.167019e+03 1.271237e+02
-4.132235e+09 -3.932227e+09 -4.092251e+09 -1.379609e+04 -3.778833e+03 3.145353e+03
-4.646446e+09 -4.446438e+09 -4.606466e+09 -1.974690e+04 -1.198082e+03 2.211793e+03
-4.992162e+09 -4.792151e+09 -4.952179e+09 -1.395729e+04 -1.376394e+03 1.314274e+03
-4.303874e+09 -4.103855e+09 -4.263891e+09 -1.945550e+04 -7.452022e+03 3.824528e+03
-3.964393e+09 -3.764320e+09 -3.924386e+09 -2.177332e+03 3.524319e+03 -3.585246e+02
-4.844901e+09 -4.644826e+09 -4.804885e+09 -6.591792e+03 4.592484e+03 -8.865140e+02
-3.800104e+09 -3.600087e+09 -3.760114e+09 -6.281914e+03 -4.233063e+03 2.229381e+03
-4.133882e+09 -3.933894e+09 -4.093898e+09 -2.362259e+03 -2.043372e+02 1.132664e+03
-4.750480e+09 -4.550489e+09 -4.710491e+09 -3.467716e+02 -6.348179e+01 -6.088642e+01
-2.475654e+09 -2.275663e+09 -2.435665e+09 -8.212868e+02 -3.737032e+02 3.831416e+02
-3.635737e+09 -3.435752e+09 -3.595753e+09 7.052292e+01 -9.472509e+01 1.127622e+03
-2.096708e+09 -1.896720e+09 -2.056721e+09 -8.154286e+02 -1.713596e+02 1.146258e+03
-1.894191e+09 -1.694201e+09 -1.854203e+09 -7.657755e+02 -6.484941e+02 1.112506e+03
-4.992677e+09 -4.792688e+09 -4.952692e+09 -2.609922e+03 -5.821335e+01 2.228882e+02
-4.990354e+09 -4.790350e+09 -4.950371e+09 -1.113994e+04 -9.919400e+02 8.057124e+02
-4.132338e+09 -3.932331e+09 -4.092352e+09 -8.835110e+03 -2.432433e+03 2.692603e+03
-4.992498e+09 -4.792493e+09 -4.952513e+09 -8.842321e+03 -7.766054e+02 4.916684e+02
-4.492736e+09 -4.292663e+09 -4.452728e+09 -6.791503e+03 6.450602e+03 -5.889120e+02
-4.819340e+09 -4.619344e+09 -4.779358e+09 -8.711227e+03 -1.535069e+03 3.021189e+02
-2.918479e+09 -2.718469e+09 -2.878485e+09 -1.847228e+03 -2.460058e+03 2.290807e+03
-4.820837e+09 -4.620835e+09 -4.780851e+09 -6.781210e+03 1.142252e+01 1.255557e+03
-3.290948e+09 -3.090939e+09 -3.250956e+09 -2.551555e+03 -2.156882e+03 2.143026e+03
-3.185886e+09 -2.985875e+09 -3.145892e+09 -7.538455e+02 -1.386414e+03 2.333706e+03
-2.269468e+09 -2.069460e+09 -2.229472e+09 -9.902104e+02 -1.865028e+03 2.142517e+03
-3.048956e+09 -2.848962e+09 -3.008966e+09 1.574558e+03 5.072385e+02 5.253750e+02
-1.939885e+09 -1.739879e+09 -1.899889e+09 -1.202379e+03 -9.113486e+02 1.771628e+03
-4.136780e+09 -3.936784e+09 -4.096793e+09 5.457913e+03 1.494328e+03 7.015210e+02
-4.646589e+09 -4.446552e+09 -4.606473e+09 -7.920202e+04 -7.895152e+03 1.763561e+04
-2.986375e+09 -2.786349e+09 -2.946380e+09 -1.706507e+03 -1.374400e+04 1.524810e+03
-3.179105e+09 -2.979093e+09 -3.139108e+09 4.924844e+02 1.176764e+03 1.042812e+03
-2.621688e+09 -2.421678e+09 -2.581691e+09 -4.155913e+01 5.994338e+02 6.560875e+02
-1.711221e+09 -1.511214e+09 -1.671224e+09 3.082738e+02 7.884542e+02 1.074923e+03
-4.645683e+09 -4.445632e+09 -4.605685e+09 1.011747e+04 -3.212575e+03 9.215438e+01
-4.310490e+09 -4.110365e+09 -4.270384e+09 -1.263919e+04 -9.874106e+03 1.227197e+01
-4.658449e+09 -4.458324e+09 -4.618362e+09 1.116043e+04 7.183521e+02 5.061208e+02
-3.578210e+09 -3.378198e+09 -3.538216e+09 3.316528e+03 3.254048e+03 1.634853e+03
-3.277302e+09 -3.077280e+09 -3.237306e+09 3.575836e+02 -3.035648e+03 -3.715639e+02
-3.175518e+09 -2.975508e+09 -3.135522e+09 1.330889e+03 2.514794e+03 1.199373e+03
-3.601073e+09 -3.401064e+09 -3.561078e+09 5.018539e+02 3.452748e+02 8.352729e+02
-2.494032e+09 -2.294022e+09 -2.454036e+09 2.167755e+03 3.545288e+03 1.389234e+03
-3.965199e+09 -3.765133e+09 -3.925186e+09 6.431634e+03 -1.306410e+04 -1.186823e+03
-4.133216e+09 -3.933249e+09 -4.093252e+09 2.565606e+03 1.384163e+03 4.677376e+03
-4.805142e+09 -4.605159e+09 -4.765162e+09 2.796771e+02 -5.899051e+02 5.354510e+02
-2.664326e+09 -2.464333e+09 -2.624336e+09 -7.309078e+02 -2.804400e+02 2.313729e+02
-3.433536e+09 -3.233523e+09 -3.393541e+09 2.693881e+03 3.899788e+03 1.644693e+03
-4.992183e+09 -4.792197e+09 -4.952200e+09 1.393047e+03 -2.540748e+01 3.392407e+02
-4.306209e+09 -4.106204e+09 -4.266227e+09 1.582257e+04 4.256612e+03 3.544318e+03
-4.821361e+09 -4.621355e+09 -4.781381e+09 1.815012e+04 3.133444e+03 1.818744e+03
-3.961140e+09 -3.761129e+09 -3.921158e+09 2.050799e+04 5.538769e+03 3.713742e+03
-2.579065e+09 -2.379072e+09 -2.539075e+09 -6.160069e+02 -1.922210e+02 1.355321e+02
-4.650909e+09 -4.450917e+09 -4.610940e+09 3.292819e+04 1.236852e+03 1.550587e+03
-3.477289e+09 -3.277274e+09 -3.437295e+09 5.183049e+03 5.021832e+03 2.281681e+03
-3.288216e+09 -3.088204e+09 -3.248221e+09 3.249622e+03 4.551119e+03 2.280653e+03
-3.114970e+09 -2.914958e+09 -3.074973e+09 8.377619e+02 2.068340e+03 7.820930e+02
-2.586735e+09 -2.386723e+09 -2.546738e+09 2.818611e+03 3.834845e+03 1.667239e+03
-3.351804e+09 -3.151793e+09 -3.311811e+09 4.973937e+03 3.699304e+03 1.870209e+03
-4.821797e+09 -4.621853e+09 -4.781823e+09 -4.902423e+04 1.299242e+03 -5.794034e+03
-4.991621e+09 -4.791573e+09 -4.951604e+09 -5.102618e+04 -5.635702e+03 2.930410e+03
-3.961919e+09 -3.761876e+09 -3.921904e+09 -3.897358e+04 -3.912833e+03 1.228244e+03
-4.304174e+09 -4.104141e+09 -4.264184e+09 -2.050764e+04 -8.984409e+03 3.183850e+03
-4.819268e+09 -4.619288e+09 -4.779292e+09 6.741235e+02 7.796744e+02 7.033329e+02
-2.185999e+09 -1.985985e+09 -2.145998e+09 -5.727845e+02 7.486008e+03 -1.909020e+03
-4.646023e+09 -4.446047e+09 -4.606051e+09 -2.292219e+03 -2.837953e+02 1.624918e+03
-3.250271e+09 -3.050252e+09 -3.210275e+09 -3.395548e+03 5.686933e+03 -8.853009e+02
-4.991853e+09 -4.791791e+09 -4.951840e+09 1.981623e+04 3.542184e+03 -7.696984e+02
-4.819889e+09 -4.619841e+09 -4.779891e+09 1.170462e+04 2.026793e+03 7.251812e+02
-4.991848e+09 -4.791775e+09 -4.951835e+09 2.606448e+04 5.349492e+03 1.221470e+03
-2.599505e+09 -2.399488e+09 -2.559506e+09 -1.199030e+03 4.980406e+03 -7.571411e+02
-1.610221e+09 -1.410226e+09 -1.570230e+09 -2.226048e+02 -9.456962e+01 4.066511e+01
-3.261003e+09 -3.060986e+09 -3.221006e+09 -7.929031e+02 4.743040e+03 -1.260444e+03
-3.522353e+09 -3.322333e+09 -3.482356e+09 -1.909004e+03 4.904841e+03 -1.457937e+03
-4.303065e+09 -4.102968e+09 -4.263036e+09 7.731308e+03 6.385038e+03 -1.100484e+03
-3.985101e+09 -3.785028e+09 -3.945074e+09 -1.096527e+04 4.990614e+03 -7.054769e+02
-4.131338e+09 -3.931240e+09 -4.091309e+09 4.884668e+03 8.783578e+03 1.204993e+03
-4.069974e+09 -3.870084e+09 -4.030037e+09 5.569274e+03 3.393944e+03 6.386808e+03
-3.967367e+09 -3.767277e+09 -3.927330e+09 3.430725e+03 -9.782076e+03 1.572954e+02
-1.587146e+09 -1.387140e+09 -1.547148e+09 -2.173313e+02 -6.892022e+03 3.096916e+03
-1.908815e+09 -1.708836e+09 -1.868825e+09 -1.995372e+04 1.030322e+04 -1.915338e+04
-4.992113e+09 -4.792118e+09 -4.952017e+09 -7.810750e+04 -1.902704e+03 2.098951e+03
-4.991903e+09 -4.791833e+09 -4.951824e+09 -5.403044e+04 -8.074163e+03 -1.252517e+03
-2.734103e+09 -2.534144e+09 -2.694136e+09 -1.830680e+04 1.992025e+03 -3.840204e+03
-2.677778e+09 -2.477819e+09 -2.637817e+09 -5.609470e+03 2.517956e+03 -6.507370e+03
-2.756689e+09 -2.556733e+09 -2.716730e+09 -2.572753e+03 6.553816e+03 -4.267911e+03
-3.962180e+09 -3.762105e+09 -3.922153e+09 -2.110810e+04 -9.111374e+03 1.815127e+03
-4.133723e+09 -3.933691e+09 -4.093506e+09 -8.731535e+04 5.548115e+04 -5.109977e+04
-4.819528e+09 -4.619455e+09 -4.779502e+09 -3.585707e+04 1.080082e+03 -5.085438e+03
-4.820613e+09 -4.620487e+09 -4.780499e+09 -3.791355e+04 -2.574400e+03 1.276166e+04
-4.303637e+09 -4.103669e+09 -4.263674e+09 4.972806e+02 7.436507e+01 4.033605e+03
-4.000686e+09 -3.800775e+09 -3.960772e+09 1.034377e+03 -1.489391e+03 -6.112054e+03
-4.132628e+09 -3.932681e+09 -4.092678e+09 -8.329878e+03 -9.740161e+02 7.587593e+03
-2.220612e+09 -2.020658e+09 -2.180626e+09 -1.193604e+04 3.196799e+03 -2.427403e+04
-4.813661e+09 -4.613764e+09 -4.773740e+09 -1.580755e+04 -3.530728e+03 9.645990e+02
-4.647800e+09 -4.447941e+09 -4.607528e+09 -1.016570e+04 -1.249515e+03 7.396923e+04
-4.818618e+09 -4.618735e+09 -4.778482e+09 -6.390762e+04 2.674895e+04 4.852259e+03
-4.991836e+09 -4.792018e+09 -4.951562e+09 2.034412e+04 2.338400e+03 -1.758083e+03
-4.819280e+09 -4.619443e+09 -4.779116e+09 3.078349e+04 3.826672e+04 2.247627e+04
-4.996748e+09 -4.796779e+09 -4.956791e+09 2.761258e+04 2.253426e+03 3.209281e+03
-4.149152e+09 -3.949180e+09 -4.109191e+09 3.170084e+04 5.452448e+03 8.666797e+03
-4.989338e+09 -4.789358e+09 -4.949372e+09 3.056543e+04 2.919196e+03 3.989662e+03
-4.315366e+09 -4.115400e+09 -4.275404e+09 3.054513e+04 3.889384e+03 7.142393e+03
-4.132303e+09 -3.932450e+09 -4.092263e+09 -3.393400e+04 -2.916191e+04 3.122426e+04
-4.142723e+09 -3.942869e+09 -4.102169e+09 3.942140e+03 -3.994136e+04 -1.331245e+05
-3.962302e+09 -3.762444e+09 -3.922326e+09 -2.251654e+04 -2.478858e+03 4.305461e+04
-4.989949e+09 -4.790087e+09 -4.949543e+09 6.121083e+03 -5.432555e+03 -1.746060e+04
-4.825572e+09 -4.625558e+09 -4.785294e+09 8.868879e+04 -1.240248e+04 3.241629e+04
-2.183233e+09 -1.983219e+09 -2.143233e+09 8.464400e+02 8.689529e+03 5.498288e+02
-4.132745e+09 -3.932904e+09 -4.092699e+09 2.362898e+04 2.580587e+04 3.231196e+04
-2.182055e+09 -1.982043e+09 -2.142056e+09 1.571092e+03 7.983738e+03 1.387583e+03
-4.477173e+09 -4.277308e+09 -4.437252e+09 4.502563e+02 5.190214e+03 -3.525076e+02
-4.990283e+09 -4.790453e+09 -4.950208e+09 -4.583831e+03 -1.597744e+02 -4.026839e+03
-4.646391e+09 -4.446550e+09 -4.606447e+09 -5.682429e+03 1.612384e+03 2.057407e+04
-4.305263e+09 -4.105205e+09 -4.265254e+09 8.319302e+03 1.054409e+04 2.976137e+02
-2.969468e+09 -2.769450e+09 -2.929473e+09 1.126445e+03 8.537438e+03 7.840323e+02
-2.532810e+09 -2.332800e+09 -2.492813e+09 1.919230e+02 4.587424e+02 6.508726e+02
-2.560916e+09 -2.360913e+09 -2.520923e+09 -4.935649e+02 -4.674024e+01 1.691919e+03
-3.962099e+09 -3.762104e+09 -3.921785e+09 -8.058202e+04 -7.287275e+04 6.884443e+04
-4.991615e+09 -4.791602e+09 -4.951629e+09 1.086235e+04 1.250247e+03 1.715078e+01
-4.132933e+09 -3.932919e+09 -4.092945e+09 9.958869e+03 3.502367e+03 2.825804e+03
-4.133716e+09 -3.933704e+09 -4.093726e+09 7.341368e+03 3.661036e+03 1.223301e+03
-4.643726e+09 -4.443709e+09 -4.603736e+09 7.839921e+03 1.602658e+03 7.674866e+02
-4.991755e+09 -4.791738e+09 -4.951766e+09 9.755190e+03 1.238149e+03 5.723415e+02
-2.179830e+09 -1.979824e+09 -2.139833e+09 4.085487e+02 5.737536e+02 7.404873e+02
-4.841322e+09 -4.641315e+09 -4.801332e+09 -2.836906e+03 -2.315099e+02 9.478094e+02
-3.587261e+09 -3.387252e+09 -3.547269e+09 -1.717833e+03 -9.703841e+02 1.892812e+03
-1.608020e+09 -1.408032e+09 -1.568033e+09 3.598937e+02 7.046820e+01 1.487387e+03
-3.782161e+09 -3.582157e+09 -3.742170e+09 -1.892632e+03 -6.440591e+02 1.871846e+03
-3.679566e+09 -3.479563e+09 -3.639574e+09 -1.470551e+03 -5.655862e+02 8.508780e+02
-2.679168e+09 -2.479164e+09 -2.639176e+09 -2.036276e+03 -3.427493e+03 2.780103e+03
-1.578361e+09 -1.378353e+09 -1.538362e+09 2.923865e+02 5.017063e+03 3.989453e+02
-4.547446e+09 -4.347451e+09 -4.507455e+09 -4.308091e+02 -1.028135e+02 1.504580e+02
-4.146371e+09 -3.946376e+09 -4.106380e+09 -1.416231e+03 -2.464324e+02 1.165806e+02
-4.117551e+09 -3.917557e+09 -4.077561e+09 -1.615248e+03 -4.478799e+02 2.171578e+02
-1.693864e+09 -1.493873e+09 -1.653875e+09 1.352993e+03 5.251768e+02 1.228085e+03
-3.014123e+09 -2.814135e+09 -2.974137e+09 1.043831e+03 2.857172e+02 1.444096e+03
-4.994292e+09 -4.794299e+09 -4.954302e+09 -1.135591e+03 1.255816e+01 9.687966e+00
-4.801584e+09 -4.601591e+09 -4.761595e+09 -1.182215e+03 -5.143829e+01 8.895839e+01
-4.135817e+09 -3.935826e+09 -4.095830e+09 -2.459906e+03 -1.725129e+02 9.098223e+02
-3.277469e+09 -3.077479e+09 -3.237482e+09 -1.680802e+03 -4.194102e+02 1.353052e+03
-4.993568e+09 -4.793577e+09 -4.953581e+09 -2.528092e+03 -4.350553e+01 1.835654e+02
-3.963870e+09 -3.763879e+09 -3.923883e+09 -2.714391e+03 -4.474211e+02 1.046131e+03
-4.309741e+09 -4.109746e+09 -4.269751e+09 -2.301516e+03 -3.800929e+02 2.986056e+01
-3.963871e+09 -3.763879e+09 -3.923883e+09 -2.195537e+03 -3.382574e+02 8.284430e+02
-4.992641e+09 -4.792651e+09 -4.952655e+09 -1.330881e+03 -1.295495e+02 -4.553995e-01
-4.126109e+09 -3.926114e+09 -4.086118e+09 -3.843665e+02 3.323736e+01 8.550821e+01
-4.018078e+09 -3.818084e+09 -3.978087e+09 -5.605169e+02 -3.811912e+01 1.493630e+02
-3.704964e+09 -3.504970e+09 -3.664973e+09 -5.112772e+02 -1.298989e+02 1.700022e+02
-4.820021e+09 -4.619986e+09 -4.780028e+09 9.136400e+03 1.432025e+03 1.087810e+03
-3.585240e+09 -3.385251e+09 -3.545253e+09 -1.064289e+02 -8.871248e+01 1.444692e+02
-3.911331e+09 -3.711343e+09 -3.871345e+09 -5.606666e+01 -7.294463e+01 1.323682e+02
-5.009737e+09 -4.809749e+09 -4.969751e+09 -4.367807e+02 -6.051731e+01 6.271046e+01
-2.880349e+09 -2.680359e+09 -2.840360e+09 -1.457577e+01 -7.509643e+01 1.046402e+02
-4.687397e+09 -4.487387e+09 -4.647401e+09 -2.733891e+02 1.457086e+02 -1.430965e+01
-4.133269e+09 -3.933240e+09 -4.093276e+09 9.269344e+03 5.418515e+03 2.595713e+03
-3.962254e+09 -3.762224e+09 -3.922261e+09 8.650449e+03 5.883226e+03 2.437762e+03
-3.762929e+09 -3.562919e+09 -3.722932e+09 -1.414742e+02 3.568876e+02 -4.313220e+02
-1.868052e+09 -1.668043e+09 -1.828054e+09 -2.528258e+03 6.534611e+03 -1.677776e+03
-4.993849e+09 -4.793839e+09 -4.953855e+09 -8.997307e+02 3.088115e+02 -2.744089e+02
-4.304776e+09 -4.104727e+09 -4.264779e+09 1.006492e+04 7.856977e+03 1.663522e+03
-4.304116e+09 -4.104065e+09 -4.264108e+09 2.381504e+04 1.054712e+04 1.985861e+03
-4.978793e+09 -4.778783e+09 -4.938800e+09 -1.806348e+03 1.675398e+02 2.563029e+02
-4.819567e+09 -4.619529e+09 -4.779574e+09 1.519056e+04 1.361516e+03 9.922931e+02
-3.962347e+09 -3.762305e+09 -3.922352e+09 1.159885e+04 6.778878e+03 2.525456e+03
-4.133390e+09 -3.933347e+09 -4.093392e+09 1.277262e+04 6.642815e+03 2.237910e+03
-4.923260e+09 -4.723260e+09 -4.883268e+09 -3.966907e+02 4.974849e-05 -1.481993e+00
-4.819122e+09 -4.619165e+09 -4.779167e+09 -2.964146e+03 -1.039340e+03 1.920595e+03
-4.819092e+09 -4.619147e+09 -4.779146e+09 -7.097245e+03 -9.632406e+02 2.757314e+03
-4.647779e+09 -4.447791e+09 -4.607793e+09 -1.368297e+02 -8.780174e+01 5.626334e+00
-4.991488e+09 -4.791545e+09 -4.951540e+09 -5.954511e+03 -3.408651e+01 2.659616e+03
-4.358329e+09 -4.158341e+09 -4.318343e+09 7.017371e+00 9.338869e-01 8.406029e+01
-3.961581e+09 -3.761622e+09 -3.921625e+09 4.338367e+02 -6.520453e+01 6.082722e+03
-4.232469e+09 -4.032482e+09 -4.192484e+09 -3.260868e+02 -9.504735e+01 4.817301e+02
-4.275650e+09 -4.075663e+09 -4.235664e+09 -2.253541e+01 9.252613e+01 1.496164e+02
-3.338557e+09 -3.138571e+09 -3.298573e+09 -1.180596e+03 -2.196571e+02 1.735922e+03
-4.819090e+09 -4.619123e+09 -4.779127e+09 -3.999173e+02 -1.096300e+03 1.590799e+03
-4.132804e+09 -3.932862e+09 -4.092857e+09 -1.989852e+03 4.131269e+02 8.172970e+03
-4.303597e+09 -4.103657e+09 -4.263648e+09 -3.280342e+03 -9.774758e+00 8.150127e+03
-4.819269e+09 -4.619327e+09 -4.779323e+09 -1.279290e+03 -5.667925e+02 2.249365e+03
-2.801612e+09 -2.601599e+09 -2.761613e+09 1.124324e+02 5.383767e+02 5.166725e+01
-3.325519e+09 -3.125557e+09 -3.285545e+09 2.907861e+04 -7.655915e+03 -9.137575e+03
-3.376005e+09 -3.176091e+09 -3.336079e+09 3.255011e+03 -4.100180e+03 -1.214943e+04
-2.861735e+09 -2.661812e+09 -2.821806e+09 -5.015900e+03 5.250333e+03 -8.009602e+03
-3.277290e+09 -3.077329e+09 -3.237334e+09 2.070704e+04 -5.280555e+03 -7.250440e+03
-2.951859e+09 -2.751930e+09 -2.911932e+09 -3.620494e+03 -9.166031e+02 -5.600535e+03
-1.595700e+09 -1.395716e+09 -1.555704e+09 -2.388823e+03 -3.503119e+02 -2.855932e+03
-3.281347e+09 -3.081410e+09 -3.241412e+09 -9.086809e+02 2.853510e+03 -5.877634e+03
-4.592988e+09 -4.393081e+09 -4.553078e+09 9.301970e+02 -9.047591e+02 -3.197221e+02
-2.748721e+09 -2.548764e+09 -2.708766e+09 -1.943015e+03 4.766372e+03 6.915932e+02
-2.227282e+09 -2.027325e+09 -2.187322e+09 -2.700135e+03 6.571166e+03 -2.577489e+03
-2.826837e+09 -2.626908e+09 -2.786901e+09 4.211032e+03 5.751125e+03 -1.139038e+04
-1.670703e+09 -1.470708e+09 -1.630712e+09 1.986489e+02 -1.021104e+04 -2.426056e+03
-2.268480e+09 -2.068515e+09 -2.228508e+09 -7.031256e+02 5.736538e+03 -7.632874e+03
-2.509970e+09 -2.310029e+09 -2.470030e+09 -1.000767e+04 2.678059e+03 -1.536413e+04
-3.161938e+09 -2.961991e+09 -3.121997e+09 1.141543e+04 -8.689963e+03 -1.139924e+04
-4.999476e+09 -4.799575e+09 -4.959573e+09 5.502434e+03 5.988098e+01 1.106715e+02
-3.962578e+09 -3.762458e+09 -3.922509e+09 -3.253954e+04 1.894545e+04 1.951788e+03
-4.137135e+09 -3.936992e+09 -4.096999e+09 -2.660902e+04 5.286919e+03 1.498689e+04
-4.820149e+09 -4.620048e+09 -4.780056e+09 -4.515901e+04 6.622778e+03 -1.357776e+04
-4.311402e+09 -4.111273e+09 -4.271229e+09 -4.731403e+04 2.091003e+04 -8.207921e+02
-4.138979e+09 -3.938859e+09 -4.098910e+09 -8.081250e+03 -4.462854e+03 1.027195e+04
-3.962733e+09 -3.762627e+09 -3.922702e+09 -1.072020e+04 4.109137e+03 1.707803e+03
-4.992277e+09 -4.792162e+09 -4.952191e+09 -2.135854e+04 -5.507399e+03 -1.202448e+03
-4.820158e+09 -4.620055e+09 -4.780105e+09 -2.496551e+04 5.764731e+02 -6.069306e+03
-3.962178e+09 -3.762091e+09 -3.922159e+09 -2.734891e+04 1.918444e+03 3.581741e+03
-4.133244e+09 -3.933156e+09 -4.093195e+09 -3.172216e+04 -1.647165e+03 -5.629356e+03
-3.856074e+09 -3.656067e+09 -3.816085e+09 -1.506866e+03 4.152983e+03 -1.276653e+02
-3.714534e+09 -3.514526e+09 -3.674545e+09 -2.141951e+03 3.624725e+03 -1.167578e+03
-4.648715e+09 -4.448711e+09 -4.608723e+09 4.344506e+03 7.791750e+02 4.304409e+02
-4.736514e+09 -4.536504e+09 -4.696521e+09 -8.468547e+02 5.199410e+02 -2.116392e+02
-4.649125e+09 -4.449126e+09 -4.609134e+09 2.790929e+03 4.339939e+02 3.387522e+02
-3.904696e+09 -3.704686e+09 -3.864699e+09 1.232843e+01 5.133452e+02 -5.140420e-01
-4.508379e+09 -4.308370e+09 -4.468384e+09 5.371730e+02 8.781854e+01 4.979062e+02
-4.821281e+09 -4.621277e+09 -4.781290e+09 4.166783e+03 6.754824e+02 -1.028948e+02
-4.819119e+09 -4.619118e+09 -4.778897e+09 -8.113060e+04 -3.716756e+04 2.231245e+04
-5.000615e+09 -4.800613e+09 -4.960622e+09 1.411942e+03 1.081243e+02 1.338918e+02
-4.735042e+09 -4.535030e+09 -4.695049e+09 -2.317100e+03 3.930246e+02 -6.304061e+02
-3.905120e+09 -3.705119e+09 -3.865128e+09 2.588757e+03 7.972325e+02 6.621550e+02
-4.821155e+09 -4.621154e+09 -4.781163e+09 2.225366e+03 4.853057e+01 3.873266e+02
-4.992319e+09 -4.792319e+09 -4.952327e+09 2.242134e+03 1.331887e+01 7.218933e+01
-3.519170e+09 -3.319159e+09 -3.479174e+09 -1.797418e+03 2.438407e+03 -1.249693e+03
-2.904130e+09 -2.704130e+09 -2.864135e+09 6.970093e+01 4.866616e+01 1.800707e+02
-3.217418e+09 -3.017418e+09 -3.177425e+09 1.909558e+03 9.031082e+02 8.939233e+02
-3.070381e+09 -2.870371e+09 -3.030384e+09 -4.994521e+02 1.920579e+03 -6.623087e+02
-4.996723e+09 -4.796730e+09 -4.956735e+09 -2.230065e+03 -1.789845e+01 4.267425e+01
-4.306300e+09 -4.106307e+09 -4.266311e+09 -2.399889e+03 -2.410761e+01 5.309807e+02
-3.767993e+09 -3.567995e+09 -3.728001e+09 -9.656101e+02 -2.999499e+02 4.035741e+02
-4.986052e+09 -4.786044e+09 -4.946062e+09 -1.327065e+03 3.627732e+02 -3.153029e+02
-4.303276e+09 -4.103268e+09 -4.263296e+09 -1.660427e+04 -5.867929e+03 3.729989e+03
-4.035147e+09 -3.835141e+09 -3.995159e+09 -6.225166e+03 -2.825301e+03 1.642251e+03
-4.752576e+09 -4.552580e+09 -4.712584e+09 -2.071317e+02 1.973193e+01 4.361952e+01
-3.491549e+09 -3.291552e+09 -3.451557e+09 -2.654757e+02 -1.250021e+02 2.988001e+02
-4.307036e+09 -4.107040e+09 -4.267045e+09 -6.774682e+02 -5.488669e+01 5.322641e+01
-4.965482e+09 -4.765485e+09 -4.925490e+09 -7.615914e+02 -1.541102e+01 -6.560645e+01
-4.282966e+09 -4.082960e+09 -4.242978e+09 -7.002938e+03 -2.246189e+03 1.947460e+03
-4.235966e+09 -4.035966e+09 -4.195974e+09 -1.797284e+03 -5.589223e+02 5.701713e+02
-4.304100e+09 -4.104094e+09 -4.264113e+09 -8.973212e+03 -2.123327e+03 1.632249e+03
-4.301111e+09 -4.101108e+09 -4.261131e+09 -1.304167e+04 -4.316100e+03 3.015561e+03
-3.573449e+09 -3.373453e+09 -3.533457e+09 -2.849881e+02 -1.496255e+02 1.839762e+02
-2.116416e+09 -1.916421e+09 -2.076424e+09 -1.505830e+02 1.125676e+01 6.276122e+00
-5.000766e+09 -4.800772e+09 -4.960775e+09 -4.321837e+02 -2.312699e+01 -1.135737e+01
-3.783852e+09 -3.583857e+09 -3.743861e+09 -6.365319e+01 -1.507156e+01 4.291657e+01
-3.886665e+09 -3.686657e+09 -3.846677e+09 -6.663614e+03 -2.961466e+03 2.534301e+03
-4.810083e+09 -4.610073e+09 -4.770095e+09 -6.814857e+03 -1.685522e+03 3.207262e+02
-4.600391e+09 -4.400372e+09 -4.560401e+09 3.651172e+03 -1.074551e+03 -3.734415e+02
-2.228610e+09 -2.028599e+09 -2.188612e+09 3.188647e+02 -1.593126e+03 -1.542143e+03
-4.995130e+09 -4.795135e+09 -4.955139e+09 -5.302336e+02 -4.442359e+01 -6.346508e+01
-2.834238e+09 -2.634243e+09 -2.794246e+09 -2.090090e+01 2.481729e+00 2.635666e+01
-4.317653e+09 -4.117656e+09 -4.277661e+09 -8.699409e+02 -8.051758e+01 1.085436e+02
-3.032313e+09 -2.832317e+09 -2.992321e+09 -4.632056e+01 1.625638e+01 -2.706723e+00
-4.082361e+09 -3.882353e+09 -4.042384e+09 1.295076e+04 -4.491290e+03 -3.530723e+03
-3.614009e+09 -3.413995e+09 -3.574015e+09 1.133192e+03 -8.491831e+02 -1.519935e+03
-4.788166e+09 -4.588154e+09 -4.748175e+09 1.901906e+03 -7.133380e+02 -2.022330e+02
-1.590009e+09 -1.390001e+09 -1.550010e+09 -5.687305e+02 -4.882446e+03 -3.140374e+03
-2.156633e+09 -1.956620e+09 -2.116635e+09 -2.226977e+01 -2.738666e+03 -1.636485e+03
-4.657063e+09 -4.457058e+09 -4.617086e+09 7.092142e+03 -2.142916e+03 -2.541032e+02
-3.917591e+09 -3.717577e+09 -3.877599e+09 1.036210e+03 -9.680262e+02 -1.601190e+03
-4.085681e+09 -3.885666e+09 -4.045689e+09 6.259685e+02 -1.014803e+03 -1.161138e+03
-2.047230e+09 -1.847217e+09 -2.007230e+09 4.479119e+02 2.743515e+03 6.072310e+02
-4.757224e+09 -4.557218e+09 -4.717242e+09 2.192363e+03 -1.527892e+03 -4.840387e+02
-4.973846e+09 -4.773835e+09 -4.933858e+09 3.393296e+03 -3.925504e+02 3.828213e+02
-3.187520e+09 -2.987507e+09 -3.147525e+09 1.054817e+03 -1.511869e+03 -1.965932e+03
-3.170842e+09 -2.970829e+09 -3.130851e+09 4.152672e+03 -5.480592e+03 -3.319351e+03
-4.820897e+09 -4.620901e+09 -4.780907e+09 3.169332e+03 2.217182e+02 3.102703e+02
-3.960699e+09 -3.760669e+09 -3.920704e+09 -3.332707e+03 8.155939e+03 -1.450858e+03
-4.137763e+09 -3.937767e+09 -4.097772e+09 1.444625e+03 2.816719e+02 1.182291e+02
-4.131825e+09 -3.931832e+09 -4.091837e+09 2.384767e+03 8.827854e+01 7.630124e+02
-4.990679e+09 -4.790681e+09 -4.950686e+09 8.390876e+02 1.976608e+01 -7.276590e+01
-4.132138e+09 -3.932106e+09 -4.092142e+09 -1.335398e+03 5.783215e+03 -1.572625e+03
-4.431139e+09 -4.231145e+09 -4.391148e+09 4.172830e+02 7.553920e+01 8.502760e+01
-4.990291e+09 -4.790294e+09 -4.950298e+09 6.114528e+02 3.926714e+00 -1.323916e+02
-4.639483e+09 -4.439436e+09 -4.599484e+09 -6.397919e+03 2.142147e+03 1.779644e+02
-4.817119e+09 -4.617080e+09 -4.777124e+09 -6.388549e+03 3.346165e+03 -7.060527e+02
-3.934409e+09 -3.734386e+09 -3.894413e+09 -2.237592e+03 3.702816e+03 -5.079660e+02
-2.574413e+09 -2.374417e+09 -2.534421e+09 9.575048e+02 1.355025e+02 1.403692e+02
-4.991464e+09 -4.791505e+09 -4.951509e+09 4.519793e+04 -3.142131e+03 -3.109555e+03
-4.645428e+09 -4.445484e+09 -4.605459e+09 4.631770e+04 1.922665e+03 2.833016e+03
-4.820109e+09 -4.620191e+09 -4.780179e+09 3.831985e+04 -3.879986e+03 -4.955876e+03
-4.132092e+09 -3.932206e+09 -4.092070e+09 5.045204e+04 2.709906e+04 2.250958e+04
-4.106218e+09 -3.906195e+09 -4.066223e+09 -1.698572e+03 3.254845e+03 -4.263853e+02
-4.819478e+09 -4.619453e+09 -4.779484e+09 -3.185290e+03 9.008641e+02 -4.912494e+01
-4.819892e+09 -4.619864e+09 -4.779898e+09 -4.734276e+03 1.983698e+03 -5.683071e+02
-4.820228e+09 -4.620245e+09 -4.780270e+09 2.355669e+04 -3.297065e+03 -2.757440e+03
-4.819517e+09 -4.619536e+09 -4.779553e+09 3.676196e+04 -2.959143e+03 -5.142861e+03
-4.821102e+09 -4.621174e+09 -4.781167e+09 2.611119e+04 -2.730905e+03 -5.988011e+03
-4.994558e+09 -4.794584e+09 -4.954610e+09 1.649743e+04 -2.935323e+03 1.046048e+03
-3.963382e+09 -3.763357e+09 -3.923388e+09 -5.048392e+03 4.961114e+03 -8.343753e+02
-4.991496e+09 -4.791560e+09 -4.951546e+09 3.910462e+04 -2.752480e+03 -3.976748e+03
-4.300699e+09 -4.100665e+09 -4.260703e+09 -5.319422e+03 6.356329e+03 -1.543990e+03
-1.879395e+09 -1.679384e+09 -1.839396e+09 2.964001e+03 7.388374e+03 5.497535e+02
-3.027021e+09 -2.827010e+09 -2.987025e+09 8.328929e+02 1.407140e+03 1.254193e+03
-2.698344e+09 -2.498373e+09 -2.658378e+09 3.417463e+03 -8.194431e+03 1.739547e+03
-1.756821e+09 -1.556833e+09 -1.716826e+09 3.515511e+03 -6.942698e+03 -4.648726e+03
-4.302345e+09 -4.102388e+09 -4.262389e+09 4.380781e+04 -4.215555e+03 -5.098437e+03
-4.098192e+09 -3.898282e+09 -4.058278e+09 -4.315163e+01 1.224329e+02 -5.380866e+03
-2.257421e+09 -2.057454e+09 -2.217439e+09 -1.640449e+04 1.018493e+04 -2.487159e+04
-4.821567e+09 -4.621579e+09 -4.781607e+09 -9.508968e+03 3.670742e+03 -1.066267e+03
-4.650450e+09 -4.450475e+09 -4.610498e+09 -1.423277e+04 2.102499e+03 -2.419501e+03
-4.475006e+09 -4.275039e+09 -4.435037e+09 -4.042939e+04 4.945675e+03 -2.213470e+03
-4.980773e+09 -4.780827e+09 -4.940842e+09 -1.379800e+04 2.289705e+03 -1.214697e+03
-4.267277e+09 -4.067277e+09 -4.227306e+09 -1.325534e+04 5.498140e+03 -4.032838e+03
-4.095244e+09 -3.895244e+09 -4.055272e+09 -1.505940e+04 4.561754e+03 -3.149427e+03
-4.077969e+09 -3.878039e+09 -4.038045e+09 -3.039588e+03 4.985928e+03 -4.158323e+03
-1.590903e+09 -1.390908e+09 -1.550903e+09 -8.406143e+02 1.007437e+04 -1.956206e+04
-2.091243e+09 -1.891249e+09 -2.051252e+09 9.780459e+02 1.707067e+02 3.105859e+02
-4.305583e+09 -4.105551e+09 -4.265592e+09 -1.322235e+04 -7.719481e+03 2.514647e+03
-4.649608e+09 -4.449608e+09 -4.609637e+09 -1.325432e+04 1.220574e+03 -1.170204e+03
-4.649255e+09 -4.449219e+09 -4.609265e+09 -9.079255e+03 -1.989733e+03 9.242093e+02
-4.983575e+09 -4.783553e+09 -4.943586e+09 -6.847739e+03 -1.070404e+03 5.880928e+02
-3.923230e+09 -3.723228e+09 -3.883258e+09 -1.542333e+04 5.150980e+03 -3.820098e+03
-3.883617e+09 -3.683621e+09 -3.843645e+09 -1.480502e+04 5.810102e+03 -3.315090e+03
-3.962078e+09 -3.762046e+09 -3.922086e+09 -2.851550e+04 -8.053092e+03 4.851777e+03
-2.993665e+09 -2.793665e+09 -2.953684e+09 -7.205423e+03 1.039095e+04 -6.023204e+03
-4.739919e+09 -4.539920e+09 -4.699925e+09 2.170328e+02 4.714846e+01 -2.744717e+00
-3.150661e+09 -2.950664e+09 -3.110668e+09 7.551465e+02 1.800478e+02 8.358487e+01
-4.647368e+09 -4.447356e+09 -4.607387e+09 -3.598006e+04 -1.161869e+03 1.370359e+03
-3.231762e+09 -3.031763e+09 -3.191769e+09 1.164484e+03 2.816001e+02 3.041226e+02
-2.190710e+09 -1.990710e+09 -2.150716e+09 5.390192e+02 2.004391e+02 1.373399e+02
-4.991671e+09 -4.791654e+09 -4.951680e+09 -4.662815e+04 -4.505889e+03 3.333568e+03
-4.088459e+09 -3.888460e+09 -4.048465e+09 1.373471e+02 -1.922008e+01 3.538574e+01
-3.366034e+09 -3.166036e+09 -3.326041e+09 3.727170e+02 1.267506e+01 1.243076e+01
-4.569750e+09 -4.369734e+09 -4.529755e+09 1.164930e+03 2.782552e+02 2.802496e+02
-4.995102e+09 -4.795086e+09 -4.955108e+09 7.969774e+02 5.223106e+01 -1.783740e+02
-4.294035e+09 -4.094046e+09 -4.254050e+09 -3.162343e+03 -4.098513e+02 9.599391e+02
-4.352601e+09 -4.152618e+09 -4.312625e+09 -6.481344e+03 -8.798891e+02 2.805042e+03
-3.960187e+09 -3.760194e+09 -3.920203e+09 -6.869435e+03 -1.431563e+03 2.185849e+03
-4.148940e+09 -3.948923e+09 -4.108944e+09 7.964311e+02 1.373629e+03 2.208436e+02
-3.027482e+09 -2.827466e+09 -2.987486e+09 5.423404e+02 6.376304e+03 1.148540e+02
-4.242318e+09 -4.042300e+09 -4.202323e+09 1.965977e+03 2.194361e+03 -5.400788e+01
-4.820421e+09 -4.620402e+09 -4.780426e+09 1.225483e+03 8.135823e+02 -3.259623e+02
-5.034928e+09 -4.834945e+09 -4.994951e+09 -5.424927e+03 -1.689358e+02 4.777505e+02
-4.677084e+09 -4.477100e+09 -4.637110e+09 -8.607702e+03 -7.947118e+02 1.367265e+03
-3.030500e+09 -2.830497e+09 -2.990506e+09 -4.726926e+02 -2.802290e+02 1.119248e+03
-4.518600e+09 -4.318616e+09 -4.478621e+09 -4.003472e+03 -6.914473e+02 1.209691e+03
-4.991818e+09 -4.791732e+09 -4.951766e+09 -3.562752e+04 -6.353908e+03 -1.280261e+03
-3.918623e+09 -3.718619e+09 -3.878631e+09 -2.567690e+03 -1.236370e+03 6.941176e+02
-3.724603e+09 -3.524600e+09 -3.684611e+09 -4.211668e+02 -3.607909e+02 1.074555e+03
-4.821152e+09 -4.621150e+09 -4.781163e+09 -4.243735e+03 1.813074e+01 9.557970e+02
-3.862002e+09 -3.662001e+09 -3.822013e+09 -4.792846e+03 -1.468236e+03 1.685310e+03
-2.934330e+09 -2.734317e+09 -2.894333e+09 3.392419e+02 1.056915e+03 5.747396e+02
-4.991003e+09 -4.790920e+09 -4.950995e+09 -1.201068e+04 -5.041158e+03 1.894274e+01
-3.962336e+09 -3.762415e+09 -3.921706e+09 -2.635650e+04 -1.544438e+04 2.339225e+05
-4.303898e+09 -4.103895e+09 -4.262636e+09 -2.048316e+02 -7.743020e+04 4.235299e+04
-3.962204e+09 -3.762375e+09 -3.921969e+09 2.906522e+04 1.418026e+04 1.622892e+05
-4.302915e+09 -4.103108e+09 -4.262599e+09 -8.368851e+03 -5.889664e+03 4.700148e+04
-3.784007e+09 -3.583995e+09 -3.744011e+09 4.310343e+02 3.903160e+02 7.347934e+02
-2.178892e+09 -1.978881e+09 -2.138893e+09 1.824040e+03 7.264213e+03 1.752509e+03
-4.991965e+09 -4.792038e+09 -4.951300e+09 -7.672387e+03 -1.933868e+03 2.028321e+04
-4.303229e+09 -4.103373e+09 -4.262966e+09 -5.431075e+04 -2.649002e+04 3.424538e+04
-4.302211e+09 -4.102158e+09 -4.261702e+09 -6.555012e+04 -6.182629e+04 4.026179e+04
-3.962127e+09 -3.762227e+09 -3.921949e+09 -7.114167e+04 -4.409811e+04 6.371453e+04
-4.647828e+09 -4.447914e+09 -4.607574e+09 -6.760733e+04 -1.127825e+04 5.923708e+04
-4.990661e+09 -4.790661e+09 -4.950032e+09 -5.928720e+04 -1.117455e+04 4.315075e+03
-3.633379e+09 -3.433366e+09 -3.593382e+09 9.919817e+02 4.526746e+01 6.973910e+02
-3.292621e+09 -3.092608e+09 -3.252627e+09 2.516172e+03 4.130298e+03 2.083103e+03
-4.992132e+09 -4.792130e+09 -4.951136e+09 -3.485683e+04 -1.535023e+04 2.190207e+04
-3.962318e+09 -3.762432e+09 -3.921436e+09 -3.202781e+04 -1.227084e+05 1.680560e+05
-4.131254e+09 -3.931151e+09 -4.090374e+09 -4.939417e+04 -1.062184e+05 6.431382e+04
-2.835094e+09 -2.635084e+09 -2.795098e+09 1.280106e+03 2.505377e+03 1.053266e+03
-4.473613e+09 -4.273625e+09 -4.433627e+09 -2.896483e+02 -4.319925e+01 1.533787e+02
-3.962623e+09 -3.762538e+09 -3.922510e+09 5.632468e+04 2.430477e+04 1.565486e+04
-3.962643e+09 -3.762571e+09 -3.922563e+09 5.158745e+04 -3.876480e+03 2.455996e+02
-4.991973e+09 -4.791984e+09 -4.952011e+09 3.596327e+04 -2.815118e+03 -2.660056e+03
-4.135339e+09 -3.935273e+09 -4.095182e+09 7.248561e+04 5.233217e+03 5.322396e+03
-3.652423e+09 -3.452434e+09 -3.612435e+09 -3.401039e+02 -1.195593e+02 3.029171e+02
-4.819283e+09 -4.619269e+09 -4.779134e+09 8.318861e+04 3.027925e+03 -9.097011e+03
-2.719245e+09 -2.519256e+09 -2.679258e+09 -1.492263e+02 -1.302558e+02 9.777247e+01
-2.988509e+09 -2.788521e+09 -2.948522e+09 -1.984559e+02 -1.920399e+02 2.425035e+02
-4.648181e+09 -4.448111e+09 -4.608105e+09 6.701299e+04 1.034861e+04 3.525905e+03
-4.476644e+09 -4.276565e+09 -4.436593e+09 5.102799e+04 8.452177e+03 -8.093300e+02
-2.702909e+09 -2.502921e+09 -2.662922e+09 -3.286747e+02 -9.612314e+01 5.526577e+02
-3.973105e+09 -3.773149e+09 -3.933140e+09 3.579783e+04 -5.420010e+02 4.986224e+03
-4.986637e+09 -4.786704e+09 -4.946679e+09 3.056039e+04 1.449811e+02 4.405907e+03
-5.002807e+09 -4.802844e+09 -4.962841e+09 3.915583e+04 3.082017e+03 4.295316e+03
-4.135687e+09 -3.935707e+09 -4.095719e+09 2.728480e+04 3.001478e+03 4.052786e+03
-3.957204e+09 -3.757255e+09 -3.917256e+09 2.950772e+04 3.684342e+03 3.549625e+03
-3.731645e+09 -3.531653e+09 -3.691655e+09 -6.007560e+02 -1.532114e+02 2.392903e+02
-3.973101e+09 -3.773130e+09 -3.933137e+09 3.331855e+04 1.723622e+03 3.065906e+03
-2.217077e+09 -2.017083e+09 -2.177086e+09 -6.813783e+02 -1.437375e+02 1.734470e+02
-2.139373e+09 -1.939379e+09 -2.099382e+09 -1.592355e+02 6.029020e+00 1.205833e+01
-3.162561e+09 -2.962568e+09 -3.122571e+09 -3.703388e+02 -1.741271e+02 8.856296e+01
-4.986901e+09 -4.786956e+09 -4.946954e+09 2.957673e+04 1.321297e+03 4.639848e+03
-2.560300e+09 -2.360307e+09 -2.520311e+09 -1.321876e+03 -2.710789e+02 4.477590e+02
-4.814704e+09 -4.614758e+09 -4.774756e+09 2.083195e+04 7.716753e+02 6.590075e+03
-4.648491e+09 -4.448550e+09 -4.608539e+09 1.906878e+04 9.910502e+02 4.824586e+03
-4.991861e+09 -4.791917e+09 -4.951918e+09 4.070389e+03 2.003427e+02 2.742460e+03
-3.519678e+09 -3.319684e+09 -3.479687e+09 -2.768499e+02 -1.522534e+02 1.749010e+02
-4.817231e+09 -4.617172e+09 -4.776800e+09 8.263281e+04 -9.173145e+03 5.565838e+03
-4.819587e+09 -4.619608e+09 -4.779350e+09 8.385377e+04 4.586251e+04 2.675782e+04
-3.958926e+09 -3.758809e+09 -3.918500e+09 6.977465e+04 1.132055e+05 7.531203e+04
-3.962297e+09 -3.762286e+09 -3.921586e+09 8.704787e+04 1.472493e+05 1.290728e+05
-4.820632e+09 -4.620615e+09 -4.780092e+09 6.779394e+04 7.503305e+04 4.289857e+04
-3.558287e+09 -3.358294e+09 -3.518297e+09 -3.704551e+02 -1.545771e+02 2.362392e+02
-3.118629e+09 -2.918636e+09 -3.078639e+09 -2.894463e+02 -1.061949e+02 6.659913e+01
-3.958927e+09 -3.758811e+09 -3.918559e+09 8.239562e+04 5.339954e+04 4.595553e+04
-4.148830e+09 -3.948649e+09 -4.108543e+09 1.456617e+04 4.911116e+04 -2.297930e+04
-3.580642e+09 -3.380655e+09 -3.540656e+09 -6.354354e+02 -4.634581e+02 8.194964e+02
-4.977523e+09 -4.777537e+09 -4.937540e+09 8.183254e+01 -3.195013e+00 -4.882570e+01
-4.294808e+09 -4.094661e+09 -4.254555e+09 2.352153e+04 -3.538871e+04 -3.444271e+03
-4.822900e+09 -4.622778e+09 -4.782831e+09 -3.084397e+03 4.508172e+03 2.211687e+03
-4.987982e+09 -4.787846e+09 -4.947882e+09 1.947493e+04 6.920328e+03 -4.478424e+03
-3.966039e+09 -3.765922e+09 -3.925935e+09 -1.409158e+04 -1.880958e+04 -1.792341e+03
-3.429876e+09 -3.229888e+09 -3.389890e+09 5.395592e+02 3.374644e+02 1.080943e+03
-3.551549e+09 -3.351561e+09 -3.511563e+09 2.743665e+01 1.066693e+01 2.993622e+02
-4.134595e+09 -3.934606e+09 -4.094608e+09 1.270746e+02 7.586104e+01 1.655788e+02
-4.798078e+09 -4.598091e+09 -4.758093e+09 8.499438e+01 -2.244257e+02 1.933322e+02
-4.640018e+09 -4.439861e+09 -4.599729e+09 4.919638e+04 -4.412721e+04 1.231200e+03
-4.992819e+09 -4.792833e+09 -4.952835e+09 2.992313e+02 -3.067565e+01 1.509087e+02
-3.796381e+09 -3.596394e+09 -3.756396e+09 4.285693e+02 7.909918e+01 8.281966e+02
-2.711580e+09 -2.511591e+09 -2.671593e+09 2.731849e+02 4.460460e+01 5.486495e+02
-4.732426e+09 -4.532440e+09 -4.692442e+09 -4.089259e+01 5.411564e+01 2.498169e+02
-5.001106e+09 -4.800940e+09 -4.960683e+09 2.839275e+04 -8.089202e+03 -7.813667e+03
-3.376240e+09 -3.176253e+09 -3.336256e+09 9.139016e+02 1.802937e+02 1.654494e+03
-4.819571e+09 -4.619626e+09 -4.779625e+09 6.369173e+03 -3.987609e+02 3.762239e+03
-5.004065e+09 -4.803928e+09 -4.963909e+09 -3.611862e+03 5.625764e+03 -6.419958e+02
-4.646040e+09 -4.446077e+09 -4.606082e+09 6.286997e+03 7.080270e+02 2.397440e+03
-3.951536e+09 -3.751421e+09 -3.911321e+09 5.446013e+04 -2.937699e+04 -2.021161e+04
-3.955993e+09 -3.755828e+09 -3.915527e+09 3.806139e+04 -1.131368e+05 -7.458324e+03
-4.115031e+09 -3.914922e+09 -4.074899e+09 5.511992e+04 -1.336736e+04 1.873045e+03
-4.281846e+09 -4.081748e+09 -4.241672e+09 5.745754e+04 -7.223531e+03 -1.376001e+04
-4.133225e+09 -3.933271e+09 -4.093271e+09 1.191707e+04 1.655396e+03 4.488265e+03
-3.951515e+09 -3.751398e+09 -3.911306e+09 4.198519e+04 -3.873328e+04 -7.422895e+03
-4.812089e+09 -4.612016e+09 -4.772039e+09 4.261877e+04 -2.523718e+03 -8.509788e+03
-4.303538e+09 -4.103520e+09 -4.263526e+09 5.604746e+04 5.066439e+03 5.954266e+03
-4.819920e+09 -4.619995e+09 -4.779980e+09 8.119075e+03 3.776477e+01 2.091181e+03
-4.133455e+09 -3.933527e+09 -4.093512e+09 9.364565e+03 3.069660e+03 8.072042e+03
-4.988285e+09 -4.788242e+09 -4.947559e+09 4.474740e+04 -2.102946e+04 -6.130596e+03
-4.991368e+09 -4.791410e+09 -4.950744e+09 6.728999e+04 -2.186498e+04 -1.916053e+04
-4.816718e+09 -4.616845e+09 -4.776100e+09 2.163038e+04 -6.923594e+04 -6.870155e+04
-3.961924e+09 -3.761991e+09 -3.921989e+09 1.068045e+04 1.768212e+03 6.297640e+03
-4.292786e+09 -4.092727e+09 -4.252450e+09 8.428176e+04 -5.227718e+04 -2.666832e+04
-4.819691e+09 -4.619737e+09 -4.779738e+09 1.236356e+04 3.064988e+02 4.943674e+03
-4.991718e+09 -4.791782e+09 -4.951776e+09 1.762777e+04 2.704499e+03 3.643091e+03
-3.961705e+09 -3.761729e+09 -3.921054e+09 7.538799e+04 -8.415310e+04 -1.251638e+05
-4.304221e+09 -4.104157e+09 -4.263661e+09 8.205199e+04 -7.287175e+04 -4.554985e+04
-3.348828e+09 -3.148824e+09 -3.308844e+09 2.763803e+03 -6.046448e+03 -2.284599e+03
-1.889631e+09 -1.689624e+09 -1.849634e+09 -9.845528e+02 -5.770192e+03 -8.094715e+02
-3.802891e+09 -3.602972e+09 -3.762969e+09 1.297556e+03 -1.973901e+03 1.065997e+03
-4.999483e+09 -4.799578e+09 -4.959575e+09 2.821415e+03 -5.986942e+02 -5.153748e+02
-4.160587e+09 -3.960670e+09 -4.120669e+09 3.829747e+03 -2.581104e+03 -3.432024e+03
-2.345265e+09 -2.145261e+09 -2.305270e+09 1.519736e+03 1.707601e+03 1.200769e+03
-4.639361e+09 -4.439464e+09 -4.599451e+09 -1.212222e+04 -1.097044e+03 1.333032e+03
-4.071488e+09 -3.871478e+09 -4.031498e+09 2.865237e+02 -2.169903e+03 -1.245311e+02
-4.016752e+09 -3.816744e+09 -3.976767e+09 3.956828e+03 -2.792240e+03 -1.717691e+03
-2.977419e+09 -2.777411e+09 -2.937427e+09 1.220150e+02 -4.267990e+03 -8.274869e+02
-3.981491e+09 -3.781490e+09 -3.941513e+09 7.130121e+02 -4.585459e+03 -6.369643e+02
-3.318324e+09 -3.118317e+09 -3.278337e+09 1.291955e+03 -5.598001e+03 -1.277001e+03
-2.802145e+09 -2.602202e+09 -2.762197e+09 9.801276e+03 1.029676e+03 -1.793059e+03
-4.590727e+09 -4.390814e+09 -4.550815e+09 -3.692009e+03 1.783706e+03 -1.424485e+03
-4.425224e+09 -4.225313e+09 -4.385311e+09 -3.058506e+03 9.222663e+02 -1.076596e+03
-4.752402e+09 -4.552493e+09 -4.712494e+09 2.244485e+03 -5.657776e+02 8.873586e+02
-3.996669e+09 -3.796743e+09 -3.956735e+09 1.644224e+04 -6.657738e+03 -5.013160e+03
-3.245228e+09 -3.045205e+09 -3.205235e+09 -3.484099e+03 -7.491633e+03 2.627263e+03
-3.405207e+09 -3.205186e+09 -3.365215e+09 -2.162822e+03 -8.528512e+03 2.520112e+03
-2.646737e+09 -2.446724e+09 -2.606741e+09 -1.037674e+02 -8.287134e+02 1.515703e+03
-3.798842e+09 -3.598922e+09 -3.758919e+09 1.962084e+01 2.403752e+02 2.046206e+03
-4.922902e+09 -4.722998e+09 -4.882999e+09 7.160983e+02 -4.176178e+02 -5.340278e-06
-1.681313e+09 -1.481306e+09 -1.641315e+09 -1.500144e+02 -2.386200e+03 2.019903e+03
-4.818618e+09 -4.618595e+09 -4.778627e+09 -2.716722e+03 -5.636137e+02 8.642296e+02
-4.638219e+09 -4.438197e+09 -4.598229e+09 -3.919601e+03 -1.432743e+03 7.857740e+02
-4.992045e+09 -4.792000e+09 -4.952050e+09 -7.947205e+03 -3.369809e+03 2.418342e+02
-4.393327e+09 -4.193406e+09 -4.353407e+09 -4.540028e+03 7.544734e+02 -1.965935e+03
-4.472860e+09 -4.272825e+09 -4.432867e+09 -4.027418e+03 -4.645735e+03 9.518458e+02
-3.838504e+09 -3.638479e+09 -3.798513e+09 -6.069241e+03 -4.961732e+03 2.220529e+03
-3.169879e+09 -2.969852e+09 -3.129884e+09 -9.994312e+02 -1.161108e+04 2.928704e+03
-4.521692e+09 -4.321669e+09 -4.481701e+09 -7.049828e+02 -1.277768e+02 4.702353e+02
-4.819635e+09 -4.619588e+09 -4.779640e+09 -1.296657e+03 -2.097634e+03 8.837317e+02
-4.647346e+09 -4.447337e+09 -4.607367e+09 -1.220284e+04 2.111668e+03 -9.295441e+02
-4.925337e+09 -4.725361e+09 -4.885385e+09 -3.068065e+03 1.080516e+03 4.027790e-05
-4.304113e+09 -4.104104e+09 -4.264133e+09 -1.216940e+04 5.129085e+03 -2.019971e+03
-4.065171e+09 -3.865172e+09 -4.025198e+09 -1.055779e+04 5.975069e+03 -2.195752e+03
-4.752312e+09 -4.552348e+09 -4.712369e+09 -6.645408e+03 1.876609e+03 -2.027476e+03
-4.992706e+09 -4.792738e+09 -4.952760e+09 -6.797104e+03 2.388762e+02 -1.298386e+03
-4.819988e+09 -4.619985e+09 -4.780016e+09 -2.488952e+04 3.230200e+03 -2.335404e+03
-3.908618e+09 -3.708643e+09 -3.868663e+09 -6.147822e+03 6.636014e+03 -3.040102e+03
-4.619775e+09 -4.419765e+09 -4.579779e+09 4.084424e+01 -9.947599e-05 -2.163560e+02
-3.908064e+09 -3.708054e+09 -3.868067e+09 -8.196428e+01 9.574488e+01 -1.346859e+02
-2.775566e+09 -2.575557e+09 -2.735568e+09 -3.853728e+02 8.065551e+02 -6.981784e+02
-2.099540e+09 -1.899534e+09 -2.059543e+09 2.637926e+02 2.194702e+02 6.517778e+02
-4.821539e+09 -4.621543e+09 -4.781571e+09 -1.262361e+04 2.994330e+02 -4.854275e+02
-4.458315e+09 -4.258286e+09 -4.418325e+09 -1.334591e+04 4.520403e+03 -2.440461e+03
-1.632087e+09 -1.432080e+09 -1.592089e+09 2.463446e+02 5.346154e+02 9.104138e+02
-4.469340e+09 -4.269316e+09 -4.429351e+09 -1.061778e+04 3.341593e+03 -1.520385e+03
-3.969479e+09 -3.769459e+09 -3.929492e+09 -9.832106e+03 5.583351e+03 -3.573731e+03
-4.464032e+09 -4.264014e+09 -4.424044e+09 -8.765275e+03 3.278529e+03 -1.232307e+03
-3.964176e+09 -3.764155e+09 -3.924183e+09 -5.823368e+03 4.510600e+03 -1.123253e+03
-4.634137e+09 -4.434114e+09 -4.594147e+09 -9.439264e+03 2.528717e+03 -2.275202e+03
-4.804096e+09 -4.604065e+09 -4.764104e+09 -9.057739e+03 3.352401e+03 -1.158183e+03
-4.979617e+09 -4.779602e+09 -4.939623e+09 1.892650e+03 3.255187e+02 1.735511e+02
-4.144835e+09 -3.944829e+09 -4.104842e+09 1.507681e+03 7.043761e+02 2.108413e+02
-4.653731e+09 -4.453606e+09 -4.613645e+09 -1.283069e+04 1.493611e+03 2.535737e+02
-1.582106e+09 -1.382110e+09 -1.542114e+09 8.142234e+02 2.276842e+02 2.118794e+02
-4.745248e+09 -4.545230e+09 -4.705253e+09 5.543387e+02 2.882125e+02 -2.249013e+02
-2.764794e+09 -2.564784e+09 -2.724797e+09 4.512503e+02 5.702219e+02 8.815944e+02
-1.587963e+09 -1.387955e+09 -1.547965e+09 3.325623e+02 3.585866e+03 1.503054e+03
-4.827967e+09 -4.627877e+09 -4.787949e+09 8.278546e+03 -4.061290e+03 1.522161e+03
-4.312070e+09 -4.111983e+09 -4.272056e+09 5.165347e+03 -1.179736e+04 -9.262020e+02
-4.133307e+09 -3.933218e+09 -4.093279e+09 -2.317904e+03 -1.130342e+04 -3.153358e+03
-3.589800e+09 -3.389786e+09 -3.549804e+09 2.483967e+02 2.949438e+02 7.016456e+02
-3.253289e+09 -3.053276e+09 -3.213292e+09 7.530131e+02 1.190061e+03 7.037212e+02
-2.184234e+09 -1.984233e+09 -2.144239e+09 2.347303e+02 8.061113e+01 1.649173e+02
-3.961634e+09 -3.761552e+09 -3.921627e+09 -1.588988e+03 -6.381254e+03 -1.189079e+02
-4.132661e+09 -3.932512e+09 -4.092510e+09 2.311019e+04 7.963073e+03 -1.604009e+04
-2.764309e+09 -2.564308e+09 -2.724315e+09 1.033091e+03 3.953741e+02 4.615538e+02
-2.901557e+09 -2.701556e+09 -2.861563e+09 1.201814e+02 9.621814e+01 3.194508e+02
-4.992358e+09 -4.792243e+09 -4.952269e+09 1.945326e+04 -8.378354e+03 1.191688e+03
-4.141498e+09 -3.941410e+09 -4.101473e+09 8.873864e+03 -1.094219e+04 -3.255230e+03
-3.961620e+09 -3.761696e+09 -3.921636e+09 5.944711e+04 -6.555923e+02 1.735806e+04
-3.961813e+09 -3.761865e+09 -3.921850e+09 4.012954e+04 -3.524200e+03 3.705485e+03
-4.817746e+09 -4.617773e+09 -4.777671e+09 7.782515e+04 2.255528e+04 1.792601e+04
-4.990935e+09 -4.790985e+09 -4.950795e+09 7.924735e+04 2.246244e+03 -6.767274e+03
-4.820498e+09 -4.620624e+09 -4.780549e+09 2.645238e+04 -1.048923e+04 -4.978496e+03
-4.132831e+09 -3.932970e+09 -4.092808e+09 3.851785e+04 -1.671396e+04 1.625409e+04
-2.159246e+09 -1.959243e+09 -2.119250e+09 2.274237e+02 1.220609e+02 2.946024e+02
-4.921717e+09 -4.721699e+09 -4.881721e+09 -2.187530e+02 -2.463270e-05 -6.048945e+01
-3.771893e+09 -3.571896e+09 -3.731901e+09 3.288429e+02 4.299438e+01 8.310791e+01
-2.117925e+09 -1.917913e+09 -2.077925e+09 3.345920e+02 2.791226e+03 1.728746e+02
-4.818840e+09 -4.618980e+09 -4.778688e+09 5.641496e+04 -2.713979e+04 6.186400e+03
-4.991409e+09 -4.791536e+09 -4.951190e+09 6.091708e+04 4.814274e+03 -4.966051e+03
-4.645153e+09 -4.445246e+09 -4.605001e+09 7.421809e+04 1.895331e+04 2.288653e+04
-4.131641e+09 -3.931758e+09 -4.091514e+09 6.869175e+04 -1.487760e+04 3.145078e+04
-1.621634e+09 -1.421624e+09 -1.581634e+09 5.539464e+01 7.514920e+02 -1.647387e+02
-4.821506e+09 -4.621538e+09 -4.781548e+09 2.249496e+04 2.043758e+03 3.540752e+03
-3.971451e+09 -3.771471e+09 -3.931485e+09 1.976162e+04 4.398411e+03 3.874857e+03
-5.001149e+09 -4.801170e+09 -4.961184e+09 1.641213e+04 1.107527e+02 2.480131e+03
-4.827606e+09 -4.627629e+09 -4.787641e+09 1.618927e+04 6.510062e+02 3.363822e+03
-4.743343e+09 -4.543324e+09 -4.703348e+09 5.405598e-01 1.737098e+02 2.412010e+02
-2.782204e+09 -2.582191e+09 -2.742207e+09 3.796974e+02 2.848066e+03 -6.814483e+02
-2.874973e+09 -2.674960e+09 -2.834974e+09 1.961815e+01 5.098989e+02 -6.074981e+02
-1.912869e+09 -1.712871e+09 -1.872876e+09 3.620125e+02 7.846527e+01 -6.225440e+00
-2.422752e+09 -2.222739e+09 -2.382754e+09 4.326507e+02 4.222414e+03 6.841611e+02
-1.622345e+09 -1.422336e+09 -1.582346e+09 1.030718e+02 8.126459e+02 4.859078e+02
-4.125202e+09 -3.925241e+09 -4.085246e+09 2.393298e+04 3.964466e+03 9.422922e+03
-4.128690e+09 -3.928718e+09 -4.088729e+09 1.720328e+04 2.534737e+03 7.526478e+03
-3.256585e+09 -3.056567e+09 -3.216589e+09 -3.232023e+02 6.764932e+03 -2.304821e+03
-1.656392e+09 -1.456382e+09 -1.616393e+09 1.136470e+02 1.746138e+03 -4.607818e+02
-4.141704e+09 -3.941716e+09 -4.101731e+09 1.575362e+04 1.732028e+03 4.592315e+03
-3.523596e+09 -3.323581e+09 -3.483600e+09 2.479957e+02 4.720024e+02 3.291592e+02
-4.511242e+09 -4.311225e+09 -4.471246e+09 -3.038311e+02 1.670982e+02 -3.466235e+02
-1.599043e+09 -1.399044e+09 -1.559050e+09 7.509126e+02 2.679824e+02 2.989850e+02
-4.143228e+09 -3.943247e+09 -4.103259e+09 1.408912e+04 2.929342e+03 4.407856e+03
-3.204415e+09 -3.004398e+09 -3.164419e+09 1.134759e+03 4.842771e+03 7.581666e+02
-1.691367e+09 -1.491366e+09 -1.651372e+09 1.511306e+03 1.022131e+03 1.077165e+03
-2.669388e+09 -2.469387e+09 -2.629393e+09 1.682139e+02 1.166046e+02 4.321215e+02
-4.503947e+09 -4.303933e+09 -4.463952e+09 6.123919e+02 1.374482e+02 4.061767e+02
-3.566032e+09 -3.366030e+09 -3.526038e+09 3.176252e+02 8.545954e+01 4.423387e+02
-1.885398e+09 -1.685387e+09 -1.845399e+09 2.900566e+03 7.773333e+03 -2.053758e+02
-1.898070e+09 -1.698059e+09 -1.858070e+09 9.492701e+02 1.189500e+03 8.191609e+00
-4.986511e+09 -4.786513e+09 -4.946519e+09 1.170027e+03 -1.692624e+01 -1.093122e+01
-2.649011e+09 -2.449014e+09 -2.609018e+09 5.010755e+01 2.476788e+01 5.917826e+00
-2.850269e+09 -2.650255e+09 -2.810272e+09 9.434555e+02 3.294093e+03 8.682978e+02
-3.171844e+09 -2.971829e+09 -3.131846e+09 4.942786e+02 1.406092e+03 2.994486e+02
-1.919353e+09 -1.719355e+09 -1.879360e+09 9.700232e+01 5.185046e+01 -1.618609e+01
-2.805516e+09 -2.605516e+09 -2.765522e+09 7.125127e+02 2.808083e+02 3.042785e+02
-2.040815e+09 -1.840817e+09 -2.000822e+09 6.781837e+02 1.013072e+02 6.193029e+01
-2.760084e+09 -2.560073e+09 -2.720087e+09 1.189714e+03 2.249175e+03 1.128226e+03
-4.923701e+09 -4.723704e+09 -4.883708e+09 5.393079e+02 -2.975526e+00 1.157075e+01
-4.246574e+09 -4.046578e+09 -4.206582e+09 6.707883e+02 7.248564e+01 7.198758e+01
-4.007904e+09 -3.807914e+09 -3.967917e+09 7.767949e+02 -2.234803e+01 4.517543e+02
-2.170542e+09 -1.970550e+09 -2.130552e+09 5.662334e+02 1.149062e+02 3.927674e+02
-1.578362e+09 -1.378353e+09 -1.538362e+09 2.307566e+02 4.995702e+03 3.911649e+02
-3.204884e+09 -3.004893e+09 -3.164895e+09 1.813254e+02 1.823198e+02 2.968583e+02
-2.931697e+09 -2.731707e+09 -2.891709e+09 6.951516e+02 2.573553e+02 7.045570e+02
-1.585258e+09 -1.385250e+09 -1.545259e+09 -3.886897e+02 -6.378408e+03 -3.119019e+03
-3.502625e+09 -3.302608e+09 -3.462631e+09 5.846024e+02 -5.479601e+02 -1.832016e+03
-2.651414e+09 -2.451399e+09 -2.611417e+09 1.088427e+01 -8.952572e+02 -1.573606e+03
-3.898882e+09 -3.698860e+09 -3.858890e+09 9.649541e+02 -1.802323e+03 -1.472367e+03
-2.865100e+09 -2.665108e+09 -2.825110e+09 3.040984e+02 1.894047e+02 2.224894e+02
-3.255850e+09 -3.055860e+09 -3.215862e+09 9.542502e+02 3.961073e+02 7.753584e+02
-2.216354e+09 -2.016363e+09 -2.176365e+09 1.750258e+02 3.810060e+01 9.437115e+01
-4.134976e+09 -3.934938e+09 -4.094984e+09 5.666221e+03 -7.685792e+03 -2.344955e+03
-1.947632e+09 -1.747623e+09 -1.907634e+09 4.372653e+01 -4.067727e+03 -3.053690e+03
-1.972644e+09 -1.772653e+09 -1.932655e+09 2.234095e+02 5.774665e+01 1.890531e+02
-3.808178e+09 -3.608178e+09 -3.768202e+09 -5.566340e+03 5.256517e+03 -2.374014e+03
-3.939692e+09 -3.739704e+09 -3.899727e+09 -4.931990e+03 6.913769e+03 -2.043733e+03
-4.031279e+09 -3.831283e+09 -3.991308e+09 -8.677370e+03 3.770564e+03 -2.017273e+03
-3.234818e+09 -3.034817e+09 -3.194836e+09 -6.629832e+03 9.025944e+03 -4.269479e+03
-1.629152e+09 -1.429143e+09 -1.589153e+09 -8.227644e+01 -1.023538e+03 -1.949669e+03
-3.893146e+09 -3.693142e+09 -3.853168e+09 -1.066749e+04 5.814380e+03 -3.443875e+03
-2.061872e+09 -1.861875e+09 -2.021879e+09 1.797517e+02 4.235307e+01 8.945746e+00
-2.170303e+09 -1.970305e+09 -2.130309e+09 1.471809e+02 -1.436746e+00 -3.762709e+01
-4.051103e+09 -3.851102e+09 -4.011125e+09 -6.127130e+03 4.187903e+03 -1.953030e+03
-3.946922e+09 -3.746923e+09 -3.906928e+09 7.208912e+02 1.162900e+02 1.409163e+02
-1.914376e+09 -1.714377e+09 -1.874382e+09 1.675838e+02 1.214325e+01 1.908528e+01
-1.568328e+09 -1.368331e+09 -1.528336e+09 4.304056e+02 8.787268e+01 1.576717e+02
-4.591301e+09 -4.391304e+09 -4.551308e+09 1.658334e+02 -6.646166e+00 2.632483e+01
-1.934426e+09 -1.734415e+09 -1.894427e+09 1.733468e+03 -1.870527e+03 -1.244511e+03
-4.660931e+09 -4.460930e+09 -4.620955e+09 -6.378552e+03 2.643472e+03 3.022914e+02
-4.101639e+09 -3.901631e+09 -4.061660e+09 -1.134151e+04 4.270869e+03 -3.048806e+03
-1.693693e+09 -1.493684e+09 -1.653695e+09 -2.939784e+02 -2.663302e+03 -1.810477e+03
-4.257540e+09 -4.057530e+09 -4.217549e+09 -3.149957e+03 2.032326e+03 -3.301281e+02
-1.779618e+09 -1.579612e+09 -1.739621e+09 -1.321023e+03 -5.467600e+03 3.262916e+03
-4.992643e+09 -4.792617e+09 -4.952654e+09 -7.598360e+03 -1.504812e+03 3.724051e+02
-4.291601e+09 -4.091591e+09 -4.251610e+09 6.182711e+03 2.108367e+03 1.164079e+03
-1.627755e+09 -1.427745e+09 -1.587755e+09 3.546909e+00 7.194642e+02 -8.784321e+02
-4.132335e+09 -3.932324e+09 -4.092347e+09 1.047776e+04 4.371239e+03 2.348721e+03
-2.652291e+09 -2.452279e+09 -2.612294e+09 3.225455e+02 2.912928e+03 2.830599e+01
-3.751583e+09 -3.551585e+09 -3.711591e+09 -3.237735e+02 -1.656200e+02 2.660754e+02
-4.646476e+09 -4.446467e+09 -4.606491e+09 1.053835e+04 1.337405e+03 9.971207e+02
-3.962701e+09 -3.762690e+09 -3.922709e+09 6.123502e+03 2.834625e+03 1.782947e+03
-1.884222e+09 -1.684211e+09 -1.844222e+09 -1.066934e+03 6.836281e+03 2.037891e+03
-3.484234e+09 -3.284239e+09 -3.444243e+09 -4.901082e+01 -6.717839e+01 2.644469e+00
-2.015543e+09 -1.815548e+09 -1.975551e+09 -6.492263e+02 -1.483864e+02 1.627816e+02
-1.879904e+09 -1.679908e+09 -1.839912e+09 -9.483482e+02 -2.366828e+02 3.867368e+02
-4.644582e+09 -4.444568e+09 -4.604591e+09 6.627689e+03 1.437209e+03 1.117414e+03
-1.720583e+09 -1.520587e+09 -1.680591e+09 -4.737851e+02 -1.114575e+02 1.535530e+02
-4.303244e+09 -4.103234e+09 -4.263257e+09 1.053681e+04 3.902733e+03 2.075445e+03
-3.535112e+09 -3.335112e+09 -3.495119e+09 -3.977516e+02 -9.065261e+01 6.116538e+02
-3.962724e+09 -3.762720e+09 -3.922733e+09 4.768111e+03 1.913589e+03 1.369056e+03
-4.646584e+09 -4.446570e+09 -4.606595e+09 9.635511e+03 1.414158e+03 1.334723e+03
-1.621540e+09 -1.421530e+09 -1.581540e+09 8.446815e+01 8.257254e+02 1.350308e+02
-3.269987e+09 -3.070015e+09 -3.230027e+09 -1.254235e+04 9.938538e+03 -1.034451e+04
-2.189046e+09 -1.989048e+09 -2.149060e+09 -1.077521e+04 1.267334e+04 -1.548489e+04
-1.921931e+09 -1.721940e+09 -1.881943e+09 5.007618e+03 1.009664e+04 -3.024611e+03
-1.828858e+09 -1.628863e+09 -1.788866e+09 -2.701846e+02 -8.453258e+01 1.528591e+00
-2.188601e+09 -1.988598e+09 -2.148609e+09 -7.818166e+03 1.271019e+04 -1.243631e+04
-2.246499e+09 -2.046498e+09 -2.206511e+09 -7.058748e+03 1.320786e+04 -7.117199e+03
-2.649078e+09 -2.449090e+09 -2.609091e+09 1.416438e+02 1.873428e+00 6.875481e+02
-4.440563e+09 -4.240574e+09 -4.400576e+09 3.546840e+02 1.179086e+02 2.282419e+01
-3.700019e+09 -3.500030e+09 -3.660032e+09 1.076790e+03 1.857571e+02 5.276375e+02
-4.976149e+09 -4.776161e+09 -4.936164e+09 1.553740e+03 8.842784e+01 2.379704e+02
-1.968459e+09 -1.768454e+09 -1.928463e+09 -1.668812e+03 -2.889666e+03 2.848843e+03
-4.994597e+09 -4.794579e+09 -4.954602e+09 5.587145e+02 1.539728e+02 -1.290455e+02
-1.573527e+09 -1.373526e+09 -1.533532e+09 -9.906729e+02 -1.375223e+03 1.294184e+03
-3.627461e+09 -3.427456e+09 -3.587471e+09 -3.303157e+03 -1.881982e+03 1.921831e+03
-2.454757e+09 -2.254757e+09 -2.414764e+09 -1.219536e+03 -7.344612e+02 1.529302e+03
-3.307417e+09 -3.107430e+09 -3.267431e+09 6.738802e+02 5.360626e+02 1.558081e+03
-4.819336e+09 -4.619350e+09 -4.779354e+09 1.828550e+03 -3.499873e+02 7.255205e+02
-4.388464e+09 -4.188476e+09 -4.348479e+09 1.604840e+03 -4.827319e+00 6.947550e+02
-2.202158e+09 -2.002160e+09 -2.162165e+09 9.792182e+02 2.395518e+02 1.917730e+02
-2.280671e+09 -2.080735e+09 -2.240696e+09 -6.671912e+03 -4.005277e+03 -1.886440e+04
-2.565408e+09 -2.365413e+09 -2.525417e+09 -1.205471e+03 -1.548035e+02 2.511959e+02
-2.750098e+09 -2.550101e+09 -2.710106e+09 -4.735973e+02 -1.134255e+02 1.926898e+02
-1.637822e+09 -1.437826e+09 -1.597824e+09 -4.571502e+02 1.124431e+04 -2.935570e+03
-2.212081e+09 -2.012085e+09 -2.172089e+09 -7.643421e+02 -1.431389e+02 2.341846e+02
-3.073719e+09 -2.873802e+09 -3.033758e+09 -1.201047e+04 6.564422e+02 -1.052871e+04
-3.921079e+09 -3.721084e+09 -3.881088e+09 -1.283106e+03 -1.159577e+02 3.228740e+02
-1.898965e+09 -1.698999e+09 -1.859004e+09 -3.372003e+03 6.570470e+03 -3.859446e+03
-4.745851e+09 -4.545856e+09 -4.705860e+09 2.796618e+02 1.700049e+01 -5.987550e+01
-4.971397e+09 -4.771463e+09 -4.931464e+09 -1.746076e+04 4.397393e+02 -3.303410e+03
-2.578954e+09 -2.378932e+09 -2.538955e+09 -1.219793e+03 -9.150901e+03 4.479449e+02
-4.157443e+09 -3.957447e+09 -4.117451e+09 -2.437377e+02 -1.948322e+01 3.652671e+01
-2.663936e+09 -2.463939e+09 -2.623944e+09 -6.208343e+02 -2.165692e+02 3.352997e+02
-2.956846e+09 -2.756827e+09 -2.916854e+09 3.401732e+03 -9.993536e+03 -4.428885e+03
-4.028725e+09 -3.828700e+09 -3.988732e+09 1.874917e+03 -2.707040e+03 -5.742844e+02
-1.837018e+09 -1.637021e+09 -1.797025e+09 -4.536169e+02 -2.148093e+02 2.367787e+02
-4.655306e+09 -4.455219e+09 -4.615299e+09 5.121747e+03 -3.264518e+03 6.274295e+02
-4.695834e+09 -4.495851e+09 -4.655858e+09 -6.325176e+03 -2.109685e+02 1.321948e+03
-4.326984e+09 -4.127009e+09 -4.287017e+09 -1.091321e+04 -1.449727e+03 3.974167e+03
-4.329226e+09 -4.129241e+09 -4.289251e+09 -9.921774e+03 -1.587560e+03 3.283503e+03
-4.325108e+09 -4.125131e+09 -4.285138e+09 -8.631777e+03 -1.027623e+03 3.808448e+03
-4.996569e+09 -4.796587e+09 -4.956595e+09 -7.906233e+03 -4.102304e+02 6.964746e+02
-4.880931e+09 -4.680943e+09 -4.840945e+09 -2.380971e+02 -4.370552e+00 2.788250e+01
-1.579531e+09 -1.379543e+09 -1.539544e+09 -6.133392e+01 6.291564e+00 8.360619e+02
-4.144760e+09 -3.944773e+09 -4.104782e+09 -7.842396e+03 -1.032090e+03 2.028811e+03
-3.140287e+09 -2.940300e+09 -3.100300e+09 3.364051e+01 2.597602e+01 1.131444e+02
-4.520561e+09 -4.320550e+09 -4.480570e+09 -9.177028e+02 -1.568839e+02 9.633015e+02
-1.683678e+09 -1.483685e+09 -1.643688e+09 -1.135841e+03 -4.760043e+02 5.934309e+02
-4.915736e+09 -4.715740e+09 -4.875744e+09 -3.757168e+01 8.256706e+00 4.973245e-05
-4.742536e+09 -4.542541e+09 -4.702544e+09 -1.970202e+02 5.536236e+00 8.888127e+01
-2.074921e+09 -1.874909e+09 -2.034922e+09 1.457992e+03 5.527493e+03 1.362816e+03
-5.000766e+09 -4.800771e+09 -4.960775e+09 -2.487171e+02 7.371638e+01 2.020897e+01
-4.075739e+09 -3.875745e+09 -4.035748e+09 -1.092134e+02 -4.035046e+01 3.810641e+01
-4.851612e+09 -4.651604e+09 -4.811621e+09 -1.429145e+03 -2.516526e+02 3.199375e+02
-3.877641e+09 -3.677632e+09 -3.837651e+09 -1.527579e+03 -5.966420e+02 2.105147e+03
-3.483673e+09 -3.283679e+09 -3.443682e+09 -6.971347e+01 -1.516994e+02 2.906509e+01
-2.790766e+09 -2.590760e+09 -2.750772e+09 -1.446283e+03 -8.763506e+02 1.824389e+03
-3.373780e+09 -3.173773e+09 -3.333787e+09 -9.610750e+02 -6.637221e+02 1.802377e+03
-1.775448e+09 -1.575442e+09 -1.735450e+09 1.157131e+03 2.516164e+03 1.476375e+03
-2.518367e+09 -2.318358e+09 -2.478371e+09 1.546144e+03 2.771555e+03 1.739054e+03
-4.752940e+09 -4.552945e+09 -4.712949e+09 -2.267382e+02 2.115742e+01 8.307364e+01
-1.890566e+09 -1.690557e+09 -1.850568e+09 1.177963e+02 5.142331e+03 2.716799e+03
-2.082450e+09 -1.882440e+09 -2.042452e+09 1.998853e+03 3.949419e+03 1.906691e+03
-4.990778e+09 -4.790793e+09 -4.950796e+09 -1.814535e+03 -3.957120e+01 1.721502e+02
-5.009737e+09 -4.809750e+09 -4.969751e+09 -4.080505e+02 -1.250449e+02 3.738731e+01
-3.218577e+09 -3.018561e+09 -3.178582e+09 4.592123e+03 6.814191e+03 7.309610e+02
-1.687857e+09 -1.487868e+09 -1.647869e+09 -2.468412e+02 -1.534189e+02 2.132065e+02
-2.980013e+09 -2.780025e+09 -2.940026e+09 1.649520e+02 1.283632e+02 2.074362e+02
-3.208535e+09 -3.008549e+09 -3.168551e+09 1.096770e+03 3.205037e+02 1.652866e+03
-2.836331e+09 -2.636318e+09 -2.796334e+09 1.940448e+03 3.284569e+03 1.554820e+03
-4.991778e+09 -4.791790e+09 -4.951792e+09 1.255096e+02 -3.804868e+01 -5.273620e+00
-1.885075e+09 -1.685067e+09 -1.845078e+09 3.400695e+03 5.913396e+03 1.727772e+03
-3.630487e+09 -3.430498e+09 -3.590501e+09 7.408255e+02 1.689955e+02 6.973729e+02
-4.304889e+09 -4.104899e+09 -4.264903e+09 2.087893e+03 2.399207e+02 6.787062e+02
-3.073507e+09 -2.873521e+09 -3.033523e+09 5.491227e+02 4.249469e+01 1.812678e+03
-2.673179e+09 -2.473191e+09 -2.633192e+09 9.161779e+01 1.125784e+02 3.441099e+02
-3.400847e+09 -3.200862e+09 -3.360864e+09 -4.328043e+02 -1.752197e+02 1.730307e+03
-3.943045e+09 -3.743056e+09 -3.903058e+09 4.564608e+02 2.098128e+01 4.114251e+02
-2.669825e+09 -2.469836e+09 -2.629838e+09 1.003812e+02 1.355100e+02 1.715598e+02
-4.648122e+09 -4.448132e+09 -4.608136e+09 2.085398e+03 1.073837e+02 2.857120e+02
-2.276009e+09 -2.076019e+09 -2.236021e+09 1.128150e+03 4.408592e+02 9.750378e+02
-2.298791e+09 -2.098802e+09 -2.258803e+09 3.634136e+02 2.482813e+02 5.515676e+02
-2.201243e+09 -2.001253e+09 -2.161255e+09 1.401941e+03 3.396660e+02 1.189822e+03
-2.508979e+09 -2.308990e+09 -2.468992e+09 5.497509e+02 2.921414e+02 7.461485e+02
-2.705034e+09 -2.505045e+09 -2.665047e+09 5.845693e+02 1.796240e+02 7.318789e+02
-4.300977e+09 -4.100933e+09 -4.260980e+09 1.389587e+03 6.112577e+03 -9.698640e+01
-4.511580e+09 -4.311556e+09 -4.471588e+09 5.391476e+02 -2.446254e+02 -5.625663e+02
-4.994094e+09 -4.794033e+09 -4.954086e+09 -1.873468e+03 3.020826e+03 -1.970297e+02
-4.222835e+09 -4.022803e+09 -4.182843e+09 4.897625e+02 -5.654562e+03 -2.316750e+02
-4.820946e+09 -4.620888e+09 -4.780943e+09 -7.003699e+02 2.840101e+03 3.821534e+02
-4.497157e+09 -4.297142e+09 -4.457165e+09 6.991040e+02 -2.328012e+02 -7.201900e+02
-4.820650e+09 -4.620594e+09 -4.780648e+09 5.832273e+03 2.232253e+03 2.510006e+02
-4.071656e+09 -3.871643e+09 -4.031664e+09 4.395331e+02 -6.097539e+02 -1.039546e+03
-4.304270e+09 -4.104215e+09 -4.264271e+09 4.320557e+03 8.656168e+03 2.911390e+02
-4.762783e+09 -4.562757e+09 -4.722792e+09 -7.105989e+02 -1.884889e+00 4.105747e+02
-4.131402e+09 -3.931359e+09 -4.091402e+09 3.509562e+03 7.117054e+03 -8.413169e+02
-4.035166e+09 -3.835168e+09 -3.995173e+09 1.082136e+03 1.807376e+02 2.010445e+02
-4.132920e+09 -3.932863e+09 -4.092915e+09 2.250300e+03 8.952401e+03 -3.591285e+02
-3.491979e+09 -3.291979e+09 -3.451986e+09 2.035741e+03 5.782185e+02 5.512359e+02
-3.960817e+09 -3.760820e+09 -3.920825e+09 1.872239e+03 3.485933e+02 4.739104e+02
-4.994583e+09 -4.794587e+09 -4.954593e+09 3.503191e+03 3.027309e+02 -2.036469e+01
-4.134482e+09 -3.934425e+09 -4.094477e+09 1.202807e+03 7.988321e+03 -2.582789e+02
-1.885981e+09 -1.685971e+09 -1.845982e+09 -2.337254e+03 6.635231e+03 -1.318074e+03
-4.992155e+09 -4.792157e+09 -4.952165e+09 3.365881e+03 -9.452805e+01 2.854955e+01
-3.964886e+09 -3.764889e+09 -3.924895e+09 2.756609e+03 5.712029e+02 5.976888e+02
-4.992591e+09 -4.792592e+09 -4.952600e+09 2.854819e+03 6.000039e+01 6.010190e+01
-2.459822e+09 -2.259807e+09 -2.419824e+09 -5.630445e+02 4.589275e+03 -8.210570e+02
-3.014804e+09 -2.814788e+09 -2.974807e+09 -1.521350e+03 5.284971e+03 -1.730101e+03
-4.573963e+09 -4.373944e+09 -4.533967e+09 3.696380e+02 4.586303e+02 4.190785e+01
-4.305222e+09 -4.105205e+09 -4.265233e+09 -7.301492e+03 3.036542e+03 -1.245752e+03
-4.995204e+09 -4.795195e+09 -4.955220e+09 -6.560580e+03 8.728215e+02 -9.010897e+02
-2.194090e+09 -1.994077e+09 -2.154089e+09 -9.999578e+02 8.311790e+03 -1.277054e+03
-2.950676e+09 -2.750662e+09 -2.910678e+09 -2.578076e+02 1.241381e+03 -1.118839e+03
-1.884629e+09 -1.684618e+09 -1.844629e+09 1.860424e+03 7.036558e+03 -1.757290e+03
-4.818243e+09 -4.618264e+09 -4.778268e+09 -4.349670e+04 1.086616e+03 2.828697e+03
-3.961807e+09 -3.761806e+09 -3.921830e+09 -2.496401e+04 7.071873e+03 -3.190253e+03
-2.163067e+09 -1.963047e+09 -2.123067e+09 -2.653240e+02 -1.078047e+04 -6.826071e+02
-4.992870e+09 -4.792888e+09 -4.952912e+09 -1.945410e+04 2.845762e+03 -7.287204e+02
-4.121902e+09 -3.921906e+09 -4.081912e+09 -2.009873e+03 -1.151167e+02 6.551446e+02
-4.990174e+09 -4.790177e+09 -4.950184e+09 -2.260780e+03 -5.547721e+01 9.534485e+01
-2.982335e+09 -2.782337e+09 -2.942344e+09 -2.401387e+03 -1.272341e+03 1.719913e+03
-2.437587e+09 -2.237589e+09 -2.397595e+09 -1.045166e+03 -2.978231e+02 9.434470e+02
-1.833847e+09 -1.633838e+09 -1.793849e+09 8.584490e+02 1.103514e+03 4.165373e+02
-5.029539e+09 -4.829543e+09 -4.989548e+09 -8.105895e+02 -3.869079e+01 -2.061918e+01
-3.955418e+09 -3.755423e+09 -3.915429e+09 -2.357856e+03 -4.648239e+02 7.286017e+02
-2.987548e+09 -2.787549e+09 -2.947555e+09 1.525218e+03 5.199026e+02 6.813338e+02
-4.627458e+09 -4.427466e+09 -4.587472e+09 -3.464635e+03 -3.673050e+02 1.045491e+03
-4.996247e+09 -4.796221e+09 -4.956256e+09 -8.423063e+02 -1.813986e+02 -2.203911e+02
-3.354819e+09 -3.154788e+09 -3.314825e+09 -5.804685e+02 -1.281721e+04 -4.992767e+02
-3.980746e+09 -3.780751e+09 -3.940756e+09 -1.877827e+03 -4.272807e+02 5.822239e+02
-3.641296e+09 -3.441354e+09 -3.601363e+09 -6.845365e+03 4.557338e+03 -2.340340e+03
-1.833992e+09 -1.633993e+09 -1.793987e+09 -4.092367e+03 1.228586e+04 -1.705850e+04
-4.991099e+09 -4.791058e+09 -4.951106e+09 -1.930667e+04 -3.312741e+03 1.696131e+02
-4.134567e+09 -3.934539e+09 -4.094577e+09 -1.026702e+04 -5.076951e+03 3.651967e+03
-4.992365e+09 -4.792332e+09 -4.952377e+09 -1.699247e+04 -2.973536e+03 1.576322e+03
-3.053267e+09 -2.853314e+09 -3.013322e+09 -4.027917e+03 8.196102e+03 -4.351174e+03
-3.962669e+09 -3.762645e+09 -3.922680e+09 -1.246490e+04 -7.157956e+03 3.814024e+03
-4.991892e+09 -4.791866e+09 -4.951906e+09 -1.948433e+04 -2.713378e+03 7.821248e+01
-4.818812e+09 -4.618761e+09 -4.778813e+09 -2.663381e+04 -8.823591e+02 -4.171838e+02
-4.818882e+09 -4.618838e+09 -4.778889e+09 -1.809572e+04 -4.689964e+03 1.391307e+03
-4.992710e+09 -4.792763e+09 -4.952772e+09 -3.017894e+04 3.454597e+03 -2.569400e+03
-3.264553e+09 -3.064628e+09 -3.224610e+09 -2.099542e+04 1.002767e+04 -1.370547e+04
-4.133098e+09 -3.933076e+09 -4.093111e+09 -2.477189e+04 -5.256288e+03 3.437484e+03
-4.617057e+09 -4.417109e+09 -4.577115e+09 -2.102964e+04 1.247775e+03 -5.018018e+02
-4.820740e+09 -4.620719e+09 -4.780752e+09 -8.804583e+03 2.769573e+03 -1.422059e+03
-2.720728e+09 -2.520715e+09 -2.680730e+09 2.719199e+02 2.461930e+03 -9.885466e+02
-3.963421e+09 -3.763407e+09 -3.923436e+09 -1.239538e+04 6.002936e+03 -2.585937e+03
-4.812958e+09 -4.612942e+09 -4.772975e+09 -1.153590e+04 2.739254e+03 -2.281495e+02
-4.781838e+09 -4.581913e+09 -4.741906e+09 -2.624221e+04 -2.207059e+03 6.023238e+02
-3.984102e+09 -3.784170e+09 -3.944172e+09 -1.123004e+04 -3.007655e+02 -4.849721e+02
-4.644285e+09 -4.444236e+09 -4.604271e+09 3.794944e+04 -2.423206e+03 -3.327225e+02
-4.639539e+09 -4.439635e+09 -4.599620e+09 -8.882014e+03 1.375476e+02 -2.179255e+03
-3.431431e+09 -3.231485e+09 -3.391491e+09 -2.166225e+04 1.012799e+04 -1.270965e+04
-4.989133e+09 -4.789093e+09 -4.949127e+09 5.296900e+04 -6.085122e+03 -4.144527e+03
-2.362267e+09 -2.162253e+09 -2.322271e+09 8.741214e+02 -6.703263e+03 -3.043963e+03
-4.475819e+09 -4.275826e+09 -4.435793e+09 6.006300e+04 2.283530e+03 5.148920e+02
-3.961786e+09 -3.761811e+09 -3.921819e+09 3.655802e+04 -5.101885e+03 -1.847622e+03
-2.753917e+09 -2.553902e+09 -2.713922e+09 4.439845e+02 -4.259792e+03 -1.446047e+03
-4.819051e+09 -4.619041e+09 -4.779048e+09 5.479820e+04 -2.937303e+03 2.876436e+03
-3.226622e+09 -3.026597e+09 -3.186627e+09 3.177954e+02 -1.049940e+04 -3.764653e+03
-2.621674e+09 -2.421661e+09 -2.581678e+09 5.135180e+02 -9.956193e+02 -1.895702e+03
-3.960748e+09 -3.760780e+09 -3.920773e+09 5.333736e+04 -1.538842e+03 4.476802e+03
-3.960742e+09 -3.760777e+09 -3.920768e+09 4.278646e+04 2.533795e+03 -2.227294e+02
-2.173695e+09 -1.973681e+09 -2.133695e+09 1.831441e+03 -1.355132e+04 -3.986377e+03
-2.450818e+09 -2.250799e+09 -2.410822e+09 9.111857e+02 -7.094171e+03 -1.952106e+03
-2.554209e+09 -2.354190e+09 -2.514213e+09 2.327331e+03 -6.734553e+03 -1.958879e+03
-3.318899e+09 -3.118890e+09 -3.278904e+09 2.664583e+03 3.485601e+03 2.248863e+03
-2.204551e+09 -2.004548e+09 -2.164556e+09 3.225134e+02 3.301152e+02 3.802274e+02
-3.962291e+09 -3.762295e+09 -3.922317e+09 2.863597e+04 -7.054912e+03 -4.643818e+03
-4.990819e+09 -4.790821e+09 -4.950839e+09 5.298616e+04 -3.959061e+03 -4.360358e+03
-4.239506e+09 -4.039620e+09 -4.199592e+09 4.155148e+03 -9.686499e+02 -5.952152e+03
-3.900470e+09 -3.700468e+09 -3.860476e+09 6.898864e+02 1.152855e+02 5.357755e+02
-2.978650e+09 -2.778649e+09 -2.938656e+09 1.877266e+03 1.046691e+03 9.558243e+02
-4.432437e+09 -4.232429e+09 -4.392443e+09 1.009460e+03 4.721665e+01 5.747645e+02
-4.991825e+09 -4.791933e+09 -4.951627e+09 -6.696936e+04 -4.487589e+03 -8.032296e+03
-3.601285e+09 -3.401283e+09 -3.561291e+09 6.603581e+02 3.552263e+02 4.776619e+02
-3.798278e+09 -3.598274e+09 -3.758285e+09 3.763672e+03 1.293096e+03 1.069705e+03
-4.747497e+09 -4.547489e+09 -4.707503e+09 8.277764e+02 -8.043931e+01 2.926155e+02
-4.802322e+09 -4.602421e+09 -4.762369e+09 -3.553039e+04 -9.837057e+03 3.897682e+03
-2.893133e+09 -2.693128e+09 -2.853138e+09 1.410171e+03 1.123606e+03 7.901852e+02
-4.819876e+09 -4.619976e+09 -4.779864e+09 -5.488494e+04 1.574000e+04 -5.136393e+03
-3.585105e+09 -3.385183e+09 -3.545183e+09 1.195693e+03 -1.334029e+03 1.063304e+03
-4.117324e+09 -3.917411e+09 -4.077410e+09 1.067268e+03 -1.798073e+03 -2.990142e+03
-3.207297e+09 -3.007289e+09 -3.167304e+09 3.762883e+03 3.062122e+03 1.784156e+03
-4.490727e+09 -4.290743e+09 -4.450761e+09 2.567947e+04 2.943416e+03 4.669332e+03
-2.676728e+09 -2.476725e+09 -2.636733e+09 2.713246e+02 1.365891e+02 6.486095e+02
-1.885811e+09 -1.685808e+09 -1.845816e+09 1.844726e+03 2.404091e+03 1.981182e+03
-3.922773e+09 -3.722770e+09 -3.882780e+09 3.126880e+03 1.175054e+03 8.223359e+02
-3.959001e+09 -3.759031e+09 -3.919038e+09 1.631612e+04 2.790385e+03 7.014895e+03
-3.967055e+09 -3.767081e+09 -3.927091e+09 2.295272e+04 2.551810e+03 5.135218e+03
-3.086291e+09 -2.886290e+09 -3.046298e+09 2.410522e+03 1.532170e+03 1.311851e+03
-4.658598e+09 -4.458633e+09 -4.618637e+09 3.043862e+04 2.576159e+02 9.775563e+02
-4.996753e+09 -4.796781e+09 -4.956792e+09 2.293652e+04 2.913474e+02 2.477320e+03
-4.474442e+09 -4.274459e+09 -4.434476e+09 2.023014e+04 2.291110e+03 3.507411e+03
-3.435499e+09 -3.235533e+09 -3.395537e+09 -1.005039e+04 1.023028e+04 -7.776806e+03
-4.995745e+09 -4.795620e+09 -4.955641e+09 -2.466222e+04 6.714513e+03 -1.004664e+03
-4.135011e+09 -3.934892e+09 -4.094869e+09 -4.895030e+04 -1.028932e+04 6.242589e+03
-2.830584e+09 -2.630618e+09 -2.790622e+09 -5.901999e+03 7.825978e+03 -3.495817e+03
-1.886192e+09 -1.686181e+09 -1.846192e+09 4.876370e+03 -1.353692e+04 2.391822e+03
-4.651291e+09 -4.451178e+09 -4.611053e+09 -6.204585e+04 1.897840e+04 -1.287636e+04
-3.705854e+09 -3.505930e+09 -3.665915e+09 -8.501324e+03 5.209650e+02 -6.563481e+03
-4.820718e+09 -4.620602e+09 -4.780658e+09 -1.674953e+04 -3.871730e+03 6.825420e+03
-3.962219e+09 -3.762170e+09 -3.922145e+09 -6.903643e+04 2.403157e+04 -5.047116e+03
-3.775380e+09 -3.575449e+09 -3.735442e+09 -1.863367e+04 4.931881e+03 -5.753120e+03
-4.456958e+09 -4.257013e+09 -4.417008e+09 -2.662833e+04 2.895747e+03 -2.971653e+03
-3.962121e+09 -3.762040e+09 -3.922068e+09 -3.694577e+04 -3.267020e+03 -1.884842e+03
-4.992284e+09 -4.792352e+09 -4.952319e+09 -4.237090e+04 1.145201e+03 -8.124501e+03
-4.477851e+09 -4.277923e+09 -4.437910e+09 -3.091654e+04 5.295275e+03 -2.711123e+03
-4.057052e+09 -3.857132e+09 -4.017124e+09 -1.520593e+04 5.451875e+03 -1.018193e+04
-4.624120e+09 -4.424215e+09 -4.584182e+09 -2.175470e+04 2.724606e+02 -1.094739e+03
-4.115860e+09 -3.915950e+09 -4.075897e+09 -3.686988e+04 1.011373e+04 -6.282613e+03
-4.116275e+09 -3.916348e+09 -4.076310e+09 -3.657610e+04 -9.948495e+03 5.971020e+03
-4.819446e+09 -4.619358e+09 -4.779424e+09 -1.007584e+04 -2.506641e+03 -1.883243e+03
-4.305417e+09 -4.105550e+09 -4.265431e+09 -2.897646e+04 -1.384820e+03 -7.590651e+03
-4.298251e+09 -4.098177e+09 -4.258003e+09 -7.409586e+04 4.505225e+04 -1.497319e+04
-4.828327e+09 -4.628179e+09 -4.788199e+09 -1.157353e+04 5.115678e+02 1.421864e+04
-4.645908e+09 -4.445844e+09 -4.605911e+09 -8.470796e+03 -4.532509e+03 2.803768e+03
-4.647327e+09 -4.447276e+09 -4.607333e+09 6.879596e+03 -3.088709e+03 9.061214e+01
-3.961637e+09 -3.761570e+09 -3.921624e+09 -1.569452e+03 -1.098677e+04 -1.915762e+02
-3.961307e+09 -3.761230e+09 -3.921302e+09 -1.354463e+04 -6.405740e+03 2.648282e+03
-4.991858e+09 -4.791971e+09 -4.951876e+09 -3.525095e+04 -1.686346e+03 -7.711272e+03
-4.307684e+09 -4.107682e+09 -4.267709e+09 3.152713e+04 4.152821e+03 4.930368e+03
-2.954093e+09 -2.754090e+09 -2.914098e+09 4.873919e+02 3.371016e+02 8.863927e+02
-4.306762e+09 -4.106762e+09 -4.266786e+09 2.268773e+04 5.330226e+03 4.793491e+03
-1.785435e+09 -1.585434e+09 -1.745440e+09 1.060829e+03 6.272557e+02 4.571852e+02
-2.600211e+09 -2.400207e+09 -2.560216e+09 1.616993e+03 1.211383e+03 1.110699e+03
-3.153459e+09 -2.953458e+09 -3.113465e+09 3.149865e+02 2.371749e+02 5.231046e+02
-3.962209e+09 -3.762141e+09 -3.922129e+09 -5.285990e+04 1.098010e+04 -9.521319e+03
-4.305202e+09 -4.105096e+09 -4.265128e+09 -4.071804e+04 -4.889142e+02 2.589185e+03
-3.141520e+09 -2.941517e+09 -3.101525e+09 3.488198e+02 2.848057e+02 6.661973e+02
-1.686434e+09 -1.486433e+09 -1.646440e+09 3.440152e+02 1.836638e+02 3.411469e+02
-3.090837e+09 -2.890836e+09 -3.050843e+09 9.496895e+02 4.417810e+02 2.789546e+02
-4.991404e+09 -4.791402e+09 -4.951414e+09 3.662242e+03 -5.091886e-01 1.045332e+02
-1.667586e+09 -1.467584e+09 -1.627591e+09 3.648859e+02 2.971731e+02 5.025369e+02
-1.916205e+09 -1.716203e+09 -1.876209e+09 3.167676e+02 2.406675e+02 2.897890e+02
-4.991894e+09 -4.792016e+09 -4.951916e+09 3.224200e+04 4.452466e+02 -7.195649e+03
-4.818777e+09 -4.618895e+09 -4.778862e+09 1.029337e+04 -2.984908e+03 -3.907735e+03
-4.465007e+09 -4.265112e+09 -4.425064e+09 2.157198e+04 -5.305709e+03 -1.806098e+03
-4.645655e+09 -4.445823e+09 -4.605590e+09 1.622306e+04 1.640481e+03 1.863825e+04
-4.483273e+09 -4.283375e+09 -4.443340e+09 -2.954839e+04 -1.080630e+03 1.302244e+03
-4.991799e+09 -4.791947e+09 -4.951802e+09 1.093169e+04 -6.962030e+02 -6.519545e+03
-4.134222e+09 -3.934289e+09 -4.094271e+09 1.678496e+04 -8.235707e+02 3.171608e+03
-3.957413e+09 -3.757506e+09 -3.917446e+09 -3.212021e+04 4.331331e+03 -8.687542e+03
-4.469137e+09 -4.269242e+09 -4.429203e+09 -3.002977e+04 -1.700706e+03 1.371150e+03
-3.959467e+09 -3.759560e+09 -3.919509e+09 -1.372751e+04 3.988162e+03 2.126745e+03
-3.966030e+09 -3.766097e+09 -3.926079e+09 -1.545639e+04 -9.291354e+02 6.634028e+03
-4.491881e+09 -4.291962e+09 -4.451926e+09 -2.319042e+04 -4.727146e+01 5.666652e+03
-4.817063e+09 -4.617096e+09 -4.777104e+09 -3.460823e+04 -2.871730e+03 6.385104e+03
-4.133947e+09 -3.934081e+09 -4.093988e+09 1.468645e+04 -1.298854e+04 -1.138503e+02
-4.477745e+09 -4.277832e+09 -4.437790e+09 -2.250000e+04 -1.243893e+03 5.392416e+03
-4.134035e+09 -3.934158e+09 -4.094079e+09 2.301750e+04 1.541792e+04 8.450503e+03
-1.587962e+09 -1.387955e+09 -1.547964e+09 1.018218e+03 4.274600e+03 1.932826e+03
-3.798732e+09 -3.598848e+09 -3.758803e+09 1.505523e+04 1.136805e+03 1.130289e+03
-3.446942e+09 -3.246949e+09 -3.406952e+09 5.065404e+02 1.453218e+02 9.344994e+01
-4.446310e+09 -4.246320e+09 -4.406322e+09 4.154210e+02 7.507788e+01 1.797592e+02
-3.800274e+09 -3.600284e+09 -3.760286e+09 1.105964e+03 1.914160e+02 5.442554e+02
-4.849149e+09 -4.649158e+09 -4.809161e+09 7.623650e+02 1.872451e+02 1.388643e+02
-4.992606e+09 -4.792615e+09 -4.952619e+09 1.406022e+03 2.965619e+01 4.901421e+01
-3.200181e+09 -3.000189e+09 -3.160192e+09 1.369385e+03 4.667185e+02 6.943623e+02
-3.488448e+09 -3.288456e+09 -3.448459e+09 1.364568e+03 2.547239e+02 5.477472e+02
-3.895380e+09 -3.695388e+09 -3.855391e+09 1.358832e+03 6.517631e+01 3.911390e+02
-4.290655e+09 -4.090663e+09 -4.250667e+09 1.880622e+03 2.170528e+02 4.593470e+02
-4.747696e+09 -4.547686e+09 -4.707700e+09 -2.498705e+02 1.014172e+02 -3.095941e+02
-4.585844e+09 -4.385833e+09 -4.545849e+09 -8.047289e+02 3.391320e+02 -2.186172e+02
-4.993850e+09 -4.793840e+09 -4.953855e+09 -6.016526e+02 2.450402e+02 2.806632e+01
-2.704780e+09 -2.504771e+09 -2.664785e+09 1.693884e+02 -3.227269e+03 -4.185159e+02
-4.991099e+09 -4.791096e+09 -4.951113e+09 7.581335e+03 7.633216e+02 1.968005e+02
-1.921858e+09 -1.721848e+09 -1.881860e+09 2.311169e+02 -6.278154e+02 -2.203689e+02
-2.192765e+09 -1.992761e+09 -2.152770e+09 2.699454e+03 2.730416e+03 1.946104e+03
-1.779174e+09 -1.579184e+09 -1.739186e+09 -7.009473e+02 -1.791067e+02 6.635174e+02
-3.961329e+09 -3.761345e+09 -3.921349e+09 -1.413331e+03 -3.808075e+01 1.825199e+03
-1.605521e+09 -1.405511e+09 -1.565522e+09 1.781884e-06 -9.166487e+02 -4.793053e+02
-3.961330e+09 -3.761346e+09 -3.921349e+09 -1.046121e+03 -1.890568e+02 1.866878e+03
-4.740728e+09 -4.540743e+09 -4.700745e+09 -9.941323e+01 -3.580775e+02 2.994044e+02
-3.261082e+09 -3.061093e+09 -3.221095e+09 -1.299856e+02 -1.224093e+02 1.687953e+02
-3.349543e+09 -3.149555e+09 -3.309557e+09 -1.576673e+03 -2.750744e+02 1.528613e+03
-2.656753e+09 -2.456742e+09 -2.616757e+09 1.597313e+02 -1.322925e+03 2.219750e+02
-4.990779e+09 -4.790792e+09 -4.950796e+09 -1.767201e+03 -7.332378e+00 1.952123e+02
-4.992640e+09 -4.792652e+09 -4.952654e+09 -1.449172e+03 -8.584743e+01 8.750025e+01
-2.189099e+09 -1.989089e+09 -2.149101e+09 2.633873e+02 -2.456554e+03 -8.259418e+02
-2.704598e+09 -2.504606e+09 -2.664608e+09 -5.099895e+02 -1.797126e+02 2.508283e+02
-2.894432e+09 -2.694421e+09 -2.854436e+09 -1.101754e+02 -6.683034e+02 -1.222484e+03
-1.860316e+09 -1.660307e+09 -1.820318e+09 -5.118221e+02 -8.266622e+02 -8.665490e+02
-1.862082e+09 -1.662072e+09 -1.822083e+09 -3.650011e+02 -1.967569e+03 -5.441970e+02
-4.650473e+09 -4.450485e+09 -4.610512e+09 -1.775452e+04 1.232873e+03 -8.462676e+02
-2.978182e+09 -2.778191e+09 -2.938194e+09 -1.574643e+03 -6.536998e+02 1.008256e+03
-4.917602e+09 -4.717590e+09 -4.877608e+09 1.030097e+03 8.240512e+01 9.185166e+01
-1.781153e+09 -1.581155e+09 -1.741160e+09 -4.987495e+03 1.416723e+04 -1.286116e+04
-3.483566e+09 -3.283612e+09 -3.443618e+09 -1.616533e+04 7.469739e+03 -1.234246e+04
-2.222218e+09 -2.022218e+09 -2.182224e+09 2.180298e+02 6.045665e+01 3.056475e+01
-3.825339e+09 -3.625330e+09 -3.785344e+09 4.745062e+02 3.622886e+02 5.063403e+02
-3.429280e+09 -3.229273e+09 -3.389288e+09 4.383985e+03 2.735926e+03 1.800810e+03
-4.991157e+09 -4.791148e+09 -4.951169e+09 6.862362e+03 6.674443e+02 -3.679866e+01
-4.501012e+09 -4.301061e+09 -4.461078e+09 -3.313158e+03 2.907839e+03 3.287499e+02
-2.168137e+09 -1.968140e+09 -2.128149e+09 -2.882778e+03 9.285710e+03 -3.589559e+03
-2.637138e+09 -2.437153e+09 -2.597164e+09 -9.238887e+02 9.722887e+03 -7.627656e+02
-2.686944e+09 -2.486975e+09 -2.646984e+09 -9.412435e+02 8.931377e+03 -1.509297e+02
-3.625556e+09 -3.425596e+09 -3.585611e+09 -7.184221e+03 6.162734e+03 -2.755836e+03
-4.104028e+09 -3.904076e+09 -4.064090e+09 -2.788817e+03 5.823516e+03 -1.295887e+03
-2.979799e+09 -2.779791e+09 -2.939808e+09 -4.619170e+03 -5.778390e+03 4.641399e+03
-3.962719e+09 -3.762711e+09 -3.922732e+09 -8.603166e+03 -2.866296e+03 2.727100e+03
-4.134143e+09 -3.934135e+09 -4.094159e+09 -1.075330e+04 -4.336168e+03 2.833256e+03
-3.683106e+09 -3.483099e+09 -3.643113e+09 -5.980125e+02 -1.322089e+02 1.387268e+03
-4.924855e+09 -4.724844e+09 -4.884860e+09 5.095917e+02 -2.469755e-05 1.884015e+01
-4.615332e+09 -4.415324e+09 -4.575343e+09 -5.740855e+03 -1.025690e+03 1.307940e+03
-4.259674e+09 -4.059679e+09 -4.219683e+09 1.176898e+03 1.642943e+02 2.548527e+02
-4.818291e+09 -4.618298e+09 -4.778302e+09 2.309655e+03 3.541955e+02 3.090230e+01
-4.300385e+09 -4.100393e+09 -4.260398e+09 3.266366e+03 3.780227e+02 7.031894e+02
-2.703843e+09 -2.503843e+09 -2.663849e+09 1.792457e+02 7.383737e+00 1.733723e+02
-4.754108e+09 -4.554092e+09 -4.714113e+09 7.244331e+02 -9.950239e+00 3.050671e+02
-4.167811e+09 -3.967811e+09 -4.127818e+09 6.140411e+02 1.344049e+02 1.149454e+02
-3.163891e+09 -2.963878e+09 -3.123893e+09 -1.073301e+03 1.865260e+03 -8.406219e+02
-1.643781e+09 -1.443771e+09 -1.603782e+09 -1.439254e+02 9.651953e+02 -8.613206e+02
-2.130502e+09 -1.930491e+09 -2.090503e+09 -4.482223e+02 2.204322e+03 -1.288474e+03
-4.122384e+09 -3.922372e+09 -4.082388e+09 -3.191752e+02 4.866750e+02 -6.027572e+02
-3.804008e+09 -3.604014e+09 -3.764017e+09 1.133193e+02 -2.690363e+01 4.064459e+01
-3.823846e+09 -3.623829e+09 -3.783851e+09 1.863716e+03 1.728699e+03 3.429576e+02
-4.117567e+09 -3.917551e+09 -4.077572e+09 4.446278e+02 1.146600e+03 5.516195e+02
-4.995101e+09 -4.795083e+09 -4.955107e+09 1.466990e+03 4.666069e+02 1.559108e+02
-2.763973e+09 -2.563958e+09 -2.723975e+09 -5.938423e+02 3.748132e+03 -1.138555e+01
-4.597407e+09 -4.397420e+09 -4.557421e+09 3.029955e+01 -6.046523e+01 6.427039e+01
-4.595979e+09 -4.395991e+09 -4.555993e+09 3.503201e+00 4.943716e+01 2.618920e+01
-3.215863e+09 -3.015852e+09 -3.175865e+09 -3.110901e+02 6.761474e+02 -9.839101e+02
-2.729022e+09 -2.529011e+09 -2.689024e+09 -8.584610e+01 8.984203e+02 -1.228157e+03
-1.892537e+09 -1.692528e+09 -1.852538e+09 -5.078076e+02 7.422382e+02 -5.157520e+02
-2.864869e+09 -2.664926e+09 -2.824925e+09 -1.464601e+03 -3.100712e+03 -6.786068e+02
-4.461405e+09 -4.261417e+09 -4.421419e+09 -4.458616e+01 -2.038663e+01 7.885332e+01
-4.694868e+09 -4.494881e+09 -4.654882e+09 -8.269723e+01 5.779023e+01 7.097995e+01
-3.664826e+09 -3.464838e+09 -3.624839e+09 -7.697588e+00 1.421409e+01 1.380241e+02
-3.887527e+09 -3.687540e+09 -3.847541e+09 1.405767e+00 -9.889191e+00 1.346396e+02
-4.835057e+09 -4.635070e+09 -4.795071e+09 4.456799e+01 9.630394e-01 2.934288e+01
-4.808231e+09 -4.608345e+09 -4.768315e+09 1.384721e+04 2.320458e+03 -1.248568e+03
-4.640141e+09 -4.440229e+09 -4.600214e+09 1.775265e+04 -1.361211e+03 1.475747e+02
-4.647468e+09 -4.447480e+09 -4.607482e+09 -1.432227e+02 -3.011653e-02 6.289944e+01
-3.748848e+09 -3.548934e+09 -3.708918e+09 2.437407e+04 -2.182716e+03 -2.712990e+03
-3.912342e+09 -3.712438e+09 -3.872410e+09 1.612143e+04 -6.716868e+03 -9.136796e+03
-4.522724e+09 -4.322817e+09 -4.482818e+09 1.312065e+02 1.799228e+02 1.028491e+03
-3.193864e+09 -2.993941e+09 -3.153933e+09 1.938601e+02 -1.688898e+03 -5.158245e+03
-2.151007e+09 -1.951044e+09 -2.111040e+09 -6.976111e+02 -6.087545e+03 1.374504e+03
-3.109287e+09 -2.909341e+09 -3.069341e+09 6.734425e+03 -4.510704e+03 -1.682982e+03
-4.649971e+09 -4.450039e+09 -4.610039e+09 2.357261e+04 -1.568155e+02 -3.316174e+02
-4.747513e+09 -4.547496e+09 -4.707518e+09 4.503053e+02 3.457286e+01 2.893006e+02
-4.993955e+09 -4.793955e+09 -4.953962e+09 4.464550e+02 2.634681e+01 -1.220552e+02
-4.133600e+09 -3.933666e+09 -4.093248e+09 8.500019e+04 1.012824e+05 8.744183e+04
-4.991894e+09 -4.792016e+09 -4.951916e+09 4.304241e+04 -1.989144e+03 -7.206364e+03
-4.477292e+09 -4.277410e+09 -4.437364e+09 2.334171e+04 -4.104809e+03 -7.050182e+02
-3.692610e+09 -3.492683e+09 -3.652665e+09 1.237791e+04 -3.479933e+03 5.192434e+03
-4.280881e+09 -4.080976e+09 -4.240926e+09 -2.125412e+04 -7.436703e+02 -9.293669e+03
-4.131615e+09 -3.931616e+09 -4.091626e+09 -3.885120e+03 -6.559352e+02 1.483321e+03
-4.284668e+09 -4.084649e+09 -4.244673e+09 -9.355030e+02 2.302920e+03 -4.088630e+02
-3.819136e+09 -3.619118e+09 -3.779140e+09 -1.232247e+03 1.964849e+03 -4.665762e+02
-3.869855e+09 -3.669852e+09 -3.829863e+09 -1.220693e+03 -4.849491e+02 9.204530e+02
-3.391896e+09 -3.191897e+09 -3.351905e+09 -2.033538e+03 -1.001745e+03 1.120645e+03
-4.960472e+09 -4.760472e+09 -4.920481e+09 -1.460947e+03 -9.390772e+01 1.908844e+02
-2.931437e+09 -2.731437e+09 -2.891444e+09 -5.412400e+02 -2.344043e+02 9.873459e+02
-4.130986e+09 -3.930988e+09 -4.091000e+09 -6.197956e+03 -1.186175e+03 2.473921e+03
-4.656640e+09 -4.456620e+09 -4.616645e+09 -8.105730e+02 9.658774e+02 -1.773574e+02
-4.075905e+09 -3.875888e+09 -4.035909e+09 -2.526527e+02 9.420333e+02 -5.630246e+02
-3.892740e+09 -3.692724e+09 -3.852744e+09 -4.665958e+02 9.416309e+02 -7.735080e+02
-4.753503e+09 -4.553486e+09 -4.713507e+09 -4.858981e+02 4.086359e+01 -3.732217e+02
-4.822473e+09 -4.622470e+09 -4.782501e+09 1.325434e+04 -1.577021e+03 -2.839267e+02
-4.991524e+09 -4.791520e+09 -4.951547e+09 5.087920e+03 -1.536498e+03 -5.671617e+02
-4.753936e+09 -4.553936e+09 -4.713942e+09 3.719937e+02 -2.936283e+01 4.842625e+01
-1.935053e+09 -1.735051e+09 -1.895058e+09 2.272059e+02 1.280309e+02 3.302833e+02
-4.818076e+09 -4.618078e+09 -4.778086e+09 -2.433669e+03 1.200105e+02 5.269997e+02
-4.761217e+09 -4.561217e+09 -4.721224e+09 4.274727e+02 1.121388e+02 -6.224212e+00
-4.266598e+09 -4.066598e+09 -4.226605e+09 1.386949e+03 1.340730e+02 1.229336e+02
-4.015665e+09 -3.815665e+09 -3.975672e+09 1.046719e+03 2.361532e+02 1.317404e+02
-2.841586e+09 -2.641587e+09 -2.801603e+09 4.699205e+01 -8.148709e+03 -1.066877e+03
-3.800490e+09 -3.600481e+09 -3.760502e+09 6.805427e+02 -3.100739e+03 -2.588746e+02
-2.236640e+09 -2.036631e+09 -2.196644e+09 7.283147e+02 -3.555181e+03 -2.415133e+03
-4.492830e+09 -4.292820e+09 -4.452841e+09 4.180195e+02 -1.286160e+03 -1.622054e+02
-2.984503e+09 -2.784485e+09 -2.944507e+09 -1.144095e+03 7.252605e+03 -2.013400e+03
-4.269322e+09 -4.069323e+09 -4.229329e+09 1.036521e+03 1.266604e+02 7.191062e+00
-3.551609e+09 -3.351595e+09 -3.511612e+09 -3.009402e+02 3.649052e+02 -9.494920e+02
-2.860642e+09 -2.660631e+09 -2.820644e+09 -1.273843e+02 4.673114e+02 -9.428305e+02
-4.736794e+09 -4.536799e+09 -4.696802e+09 -1.194341e+02 -2.719681e+01 -1.431400e+01
-4.987170e+09 -4.787177e+09 -4.947183e+09 -2.655169e+03 -1.165278e+02 5.728265e+01
-3.967026e+09 -3.767032e+09 -3.927037e+09 -1.787928e+03 -3.790824e+02 6.510793e+02
-3.867083e+09 -3.667089e+09 -3.827093e+09 -1.093024e+03 -1.813944e+02 2.531392e+02
-4.826328e+09 -4.626335e+09 -4.786340e+09 -2.213057e+03 -3.041071e+02 9.418970e+01
-4.995130e+09 -4.795135e+09 -4.955139e+09 -6.668498e+02 -6.555526e+01 9.687822e+01
-3.980747e+09 -3.780752e+09 -3.940756e+09 -1.425201e+03 -2.395601e+02 4.182532e+02
-4.080558e+09 -3.880562e+09 -4.040567e+09 -1.048659e+03 -1.437010e+02 3.677193e+01
-4.817522e+09 -4.617527e+09 -4.777531e+09 -8.255739e+02 -8.863385e+01 -3.265135e+01
-4.826712e+09 -4.626720e+09 -4.786724e+09 -1.366285e+03 -1.917710e+02 -5.194786e+01
-2.151587e+09 -1.951592e+09 -2.111596e+09 -5.983908e+01 -6.330501e-01 -6.971305e+00
-1.578511e+09 -1.378502e+09 -1.538512e+09 -1.693302e+02 2.139994e+03 -1.006099e+03
-4.799460e+09 -4.599464e+09 -4.759468e+09 -2.975981e+02 -3.250428e+01 3.399755e+01
-4.579336e+09 -4.379341e+09 -4.539344e+09 -2.886906e+02 -4.093638e+01 4.144764e+01
-4.819697e+09 -4.619632e+09 -4.779687e+09 1.796873e+04 4.610339e+03 1.516078e+03
-4.819656e+09 -4.619601e+09 -4.779653e+09 2.053594e+04 1.240839e+03 -2.889724e+02
-4.991683e+09 -4.791668e+09 -4.951695e+09 -6.917847e+03 1.843303e+03 -1.245002e+03
-4.990129e+09 -4.790120e+09 -4.950150e+09 -1.016286e+04 1.406050e+03 -8.996615e+02
-3.962126e+09 -3.762066e+09 -3.922124e+09 1.462663e+04 5.792432e+03 2.700454e+03
-4.819947e+09 -4.619893e+09 -4.779946e+09 9.117558e+03 3.753323e+03 -1.788531e+02
-4.304184e+09 -4.104126e+09 -4.264177e+09 3.051602e+04 8.298193e+03 3.800048e+03
-4.991853e+09 -4.791791e+09 -4.951828e+09 3.364552e+04 5.873717e+03 -6.142935e+02
-4.133692e+09 -3.933618e+09 -4.093663e+09 2.876005e+04 9.023436e+03 7.043221e+03
-3.962153e+09 -3.762090e+09 -3.922143e+09 2.661027e+04 1.726201e+03 3.286346e+03
-4.369145e+09 -4.169139e+09 -4.329151e+09 4.568311e+02 7.141898e+01 4.277898e+02
-1.898804e+09 -1.698805e+09 -1.858810e+09 5.822084e+02 2.002515e+02 2.886831e+02
-4.820181e+09 -4.620169e+09 -4.780191e+09 6.897112e+03 5.857240e+02 1.017008e+03
-4.991756e+09 -4.791742e+09 -4.951767e+09 7.368958e+03 8.862185e+02 -8.847135e+01
-3.962089e+09 -3.762043e+09 -3.922092e+09 2.017077e+04 5.859948e+03 4.079023e+03
-4.819857e+09 -4.619812e+09 -4.779860e+09 1.376494e+04 3.971188e+03 4.151672e+02
-4.993068e+09 -4.793050e+09 -4.953076e+09 4.236962e+03 6.187490e+02 -7.687431e+01
-4.645572e+09 -4.445585e+09 -4.605590e+09 -2.400351e+03 8.550120e+01 8.313103e+02
-4.991403e+09 -4.791401e+09 -4.951413e+09 4.671610e+03 1.966837e+02 1.436889e+02
-3.962979e+09 -3.762990e+09 -3.922993e+09 -2.664962e+03 -4.665211e+02 1.260198e+03
-3.961776e+09 -3.761776e+09 -3.921788e+09 5.934786e+03 1.617689e+03 1.779077e+03
-4.991474e+09 -4.791475e+09 -4.951488e+09 7.073632e+03 5.922208e+02 6.668194e+02
-4.990863e+09 -4.790877e+09 -4.950882e+09 -3.979113e+03 -2.207851e+02 5.293209e+02
-4.475240e+09 -4.275255e+09 -4.435260e+09 -4.448092e+03 -2.833626e+02 1.414085e+03
-4.475669e+09 -4.275752e+09 -4.435707e+09 4.351115e+04 -5.231326e+03 2.783408e+03
-4.304010e+09 -4.104158e+09 -4.264020e+09 3.191296e+04 -2.778567e+02 1.202675e+04
-4.648442e+09 -4.448583e+09 -4.608468e+09 2.228128e+04 9.951907e+02 3.002417e+03
-4.645369e+09 -4.445384e+09 -4.605388e+09 -2.431525e+03 -6.605567e+01 7.419935e+02
-3.961080e+09 -3.761094e+09 -3.921097e+09 -1.932465e+03 -3.333039e+02 1.509853e+03
-4.991350e+09 -4.791366e+09 -4.951372e+09 -3.329631e+03 1.771384e+02 9.407942e+01
-4.131519e+09 -3.931533e+09 -4.091537e+09 -3.471240e+03 -6.956679e+02 1.517755e+03
-3.961969e+09 -3.761931e+09 -3.921970e+09 2.399770e+04 7.779386e+03 3.110827e+03
-4.991858e+09 -4.791822e+09 -4.951859e+09 3.446223e+04 4.984292e+03 5.171041e+02
-2.684326e+09 -2.484315e+09 -2.644329e+09 1.540043e+02 -5.831698e+02 -1.330816e+03
-4.991759e+09 -4.791730e+09 -4.951770e+09 1.705392e+04 2.387275e+03 -6.475829e+01
-4.522362e+09 -4.322355e+09 -4.482378e+09 8.552090e+02 -1.848701e+03 5.573319e+01
-3.962286e+09 -3.762265e+09 -3.922298e+09 2.365197e+04 6.962552e+03 4.323601e+03
-4.824637e+09 -4.624624e+09 -4.784650e+09 4.317592e+03 -1.376146e+03 7.499956e+01
-4.473567e+09 -4.273550e+09 -4.433580e+09 5.942958e+03 -2.896152e+03 -1.711752e+03
-2.858371e+09 -2.658384e+09 -2.818385e+09 -6.675692e+01 3.707091e+01 8.581789e+02
-3.961141e+09 -3.761132e+09 -3.921160e+09 2.451695e+04 3.950455e+03 6.009961e+03
-3.964454e+09 -3.764460e+09 -3.924477e+09 2.806266e+04 8.048319e+03 8.937849e+03
-4.133161e+09 -3.933143e+09 -4.093173e+09 2.903392e+04 4.786270e+03 2.340383e+03
-3.962341e+09 -3.762324e+09 -3.922355e+09 1.624543e+04 6.096144e+03 3.932868e+03
-1.804172e+09 -1.604184e+09 -1.764185e+09 -1.288168e+01 -7.212119e+01 2.007965e+02
-4.048015e+09 -3.848027e+09 -4.008029e+09 -9.416136e+02 -3.494547e+02 4.675103e+02
-2.648789e+09 -2.448802e+09 -2.608803e+09 -1.046971e+03 -2.898652e+02 1.552683e+03
-3.603580e+09 -3.403595e+09 -3.563596e+09 -3.956568e+02 3.071335e+01 1.133044e+03
-4.006803e+09 -3.806816e+09 -3.966817e+09 -3.293074e+02 -1.280509e+02 5.313221e+02
-4.989671e+09 -4.789678e+09 -4.949684e+09 3.588614e+03 9.758745e+01 9.077453e+01
-4.976148e+09 -4.776161e+09 -4.936163e+09 1.930635e+03 -1.181913e+02 -3.112843e+01
-4.239801e+09 -4.039812e+09 -4.199814e+09 8.522420e+02 1.292662e+02 6.702499e+02
-4.648121e+09 -4.448135e+09 -4.608138e+09 -1.399700e+03 -9.934551e+01 5.762807e+02
-4.819692e+09 -4.619708e+09 -4.779711e+09 -1.228303e+03 -4.908347e+02 3.248354e+02
-3.960971e+09 -3.760984e+09 -3.920990e+09 4.087824e+03 9.250714e+02 2.078074e+03
-3.272450e+09 -3.072454e+09 -3.232458e+09 -1.327729e+03 -2.400411e+02 3.950808e+02
-3.961421e+09 -3.761432e+09 -3.921437e+09 3.439521e+03 7.616016e+02 1.467304e+03
-1.690559e+09 -1.490566e+09 -1.650569e+09 1.344345e+03 4.988137e+02 7.162954e+02
-4.816168e+09 -4.616178e+09 -4.776185e+09 5.126037e+03 6.619065e+02 4.958398e+02
-1.579987e+09 -1.379990e+09 -1.539994e+09 -1.012016e+03 -3.691939e+02 5.367230e+02
-3.482238e+09 -3.282240e+09 -3.442246e+09 -1.090291e+03 -2.897254e+02 3.423016e+02
-2.738765e+09 -2.538750e+09 -2.698771e+09 -3.880262e+02 -5.362553e+03 2.312148e+02
-4.130744e+09 -3.930780e+09 -4.090754e+09 5.659660e+04 -9.657393e+03 -4.069663e+03
-3.961618e+09 -3.761695e+09 -3.921633e+09 4.260247e+04 6.651525e+02 3.046987e+03
-3.960969e+09 -3.761016e+09 -3.920942e+09 6.020407e+04 1.378546e+04 1.471127e+04
-4.819176e+09 -4.619174e+09 -4.779192e+09 1.058641e+04 5.082304e+02 9.520840e+02
-4.644923e+09 -4.444915e+09 -4.604934e+09 8.565610e+03 1.078170e+03 1.208811e+03
-3.168553e+09 -2.968528e+09 -3.128557e+09 -1.715997e+03 -1.180081e+04 -2.342036e+03
-4.831059e+09 -4.631061e+09 -4.791079e+09 1.217786e+04 4.603170e+02 1.145398e+03
-4.993221e+09 -4.793220e+09 -4.953250e+09 2.563389e+04 3.880857e+02 8.115395e+02
-2.254066e+09 -2.054046e+09 -2.214067e+09 -9.157260e+02 -9.735841e+03 -2.215435e+01
-1.581655e+09 -1.381650e+09 -1.541656e+09 6.731045e+02 -8.306988e+03 8.421383e+02
-1.581655e+09 -1.381651e+09 -1.541656e+09 1.873930e+02 -8.587503e+03 7.168699e+02
-3.794532e+09 -3.594506e+09 -3.754538e+09 7.520434e+02 -3.133540e+03 -5.626699e+02
-4.134257e+09 -3.934258e+09 -4.094282e+09 2.453266e+04 3.929427e+03 2.944375e+03
-4.542513e+09 -4.342509e+09 -4.502520e+09 1.258469e+03 3.201036e+02 3.413960e+02
-4.990838e+09 -4.790827e+09 -4.950858e+09 2.610342e+04 2.829598e+03 1.586882e+03
-4.993230e+09 -4.793229e+09 -4.953254e+09 2.040422e+04 2.488364e+03 1.987493e+03
-3.963531e+09 -3.763529e+09 -3.923552e+09 1.717202e+04 3.815795e+03 4.053473e+03
-4.304134e+09 -4.104123e+09 -4.264145e+09 7.442132e+03 3.174311e+03 1.378189e+03
-4.819772e+09 -4.619765e+09 -4.779789e+09 1.307854e+04 7.483485e+02 9.348392e+02
-4.992400e+09 -4.792390e+09 -4.952409e+09 4.692427e+03 3.569657e+02 -1.658680e+02
-3.949523e+09 -3.749516e+09 -3.909532e+09 5.660892e+03 2.212714e+03 1.632692e+03
-4.873370e+09 -4.673357e+09 -4.833377e+09 3.963338e+03 6.151963e+02 2.033050e+02
-3.962455e+09 -3.762457e+09 -3.922466e+09 4.757114e+03 1.296166e+03 1.285377e+03
-3.965327e+09 -3.765330e+09 -3.925338e+09 4.039249e+03 9.889090e+02 1.069238e+03
-4.139175e+09 -3.939178e+09 -4.099186e+09 3.795143e+03 4.097053e+02 1.154313e+03
-3.964884e+09 -3.764887e+09 -3.924895e+09 3.549033e+03 8.970724e+02 9.212152e+02
-4.994583e+09 -4.794586e+09 -4.954593e+09 3.143940e+03 1.224080e+02 1.672367e+02
-3.638897e+09 -3.438885e+09 -3.598903e+09 4.264027e+03 3.359533e+03 1.574612e+03
-4.290502e+09 -4.090482e+09 -4.250506e+09 -1.592901e+03 1.963191e+03 -5.014428e+02
-2.082174e+09 -1.882177e+09 -2.042181e+09 -1.187350e+03 -3.687498e+02 4.898383e+02
-4.308199e+09 -4.108202e+09 -4.268211e+09 4.988904e+03 7.597110e+02 9.298617e+02
-3.962457e+09 -3.762458e+09 -3.922467e+09 3.731191e+03 8.318019e+02 8.944935e+02
-4.310595e+09 -4.110598e+09 -4.270606e+09 3.886062e+03 5.369773e+02 7.226963e+02
-4.132870e+09 -3.932875e+09 -4.092882e+09 3.587711e+03 8.669596e+02 6.724928e+02
-4.129521e+09 -3.929527e+09 -4.089533e+09 3.072776e+03 3.116545e+02 8.652212e+02
-1.854136e+09 -1.654138e+09 -1.814143e+09 -5.307779e+02 -1.980904e+02 3.923688e+02
-4.990280e+09 -4.790285e+09 -4.950291e+09 2.890626e+03 7.369977e+01 1.625889e+02
-3.964397e+09 -3.764338e+09 -3.924387e+09 -4.283594e+02 8.080882e+03 -1.083852e+02
-3.961140e+09 -3.761087e+09 -3.921142e+09 2.258374e+03 7.073506e+03 -1.352068e+02
-4.990841e+09 -4.790796e+09 -4.950843e+09 4.257968e+02 1.951687e+03 -2.927691e+01
-4.652847e+09 -4.452860e+09 -4.612872e+09 1.292187e+04 6.992556e+02 1.894661e+03
-3.066778e+09 -2.866762e+09 -3.026780e+09 1.485150e+02 2.712225e+03 -6.213054e+01
-1.623026e+09 -1.423028e+09 -1.583033e+09 -1.877556e+02 -1.132852e+02 3.539142e+02
-4.824809e+09 -4.624815e+09 -4.784832e+09 1.402300e+04 1.371454e+03 1.978353e+03
-4.824588e+09 -4.624605e+09 -4.784616e+09 1.065058e+04 1.049862e+03 1.666745e+03
-3.252618e+09 -3.052599e+09 -3.212622e+09 2.061642e+03 7.588988e+03 -6.880554e+02
-4.988698e+09 -4.788729e+09 -4.948738e+09 1.676217e+04 -4.301514e+02 1.308502e+03
-4.826518e+09 -4.626401e+09 -4.786353e+09 5.945404e+04 2.505508e+04 1.448151e+04
-3.468628e+09 -3.268607e+09 -3.428632e+09 2.808396e+03 4.849767e+03 8.292875e+02
-3.023759e+09 -2.823744e+09 -2.983761e+09 1.354075e+03 3.492128e+03 7.264159e+02
-2.628492e+09 -2.428477e+09 -2.588495e+09 1.241117e+03 4.378674e+03 7.375505e+02
-4.825877e+09 -4.625877e+09 -4.785897e+09 1.373012e+04 1.579626e+03 1.695613e+03
-4.303622e+09 -4.103618e+09 -4.263637e+09 1.053899e+04 3.041798e+03 2.448215e+03
-4.991099e+09 -4.791097e+09 -4.951113e+09 8.965871e+03 6.816904e+02 5.061710e+02
-4.828090e+09 -4.628100e+09 -4.788112e+09 1.001449e+04 1.487656e+03 1.170911e+03
-4.649264e+09 -4.449243e+09 -4.609269e+09 1.649190e+03 8.649170e+02 2.262665e+02
-4.628583e+09 -4.428567e+09 -4.588588e+09 -2.852816e+03 6.236244e+02 -1.848517e+02
-2.367078e+09 -2.167069e+09 -2.327081e+09 -1.237550e+03 3.049605e+03 -1.443567e+03
-4.991718e+09 -4.791774e+09 -4.951775e+09 1.749657e+04 6.835361e+02 4.937267e+03
-4.130030e+09 -3.930066e+09 -4.090069e+09 1.620291e+04 1.394837e+03 5.785946e+03
-4.480046e+09 -4.280113e+09 -4.440109e+09 -1.531134e+04 -2.736650e+03 6.556595e+03
-3.545177e+09 -3.345167e+09 -3.505180e+09 -1.707696e+02 3.252317e+02 -6.263039e+02
-3.419090e+09 -3.219092e+09 -3.379115e+09 -9.307225e+03 9.277499e+03 -5.607201e+03
-4.134721e+09 -3.934747e+09 -4.094752e+09 -6.093158e+03 -1.754304e+03 3.708823e+03
-4.454867e+09 -4.254853e+09 -4.414875e+09 -3.434807e+03 1.774784e+03 -7.661849e+02
-3.974781e+09 -3.774814e+09 -3.934818e+09 -1.006072e+04 -1.248904e+03 5.554161e+03
-4.312843e+09 -4.112888e+09 -4.272892e+09 -1.122009e+04 -1.711955e+03 6.122135e+03
-4.809634e+09 -4.609563e+09 -4.769599e+09 -4.200371e+04 9.140950e+03 -3.408961e+03
-4.818409e+09 -4.618380e+09 -4.778240e+09 -8.124939e+04 1.519108e+04 -1.657410e+03
-2.705355e+09 -2.505344e+09 -2.665357e+09 -5.325926e+02 1.635570e+03 -1.144071e+03
-4.819648e+09 -4.619634e+09 -4.779652e+09 -1.520448e+03 3.777821e+02 -5.414725e+02
-4.305992e+09 -4.105961e+09 -4.265957e+09 -5.580145e+04 4.362289e+03 -5.031187e+03
-4.125922e+09 -3.926022e+09 -4.085970e+09 -2.027718e+04 1.687885e+03 3.636589e+02
-4.987120e+09 -4.787230e+09 -4.947151e+09 -3.419929e+04 -1.968383e+03 6.913930e+03
-3.901126e+09 -3.701113e+09 -3.861132e+09 -2.593293e+03 2.045108e+03 -6.961494e+02
-4.820623e+09 -4.620765e+09 -4.780613e+09 -8.586210e+03 -1.575956e+03 1.024386e+04
-4.995041e+09 -4.795164e+09 -4.955021e+09 -2.690169e+04 7.404301e+03 3.568279e+03
-4.471378e+09 -4.271524e+09 -4.431308e+09 2.929475e+04 -1.862885e+04 -3.253505e+04
-4.731018e+09 -4.531008e+09 -4.691023e+09 -4.123571e+02 4.621696e+02 -1.054217e+02
-4.820120e+09 -4.620196e+09 -4.780180e+09 3.734392e+03 9.969610e+02 3.117061e+03
-2.610059e+09 -2.410048e+09 -2.570063e+09 -1.827021e+03 3.154975e+03 -1.250931e+03
-2.971788e+09 -2.771779e+09 -2.931797e+09 -3.069383e+03 6.494557e+03 -2.748642e+03
-1.637174e+09 -1.437166e+09 -1.597176e+09 2.611554e+01 -4.310707e+03 -1.799788e+02
-4.654651e+09 -4.454755e+09 -4.614700e+09 1.179583e+04 -4.803746e+02 3.675367e+02
-4.308152e+09 -4.108280e+09 -4.268191e+09 -1.127689e+04 1.287809e+04 -1.614112e+04
-3.964925e+09 -3.765051e+09 -3.925002e+09 -3.231893e+03 -9.557548e+02 -1.408657e+04
-4.651391e+09 -4.451523e+09 -4.611392e+09 3.307777e+02 8.911128e+02 -1.264042e+04
-4.994635e+09 -4.794775e+09 -4.954693e+09 -2.704083e+03 7.036051e+03 3.573159e+03
-3.583999e+09 -3.383990e+09 -3.544009e+09 4.280313e+02 -3.387401e+03 -2.327259e+02
-4.998022e+09 -4.798012e+09 -4.958036e+09 3.053688e+03 -9.186519e+02 -2.496641e+02
-2.606641e+09 -2.406662e+09 -2.566672e+09 1.509214e+03 -9.492179e+03 -6.476441e+02
-4.135335e+09 -3.935436e+09 -4.095388e+09 -4.979318e+03 -3.565338e+03 4.087701e+03
-4.593232e+09 -4.393232e+09 -4.553258e+09 -4.288263e+03 1.885629e+03 -2.187604e+02
-4.915472e+09 -4.715521e+09 -4.875539e+09 3.882890e+03 -1.145945e+03 -5.458777e-05
-4.921680e+09 -4.721709e+09 -4.881733e+09 3.362960e+03 -1.109737e+03 -6.664289e-05
-4.992753e+09 -4.792760e+09 -4.952788e+09 -1.131953e+04 1.591769e+03 1.310703e+03
-4.088871e+09 -3.888864e+09 -4.048889e+09 -7.604349e+03 4.650360e+03 -2.314369e+03
-4.996601e+09 -4.796599e+09 -4.956629e+09 9.066221e+03 -1.526312e+03 -1.354809e+03
-2.452295e+09 -2.252298e+09 -2.412311e+09 -4.228358e+03 1.072885e+04 -5.366231e+03
-2.676587e+09 -2.476592e+09 -2.636607e+09 2.871812e+03 -8.520014e+03 1.093826e+03
-2.135961e+09 -1.935990e+09 -2.095988e+09 1.342607e+03 -5.613171e+03 -6.886393e+03
-2.247407e+09 -2.047420e+09 -2.207426e+09 3.483748e+03 -1.185888e+04 -5.520630e+03
-1.906332e+09 -1.706334e+09 -1.866339e+09 -1.016227e+01 1.125101e+01 1.329638e+01
-3.705136e+09 -3.505138e+09 -3.665143e+09 1.361229e+00 2.437398e+00 7.453785e+00
-3.924871e+09 -3.724873e+09 -3.884878e+09 3.410201e+01 6.621618e-01 -2.828065e+01
-2.637756e+09 -2.437759e+09 -2.597763e+09 3.891625e+01 -5.448797e-01 3.496896e+00
-2.384308e+09 -2.184311e+09 -2.344315e+09 1.613159e+02 -8.660239e+00 -5.815944e+01
-1.568328e+09 -1.368331e+09 -1.528336e+09 2.259736e+02 1.769999e+01 -4.737886e+00
-1.568329e+09 -1.368331e+09 -1.528336e+09 2.583487e+02 4.205504e+01 -2.215610e+00
-2.851722e+09 -2.651724e+09 -2.811729e+09 1.537123e+01 9.022073e+00 5.042012e+00
-2.160635e+09 -1.960638e+09 -2.120642e+09 1.953022e+01 -2.025019e+01 5.936503e+00
-3.096136e+09 -2.896138e+09 -3.056143e+09 1.041134e+02 3.126567e+01 -2.725248e+01
-1.844297e+09 -1.644300e+09 -1.804304e+09 8.715046e+01 8.099531e+00 -2.581789e+00
-4.649434e+09 -4.449372e+09 -4.609316e+09 -6.393961e+04 -1.429829e+04 1.304509e+04
-3.961483e+09 -3.761394e+09 -3.921254e+09 -7.574475e+04 -4.004099e+04 3.194034e+04
-4.818754e+09 -4.618689e+09 -4.778372e+09 -8.061138e+04 6.215375e+03 3.139449e+03
-3.760631e+09 -3.560616e+09 -3.720637e+09 1.808034e+03 2.085819e+03 8.810150e+02
-4.818045e+09 -4.617951e+09 -4.777763e+09 -7.072540e+04 -3.685845e+04 2.370031e+04
-2.916877e+09 -2.716867e+09 -2.876881e+09 1.906547e+02 5.719907e+02 6.980769e+02
-3.864769e+09 -3.664747e+09 -3.824774e+09 2.918649e+03 3.332342e+03 3.925706e+02
-4.472156e+09 -4.272019e+09 -4.431700e+09 -1.633347e+04 -5.761010e+04 1.833724e+04
-4.304446e+09 -4.104299e+09 -4.264002e+09 -3.284204e+04 -9.807300e+04 1.898133e+04
-4.988491e+09 -4.788371e+09 -4.947854e+09 -1.930969e+04 -1.109625e+04 -2.892534e+03
-4.291242e+09 -4.091104e+09 -4.250621e+09 5.449659e+04 -8.620512e+04 -4.758822e+03
-1.568039e+09 -1.368030e+09 -1.528039e+09 8.348583e+01 3.799613e+03 -1.620575e+03
-3.917624e+09 -3.717606e+09 -3.877629e+09 -2.370450e+03 2.645222e+03 -8.806003e+02
-3.964175e+09 -3.764157e+09 -3.924183e+09 -4.799035e+03 3.964830e+03 -1.407145e+03
-4.647107e+09 -4.447117e+09 -4.606915e+09 -8.703162e+04 -1.263116e+04 3.336100e+04
-3.962199e+09 -3.762134e+09 -3.921816e+09 -9.052185e+04 -7.138584e+04 7.669445e+04
-2.949142e+09 -2.749129e+09 -2.909144e+09 -5.886468e+02 1.159315e+03 -1.087585e+03
-2.651366e+09 -2.451353e+09 -2.611367e+09 -1.329601e+01 5.426414e+02 -8.523295e+02
-1.606509e+09 -1.406500e+09 -1.566510e+09 2.082305e+02 2.895630e+03 -1.674049e+03
-2.187835e+09 -1.987823e+09 -2.147835e+09 -2.014170e+02 1.138910e+03 -9.791371e+02
-2.134296e+09 -1.934285e+09 -2.094296e+09 -7.447856e+01 1.781689e+02 -7.910258e+02
-3.579030e+09 -3.379018e+09 -3.539033e+09 -2.176572e+02 3.533820e+02 -8.179071e+02
-3.155695e+09 -2.955682e+09 -3.115697e+09 -2.590011e+02 1.341678e+03 -1.122945e+03
-3.233253e+09 -3.033237e+09 -3.193257e+09 -9.570860e+02 4.086113e+03 -1.712046e+03
-3.199247e+09 -2.999232e+09 -3.159249e+09 -4.856671e+02 1.465081e+03 -9.413879e+02
-3.105537e+09 -2.905523e+09 -3.065539e+09 -1.791517e+02 1.177138e+03 -9.662317e+02
-2.939283e+09 -2.739268e+09 -2.899285e+09 -1.541569e+02 1.670756e+03 -8.286562e+02
-1.648400e+09 -1.448390e+09 -1.608401e+09 6.914022e+00 1.195927e+03 -1.042169e+03
-1.885353e+09 -1.685342e+09 -1.845353e+09 -5.740549e+02 8.593449e+02 -7.505193e+02
-2.654892e+09 -2.454897e+09 -2.614901e+09 1.449397e+03 3.779968e+02 4.408414e+02
-2.348224e+09 -2.148235e+09 -2.308236e+09 2.736784e+02 4.545845e+01 1.858021e+02
-3.749103e+09 -3.549109e+09 -3.709113e+09 1.401009e+03 2.369227e+02 3.524715e+02
-4.290095e+09 -4.090103e+09 -4.250107e+09 1.764753e+03 3.547325e+02 4.136822e+02
-3.337444e+09 -3.137451e+09 -3.297454e+09 1.277838e+03 2.847075e+02 4.091136e+02
-3.832709e+09 -3.632715e+09 -3.792718e+09 8.404129e+02 1.190534e+02 1.854998e+02
-4.075096e+09 -3.875103e+09 -4.035106e+09 1.066922e+03 2.412610e+02 1.901678e+02
-3.821310e+09 -3.621317e+09 -3.781321e+09 1.799466e+03 2.467556e+02 4.697483e+02
-2.697619e+09 -2.497622e+09 -2.657626e+09 2.066409e+02 1.326025e+01 3.696587e+01
-2.625427e+09 -2.425427e+09 -2.585433e+09 1.276763e+02 3.806961e+01 1.203703e+02
-1.623005e+09 -1.423008e+09 -1.583012e+09 -1.344020e+02 -6.589833e+01 1.826469e+02
-4.498165e+09 -4.298147e+09 -4.458170e+09 2.965206e+02 1.657759e+02 1.570014e+02
-2.808155e+09 -2.608155e+09 -2.768161e+09 8.986662e+02 2.323978e+02 2.783431e+02
-3.287753e+09 -3.087754e+09 -3.247760e+09 1.599524e+03 5.515093e+02 5.818716e+02
-4.573324e+09 -4.373326e+09 -4.533331e+09 5.563588e+02 4.714393e+01 2.007247e+01
-1.677932e+09 -1.477933e+09 -1.637938e+09 1.915585e+02 5.077755e+01 4.203338e+01
-2.855834e+09 -2.655835e+09 -2.815841e+09 1.832300e+02 3.983264e+00 8.343090e+01
-4.773615e+09 -4.573617e+09 -4.733622e+09 7.232240e+02 -1.111764e+01 4.323977e+01
-3.605829e+09 -3.405830e+09 -3.565836e+09 3.962944e+02 2.207753e+02 2.260794e+02
-2.204481e+09 -2.004493e+09 -2.164501e+09 1.372038e+03 -9.291032e+03 7.467158e+02
-2.131912e+09 -1.931934e+09 -2.091945e+09 1.317967e+04 -1.013045e+04 -9.197636e+03
-2.235376e+09 -2.035375e+09 -2.195381e+09 2.574580e+02 1.220341e+02 1.163496e+02
-2.031817e+09 -1.831840e+09 -1.991840e+09 8.203086e+02 -7.724794e+03 8.654999e+02
-3.733029e+09 -3.533027e+09 -3.693035e+09 1.169608e+03 5.309678e+02 4.816349e+02
-3.894457e+09 -3.694456e+09 -3.854463e+09 6.178257e+02 1.012809e+02 3.888124e+02
-2.649168e+09 -2.449205e+09 -2.609212e+09 -2.730370e+02 -8.371849e+03 6.290301e+02
-3.789578e+09 -3.589574e+09 -3.749601e+09 7.247673e+03 -4.795653e+03 -2.129301e+03
-4.926046e+09 -4.726040e+09 -4.886055e+09 -6.088773e+02 -2.666430e-06 2.452384e+02
-2.661119e+09 -2.461119e+09 -2.621125e+09 1.176996e+02 6.484737e+01 2.700850e+02
-1.621633e+09 -1.421639e+09 -1.581642e+09 -2.552438e+02 -9.024110e+03 8.548152e+02
-2.900508e+09 -2.700521e+09 -2.860534e+09 1.397965e+03 -8.425476e+03 -6.032387e+02
-4.002084e+09 -3.802084e+09 -3.962090e+09 8.535286e+02 1.469043e+02 1.719515e+02
-1.919288e+09 -1.719298e+09 -1.879304e+09 2.472968e+03 -1.094107e+04 -4.624306e+03
-3.272282e+09 -3.072306e+09 -3.232322e+09 5.283282e+03 -7.353119e+03 -6.335909e+03
-1.966934e+09 -1.766939e+09 -1.926948e+09 6.874115e+03 -1.267404e+04 -1.053005e+04
-4.596162e+09 -4.396160e+09 -4.556169e+09 7.688541e+02 1.516157e+02 2.216277e+02
-2.972565e+09 -2.772557e+09 -2.932572e+09 3.368113e+03 3.750531e+03 2.580948e+03
-3.193753e+09 -2.993752e+09 -3.153759e+09 5.476333e+02 1.641299e+02 4.244281e+02
-2.640070e+09 -2.440066e+09 -2.600074e+09 2.231165e+02 2.323875e+02 8.658639e+02
-2.576093e+09 -2.376087e+09 -2.536097e+09 2.914119e+02 1.839195e+02 1.056677e+03
-4.098953e+09 -3.898953e+09 -4.058959e+09 2.685370e+02 -3.492913e+01 1.570923e+02
-4.746028e+09 -4.546026e+09 -4.706053e+09 3.563797e+03 -1.619430e+03 -1.106414e+03
-4.645185e+09 -4.445187e+09 -4.605193e+09 1.281640e+03 8.678479e+00 2.050429e+02
-4.827584e+09 -4.627584e+09 -4.787591e+09 1.007598e+03 -3.001472e+01 1.371941e+02
-1.863255e+09 -1.663251e+09 -1.823259e+09 8.796225e+02 8.341398e+02 8.898975e+02
-1.630929e+09 -1.430925e+09 -1.590933e+09 2.505160e+02 3.144626e+02 7.713919e+02
-2.953444e+09 -2.753443e+09 -2.913451e+09 2.219734e+03 1.437708e+03 1.431721e+03
-2.421384e+09 -2.221382e+09 -2.381390e+09 1.125740e+03 7.177293e+02 1.082610e+03
-4.996606e+09 -4.796601e+09 -4.956631e+09 1.155655e+04 -1.298281e+03 -1.497699e+03
-4.075233e+09 -3.875239e+09 -4.035263e+09 1.519843e+03 -5.800388e+03 -1.127284e+03
-2.857184e+09 -2.657177e+09 -2.817195e+09 4.073462e+03 -6.823532e+03 -3.459059e+03
-1.682335e+09 -1.482332e+09 -1.642339e+09 3.641906e+02 4.220458e+02 7.178989e+02
-1.631452e+09 -1.431449e+09 -1.591457e+09 2.499287e+02 2.555143e+02 5.701061e+02
-1.910124e+09 -1.710164e+09 -1.870153e+09 7.606887e+03 -7.040393e+03 -2.087344e+04
-1.908987e+09 -1.708997e+09 -1.868982e+09 3.403541e+03 -1.121903e+04 -1.172174e+04
-4.996867e+09 -4.796859e+09 -4.956886e+09 5.933101e+03 -9.939510e+02 -5.483192e+02
-2.575743e+09 -2.375741e+09 -2.535756e+09 1.850462e+03 -8.049493e+03 -2.508591e+03
-1.596548e+09 -1.396559e+09 -1.556547e+09 2.480444e+02 -9.175847e+03 -1.015689e+04
-3.247329e+09 -3.047341e+09 -3.207360e+09 4.262296e+03 -8.838957e+03 -3.616981e+03
-4.818973e+09 -4.619050e+09 -4.779034e+09 -1.026379e+03 -6.894532e+02 2.609961e+03
-4.647068e+09 -4.447173e+09 -4.607118e+09 -7.722019e+03 -1.862390e+02 -1.342743e+02
-3.961358e+09 -3.761447e+09 -3.921425e+09 -7.626154e+03 -1.093295e+03 -1.642569e+03
-4.991306e+09 -4.791426e+09 -4.951328e+09 1.446921e+04 3.325067e+01 1.605886e+03
-4.822942e+09 -4.623041e+09 -4.783002e+09 6.592255e+03 -2.477791e+03 1.516333e+03
-3.961774e+09 -3.761843e+09 -3.921839e+09 -8.362854e+03 -1.795808e+03 4.795152e+03
-4.307202e+09 -4.107279e+09 -4.267252e+09 -1.110650e+04 9.550015e+00 7.876587e+03
-2.205409e+09 -2.005401e+09 -2.165412e+09 3.324089e+02 1.082324e+03 1.016121e+03
-2.907244e+09 -2.707236e+09 -2.867248e+09 1.721265e+02 2.342901e+02 7.976211e+02
-4.682925e+09 -4.482913e+09 -4.642931e+09 7.956552e+02 1.709143e+02 2.555355e+02
-4.443806e+09 -4.243795e+09 -4.403812e+09 5.577499e+02 1.175778e+02 4.996742e+02
-1.686252e+09 -1.486243e+09 -1.646253e+09 4.269956e+02 8.778391e+03 1.020570e+03
-4.278290e+09 -4.078173e+09 -4.237947e+09 5.828417e+04 -2.930132e+04 -3.382909e+04
-4.608519e+09 -4.408513e+09 -4.568525e+09 4.817470e+02 1.155056e+02 3.546388e+02
-3.173748e+09 -2.973732e+09 -3.133753e+09 4.100604e+03 5.541883e+03 2.790793e+03
-4.304042e+09 -4.104123e+09 -4.264094e+09 1.867449e+03 3.151721e+02 7.397100e+03
-2.470630e+09 -2.270629e+09 -2.430636e+09 1.501168e+03 7.471976e+02 5.096321e+02
-2.670780e+09 -2.470764e+09 -2.630784e+09 1.022203e+02 -7.699895e+02 -9.715926e+02
-1.807464e+09 -1.607451e+09 -1.767464e+09 3.103611e+02 -3.488472e+03 -2.364589e+03
-1.701470e+09 -1.501465e+09 -1.661473e+09 -1.280812e+03 -7.160986e+03 4.714822e+03
-2.176213e+09 -1.976198e+09 -2.136214e+09 3.925860e+01 -3.658839e+02 -1.490601e+03
-2.904082e+09 -2.704073e+09 -2.864088e+09 -3.542201e+02 -3.902845e+02 1.898830e+03
-4.650750e+09 -4.450727e+09 -4.610762e+09 5.661188e+03 -2.195614e+03 -1.658894e+03
-1.935481e+09 -1.735470e+09 -1.895483e+09 -1.751354e+03 -1.983556e+03 -1.942416e+03
-1.949378e+09 -1.749369e+09 -1.909379e+09 -3.786864e+02 -8.570721e+03 -2.757984e+02
-4.132393e+09 -3.932393e+09 -4.092415e+09 -1.646237e+04 -3.523476e+03 3.751712e+03
-1.959240e+09 -1.759231e+09 -1.919243e+09 -3.010968e+02 -2.366913e+03 2.595079e+03
-4.132164e+09 -3.932161e+09 -4.092187e+09 -2.004557e+04 -6.387550e+03 5.679135e+03
-1.632136e+09 -1.432129e+09 -1.592137e+09 -1.935531e+02 -1.003829e+03 2.186777e+03
-3.814930e+09 -3.614920e+09 -3.774938e+09 -7.970302e+02 -3.895942e+02 1.261314e+03
-1.587147e+09 -1.387141e+09 -1.547148e+09 3.798197e+02 -7.085311e+03 3.244780e+03
-3.381542e+09 -3.181523e+09 -3.341549e+09 -4.032419e+03 -7.284539e+03 2.462107e+03
-4.992316e+09 -4.792318e+09 -4.952342e+09 -1.700430e+04 -2.028392e+03 8.840374e+02
-4.133176e+09 -3.933178e+09 -4.093192e+09 -8.754353e+03 -2.079322e+03 2.563356e+03
-4.996248e+09 -4.796217e+09 -4.956256e+09 -1.029141e+03 -9.458929e+02 3.620895e+02
-3.962465e+09 -3.762455e+09 -3.922480e+09 -1.367694e+04 -4.184101e+03 3.782412e+03
-4.133506e+09 -3.933496e+09 -4.093525e+09 -1.673874e+04 -6.170053e+03 4.296045e+03
-4.131341e+09 -3.931339e+09 -4.091359e+09 -1.095129e+04 -2.841491e+03 2.862656e+03
-4.820947e+09 -4.620940e+09 -4.780961e+09 -8.671155e+03 -1.027155e+03 1.279202e+03
-4.816891e+09 -4.616886e+09 -4.776909e+09 -1.304446e+04 -8.385909e+02 1.204003e+03
-4.990503e+09 -4.790498e+09 -4.950524e+09 -1.439551e+04 -1.728838e+03 7.879447e+02
-4.554054e+09 -4.354043e+09 -4.514061e+09 1.753240e+03 4.674465e+02 4.423671e+02
-2.076717e+09 -1.876703e+09 -2.036718e+09 6.831826e+02 -4.596064e+03 -1.623932e+03
-2.070303e+09 -1.870286e+09 -2.030303e+09 6.829379e+02 -9.938193e+03 -2.991930e+03
-1.634799e+09 -1.434792e+09 -1.594801e+09 2.360314e+02 5.265136e+02 1.044521e+03
-4.990771e+09 -4.790705e+09 -4.950769e+09 9.232231e+03 -3.774271e+03 -1.450689e+03
-4.824401e+09 -4.624311e+09 -4.784380e+09 2.735157e+03 -4.471057e+03 -1.713321e+03
-4.138968e+09 -3.938854e+09 -4.098906e+09 1.446220e+04 9.077501e+02 7.086782e+03
-3.965193e+09 -3.765113e+09 -3.925180e+09 8.246188e+03 -6.709458e+03 -1.143960e+03
-4.316065e+09 -4.115977e+09 -4.276028e+09 1.167714e+04 -1.170837e+04 -8.403060e+02
-4.809727e+09 -4.609646e+09 -4.769716e+09 1.564650e+04 -8.399638e+03 -1.654218e+03
-4.305877e+09 -4.105805e+09 -4.265861e+09 3.123293e+03 -1.325071e+04 -1.697272e+03
-2.584001e+09 -2.384013e+09 -2.544014e+09 1.890057e+01 1.140030e+01 2.138242e+02
-2.117766e+09 -1.917778e+09 -2.077779e+09 8.498068e+01 4.473084e+01 2.082683e+02
-1.885827e+09 -1.685838e+09 -1.845839e+09 1.372437e+02 -2.887104e+01 2.437593e+02
-1.632121e+09 -1.432133e+09 -1.592134e+09 3.449533e+01 4.052188e+01 2.476339e+02
-3.573143e+09 -3.373154e+09 -3.533155e+09 4.707341e+02 1.572464e+02 4.707302e+02
-4.652850e+09 -4.452754e+09 -4.612815e+09 -1.561162e+03 -2.776408e+03 3.044110e+02
-3.782815e+09 -3.582817e+09 -3.742822e+09 1.639338e+02 3.037996e+01 3.632566e+01
-3.181302e+09 -2.981305e+09 -3.141309e+09 4.582314e+02 1.389913e+02 1.165305e+02
-2.194004e+09 -1.994015e+09 -2.154016e+09 1.278663e+02 4.305612e+00 1.925811e+02
-4.473983e+09 -4.273996e+09 -4.433973e+09 6.549502e+04 8.957217e+02 2.131522e+03
-3.793273e+09 -3.593307e+09 -3.753325e+09 2.291814e+03 -5.538873e+03 2.859405e+02
-4.582235e+09 -4.382281e+09 -4.542299e+09 9.476124e+03 -1.890696e+03 -7.097748e+02
-4.648696e+09 -4.448763e+09 -4.608751e+09 3.062288e+04 -7.428275e+01 -1.328134e+03
-4.133602e+09 -3.933662e+09 -4.093652e+09 3.556685e+04 -4.238719e+03 -1.003480e+04
-1.565492e+09 -1.365499e+09 -1.525490e+09 5.379440e+02 -5.086710e+03 -6.411765e+03
-4.926151e+09 -4.726141e+09 -4.886160e+09 -7.581007e+02 -5.192138e-05 1.612840e+02
-3.354316e+09 -3.154319e+09 -3.314323e+09 3.235651e+02 3.542830e+01 -3.880901e+01
-1.975585e+09 -1.775581e+09 -1.935589e+09 -1.042795e+03 -1.423834e+03 1.577864e+03
-4.626475e+09 -4.426471e+09 -4.586488e+09 -6.134783e+03 -9.409293e+02 5.180747e+02
-4.047563e+09 -3.847553e+09 -4.007574e+09 -6.162322e+03 -1.992697e+03 2.439633e+03
-4.558428e+09 -4.358432e+09 -4.518436e+09 3.288163e+02 6.122006e+01 4.760363e+01
-3.803844e+09 -3.603847e+09 -3.763851e+09 5.975793e+02 8.369416e+01 1.017538e+02
-3.560041e+09 -3.360044e+09 -3.520048e+09 5.362571e+01 4.222666e+01 9.035403e+00
-4.046831e+09 -3.846835e+09 -4.006839e+09 -1.659946e+02 -2.384929e+01 6.948971e+01
-3.881986e+09 -3.681989e+09 -3.841993e+09 7.495105e+02 7.341217e+01 8.509130e+01
-3.484357e+09 -3.284360e+09 -3.444366e+09 -1.860579e+03 -3.899466e+02 5.629681e+02
-2.898620e+09 -2.698622e+09 -2.858627e+09 3.969851e+02 7.812978e+01 4.376679e+01
-4.653030e+09 -4.453033e+09 -4.613038e+09 1.115285e+03 5.915871e+01 7.657064e+01
-4.828748e+09 -4.628750e+09 -4.788756e+09 1.525251e+03 -1.043934e+02 2.341868e+02
-4.916192e+09 -4.716194e+09 -4.876198e+09 4.380584e+01 9.946754e-05 -1.079921e+01
-4.953726e+09 -4.753729e+09 -4.913733e+09 0.000000e+00 -1.848711e+01 -1.887189e+01
-4.732237e+09 -4.532240e+09 -4.692244e+09 9.515002e+01 1.351152e+01 -1.820731e+01
-3.500885e+09 -3.300887e+09 -3.460892e+09 4.209698e+02 3.055137e+01 8.682326e+01
-3.300398e+09 -3.100401e+09 -3.260405e+09 1.474694e+02 -2.080782e+01 1.235721e-01
-4.486922e+09 -4.286925e+09 -4.446930e+09 1.155323e+03 1.131392e+02 2.682703e+01
-4.148341e+09 -3.948344e+09 -4.108348e+09 2.387020e+02 8.384855e+00 -3.847982e+00
-4.953726e+09 -4.753729e+09 -4.913733e+09 4.240980e+01 1.119702e+00 -6.612194e+00
-4.391696e+09 -4.191698e+09 -4.351703e+09 2.414031e+01 1.762291e+01 3.322498e-02
-3.617554e+09 -3.417556e+09 -3.577560e+09 2.054202e+02 1.075715e+02 8.873785e+01
-4.812855e+09 -4.612857e+09 -4.772862e+09 5.422038e+02 -3.662042e+01 4.984861e+01
-4.838401e+09 -4.638414e+09 -4.798416e+09 -8.090002e+02 7.027669e+01 1.780044e+02
-3.359331e+09 -3.159340e+09 -3.319343e+09 -1.067999e+03 -2.545348e+02 6.400754e+02
-2.204418e+09 -2.004429e+09 -2.164431e+09 -1.226737e+03 -4.796622e+02 1.326040e+03
-4.915713e+09 -4.715716e+09 -4.875720e+09 4.184348e+01 -1.273308e+01 -9.948550e-05
-4.921370e+09 -4.721373e+09 -4.881377e+09 8.736677e+01 -3.143212e+01 -1.492630e-04
-3.736700e+09 -3.536712e+09 -3.696713e+09 9.486667e+01 -1.735153e+01 1.762508e+02
-4.948892e+09 -4.748896e+09 -4.908900e+09 -5.076068e+01 1.789066e+01 6.676654e+00
-3.246395e+09 -3.046405e+09 -3.206407e+09 -3.264964e+02 -1.813779e+02 2.534487e+02
-4.948892e+09 -4.748896e+09 -4.908900e+09 0.000000e+00 2.498210e+01 -3.489747e+01
-3.919478e+09 -3.719482e+09 -3.879485e+09 -3.411036e+01 2.321170e+01 9.221573e+00
-4.494305e+09 -4.294310e+09 -4.454313e+09 -6.710096e+01 -6.374403e+01 3.490465e+01
-4.751389e+09 -4.551400e+09 -4.711402e+09 -2.991493e+02 -1.000006e+02 -3.044414e+01
-2.668395e+09 -2.468407e+09 -2.628408e+09 -5.414246e+01 -1.476869e+02 1.922004e+02
-3.557725e+09 -3.357734e+09 -3.517736e+09 -4.320922e+02 -1.451595e+02 3.133060e+02
-3.716946e+09 -3.516954e+09 -3.676957e+09 -7.030788e+02 -1.503361e+02 3.336850e+02
-4.274128e+09 -4.074135e+09 -4.234138e+09 -1.231066e+03 -1.189801e+02 1.850106e+02
-3.201719e+09 -3.001719e+09 -3.161725e+09 3.957531e+02 9.942230e+01 2.537780e+02
-4.985025e+09 -4.785030e+09 -4.945033e+09 -1.951156e+02 4.232385e+01 5.269544e+01
-3.330655e+09 -3.130664e+09 -3.290667e+09 -6.792320e+02 -2.175586e+02 2.607764e+02
-3.234815e+09 -3.034823e+09 -3.194826e+09 -1.322304e+03 -5.319851e+02 6.191141e+02
-2.990896e+09 -2.790905e+09 -2.950907e+09 -1.330256e+03 -4.490441e+02 1.102397e+03
-4.821563e+09 -4.621573e+09 -4.781576e+09 -1.513048e+03 -2.208796e+02 1.633027e+02
-4.623387e+09 -4.423395e+09 -4.583398e+09 2.950974e+02 5.977661e+00 8.973446e+01
-4.997790e+09 -4.797798e+09 -4.957802e+09 -1.283123e+03 5.201640e+01 6.798338e+00
-4.916350e+09 -4.716357e+09 -4.876360e+09 -1.503352e+02 4.385938e+01 -1.177430e-07
-3.020510e+09 -2.820518e+09 -2.980520e+09 -1.274602e+03 -4.501338e+02 8.008167e+02
-4.755847e+09 -4.555857e+09 -4.715859e+09 -2.960979e+02 -8.578271e+01 -4.797203e+01
-3.413015e+09 -3.213021e+09 -3.373024e+09 -8.828404e+02 -2.403231e+02 3.006439e+02
-4.820348e+09 -4.620359e+09 -4.780363e+09 -2.382813e+03 -2.930044e+02 3.807574e+02
-2.519903e+09 -2.319907e+09 -2.479911e+09 -2.021303e+02 -8.274331e+01 4.679602e+01
-3.563184e+09 -3.363187e+09 -3.523192e+09 -1.357612e+03 -2.646608e+02 3.616951e+02
-1.582705e+09 -1.382712e+09 -1.542715e+09 -1.007305e+03 -3.616641e+02 5.434594e+02
-4.924426e+09 -4.724436e+09 -4.884438e+09 -1.925288e+02 4.836975e+01 -1.662958e-07
-3.947285e+09 -3.747288e+09 -3.907294e+09 -1.356844e+03 -2.437910e+02 3.082742e+02
-4.831054e+09 -4.631057e+09 -4.791062e+09 -7.921008e+02 -8.594253e+01 7.331768e+01
-3.899963e+09 -3.699972e+09 -3.859975e+09 -1.877721e+03 -2.688036e+02 7.862707e+02
-4.992717e+09 -4.792726e+09 -4.952728e+09 -7.641204e+02 -3.630844e+01 9.199480e+01
-4.826337e+09 -4.626341e+09 -4.786345e+09 -5.418725e+02 -9.140447e+01 2.163541e+01
-1.910628e+09 -1.710625e+09 -1.870632e+09 1.788438e+02 2.334270e+02 4.766015e+02
-1.939210e+09 -1.739219e+09 -1.899221e+09 -1.682893e+02 -4.960021e+01 1.668302e+02
-3.523723e+09 -3.323733e+09 -3.483735e+09 -1.776162e+02 -1.634756e+02 1.150181e+02
-4.994802e+09 -4.794809e+09 -4.954812e+09 -5.833253e+02 2.873365e+01 5.498436e+00
-2.966657e+09 -2.766664e+09 -2.926668e+09 -1.399803e+03 -5.604461e+02 6.733445e+02
-2.106771e+09 -1.906777e+09 -2.066780e+09 -3.693519e+02 -7.121018e+01 1.601569e+02
-4.298135e+09 -4.098139e+09 -4.258143e+09 -9.006594e+02 -7.605063e+01 5.293913e+01
-4.924897e+09 -4.724879e+09 -4.884906e+09 -8.125835e+02 -4.261169e-06 2.936627e+02
-4.931321e+09 -4.731328e+09 -4.891331e+09 1.984766e+02 -4.965426e+01 4.956201e-05
-1.635250e+09 -1.435244e+09 -1.595253e+09 -2.565348e+02 -7.542981e+02 1.919990e+03
-1.632135e+09 -1.432129e+09 -1.592137e+09 4.249616e+01 -1.021047e+03 2.212395e+03
-2.984861e+09 -2.784850e+09 -2.944869e+09 -3.395820e+03 -4.987574e+03 3.702681e+03
-1.893261e+09 -1.693256e+09 -1.853266e+09 -4.255841e+03 -5.856365e+03 3.789365e+03
-2.993247e+09 -2.793240e+09 -2.953253e+09 -2.037065e+03 -1.720522e+03 1.939195e+03
-2.884364e+09 -2.684359e+09 -2.844371e+09 -2.781712e+03 -2.457352e+03 1.964696e+03
-2.810984e+09 -2.610971e+09 -2.770989e+09 -1.658308e+03 -4.264502e+03 2.519811e+03
-1.877955e+09 -1.677958e+09 -1.837963e+09 8.316277e+02 1.802764e+02 9.511751e+01
-1.878969e+09 -1.678963e+09 -1.838971e+09 -1.559782e+02 -8.130215e+02 1.916008e+03
-3.906732e+09 -3.706726e+09 -3.866740e+09 -6.229478e+02 -2.471756e+02 9.869955e+02
-1.887323e+09 -1.687316e+09 -1.847326e+09 -1.163917e+03 -2.523533e+03 2.599481e+03
-4.105310e+09 -3.905299e+09 -4.065319e+09 -8.317983e+02 -7.633343e+02 1.333586e+03
-1.580210e+09 -1.380206e+09 -1.540213e+09 -6.153498e+02 -3.987946e+03 3.277373e+03
-2.709570e+09 -2.509560e+09 -2.669574e+09 4.664700e+02 -1.550512e+03 -1.256242e+03
-2.583688e+09 -2.383678e+09 -2.543694e+09 -4.423904e+03 -4.733732e+03 3.070714e+03
-3.193771e+09 -2.993761e+09 -3.153779e+09 -4.123934e+03 -5.543298e+03 4.129211e+03
-2.454839e+09 -2.254830e+09 -2.414845e+09 -3.121748e+03 -4.428632e+03 2.825689e+03
-3.722672e+09 -3.522661e+09 -3.682678e+09 -2.415215e+02 -5.083029e+02 -5.474204e+02
-3.549602e+09 -3.349587e+09 -3.509606e+09 -2.635562e+03 3.261428e+03 -1.391813e+03
-3.289683e+09 -3.089672e+09 -3.249687e+09 1.025721e-04 -4.740021e+02 -3.657794e+02
-4.617316e+09 -4.417305e+09 -4.577323e+09 -9.721788e-01 -3.420470e+02 9.947598e-05
-3.230106e+09 -3.030094e+09 -3.190110e+09 -1.040284e+03 4.076115e+03 -2.315732e+03
-4.818800e+09 -4.618789e+09 -4.778813e+09 9.980333e+03 5.701478e+02 9.165579e+02
-4.819399e+09 -4.619384e+09 -4.779411e+09 1.057227e+04 2.123524e+03 4.696172e+02
-1.605521e+09 -1.405512e+09 -1.565522e+09 1.266513e+02 -1.760616e+03 -7.667879e+02
-3.961948e+09 -3.761941e+09 -3.921961e+09 1.145771e+04 3.451043e+03 3.191050e+03
-4.992095e+09 -4.792086e+09 -4.952113e+09 1.442635e+04 1.870390e+03 3.066438e+02
-4.133119e+09 -3.933109e+09 -4.093129e+09 6.297263e+03 2.359944e+03 1.952685e+03
-3.947672e+09 -3.747648e+09 -3.907681e+09 -8.265083e+03 5.512369e+03 -2.056297e+03
-4.993874e+09 -4.793852e+09 -4.953882e+09 -6.117038e+03 1.457561e+03 -7.730087e+02
-3.511820e+09 -3.311811e+09 -3.471824e+09 -5.115767e+02 1.559679e+03 -3.313427e+02
-4.312707e+09 -4.112689e+09 -4.272722e+09 -1.142036e+04 4.490225e+03 -1.657425e+03
-3.979459e+09 -3.779451e+09 -3.939472e+09 -4.192946e+03 3.044596e+03 -7.545926e+02
-4.647182e+09 -4.447165e+09 -4.607194e+09 1.178044e+04 1.746474e+03 1.102270e+03
-4.139411e+09 -3.939412e+09 -4.099431e+09 1.324041e+04 2.663469e+03 3.033467e+03
-4.818968e+09 -4.618957e+09 -4.778987e+09 1.915117e+04 1.120867e+03 1.535021e+03
-4.819824e+09 -4.619803e+09 -4.779837e+09 1.604075e+04 3.164563e+03 1.031247e+03
-4.133276e+09 -3.933265e+09 -4.093291e+09 1.378584e+04 3.696663e+03 3.287665e+03
-4.133216e+09 -3.933202e+09 -4.093232e+09 1.594129e+04 6.478130e+03 3.665219e+03
-4.817451e+09 -4.617453e+09 -4.777465e+09 -6.116937e+03 -1.003970e+03 4.998859e+00
-4.994760e+09 -4.794766e+09 -4.954780e+09 9.356211e+03 6.921231e+02 1.109610e+03
-3.962488e+09 -3.762491e+09 -3.922502e+09 6.960651e+03 2.082734e+03 2.029634e+03
-3.967530e+09 -3.767531e+09 -3.927547e+09 9.158326e+03 2.326033e+03 2.746663e+03
-4.991993e+09 -4.792137e+09 -4.952009e+09 -2.235290e+04 2.820693e+03 -6.863367e+03
-4.820416e+09 -4.620558e+09 -4.780464e+09 1.412161e+04 1.227437e+04 2.750929e+03
-3.960587e+09 -3.760765e+09 -3.920519e+09 -6.197968e+03 -3.317992e+03 4.049527e+04
-4.301956e+09 -4.102118e+09 -4.261843e+09 -2.605445e+04 -6.974683e+03 1.012749e+04
-4.648656e+09 -4.448789e+09 -4.608683e+09 -2.898209e+04 -1.838165e+03 2.981050e+03
-4.992474e+09 -4.792604e+09 -4.952555e+09 1.962431e+04 4.348072e+02 -6.234008e+03
-4.991240e+09 -4.791243e+09 -4.951256e+09 -6.221319e+03 7.774515e+01 1.061153e+02
-4.133482e+09 -3.933633e+09 -4.093494e+09 8.287629e+01 -2.082500e+03 1.010288e+04
-2.110274e+09 -1.910318e+09 -2.070313e+09 -3.764629e+03 6.052037e+03 -2.110002e+03
-3.960187e+09 -3.760192e+09 -3.920202e+09 -6.209679e+03 -1.383942e+03 2.261549e+03
-4.113672e+09 -3.913680e+09 -4.073691e+09 -8.423263e+03 -1.677819e+03 2.398812e+03
-4.647150e+09 -4.447152e+09 -4.607165e+09 -7.330082e+03 -8.761382e+02 5.723151e+02
-1.960395e+09 -1.760417e+09 -1.920414e+09 -7.606641e+03 5.331751e+03 -2.701060e+03
-4.132417e+09 -3.932414e+09 -4.092433e+09 -9.556883e+03 -2.601552e+03 1.941312e+03
-3.228941e+09 -3.029041e+09 -3.188998e+09 7.687434e+03 -5.444706e+02 -1.166697e+04
-3.960938e+09 -3.761076e+09 -3.920877e+09 -4.372101e+04 -2.102063e+04 3.007115e+04
-3.962323e+09 -3.762450e+09 -3.922328e+09 -1.355279e+04 -2.875840e+03 3.083969e+03
-4.293182e+09 -4.093190e+09 -4.253205e+09 -1.151990e+04 -2.764567e+03 3.130783e+03
-3.962369e+09 -3.762372e+09 -3.922386e+09 -8.421710e+03 -2.247714e+03 2.976718e+03
-4.992068e+09 -4.792072e+09 -4.952087e+09 -9.329251e+03 -4.588910e+02 6.631599e+02
-4.133463e+09 -3.933469e+09 -4.093474e+09 -2.445546e+03 -2.404663e+02 7.560570e+02
-4.305177e+09 -4.105175e+09 -4.265190e+09 -7.141309e+03 -1.819162e+03 1.301521e+03
-4.304343e+09 -4.104332e+09 -4.264364e+09 -2.489929e+04 -7.786704e+03 4.865732e+03
-4.647370e+09 -4.447344e+09 -4.607384e+09 -2.894268e+04 -2.051446e+03 1.560695e+03
-4.546800e+09 -4.346787e+09 -4.506805e+09 1.788242e+03 3.830799e+02 2.519348e+02
-3.380732e+09 -3.180721e+09 -3.340738e+09 -2.886404e+03 4.015159e+03 -1.513082e+03
-4.990700e+09 -4.790668e+09 -4.950709e+09 -7.653205e+03 2.108280e+03 -1.264325e+03
-4.283769e+09 -4.083746e+09 -4.243774e+09 -1.082030e+03 2.517415e+03 -3.502048e+02
-4.628271e+09 -4.428236e+09 -4.588279e+09 -1.042045e+04 2.490876e+03 -6.816191e+02
-5.036374e+09 -4.836358e+09 -4.996381e+09 3.783199e+03 3.432586e+02 1.715989e+01
-4.656460e+09 -4.456441e+09 -4.616465e+09 -9.268749e+02 8.136862e+02 -2.848939e+02
-1.606509e+09 -1.406500e+09 -1.566509e+09 -2.977127e+01 3.554556e+03 -1.809335e+03
-4.990789e+09 -4.790762e+09 -4.950796e+09 -3.895199e+03 1.457788e+03 -7.695782e+02
-2.746319e+09 -2.546309e+09 -2.706323e+09 1.080953e+03 2.261389e+03 1.097422e+03
-4.992786e+09 -4.792766e+09 -4.952792e+09 -3.458122e+03 7.539511e+02 -3.134896e+02
-2.963141e+09 -2.763125e+09 -2.923146e+09 2.018814e+03 8.079238e+03 1.684443e+03
-4.113029e+09 -3.913019e+09 -4.073034e+09 9.631157e+02 5.126191e+02 4.274607e+02
-4.559325e+09 -4.359313e+09 -4.519332e+09 3.047358e+03 6.783011e+02 3.281143e+02
-4.817635e+09 -4.617570e+09 -4.777637e+09 6.221973e+03 -4.924588e+03 -5.158910e+02
-3.331817e+09 -3.131813e+09 -3.291822e+09 6.251297e+02 2.571000e+02 4.038096e+02
-2.987902e+09 -2.787887e+09 -2.947908e+09 2.627449e+03 6.601382e+03 2.174195e+03
-4.863220e+09 -4.663238e+09 -4.823244e+09 -5.945779e+03 7.767602e+01 1.066407e+03
-1.583562e+09 -1.383556e+09 -1.543564e+09 7.733501e+02 2.083186e+03 1.732416e+03
-4.119137e+09 -3.919076e+09 -4.079135e+09 1.026484e+04 -9.296265e+03 -2.852749e+03
-4.133078e+09 -3.933028e+09 -4.093072e+09 3.393626e+04 1.034737e+04 6.645799e+03
-4.639741e+09 -4.439677e+09 -4.599688e+09 4.668519e+04 -2.650676e+03 -2.634978e+03
-3.961913e+09 -3.761876e+09 -3.921886e+09 4.728795e+04 -1.557565e+02 -3.321103e+03
-4.304200e+09 -4.104154e+09 -4.264188e+09 3.544312e+04 1.055696e+04 2.350730e+03
-4.134583e+09 -3.934556e+09 -4.094597e+09 1.923382e+04 -6.521148e+03 -4.931352e+03
-3.974131e+09 -3.774115e+09 -3.934145e+09 7.454038e+03 -5.154188e+03 -2.878867e+03
-4.980504e+09 -4.780464e+09 -4.940515e+09 1.730027e+04 -3.943563e+03 -1.979286e+03
-3.962382e+09 -3.762377e+09 -3.922309e+09 -6.684758e+04 1.582053e+04 -2.044805e+04
-4.305681e+09 -4.105752e+09 -4.265532e+09 -7.479811e+04 1.045890e+04 -1.984346e+04
-4.819697e+09 -4.619666e+09 -4.779710e+09 -2.717040e+04 -7.059576e+02 2.319421e+02
-4.980503e+09 -4.780469e+09 -4.940516e+09 1.495800e+04 -2.454405e+03 -2.521387e+03
-4.819674e+09 -4.619655e+09 -4.779673e+09 -5.006631e+04 2.542169e+03 -5.643174e+03
-4.827891e+09 -4.627945e+09 -4.787937e+09 -3.364506e+04 -1.010065e+03 -1.825385e+03
-3.960711e+09 -3.760733e+09 -3.920743e+09 1.233608e+04 2.240938e+03 5.043616e+03
-4.990927e+09 -4.790954e+09 -4.950962e+09 1.003789e+04 4.813112e+02 2.203680e+03
-4.810331e+09 -4.610299e+09 -4.770343e+09 1.289261e+04 -1.977491e+03 -4.348845e+02
-3.964106e+09 -3.764078e+09 -3.924116e+09 1.127015e+04 -6.837268e+03 -2.341853e+03
-4.639075e+09 -4.439089e+09 -4.599097e+09 5.854960e+03 3.476073e+02 1.343777e+03
-3.962040e+09 -3.762076e+09 -3.922082e+09 1.324996e+04 1.237618e+03 7.987257e+03
-4.134249e+09 -3.934281e+09 -4.094286e+09 1.044775e+04 1.061920e+03 4.518504e+03
-4.308159e+09 -4.108130e+09 -4.268169e+09 8.928780e+03 -5.584175e+03 -2.654619e+03
-4.132507e+09 -3.932585e+09 -4.092567e+09 -9.545453e+02 1.281606e+03 6.779424e+03
-4.990128e+09 -4.790163e+09 -4.950169e+09 8.014119e+03 1.377919e+02 1.350194e+03
-3.962118e+09 -3.762192e+09 -3.922185e+09 9.679548e+02 3.712433e+02 5.630064e+03
-4.131259e+09 -3.931285e+09 -4.091290e+09 6.918832e+03 2.776200e+02 4.508628e+03
-4.647697e+09 -4.447725e+09 -4.607732e+09 1.142489e+04 5.399189e+02 3.402520e+03
-3.967571e+09 -3.767632e+09 -3.927265e+09 -9.020887e+04 4.188728e+04 -6.370630e+04
-4.651789e+09 -4.451889e+09 -4.611688e+09 -5.799010e+04 1.113676e+04 -2.311959e+04
-4.818626e+09 -4.618702e+09 -4.778687e+09 -7.445323e+03 4.009417e+02 1.982502e+03
-4.991069e+09 -4.791147e+09 -4.951122e+09 -4.395547e+03 3.086937e+01 1.611864e+03
-4.133105e+09 -3.933160e+09 -4.093156e+09 5.784413e+03 2.801061e+02 6.659219e+03
-4.992335e+09 -4.792431e+09 -4.952113e+09 -5.155407e+04 4.010559e+03 -1.827905e+02
-4.304295e+09 -4.104348e+09 -4.264348e+09 7.356113e+03 7.491088e+02 7.253734e+03
-4.134129e+09 -3.934014e+09 -4.094012e+09 -4.012247e+04 1.402666e+04 -1.742640e+04
-4.825440e+09 -4.625320e+09 -4.785376e+09 -5.472294e+03 -1.789454e+03 -6.452960e+03
-4.991835e+09 -4.791895e+09 -4.951887e+09 5.696695e+02 7.431580e+00 1.403946e+03
-3.962614e+09 -3.762508e+09 -3.922484e+09 -4.783961e+04 1.539696e+04 -6.920356e+03
-4.819770e+09 -4.619828e+09 -4.779825e+09 2.771433e+03 5.818555e+02 2.477344e+03
-4.132458e+09 -3.932514e+09 -4.092510e+09 -3.292011e+03 -9.849624e+02 6.858766e+03
-4.818468e+09 -4.618523e+09 -4.777505e+09 1.427761e+04 3.914222e+04 -3.218091e+04
-3.961987e+09 -3.762028e+09 -3.922031e+09 -3.496503e+03 -7.144340e+02 5.910126e+03
-3.962173e+09 -3.762134e+09 -3.921042e+09 4.610744e+04 -1.090113e+05 -1.064434e+05
-3.199759e+09 -2.999768e+09 -3.159770e+09 -4.150638e+02 -1.218723e+02 1.218287e+02
-3.607880e+09 -3.407890e+09 -3.567892e+09 -3.870445e+02 -7.112135e+01 2.644216e+02
-2.079213e+09 -1.879222e+09 -2.039224e+09 -1.086583e+03 -2.469425e+02 7.591070e+02
-2.887521e+09 -2.687530e+09 -2.847532e+09 -4.322749e+01 -7.676606e+01 9.525410e+01
-3.241629e+09 -3.041638e+09 -3.201641e+09 -1.553070e+03 -2.608469e+02 8.280431e+02
-4.826813e+09 -4.626821e+09 -4.786824e+09 -8.625278e+02 -1.488866e+02 -4.218168e+01
-4.823310e+09 -4.623290e+09 -4.783315e+09 4.312247e+02 7.285036e+02 6.913357e+01
-4.125754e+09 -3.925756e+09 -4.085762e+09 1.543268e+03 3.741834e+01 3.862716e+02
-2.889761e+09 -2.689762e+09 -2.849767e+09 8.642366e+02 2.732796e+02 2.838310e+02
-4.995672e+09 -4.795648e+09 -4.955677e+09 -4.588475e+02 7.125576e+02 3.951330e+01
-4.247585e+09 -4.047587e+09 -4.207592e+09 8.704455e+02 7.587421e+01 1.073860e+02
-1.583526e+09 -1.383525e+09 -1.543531e+09 9.531121e+02 7.051378e+02 7.257243e+02
-1.590319e+09 -1.390319e+09 -1.550325e+09 8.739011e+02 4.493536e+02 5.526253e+02
-1.684256e+09 -1.484259e+09 -1.644263e+09 8.811842e+02 2.131872e+02 2.759471e+02
-4.133826e+09 -3.933829e+09 -4.093835e+09 2.455829e+03 1.416020e+02 7.584254e+02
-2.088392e+09 -1.888391e+09 -2.048397e+09 1.462820e+03 7.039584e+02 6.300846e+02
-1.770481e+09 -1.570472e+09 -1.730481e+09 3.661596e+02 5.058834e+03 5.012836e+01
-4.308058e+09 -4.108061e+09 -4.268066e+09 1.473584e+03 9.313036e+01 1.261534e+02
-3.396026e+09 -3.196032e+09 -3.356035e+09 8.354459e+02 1.479011e+02 5.698085e+01
-3.387193e+09 -3.187167e+09 -3.347199e+09 -1.056108e+03 -8.614231e+03 9.917767e+02
-1.585205e+09 -1.385202e+09 -1.545209e+09 1.531691e+03 1.309971e+03 1.182104e+03
-3.748426e+09 -3.548427e+09 -3.708433e+09 7.941137e+02 2.298169e+02 2.611854e+02
-4.998223e+09 -4.798189e+09 -4.958231e+09 3.582225e+03 -1.221669e+03 -1.327856e+02
-4.303697e+09 -4.103697e+09 -4.263707e+09 4.288912e+03 7.944931e+02 9.711970e+02
-2.929491e+09 -2.729474e+09 -2.889495e+09 -2.352227e+02 -8.897473e+02 1.888205e+02
-3.219725e+09 -3.019727e+09 -3.179732e+09 1.023363e+03 2.051047e+02 3.260752e+02
-4.832175e+09 -4.632179e+09 -4.792184e+09 1.516380e+03 2.205618e+02 -3.276771e+01
-3.133886e+09 -2.933867e+09 -3.093890e+09 3.553047e+02 -2.148731e+03 -1.924876e+03
-4.993370e+09 -4.793343e+09 -4.953379e+09 6.394020e+02 -2.909188e+02 4.891149e+01
-3.080902e+09 -2.880882e+09 -3.040907e+09 6.954546e+01 -2.580272e+03 -7.229196e+02
-4.656989e+09 -4.456961e+09 -4.616998e+09 1.957076e+03 -1.102211e+03 -7.757787e+02
-4.970958e+09 -4.770943e+09 -4.930965e+09 -2.867666e+03 5.237314e+02 -4.878284e+02
-3.797443e+09 -3.597430e+09 -3.757446e+09 -2.191368e+02 3.261093e+02 -6.289260e+02
-2.849976e+09 -2.649964e+09 -2.809978e+09 -1.534017e+03 2.208323e+03 -1.101070e+03
-2.885778e+09 -2.685769e+09 -2.845780e+09 -1.211192e+02 3.838779e+02 -6.992593e+02
-4.993850e+09 -4.793839e+09 -4.953855e+09 -9.615321e+02 3.043011e+02 -1.532533e+02
-4.655502e+09 -4.455469e+09 -4.615511e+09 3.590408e+03 -3.259912e+03 -9.838164e+02
-4.991687e+09 -4.791674e+09 -4.951697e+09 -4.391565e+03 2.728852e+02 -1.036916e+02
-2.381884e+09 -2.181872e+09 -2.341886e+09 -6.115571e+02 3.443773e+03 -1.332794e+03
-2.654089e+09 -2.454078e+09 -2.614091e+09 -7.785891e+01 4.935275e+02 -1.047839e+03
-4.219667e+09 -4.019634e+09 -4.179673e+09 1.452532e+03 -5.546827e+03 -5.184564e+02
-4.827614e+09 -4.627585e+09 -4.787623e+09 2.068345e+03 -1.464751e+03 1.154492e+02
-4.978401e+09 -4.778405e+09 -4.938409e+09 -1.831602e+02 -1.458000e+01 -5.493173e+01
-4.567010e+09 -4.367014e+09 -4.527018e+09 -2.366681e+02 -3.002802e+01 7.343847e+01
-4.995130e+09 -4.795135e+09 -4.955139e+09 -7.229641e+02 -1.068071e+01 -1.020027e+00
-4.124209e+09 -3.924213e+09 -4.084218e+09 -1.301753e+03 -2.887179e+02 2.004917e+01
-2.798394e+09 -2.598398e+09 -2.758401e+09 -7.679218e+01 -1.999997e+01 1.392561e+01
-2.156654e+09 -1.956644e+09 -2.116656e+09 3.738013e+02 1.560696e+03 7.311284e+02
-2.572519e+09 -2.372503e+09 -2.532521e+09 -9.640895e+02 4.484432e+03 -1.052009e+03
-3.753321e+09 -3.553330e+09 -3.713332e+09 -1.330209e+02 -3.622219e+01 1.271684e+02
-3.760130e+09 -3.560138e+09 -3.720141e+09 -1.375722e+02 -3.294826e+01 9.979761e+01
-3.508629e+09 -3.308633e+09 -3.468637e+09 -1.019821e+02 -4.225628e+01 9.566695e+01
-1.590319e+09 -1.390319e+09 -1.550325e+09 7.976237e+02 3.871651e+02 3.486461e+02
-4.994292e+09 -4.794299e+09 -4.954302e+09 -8.706124e+02 5.470443e+01 1.178495e+01
-3.128080e+09 -2.928064e+09 -3.088082e+09 -2.130692e+02 1.765741e+03 -4.874110e+02
-1.844375e+09 -1.644363e+09 -1.804376e+09 9.532294e+01 2.828711e+03 -9.697085e+01
-2.592351e+09 -2.392339e+09 -2.552353e+09 -3.259952e+01 6.302775e+02 -5.181345e+02
-3.589752e+09 -3.389737e+09 -3.549755e+09 -4.665058e+02 5.442992e+02 -6.531373e+02
-4.921728e+09 -4.721736e+09 -4.881739e+09 -1.799994e+02 5.425353e+01 -1.743857e-07
-2.073301e+09 -1.873287e+09 -2.033300e+09 -4.650734e+02 5.514472e+03 -1.314728e+03
-4.135243e+09 -3.935251e+09 -4.095255e+09 -1.965344e+03 -4.415229e+02 4.022580e+02
-4.275011e+09 -4.075018e+09 -4.235021e+09 -9.621019e+02 -7.358825e+01 1.801788e+02
-2.671550e+09 -2.471538e+09 -2.631552e+09 -2.396771e+02 3.285053e+02 -8.805379e+02
-4.652557e+09 -4.452535e+09 -4.612563e+09 -1.781611e+03 1.985566e+03 -5.140103e+02
-4.306143e+09 -4.106115e+09 -4.266149e+09 -7.756730e+02 4.339007e+03 -6.220386e+02
-4.269535e+09 -4.069512e+09 -4.229539e+09 -5.683844e+02 2.766527e+03 -2.097127e+02
-4.261644e+09 -4.061648e+09 -4.221679e+09 1.826991e+04 -5.707630e+03 -4.147413e+03
-3.913258e+09 -3.713248e+09 -3.873280e+09 1.292020e+04 -5.557536e+03 -3.843116e+03
-3.573969e+09 -3.373972e+09 -3.533994e+09 3.970454e+03 -6.073284e+03 -1.978629e+03
-2.676901e+09 -2.476913e+09 -2.636926e+09 1.418294e+03 -9.213122e+03 -6.670668e+02
-4.661184e+09 -4.461249e+09 -4.621220e+09 -4.479884e+04 2.242475e+03 -2.083230e+03
-4.307611e+09 -4.107636e+09 -4.267640e+09 -4.291797e+04 -6.358563e+03 8.263533e+03
-3.962284e+09 -3.762290e+09 -3.922308e+09 -3.442963e+04 -3.424223e+03 6.650615e+03
-3.871589e+09 -3.671579e+09 -3.831606e+09 8.069860e+03 -5.411527e+03 -2.904628e+03
-4.131171e+09 -3.931166e+09 -4.091197e+09 2.853729e+04 -5.202367e+03 -2.504556e+03
-3.964161e+09 -3.764133e+09 -3.924181e+09 2.621093e+04 -5.992686e+03 -4.520545e+03
-4.820247e+09 -4.620251e+09 -4.780271e+09 -4.070474e+04 3.113254e+02 -1.948744e+03
-4.818583e+09 -4.618616e+09 -4.778625e+09 -2.770688e+04 -7.955375e+02 -4.430273e+02
-4.989826e+09 -4.789823e+09 -4.949858e+09 1.721651e+04 -1.871189e+03 -1.605553e+03
-3.961463e+09 -3.761440e+09 -3.921475e+09 1.090993e+04 -7.268696e+03 -3.680899e+03
-5.003829e+09 -4.803808e+09 -4.963842e+09 1.113123e+04 -1.813822e+03 -2.168318e+03
-4.994020e+09 -4.794040e+09 -4.954059e+09 -2.493582e+04 -2.935832e+03 2.609340e+03
-4.651159e+09 -4.451179e+09 -4.611198e+09 -2.953397e+04 -6.771120e+02 1.699784e+03
-3.962835e+09 -3.762849e+09 -3.922864e+09 -2.628397e+04 -3.112698e+03 6.415318e+03
-4.820536e+09 -4.620546e+09 -4.780566e+09 -3.631922e+04 -4.054175e+03 5.917626e+03
-4.755969e+09 -4.555957e+09 -4.715973e+09 -4.481455e+02 3.947029e+01 -2.597020e+02
-4.992500e+09 -4.792515e+09 -4.952534e+09 -3.445721e+04 -4.693227e+03 2.978883e+03
-2.205991e+09 -2.005983e+09 -2.165994e+09 -4.020810e+03 -7.959216e+03 4.493801e+03
-4.497547e+09 -4.297539e+09 -4.457557e+09 -5.471225e+02 1.222006e+03 2.852304e+01
-4.562374e+09 -4.362362e+09 -4.522381e+09 -2.613367e+03 8.921735e+02 -3.541313e+02
-2.217005e+09 -2.016997e+09 -2.177009e+09 -1.831737e+03 -3.020864e+03 1.922137e+03
-4.929112e+09 -4.729100e+09 -4.889116e+09 -3.152896e+02 -2.468884e-05 -3.199754e+01
-2.749134e+09 -2.549125e+09 -2.709140e+09 -9.601129e+02 -2.045732e+02 2.181882e+03
-3.405316e+09 -3.205306e+09 -3.365325e+09 -5.784313e+03 -4.194903e+03 2.724074e+03
-1.895843e+09 -1.695835e+09 -1.855844e+09 6.216514e+00 -6.311018e+03 4.588053e+03
-2.077315e+09 -1.877300e+09 -2.037315e+09 -1.315520e+02 6.073490e+03 -7.259036e+02
-4.995093e+09 -4.795097e+09 -4.955101e+09 8.201242e+02 5.215619e+01 -1.308428e+02
-4.488943e+09 -4.288946e+09 -4.448951e+09 1.369561e+03 1.067666e+02 1.220487e+02
-3.060705e+09 -2.860706e+09 -3.020713e+09 -1.266393e+03 -6.261821e+02 7.258843e+02
-1.581562e+09 -1.381554e+09 -1.541562e+09 6.956561e+02 5.237534e+03 1.116867e+03
-3.422405e+09 -3.222388e+09 -3.382408e+09 1.872051e+03 4.459759e+03 7.527304e+02
-3.963323e+09 -3.763328e+09 -3.923336e+09 3.803929e+03 7.780132e+02 1.242598e+03
-4.129980e+09 -3.929986e+09 -4.089991e+09 2.763937e+03 6.647288e+02 5.300353e+02
-1.579119e+09 -1.379111e+09 -1.539119e+09 8.436936e+02 4.663522e+03 1.545043e+03
-1.583527e+09 -1.383525e+09 -1.543531e+09 8.496820e+02 6.440709e+02 5.447231e+02
-4.993102e+09 -4.793107e+09 -4.953112e+09 1.897068e+03 3.938284e+01 2.494457e+01
-4.632937e+09 -4.432919e+09 -4.592943e+09 2.052684e+03 1.061218e+03 4.006544e+02
-3.810295e+09 -3.610284e+09 -3.770304e+09 9.434242e+02 -2.282614e+03 -8.484884e+02
-3.973341e+09 -3.773344e+09 -3.933349e+09 1.574390e+03 3.101460e+02 3.579951e+02
-4.829587e+09 -4.629590e+09 -4.789596e+09 1.778232e+03 5.366512e+01 6.674153e+01
-4.088144e+09 -3.888131e+09 -4.048161e+09 8.067873e+03 -4.021213e+03 -2.902258e+03
-1.867228e+09 -1.667230e+09 -1.827237e+09 -2.472222e+03 -8.854712e+03 -1.820455e+03
-1.958791e+09 -1.758789e+09 -1.918800e+09 3.232160e+03 -1.136201e+04 -6.067729e+03
-4.805078e+09 -4.605059e+09 -4.765085e+09 3.964301e+03 1.161059e+03 -4.021266e+02
-3.213193e+09 -3.013172e+09 -3.173196e+09 2.846077e+02 6.815610e+03 1.843224e+03
-3.891059e+09 -3.691035e+09 -3.851064e+09 1.520164e+03 3.207331e+03 1.984377e+02
-4.991868e+09 -4.791870e+09 -4.951879e+09 -3.201191e+03 -7.177892e+01 1.842573e+02
-2.491409e+09 -2.291405e+09 -2.451420e+09 3.007841e+03 -8.098919e+03 -3.322887e+03
-4.046556e+09 -3.846559e+09 -4.006564e+09 -2.130365e+02 4.207536e+01 1.591960e+02
-4.815489e+09 -4.615492e+09 -4.775500e+09 -2.686862e+03 -3.989191e+02 -1.104278e+02
-1.581617e+09 -1.381617e+09 -1.541621e+09 -1.636257e+02 -8.971662e+03 -4.418139e+03
-3.606692e+09 -3.406696e+09 -3.566700e+09 -1.301255e+02 -2.673571e+01 5.569740e+01
-4.700637e+09 -4.500641e+09 -4.660645e+09 -8.183024e+01 -1.412293e+01 1.773647e+01
-4.990727e+09 -4.790739e+09 -4.950743e+09 2.397572e+03 1.046182e+02 1.112590e+02
-4.990792e+09 -4.790806e+09 -4.950810e+09 3.278467e+03 5.462635e+01 2.395376e+02
-4.131093e+09 -3.931105e+09 -4.091109e+09 2.916497e+03 7.178605e+01 1.484455e+03
-4.132905e+09 -3.932916e+09 -4.092919e+09 2.094371e+03 4.697556e+02 7.472302e+02
-2.072050e+09 -1.872054e+09 -2.032058e+09 -1.827944e+02 -3.473543e+01 5.647060e+01
-4.309266e+09 -4.109251e+09 -4.269286e+09 1.238320e+04 -4.994721e+03 -2.923460e+03
-4.991805e+09 -4.791792e+09 -4.951821e+09 6.821845e+03 -1.136363e+03 -6.103288e+02
-3.974126e+09 -3.774109e+09 -3.934143e+09 1.075295e+04 -5.190497e+03 -2.615232e+03
-4.985070e+09 -4.785055e+09 -4.945084e+09 6.452647e+03 -1.294362e+03 -9.292310e+02
-2.908518e+09 -2.708522e+09 -2.868526e+09 -2.182356e+02 -3.127829e+01 1.205371e+02
-4.831661e+09 -4.631647e+09 -4.791676e+09 7.747799e+03 -6.762098e+02 -1.566568e+03
-4.304896e+09 -4.104920e+09 -4.264941e+09 3.374139e+04 -5.530376e+03 -5.241290e+03
-3.958474e+09 -3.758457e+09 -3.918490e+09 1.287825e+04 -6.374802e+03 -3.654709e+03
-3.961454e+09 -3.761427e+09 -3.921470e+09 1.673660e+04 -6.849813e+03 -3.234304e+03
-4.297041e+09 -4.097057e+09 -4.257060e+09 1.359463e+03 1.193722e+02 9.427061e+02
-2.059495e+09 -1.859493e+09 -2.019500e+09 1.024907e+03 6.759428e+02 7.132640e+02
-4.389825e+09 -4.189838e+09 -4.349840e+09 1.050981e+03 1.764914e+02 5.115632e+02
-3.919350e+09 -3.719354e+09 -3.879357e+09 -5.970827e+01 4.306067e+00 -2.202866e+01
-4.818711e+09 -4.618726e+09 -4.778731e+09 3.672486e+03 6.244538e+02 3.142587e+02
-4.989672e+09 -4.789678e+09 -4.949684e+09 2.791530e+03 9.315279e+01 -8.409767e+01
-4.991734e+09 -4.791758e+09 -4.951762e+09 2.119652e+03 5.151526e+01 7.160368e+02
-4.653001e+09 -4.452978e+09 -4.613006e+09 -5.041847e+02 6.029801e+02 6.319749e+01
-4.816445e+09 -4.616451e+09 -4.776457e+09 2.604061e+03 -8.279141e+01 3.556910e+02
-3.960631e+09 -3.760599e+09 -3.920634e+09 -4.520071e+02 6.473188e+03 -2.203503e+02
-4.990360e+09 -4.790368e+09 -4.950374e+09 3.233069e+03 1.891852e+02 -1.429629e+01
-3.960620e+09 -3.760590e+09 -3.920625e+09 8.146960e+02 4.989719e+03 -9.244545e+01
-4.992189e+09 -4.792156e+09 -4.952193e+09 -9.668835e+02 1.722994e+03 -4.452835e+02
-4.643618e+09 -4.443626e+09 -4.603631e+09 3.265788e+03 2.870796e+02 7.328694e+02
-4.132466e+09 -3.932437e+09 -4.092471e+09 6.280796e+02 4.734301e+03 -1.756809e+01
-4.647140e+09 -4.447111e+09 -4.607144e+09 9.186063e+00 1.366205e+03 3.107781e+02
-4.645042e+09 -4.445047e+09 -4.605054e+09 3.480494e+03 2.616411e+02 3.883178e+02
-3.960582e+09 -3.760587e+09 -3.920593e+09 3.199992e+03 5.754878e+02 1.011725e+03
-4.990705e+09 -4.790668e+09 -4.950710e+09 -7.780916e+03 2.364087e+03 -8.733130e+02
-4.988933e+09 -4.788940e+09 -4.948947e+09 4.252687e+03 1.139123e+02 -4.138606e+01
-4.130718e+09 -3.930675e+09 -4.090720e+09 -3.907076e+02 7.208192e+03 2.503155e+02
-4.131766e+09 -3.931722e+09 -4.091766e+09 -1.692585e+03 6.969340e+03 -1.337065e+03
-4.819358e+09 -4.619377e+09 -4.779291e+09 -7.063708e+04 -1.954258e+04 1.101049e+04
-3.962605e+09 -3.762659e+09 -3.922630e+09 -5.235388e+04 2.547404e+03 1.389501e+04
-4.146528e+09 -3.946537e+09 -4.106545e+09 6.099988e+03 1.681984e+03 1.721688e+03
-4.129601e+09 -3.929609e+09 -4.089615e+09 3.464947e+03 2.173924e+02 1.300445e+03
-4.990654e+09 -4.790778e+09 -4.950576e+09 -5.213710e+04 -4.429322e+02 -4.049615e+03
-4.132055e+09 -3.932211e+09 -4.091892e+09 -4.347298e+04 2.130397e+04 4.745071e+04
-4.991900e+09 -4.791955e+09 -4.951649e+09 -8.097250e+04 -6.143406e+02 -8.105478e+02
-4.128173e+09 -3.928181e+09 -4.088187e+09 4.136255e+03 1.147064e+03 1.108856e+03
-2.075804e+09 -1.875792e+09 -2.035804e+09 -2.531677e+02 2.602017e+03 -7.769405e+02
-4.818625e+09 -4.618750e+09 -4.778614e+09 -4.465124e+04 -1.786257e+04 8.656179e+03
-3.962597e+09 -3.762655e+09 -3.922617e+09 -4.096618e+04 -2.544811e+03 3.978820e+03
-4.991180e+09 -4.791198e+09 -4.951191e+09 -4.968185e+04 5.255938e+03 -4.116576e+03
-3.376617e+09 -3.176601e+09 -3.336621e+09 -8.811073e+02 4.138160e+03 -1.496339e+03
-2.663659e+09 -2.463646e+09 -2.623662e+09 -3.698110e+02 2.795558e+03 -6.598361e+02
-4.285168e+09 -4.085148e+09 -4.245172e+09 -2.720264e+03 2.237992e+03 -6.130534e+02
-3.748617e+09 -3.548601e+09 -3.708621e+09 -6.734514e+01 4.331931e+02 -3.116375e+02
-2.538452e+09 -2.338438e+09 -2.498455e+09 -2.086170e+03 3.495799e+03 -1.300144e+03
-4.819188e+09 -4.619170e+09 -4.779205e+09 -1.725611e+04 -3.426630e+03 1.547906e+03
-4.818991e+09 -4.618991e+09 -4.779008e+09 -9.939914e+03 -3.507545e+02 8.235422e+02
-4.310635e+09 -4.110640e+09 -4.270660e+09 -1.516572e+04 -4.167310e+03 4.099728e+03
-4.132348e+09 -3.932298e+09 -4.092350e+09 -2.836559e+04 -1.201832e+04 5.685246e+03
-3.921793e+09 -3.721776e+09 -3.881798e+09 -3.443218e+03 2.818811e+03 -6.635035e+02
-3.962349e+09 -3.762290e+09 -3.922349e+09 -2.067315e+04 -5.538972e+03 3.943537e+03
-4.991777e+09 -4.791741e+09 -4.951785e+09 -2.898498e+04 -4.349702e+03 1.286983e+02
-4.991777e+09 -4.791739e+09 -4.951784e+09 -3.597298e+04 -4.509553e+03 2.342071e+03
-3.467440e+09 -3.267427e+09 -3.427446e+09 -3.329041e+03 3.762673e+03 -1.804070e+03
-4.825493e+09 -4.625475e+09 -4.785498e+09 -1.741253e+03 3.897421e+02 -7.895734e+02
-4.841770e+09 -4.641777e+09 -4.801780e+09 7.126195e+02 1.895470e+02 -1.147742e+01
-4.299527e+09 -4.099533e+09 -4.259538e+09 2.829980e+03 3.812914e+02 5.030289e+02
-4.477664e+09 -4.277668e+09 -4.437675e+09 3.212104e+03 3.162262e+02 3.696827e+02
-3.959974e+09 -3.759980e+09 -3.919986e+09 3.015219e+03 5.493302e+02 9.393605e+02
-4.291601e+09 -4.091583e+09 -4.251605e+09 -2.022390e+03 1.971410e+03 -1.036498e+03
-1.886483e+09 -1.686482e+09 -1.846488e+09 1.345844e+03 8.771800e+02 1.047393e+03
-4.304340e+09 -4.104305e+09 -4.264347e+09 3.170592e+04 7.788741e+03 4.707507e+03
-4.991757e+09 -4.791723e+09 -4.951768e+09 2.176287e+04 2.994204e+03 1.237481e+03
-4.304029e+09 -4.103987e+09 -4.264035e+09 2.201705e+04 7.687618e+03 3.746257e+03
-3.962155e+09 -3.762098e+09 -3.922140e+09 2.040230e+04 8.862082e+03 1.789467e+03
-4.996570e+09 -4.796586e+09 -4.956595e+09 -7.242714e+03 -4.012947e+02 7.124951e+02
-3.962249e+09 -3.762260e+09 -3.922271e+09 -9.140216e+03 -2.708201e+03 4.966297e+03
-3.835216e+09 -3.635200e+09 -3.795220e+09 -1.580672e+03 1.766616e+03 -5.951199e+02
-4.135422e+09 -3.935399e+09 -4.095428e+09 -4.132619e+03 4.066648e+03 -1.571030e+03
-4.293092e+09 -4.093095e+09 -4.253101e+09 -1.427469e+03 -2.961525e+02 3.363677e+02
-3.403891e+09 -3.203893e+09 -3.363899e+09 -1.553537e+03 -7.056613e+02 6.491159e+02
-4.974218e+09 -4.774228e+09 -4.934238e+09 -8.958349e+03 -5.857118e+02 8.540591e+02
-3.568113e+09 -3.368115e+09 -3.528121e+09 -5.784523e+02 -2.872036e+02 5.283238e+02
-5.009815e+09 -4.809836e+09 -4.969845e+09 -9.757285e+03 -5.155164e+02 1.520997e+03
-2.761899e+09 -2.561902e+09 -2.721907e+09 -7.899035e+02 -2.065692e+02 4.329039e+02
-3.319959e+09 -3.119962e+09 -3.279967e+09 -6.500817e+02 -1.092363e+02 2.008518e+02
-2.650763e+09 -2.450764e+09 -2.610770e+09 -8.666854e+02 -3.975090e+02 8.061739e+02
-4.991491e+09 -4.791521e+09 -4.951526e+09 -3.746747e+03 -1.210731e+02 1.035693e+03
-3.961794e+09 -3.761823e+09 -3.921827e+09 -3.325607e+03 -8.856279e+02 4.636029e+03
-4.992504e+09 -4.792539e+09 -4.952545e+09 -7.504933e+03 -3.533582e+02 1.529645e+03
-4.302114e+09 -4.102015e+09 -4.261844e+09 -5.802751e+04 -3.706375e+04 1.424539e+04
-3.961418e+09 -3.761376e+09 -3.921243e+09 -7.130004e+04 -4.165577e+04 3.324469e+04
-4.819783e+09 -4.619818e+09 -4.779497e+09 -8.459913e+04 2.169716e+04 4.324361e+03
-4.822770e+09 -4.622773e+09 -4.782781e+09 3.317386e+03 -1.470667e+02 5.590443e+02
-4.133030e+09 -3.933029e+09 -4.093040e+09 4.359104e+03 7.770839e+02 1.451390e+03
-4.304450e+09 -4.104438e+09 -4.264418e+09 -6.184768e+04 6.073242e+03 -4.162041e+03
-4.645455e+09 -4.445401e+09 -4.604971e+09 -6.560578e+04 -5.137192e+04 4.261826e+04
-4.819587e+09 -4.619586e+09 -4.779597e+09 3.779688e+03 9.763427e+01 6.398414e+02
-4.135816e+09 -3.935752e+09 -4.095720e+09 -6.050542e+04 -2.225389e+04 1.329161e+04
-4.077188e+09 -3.877187e+09 -4.037196e+09 2.401028e+03 6.828198e+02 2.615092e+02
-3.959977e+09 -3.759979e+09 -3.919985e+09 2.310775e+03 5.817564e+02 6.000735e+02
-4.819531e+09 -4.619510e+09 -4.779503e+09 -5.704286e+04 -9.918143e+03 4.972127e+03
-4.670846e+09 -4.470666e+09 -4.630515e+09 -2.965597e+04 3.148323e+04 -4.486352e+03
-4.303605e+09 -4.103608e+09 -4.263614e+09 2.317538e+03 3.366862e+02 3.378145e+02
-4.652132e+09 -4.451992e+09 -4.612052e+09 1.373377e+04 8.414723e+03 1.612303e+03
-4.311849e+09 -4.111688e+09 -4.271640e+09 -2.779796e+03 -1.712225e+03 -1.828314e+03
-3.967316e+09 -3.767177e+09 -3.927240e+09 -3.773487e+03 1.960208e+04 2.585707e+03
-4.997002e+09 -4.796862e+09 -4.956911e+09 -1.612673e+03 -6.725092e+03 1.582533e+02
-3.965554e+09 -3.765555e+09 -3.925561e+09 2.034983e+03 5.220763e+02 5.003030e+02
-3.965629e+09 -3.765475e+09 -3.925447e+09 -2.053202e+04 1.569281e+04 -1.402042e+03
-4.658996e+09 -4.458997e+09 -4.619003e+09 1.034032e+03 8.068285e+01 2.228138e+02
-4.995315e+09 -4.795166e+09 -4.955140e+09 -1.796935e+04 -5.250907e+03 -7.792017e+02
-4.818299e+09 -4.618301e+09 -4.778307e+09 2.162896e+03 -1.129953e+02 3.756426e+02
-4.992592e+09 -4.792593e+09 -4.952600e+09 2.129051e+03 -1.354191e+02 -3.710111e+01
-4.656758e+09 -4.456657e+09 -4.616733e+09 1.844545e+04 2.454850e+03 -2.257643e+03
-4.315270e+09 -4.115156e+09 -4.275227e+09 -1.122385e+03 -1.037129e+04 2.472774e+02
-3.962667e+09 -3.762540e+09 -3.922600e+09 2.944858e+04 2.437436e+04 1.250815e+03
-3.962669e+09 -3.762555e+09 -3.922585e+09 2.109684e+04 1.708851e+03 -2.137918e+02
-3.961922e+09 -3.761880e+09 -3.921913e+09 -5.139448e+04 5.995912e+03 4.680065e+03
-4.133094e+09 -3.933039e+09 -4.093058e+09 -5.386536e+04 -3.859736e+03 1.050727e+04
-4.819829e+09 -4.619872e+09 -4.779874e+09 4.577160e+03 1.153948e+03 1.609397e+03
-4.647804e+09 -4.447836e+09 -4.607840e+09 -4.425880e+03 -2.803764e+02 2.049724e+03
-4.305427e+09 -4.105449e+09 -4.265279e+09 -7.620802e+04 5.300309e+03 -2.316013e+04
-3.961801e+09 -3.761825e+09 -3.921829e+09 -2.510685e+03 -6.546815e+02 3.878876e+03
-4.818715e+09 -4.618759e+09 -4.778760e+09 -5.660484e+02 9.380702e+02 2.186102e+03
-4.992099e+09 -4.792069e+09 -4.952002e+09 -6.788065e+04 -8.668184e+03 -1.965252e+03
-3.947079e+09 -3.747143e+09 -3.906961e+09 6.185193e+04 -1.480743e+04 -4.769459e+04
-2.682427e+09 -2.482425e+09 -2.642433e+09 2.324984e+03 1.722709e+03 9.891760e+02
-4.133469e+09 -3.933464e+09 -4.093476e+09 -4.415780e+04 -1.720443e+03 -1.152955e+03
-3.977187e+09 -3.777283e+09 -3.936934e+09 9.250790e+04 -3.407586e+04 -8.535457e+04
-4.819345e+09 -4.619327e+09 -4.779362e+09 -3.510146e+04 -1.963477e+01 -9.808206e+02
-4.133640e+09 -3.933641e+09 -4.093617e+09 -6.628387e+04 -2.234943e+03 7.386081e+03
-3.962261e+09 -3.762262e+09 -3.922246e+09 -5.990412e+04 6.459980e+03 -2.027013e+03
-3.961641e+09 -3.761482e+09 -3.921391e+09 -3.004162e+04 -5.278736e+04 6.490824e+02
-4.991973e+09 -4.791986e+09 -4.951968e+09 -5.901869e+04 -8.520948e+03 3.760301e+03
-4.133325e+09 -3.933373e+09 -4.093317e+09 -5.494205e+04 6.183019e+03 -1.169092e+04
-3.452339e+09 -3.252313e+09 -3.412346e+09 5.655757e+03 -1.018274e+04 -3.522503e+03
-3.961343e+09 -3.761253e+09 -3.920319e+09 2.145107e+03 -1.734067e+05 8.917947e+04
-4.825554e+09 -4.625384e+09 -4.784985e+09 9.885368e+03 -6.002934e+04 -2.520471e+04
-3.958680e+09 -3.758551e+09 -3.917889e+09 6.944812e+04 -1.379249e+05 -5.061106e+04
-4.299789e+09 -4.099721e+09 -4.258834e+09 4.402149e+04 -9.845664e+04 -3.859934e+04
-4.503780e+09 -4.303759e+09 -4.463789e+09 7.036097e+02 -1.822126e+02 -7.875586e+02
-4.819123e+09 -4.619136e+09 -4.778232e+09 5.036027e+04 -8.246944e+04 -4.633301e+04
-4.659633e+09 -4.459606e+09 -4.619642e+09 2.998061e+03 -1.375527e+03 -7.062698e+02
-3.962549e+09 -3.762650e+09 -3.922366e+09 -6.113055e+04 3.342968e+04 -6.686902e+04
-4.648498e+09 -4.448533e+09 -4.608464e+09 -7.484569e+04 1.534306e+04 -5.334590e+03
-3.353138e+09 -3.153122e+09 -3.313145e+09 3.165903e+03 -5.486589e+03 -2.879676e+03
-4.583208e+09 -4.383183e+09 -4.543217e+09 1.090572e+03 -6.587790e+02 -3.910086e+02
-4.993369e+09 -4.793339e+09 -4.953378e+09 1.167469e+03 -1.035375e+03 -2.065769e+02
-4.820214e+09 -4.620236e+09 -4.779278e+09 -4.233601e+04 8.143910e+04 -4.403648e+04
-4.753817e+09 -4.553792e+09 -4.713826e+09 1.058368e+03 -4.747160e+02 7.055019e+01
-4.321027e+09 -4.121154e+09 -4.280712e+09 -6.748970e+04 2.611567e+04 -5.079652e+04
-4.823447e+09 -4.623570e+09 -4.783349e+09 -4.526697e+04 1.298262e+04 -2.756270e+04
-4.268237e+09 -4.068214e+09 -4.228245e+09 3.654828e+03 -2.929765e+03 -1.111447e+03
-4.998225e+09 -4.798195e+09 -4.958233e+09 2.501320e+03 -1.002980e+03 -3.056112e+01
-4.461253e+09 -4.261341e+09 -4.421342e+09 -6.702363e+03 2.833902e+02 -1.585718e+03
-2.221728e+09 -2.021735e+09 -2.181738e+09 1.545472e+03 3.692989e+02 7.534676e+02
-3.103420e+09 -2.903429e+09 -3.063431e+09 1.537698e+02 1.018396e+02 1.086512e+02
-1.926232e+09 -1.726239e+09 -1.886242e+09 9.926318e+02 4.537160e+02 6.644743e+02
-4.655390e+09 -4.455397e+09 -4.615400e+09 9.087137e+02 -1.899862e+01 -5.906642e+01
-2.666719e+09 -2.466728e+09 -2.626730e+09 5.534429e+02 2.247420e+02 4.434334e+02
-3.548728e+09 -3.348765e+09 -3.508780e+09 2.466559e+03 -6.512923e+03 3.002851e+02
-4.914565e+09 -4.714633e+09 -4.874645e+09 3.735473e+03 -7.909763e+02 -2.789300e-05
-2.763092e+09 -2.563099e+09 -2.723102e+09 9.872763e+01 1.704638e+02 9.740937e+01
-2.618166e+09 -2.418174e+09 -2.578176e+09 1.516749e+02 2.526947e+02 1.038351e+02
-3.842742e+09 -3.642730e+09 -3.802751e+09 2.857158e+03 -2.530173e+03 -1.237138e+03
-4.807896e+09 -4.607886e+09 -4.767910e+09 3.072247e+03 -1.350571e+03 -1.374554e+01
-4.995767e+09 -4.795844e+09 -4.955848e+09 1.698162e+04 -2.134567e+03 -2.698292e+03
-3.883013e+09 -3.683080e+09 -3.843086e+09 6.157720e+03 -5.512131e+03 -5.912984e+03
-1.965154e+09 -1.765162e+09 -1.925167e+09 -3.920862e+03 -1.074417e+04 -2.045318e+03
-3.739590e+09 -3.539639e+09 -3.699650e+09 2.585944e+03 -4.935498e+03 1.219833e+03
-1.556252e+09 -1.356243e+09 -1.516253e+09 -1.323837e+02 -3.296288e+03 -1.885774e+03
-4.744329e+09 -4.544381e+09 -4.704398e+09 5.954786e+03 -1.045270e+03 1.550728e+03
-4.945169e+09 -4.745150e+09 -4.905178e+09 2.788990e+03 -6.415970e+02 -6.057717e+02
-3.780782e+09 -3.580768e+09 -3.740791e+09 2.833822e+03 -1.993323e+03 -1.341122e+03
-3.064349e+09 -2.864367e+09 -3.024383e+09 1.783599e+03 -8.772844e+03 -3.212583e+03
-2.302066e+09 -2.102073e+09 -2.262084e+09 5.257987e+03 -1.099701e+04 -5.546179e+03
-1.590008e+09 -1.389999e+09 -1.550009e+09 2.144167e+02 -4.211148e+03 -2.562947e+03
-4.739647e+09 -4.539631e+09 -4.699655e+09 1.481713e+03 -5.483281e+02 -1.419310e+02
-2.161199e+09 -1.961187e+09 -2.121201e+09 2.440636e+02 -1.667218e+03 -1.977747e+03
-2.587426e+09 -2.387458e+09 -2.547463e+09 1.315356e+04 -1.104796e+04 -1.133072e+04
-4.661517e+09 -4.461553e+09 -4.621570e+09 2.113054e+04 -8.804965e+02 -6.664574e+02
-4.046985e+09 -3.847014e+09 -4.007032e+09 2.107411e+04 -7.945234e+03 -6.198958e+03
-4.753378e+09 -4.553420e+09 -4.713440e+09 7.383236e+03 -1.989156e+03 -2.303224e+03
-4.996806e+09 -4.796815e+09 -4.956845e+09 1.313086e+04 -1.680469e+03 -1.390093e+03
-4.634511e+09 -4.434499e+09 -4.594523e+09 3.738478e+03 -9.110195e+02 -6.258459e+02
-4.987472e+09 -4.787457e+09 -4.947481e+09 1.403301e+03 -4.244461e+02 1.658184e+01
-2.155797e+09 -1.955799e+09 -2.115804e+09 1.255076e+02 1.148022e+01 -3.544238e+01
-1.601836e+09 -1.401837e+09 -1.561842e+09 5.926565e+02 1.071267e+02 4.269641e+01
-3.233342e+09 -3.033343e+09 -3.193349e+09 9.163387e+02 2.932671e+02 4.316411e+02
-4.559300e+09 -4.359286e+09 -4.519308e+09 1.395225e+03 -3.799009e+02 -5.163907e+02
-2.971837e+09 -2.771837e+09 -2.931845e+09 1.909313e+03 9.057377e+02 1.052547e+03
-4.653210e+09 -4.453210e+09 -4.613218e+09 1.737827e+03 3.885332e+01 3.503352e+02
-2.179494e+09 -1.979494e+09 -2.139500e+09 1.766406e+02 3.856945e+01 6.704043e+01
-4.759517e+09 -4.559516e+09 -4.719523e+09 6.004829e+02 1.851689e+02 1.452290e+01
-4.987472e+09 -4.787454e+09 -4.947480e+09 3.420622e+03 -6.982816e+01 -5.436145e+02
-4.151645e+09 -3.951665e+09 -4.111673e+09 -7.613052e+03 -1.838195e+03 2.948207e+03
-4.649479e+09 -4.449504e+09 -4.609512e+09 -7.033106e+03 -1.555760e+02 2.015792e+03
-3.961255e+09 -3.761281e+09 -3.921286e+09 -5.586466e+03 -1.293414e+03 4.444760e+03
-3.575492e+09 -3.375476e+09 -3.535495e+09 -8.457674e+01 5.367201e+02 -7.652670e+01
-4.745176e+09 -4.545158e+09 -4.705181e+09 -2.758444e+02 2.005802e+02 1.447563e+02
-4.993631e+09 -4.793613e+09 -4.953636e+09 -3.004983e+02 1.333897e+02 -1.657598e+01
-3.872334e+09 -3.672316e+09 -3.832338e+09 -2.479316e+02 1.115114e+03 -3.820084e+02
-4.995494e+09 -4.795477e+09 -4.955499e+09 -6.280799e+02 1.120850e+02 1.967993e+01
-3.533963e+09 -3.333947e+09 -3.493966e+09 -1.960529e+02 4.263770e+02 -5.143767e+02
-4.818349e+09 -4.618369e+09 -4.778375e+09 -4.815260e+03 -9.747994e+02 7.696751e+02
-3.974781e+09 -3.774810e+09 -3.934818e+09 -1.001583e+04 -1.187619e+03 6.295687e+03
-1.606509e+09 -1.406500e+09 -1.566510e+09 1.087437e+02 3.063759e+03 -1.567745e+03
-3.853671e+09 -3.653656e+09 -3.813675e+09 -1.845682e+03 1.593649e+03 -7.106776e+02
-3.480952e+09 -3.280938e+09 -3.440955e+09 -1.648519e+03 2.875827e+03 -1.471149e+03
-4.992571e+09 -4.792555e+09 -4.952575e+09 -7.216616e+02 1.178456e+02 2.373974e+01
-3.773430e+09 -3.573416e+09 -3.733434e+09 -2.425691e+02 4.217181e+02 -5.712959e+02
-2.618371e+09 -2.418363e+09 -2.578378e+09 1.521507e+02 -5.267199e+03 -3.387786e+02
-4.148190e+09 -3.948217e+09 -4.108224e+09 -1.213638e+04 -1.123151e+03 4.372081e+03
-4.824354e+09 -4.624381e+09 -4.784390e+09 -1.121363e+04 -6.265776e+01 2.605445e+03
-4.148243e+09 -3.948273e+09 -4.108281e+09 -9.178744e+03 -2.014069e+03 5.156879e+03
-5.004477e+09 -4.804510e+09 -4.964517e+09 -1.012762e+04 -6.739098e+01 1.235199e+03
-4.131926e+09 -3.932022e+09 -4.090937e+09 4.343116e+04 -1.209262e+05 -1.528212e+05
-3.961950e+09 -3.762059e+09 -3.920938e+09 3.177979e+04 -1.039687e+05 -1.738193e+05
-1.647874e+09 -1.447867e+09 -1.607876e+09 1.092856e+02 -5.547388e+03 -1.335155e+03
-4.820559e+09 -4.620563e+09 -4.779339e+09 4.354596e+03 2.511989e+04 -8.963702e+03
-4.426083e+09 -4.226078e+09 -4.386102e+09 2.093361e+03 -2.636602e+03 -7.043611e+02
-2.065249e+09 -1.865247e+09 -2.025259e+09 1.884063e+03 -8.567778e+03 -2.912195e+03
-2.919596e+09 -2.719594e+09 -2.879611e+09 2.780644e+03 -7.130761e+03 -1.353722e+03
-1.647873e+09 -1.447867e+09 -1.607876e+09 -8.854087e+01 -5.528466e+03 -1.231281e+03
-1.942574e+09 -1.742570e+09 -1.902580e+09 -1.052740e+03 -7.211394e+03 -1.135056e+03
-4.991522e+09 -4.791519e+09 -4.951546e+09 3.530070e+03 -7.688839e+02 -9.507778e+02
-4.300843e+09 -4.100971e+09 -4.260138e+09 2.606440e+04 -4.271436e+04 -9.208740e+04
-4.818747e+09 -4.618706e+09 -4.777676e+09 1.530329e+04 -2.198760e+04 5.414621e+03
-4.991819e+09 -4.791794e+09 -4.950716e+09 2.148394e+04 -1.601397e+04 -2.348869e+03
-4.133811e+09 -3.933816e+09 -4.092564e+09 -3.388499e+04 -3.952672e+04 7.771153e+04
-1.892936e+09 -1.692929e+09 -1.852940e+09 -4.594402e+03 -7.703745e+03 4.087111e+03
-3.961300e+09 -3.761204e+09 -3.920151e+09 2.913473e+03 -1.736363e+05 -5.722618e+04
-4.134079e+09 -3.934066e+09 -4.092761e+09 -6.791331e+03 -2.905354e+04 -6.313506e+04
-4.820593e+09 -4.620553e+09 -4.780601e+09 -1.024117e+04 -3.294527e+03 -5.680858e+02
-3.962556e+09 -3.762548e+09 -3.921218e+09 1.305689e+04 -3.712650e+04 -5.043222e+04
-4.824287e+09 -4.624262e+09 -4.784292e+09 2.146529e+01 1.186617e+03 -4.287354e+02
-4.818239e+09 -4.618354e+09 -4.778321e+09 -1.340981e+04 2.880972e+03 -4.804556e+03
-4.992482e+09 -4.792607e+09 -4.952558e+09 1.322802e+04 -1.397015e+02 -6.509509e+03
-3.957714e+09 -3.757829e+09 -3.917791e+09 1.429379e+04 -1.059030e+04 -7.735298e+03
-4.639118e+09 -4.439104e+09 -4.599136e+09 -1.133411e+04 2.619705e+03 -1.601825e+03
-4.303650e+09 -4.103593e+09 -4.263651e+09 -2.480733e+04 -9.953004e+03 4.195870e+03
-4.649661e+09 -4.449652e+09 -4.609687e+09 -1.722845e+04 2.505787e+03 -1.978980e+03
-1.585249e+09 -1.385243e+09 -1.545250e+09 -4.647178e+02 -6.339209e+03 3.682816e+03
-4.992452e+09 -4.792443e+09 -4.952475e+09 -1.783807e+04 1.671478e+03 -9.945865e+01
-4.648164e+09 -4.448146e+09 -4.608179e+09 -1.230486e+04 2.394646e+03 -1.049633e+03
-3.963418e+09 -3.763402e+09 -3.923434e+09 -1.119837e+04 4.535884e+03 -3.125266e+03
-4.133879e+09 -3.933862e+09 -4.093895e+09 -1.819107e+04 7.057865e+03 -3.120928e+03
-4.305599e+09 -4.105582e+09 -4.265612e+09 -1.880298e+04 7.216202e+03 -3.061655e+03
-1.880039e+09 -1.680026e+09 -1.840041e+09 -1.025940e+03 -3.996965e+03 2.291172e+03
-4.991202e+09 -4.791181e+09 -4.951216e+09 -1.801240e+04 1.742630e+03 -7.338489e+02
-1.695550e+09 -1.495544e+09 -1.655551e+09 -7.960217e+01 -1.172901e+04 4.561883e+03
-2.192447e+09 -1.992434e+09 -2.152448e+09 -3.786211e+03 -1.284683e+04 4.021289e+03
-1.916022e+09 -1.716013e+09 -1.876024e+09 -1.747455e+03 -1.817344e+03 1.091643e+03
-4.818302e+09 -4.618281e+09 -4.778318e+09 -2.588562e+04 3.246202e+03 -1.902769e+03
-4.810335e+09 -4.610340e+09 -4.770344e+09 1.014573e+03 5.429782e+01 6.721732e+01
-1.632153e+09 -1.432146e+09 -1.592155e+09 -1.361918e+02 -1.010748e+03 1.646484e+03
-1.582106e+09 -1.382110e+09 -1.542114e+09 4.905286e+02 2.457555e+01 1.857410e+01
-1.925030e+09 -1.725022e+09 -1.885033e+09 -1.851298e+03 -1.588194e+03 1.398881e+03
-1.954297e+09 -1.754299e+09 -1.914304e+09 1.470023e+02 7.308312e+00 5.514569e+00
-1.967713e+09 -1.767715e+09 -1.927720e+09 4.657277e+01 1.612064e+01 -1.273181e+01
-1.670200e+09 -1.470205e+09 -1.630209e+09 2.637263e+02 8.408999e+01 2.100635e+01
-2.830594e+09 -2.630599e+09 -2.790602e+09 5.310017e+01 -2.271293e+01 3.345636e+01
-3.116118e+09 -2.916122e+09 -3.076126e+09 9.287944e+02 1.874732e+02 2.691284e+02
-2.110455e+09 -1.910461e+09 -2.070464e+09 4.214051e+02 1.272039e+02 1.771419e+02
-1.890979e+09 -1.690983e+09 -1.850987e+09 9.952024e+02 2.882566e+02 2.040196e+02
-2.653137e+09 -2.453127e+09 -2.613141e+09 9.964716e+01 -2.580633e+02 -5.844979e+02
-4.098446e+09 -3.898438e+09 -4.058460e+09 6.041874e+02 -2.946855e+03 -7.433594e+02
-3.505347e+09 -3.305336e+09 -3.465353e+09 1.438249e+02 -7.944076e+02 -5.237349e+02
-3.956937e+09 -3.757015e+09 -3.916924e+09 6.196302e+04 -1.645779e+04 -8.719748e+03
-4.150549e+09 -3.950629e+09 -4.110582e+09 3.858190e+04 4.075303e+03 6.501526e+03
-4.475748e+09 -4.275812e+09 -4.435796e+09 4.600083e+04 3.905617e+03 3.879584e+03
-2.850114e+09 -2.650094e+09 -2.810121e+09 2.345779e+03 -9.803861e+03 -1.749349e+02
-4.128679e+09 -3.928723e+09 -4.088690e+09 5.633121e+04 2.967503e+03 1.182278e+04
-1.692956e+09 -1.492951e+09 -1.652958e+09 3.530966e+02 -1.588029e+04 2.745496e+03
-4.647600e+09 -4.447604e+09 -4.607597e+09 5.377088e+04 -2.753723e+03 -2.983983e+03
-4.996256e+09 -4.796300e+09 -4.956281e+09 4.527674e+04 4.163812e+03 5.352593e+03
-1.637036e+09 -1.437035e+09 -1.597041e+09 3.007080e+01 9.076762e+03 -3.967542e+02
-4.835140e+09 -4.635180e+09 -4.795171e+09 4.190493e+04 -1.157752e+03 -2.986688e+03
-4.482543e+09 -4.282589e+09 -4.442578e+09 3.121473e+04 1.225445e+03 4.212003e+03
-2.081694e+09 -1.881686e+09 -2.041697e+09 -1.763097e+03 -2.841427e+03 2.550393e+03
-4.929839e+09 -4.729825e+09 -4.889849e+09 -8.457884e+02 4.797147e-05 1.169625e+02
-1.892009e+09 -1.692009e+09 -1.852015e+09 -1.437608e+03 -1.386825e+03 1.894325e+03
-2.514857e+09 -2.314855e+09 -2.474864e+09 -2.618918e+03 -2.115946e+03 1.952732e+03
-4.491890e+09 -4.291947e+09 -4.451938e+09 4.154489e+04 2.741799e+03 2.709163e+03
-2.200102e+09 -2.000101e+09 -2.160108e+09 -3.638699e+02 -4.315358e+02 6.888939e+02
-1.866914e+09 -1.666914e+09 -1.826920e+09 -7.848316e+02 -4.968489e+02 9.548583e+02
-2.992069e+09 -2.792071e+09 -2.952076e+09 -6.260624e+02 -2.160637e+02 1.941056e+02
-2.058668e+09 -1.858670e+09 -2.018675e+09 1.572499e+02 2.651381e+00 1.434061e+01
-1.582106e+09 -1.382110e+09 -1.542114e+09 3.947893e+02 1.082850e+01 1.887670e+02
-1.643462e+09 -1.443466e+09 -1.603470e+09 2.032663e+02 5.861877e+01 2.674236e+01
-4.369807e+09 -4.169813e+09 -4.329816e+09 2.064803e+02 1.045692e+02 -2.172356e+00
-1.585229e+09 -1.385232e+09 -1.545236e+09 -1.274489e+03 -5.982598e+02 8.279786e+02
-3.761646e+09 -3.561648e+09 -3.721654e+09 -1.642932e+02 -1.530726e+02 1.001631e+02
-1.560437e+09 -1.360449e+09 -1.520450e+09 -6.317209e+01 -1.499181e+01 2.460516e+02
-1.867431e+09 -1.667442e+09 -1.827443e+09 -3.056135e+02 -1.028684e+02 6.160310e+02
-2.823024e+09 -2.623023e+09 -2.783031e+09 -1.631376e+03 -9.411629e+02 1.276508e+03
-1.871454e+09 -1.671455e+09 -1.831460e+09 -6.874984e+02 -3.139447e+02 6.285675e+02
-4.498567e+09 -4.298554e+09 -4.458573e+09 1.098342e+03 9.489645e+01 4.196088e+02
-2.809999e+09 -2.609988e+09 -2.770003e+09 7.919879e+02 2.243018e+03 4.537116e+02
-2.534887e+09 -2.334899e+09 -2.494900e+09 -5.020657e+01 -7.091764e+01 1.172159e+02
-2.904692e+09 -2.704703e+09 -2.864704e+09 -3.995729e+01 -5.137199e+01 1.316451e+02
-1.581562e+09 -1.381554e+09 -1.541563e+09 4.376330e+02 4.611494e+03 9.009324e+02
-2.149630e+09 -1.949630e+09 -2.109636e+09 -8.801984e+02 -6.405257e+02 8.854779e+02
-2.753610e+09 -2.553610e+09 -2.713617e+09 -1.332846e+03 -6.726656e+02 1.087817e+03
-2.897068e+09 -2.697057e+09 -2.857071e+09 2.231268e+02 5.614283e+02 7.328616e+02
-1.907239e+09 -1.707231e+09 -1.867241e+09 8.166446e+02 1.941896e+03 1.252425e+03
-4.992418e+09 -4.792421e+09 -4.952426e+09 -1.538688e+03 -6.856661e+01 -7.085428e+01
-4.992822e+09 -4.792797e+09 -4.952827e+09 1.902666e+03 1.664247e+03 1.411367e+02
-4.997599e+09 -4.797599e+09 -4.957606e+09 1.625687e+03 5.837211e+01 -5.778078e+01
-4.989797e+09 -4.789808e+09 -4.949810e+09 -8.999777e+02 -5.693568e+01 2.691613e+02
-2.629179e+09 -2.429186e+09 -2.589189e+09 -9.089823e+01 -1.708909e+02 9.127237e+01
-1.885490e+09 -1.685498e+09 -1.845500e+09 -1.239888e+03 -2.239285e+02 7.193418e+02
-2.869928e+09 -2.669935e+09 -2.829938e+09 -4.391765e+01 -5.903840e+01 6.990859e+01
-1.585229e+09 -1.385231e+09 -1.545236e+09 -8.289224e+02 -4.641400e+02 6.795923e+02
-2.183398e+09 -1.983400e+09 -2.143405e+09 -2.382063e+02 -1.315475e+02 2.247230e+02
-1.585219e+09 -1.385227e+09 -1.545230e+09 -8.017965e+02 -3.107788e+02 4.223495e+02
-1.563664e+09 -1.363669e+09 -1.523673e+09 -2.844468e+02 -6.607245e+01 4.850454e+01
-3.959585e+09 -3.759588e+09 -3.919595e+09 -3.136881e+03 -7.593704e+02 9.304374e+02
-2.789086e+09 -2.589090e+09 -2.749094e+09 -2.020290e+02 -4.674744e+01 9.719418e+00
-1.885901e+09 -1.685905e+09 -1.845909e+09 -9.948151e+01 -7.615911e+00 -6.873623e+00
-2.173252e+09 -1.973254e+09 -2.133259e+09 5.940298e+01 -1.630566e+01 8.750106e+00
-1.782121e+09 -1.582117e+09 -1.742125e+09 -2.731551e+03 1.268820e+04 -8.394675e+03
-1.631598e+09 -1.431602e+09 -1.591606e+09 -1.125097e+02 -1.063775e+01 2.367485e+01
-2.322634e+09 -2.122638e+09 -2.282642e+09 -7.228609e+01 -1.284036e+01 3.953932e+01
-2.900798e+09 -2.700802e+09 -2.860805e+09 -4.671263e+01 8.352949e+00 -1.847477e+01
-4.985130e+09 -4.785143e+09 -4.945152e+09 6.959734e+03 4.237255e+02 5.752020e+02
-4.113414e+09 -3.913416e+09 -4.073421e+09 9.070315e+01 2.039856e+01 9.933248e+00
-2.637014e+09 -2.437016e+09 -2.597021e+09 3.031192e+01 8.123519e+00 4.121265e+00
-2.145281e+09 -1.945279e+09 -2.105290e+09 -2.901954e+03 1.131461e+04 -4.373363e+03
-4.643694e+09 -4.443701e+09 -4.603707e+09 4.372230e+03 3.412048e+02 7.641601e+02
-3.959232e+09 -3.759241e+09 -3.919248e+09 5.455778e+03 1.018259e+03 2.174343e+03
-4.642563e+09 -4.442573e+09 -4.602579e+09 4.829763e+03 3.552894e+02 1.101603e+03
-1.851222e+09 -1.651227e+09 -1.811230e+09 -9.412214e+01 -2.348789e+01 7.797260e+01
-4.817906e+09 -4.617919e+09 -4.777925e+09 5.261184e+03 5.488646e+02 1.001736e+03
-4.646637e+09 -4.446647e+09 -4.606650e+09 2.518535e+03 3.282052e+02 4.463979e+02
-2.656198e+09 -2.456207e+09 -2.616209e+09 -9.244214e+01 -2.012059e+02 1.144882e+02
-4.747187e+09 -4.547194e+09 -4.707197e+09 -2.708371e+02 5.664461e+00 1.001950e+02
-4.991200e+09 -4.791210e+09 -4.951218e+09 4.843804e+03 2.926550e+02 2.873944e+02
-2.549163e+09 -2.349169e+09 -2.509172e+09 -9.217335e+01 -1.183885e+02 3.584983e+01
-4.975986e+09 -4.775966e+09 -4.935992e+09 3.346821e+03 5.575042e+02 5.345921e+01
-2.625230e+09 -2.425234e+09 -2.585238e+09 -5.620632e+01 -5.895446e+01 3.523193e+01
-1.908396e+09 -1.708401e+09 -1.868404e+09 -2.125081e+01 -2.180824e+01 4.003134e+01
-2.218420e+09 -2.018427e+09 -2.178430e+09 -2.265131e+02 -3.996288e+01 4.933858e+01
-4.992988e+09 -4.792995e+09 -4.952998e+09 -6.849093e+02 1.454260e+01 1.655738e+01
-3.636016e+09 -3.436009e+09 -3.596025e+09 -5.155130e+03 -2.496238e+03 2.629981e+03
-1.833275e+09 -1.633271e+09 -1.793279e+09 -9.423914e+02 -7.866607e+02 1.717020e+03
-3.906531e+09 -3.706538e+09 -3.866541e+09 1.387278e+02 -3.241271e+01 1.978731e+01
-3.756138e+09 -3.556120e+09 -3.716143e+09 -1.473224e+02 2.126583e+03 -1.151300e+02
-3.587536e+09 -3.387542e+09 -3.547545e+09 1.102141e+02 1.067577e+02 4.217374e+01
-4.036020e+09 -3.836010e+09 -3.996028e+09 -2.670061e+03 -1.421918e+03 1.026745e+03
-3.769843e+09 -3.569827e+09 -3.729846e+09 1.115578e+02 4.511261e+02 -3.502276e+01
-4.208552e+09 -4.008552e+09 -4.168562e+09 -2.866156e+03 -5.118782e+02 7.273499e+02
-4.987073e+09 -4.787071e+09 -4.947083e+09 -1.302605e+03 -6.558233e+01 -6.607871e+01
-4.176599e+09 -3.976599e+09 -4.136608e+09 -2.053797e+03 -3.226516e+02 6.006004e+02
-4.282800e+09 -4.082778e+09 -4.242805e+09 9.078461e+02 2.646969e+03 3.202121e+01
-1.959547e+09 -1.759545e+09 -1.919552e+09 -1.272209e+03 -9.441578e+02 1.611769e+03
-4.989803e+09 -4.789783e+09 -4.949808e+09 1.440594e+03 4.630007e+02 -2.860687e+01
-4.992691e+09 -4.792670e+09 -4.952696e+09 1.581650e+02 5.874282e+02 4.631413e+01
-3.898682e+09 -3.698658e+09 -3.858687e+09 6.777134e+01 3.874634e+03 -5.304833e+01
-3.832616e+09 -3.632583e+09 -3.792624e+09 2.006816e+03 -6.237328e+03 -8.353992e+02
-1.630208e+09 -1.430199e+09 -1.590209e+09 -3.274594e+01 -1.213834e+03 -1.265805e+03
-3.220143e+09 -3.020125e+09 -3.180149e+09 2.334287e+03 -7.479785e+03 -4.202105e+03
-4.994597e+09 -4.794577e+09 -4.954602e+09 7.518338e+02 4.972994e+02 2.618498e+02
-1.955842e+09 -1.755831e+09 -1.915843e+09 1.709219e+03 -1.980557e+03 -4.806768e+02
-3.025285e+09 -2.825290e+09 -2.985294e+09 1.328649e+03 4.133282e+02 3.895862e+02
-3.448765e+09 -3.248769e+09 -3.408773e+09 1.070156e+03 1.465938e+02 1.145837e+02
-4.098280e+09 -3.898284e+09 -4.058288e+09 9.490188e+02 -4.665573e+01 1.405612e+02
-4.079166e+09 -3.879169e+09 -4.039173e+09 9.884736e+01 2.336338e+01 -3.199128e+01
-2.738392e+09 -2.538394e+09 -2.698400e+09 -1.142289e+03 -4.301210e+02 6.935121e+02
-1.587182e+09 -1.387182e+09 -1.547188e+09 -1.047387e+03 -1.018458e+03 1.317445e+03
-1.897153e+09 -1.697156e+09 -1.857161e+09 -1.606074e+02 -1.010167e+02 1.214175e+02
-1.645438e+09 -1.445442e+09 -1.605446e+09 -2.159613e+02 -8.336024e+01 1.591662e+02
-2.230591e+09 -2.030595e+09 -2.190599e+09 6.077663e+02 6.809690e+01 9.403014e+01
-4.979209e+09 -4.779214e+09 -4.939218e+09 8.137273e+02 -5.147047e+01 6.169103e+00
-4.990291e+09 -4.790294e+09 -4.950298e+09 3.664751e+02 1.204723e+00 8.415669e+00
-2.149919e+09 -1.949923e+09 -2.109926e+09 -7.931061e+01 -1.416568e+01 -6.236260e+00
-4.005095e+09 -3.805098e+09 -3.965102e+09 5.116279e+02 -9.859739e+00 7.634177e+01
-1.948401e+09 -1.748391e+09 -1.908403e+09 1.909924e+03 -1.949612e+03 9.187818e+02
-4.819409e+09 -4.619380e+09 -4.779418e+09 -2.311622e+03 -1.611760e+03 -2.736590e+02
-4.821417e+09 -4.621420e+09 -4.781425e+09 6.880296e+02 -7.235929e+01 -1.710309e+01
-2.272638e+09 -2.072624e+09 -2.232640e+09 -1.884036e+02 -3.010029e+03 2.424831e+02
-3.222100e+09 -3.022084e+09 -3.182105e+09 -1.302712e+03 -2.178957e+03 1.977360e+03
-3.676295e+09 -3.476305e+09 -3.636307e+09 8.958787e+01 1.599755e+02 1.398894e+02
-4.266864e+09 -4.066834e+09 -4.226873e+09 -1.090963e+03 -5.057774e+03 5.320809e+02
-2.758514e+09 -2.558524e+09 -2.718526e+09 1.156426e+02 1.919482e+02 1.906847e+02
-4.305189e+09 -4.105188e+09 -4.265198e+09 3.467541e+03 6.533307e+02 6.801000e+02
-4.992152e+09 -4.792151e+09 -4.952161e+09 3.722711e+03 1.728770e+02 1.549700e+02
-1.940937e+09 -1.740948e+09 -1.900949e+09 2.152112e+02 -1.157441e+00 2.258353e+02
-4.992153e+09 -4.792153e+09 -4.952162e+09 2.856733e+03 -1.219963e+02 4.757170e+01
-1.925376e+09 -1.725373e+09 -1.885380e+09 4.310090e+02 3.412601e+02 4.735538e+02
-1.599635e+09 -1.399646e+09 -1.559647e+09 4.662374e+02 1.523004e+02 8.996839e+02
-3.961706e+09 -3.761704e+09 -3.921715e+09 3.845584e+03 1.281610e+03 1.083768e+03
-1.583328e+09 -1.383338e+09 -1.543340e+09 6.174428e+02 2.007647e+02 7.778180e+02
-3.533379e+09 -3.333372e+09 -3.493387e+09 -5.379880e+02 -2.921714e+02 1.743183e+03
-1.884361e+09 -1.684355e+09 -1.844364e+09 2.215473e+03 2.945733e+03 2.535995e+03
-2.141037e+09 -1.941030e+09 -2.101041e+09 -6.462755e+02 -1.258834e+03 1.690169e+03
-5.003822e+09 -4.803806e+09 -4.963840e+09 1.114118e+04 -1.830348e+03 -1.167341e+03
-4.085561e+09 -3.885562e+09 -4.045592e+09 1.933236e+04 -5.148422e+03 -4.854355e+03
-3.933129e+09 -3.733119e+09 -3.893138e+09 -2.780940e+03 -1.689100e+03 1.592344e+03
-4.463543e+09 -4.263531e+09 -4.423554e+09 -6.560370e+03 -2.112728e+03 1.104252e+03
-3.958465e+09 -3.758448e+09 -3.918488e+09 1.816448e+04 -5.837221e+03 -3.876422e+03
-3.961977e+09 -3.761997e+09 -3.922001e+09 -1.041490e+03 -2.720250e+02 2.956420e+03
-4.527081e+09 -4.327068e+09 -4.487090e+09 -1.800923e+03 -8.162834e+02 8.177133e+02
-3.073458e+09 -2.873450e+09 -3.033466e+09 -2.455709e+03 -2.377656e+03 1.781965e+03
-4.816515e+09 -4.616496e+09 -4.776527e+09 -8.033281e+03 -8.898284e+02 1.032282e+03
-4.478765e+09 -4.278778e+09 -4.438780e+09 5.534222e+02 2.654837e+01 2.968900e+02
-4.990762e+09 -4.790784e+09 -4.950789e+09 -3.106300e+03 -6.178992e+01 4.984826e+02
-3.961492e+09 -3.761458e+09 -3.921496e+09 -2.448278e+04 5.851224e+03 -2.365301e+03
-4.646706e+09 -4.446664e+09 -4.606695e+09 -3.280438e+04 5.656637e+03 -2.075759e+03
-4.649178e+09 -4.449131e+09 -4.609170e+09 -4.119009e+04 5.358635e+02 2.295240e+03
-2.039228e+09 -1.839240e+09 -1.999240e+09 -1.812832e+01 -4.893628e+01 2.016340e+02
-4.994159e+09 -4.794060e+09 -4.954045e+09 -5.293315e+04 6.286161e+03 -4.335831e+03
-4.993683e+09 -4.793621e+09 -4.953641e+09 -4.872232e+04 5.372548e+03 -4.904959e+03
-4.632375e+09 -4.432392e+09 -4.592395e+09 1.691505e+02 1.959925e+01 8.277743e+02
-4.200232e+09 -4.000243e+09 -4.160245e+09 2.598243e+02 2.793019e+01 1.432312e+02
-3.773840e+09 -3.573855e+09 -3.733856e+09 6.376360e+02 6.342537e+01 1.150439e+03
-3.024219e+09 -2.824230e+09 -2.984231e+09 -2.358856e+02 -2.263780e+02 1.474460e+02
-3.961998e+09 -3.761943e+09 -3.921986e+09 -2.659703e+04 -8.931334e+03 1.693517e+03
-4.647343e+09 -4.447254e+09 -4.607311e+09 -1.534598e+04 -2.560531e+03 4.245669e+02
-4.991692e+09 -4.791626e+09 -4.951683e+09 -3.501288e+04 -5.559167e+03 1.536472e+03
-4.817957e+09 -4.617974e+09 -4.777980e+09 5.122620e+03 -2.207153e+02 1.272382e+03
-3.960969e+09 -3.760983e+09 -3.920989e+09 4.990114e+03 8.357485e+02 2.219767e+03
-4.474282e+09 -4.274293e+09 -4.434299e+09 3.843542e+03 5.150925e+02 1.097624e+03
-4.990035e+09 -4.790053e+09 -4.950060e+09 6.918137e+03 2.540701e+02 8.360168e+02
-4.068668e+09 -3.868655e+09 -4.028674e+09 6.073560e+02 1.204947e+03 5.817149e+02
-4.295842e+09 -4.095855e+09 -4.255862e+09 5.857016e+03 4.392424e+02 1.344134e+03
-3.788159e+09 -3.588147e+09 -3.748163e+09 5.034946e+02 4.213767e+02 4.604780e+02
-4.791628e+09 -4.591612e+09 -4.751634e+09 1.936195e+03 5.614366e+02 8.252797e+02
-4.992593e+09 -4.792568e+09 -4.952598e+09 1.948279e+02 1.053053e+03 4.780547e+01
-4.991986e+09 -4.792125e+09 -4.951464e+09 4.797107e+04 8.924788e+03 3.345815e+03
-3.962817e+09 -3.762849e+09 -3.922462e+09 8.621163e+04 9.643983e+04 7.881735e+04
-4.647629e+09 -4.447739e+09 -4.607378e+09 5.683106e+04 9.089073e+03 6.838788e+04
-4.070507e+09 -3.870487e+09 -4.030512e+09 4.165703e+03 3.398384e+03 3.120654e+01
-3.960441e+09 -3.760468e+09 -3.920473e+09 6.682712e+03 1.132047e+03 4.693916e+03
-3.961972e+09 -3.761996e+09 -3.921999e+09 -1.328116e+03 -3.345186e+02 3.457873e+03
-4.647628e+09 -4.447659e+09 -4.607663e+09 3.422914e+03 3.906953e+02 2.436735e+03
-4.987928e+09 -4.787985e+09 -4.947985e+09 -1.750976e+04 -4.359937e+02 3.279655e+03
-4.987941e+09 -4.787989e+09 -4.947989e+09 -1.386511e+04 -6.491711e+01 2.826057e+03
-4.995728e+09 -4.795794e+09 -4.955778e+09 -1.502281e+04 1.036419e+03 2.853415e+03
-4.136817e+09 -3.936887e+09 -4.096872e+09 -1.175774e+04 -1.395302e+02 4.531841e+03
-4.818906e+09 -4.618927e+09 -4.778930e+09 -6.819077e+02 6.875734e+02 8.130388e+02
-4.646597e+09 -4.446618e+09 -4.606622e+09 -4.752889e+02 -3.717914e+01 1.117322e+03
-3.961944e+09 -3.761968e+09 -3.921972e+09 3.384827e+02 7.205566e+01 3.804139e+03
-4.647825e+09 -4.447897e+09 -4.607891e+09 5.606255e+03 1.167320e+03 1.967469e+03
-4.991696e+09 -4.791729e+09 -4.951733e+09 -2.918006e+03 9.801672e+01 6.362166e+02
-3.961371e+09 -3.761450e+09 -3.921424e+09 -4.835015e+03 -4.756522e+02 7.112065e+03
-4.819239e+09 -4.619271e+09 -4.779275e+09 -3.524274e+03 -1.148616e+03 1.207310e+03
-3.962050e+09 -3.762082e+09 -3.922085e+09 -9.327265e+02 -2.821098e+02 4.762453e+03
-4.476694e+09 -4.276765e+09 -4.436742e+09 1.481592e+04 3.019007e+03 4.758571e+03
-4.132625e+09 -3.932658e+09 -4.092661e+09 -8.207995e+02 7.989134e+02 4.830151e+03
-4.372427e+09 -4.172440e+09 -4.332443e+09 1.444278e+03 7.125131e+01 6.832159e+02
-4.991880e+09 -4.791895e+09 -4.951901e+09 3.660975e+03 -1.343438e+02 1.718228e+02
-4.132250e+09 -3.932293e+09 -4.092294e+09 1.245179e+02 -9.353236e+02 6.301666e+03
-4.220928e+09 -4.020940e+09 -4.180942e+09 6.835953e+02 1.088422e+01 5.808616e+02
-4.819069e+09 -4.619102e+09 -4.779106e+09 1.448034e+03 1.149419e+03 1.475870e+03
-3.374877e+09 -3.174892e+09 -3.334894e+09 6.869884e+02 1.443434e+02 1.733767e+03
-4.470064e+09 -4.270078e+09 -4.430080e+09 1.129166e+03 1.196542e+02 6.464535e+02
-4.992695e+09 -4.792692e+09 -4.952706e+09 -4.038198e+03 1.305348e+02 2.180242e+02
-4.923579e+09 -4.723573e+09 -4.883585e+09 5.008744e+02 -7.424907e-05 4.001750e+01
-4.648410e+09 -4.448409e+09 -4.608425e+09 -7.140830e+03 -1.051910e+03 9.571079e+02
-3.911843e+09 -3.711843e+09 -3.871852e+09 -1.888559e+03 -6.253442e+02 3.652518e+02
-4.829475e+09 -4.629472e+09 -4.789482e+09 2.320343e+03 8.734884e+01 -2.549492e+02
-3.697537e+09 -3.497532e+09 -3.657543e+09 2.431968e+02 2.662514e+02 6.515546e+02
-4.602661e+09 -4.402660e+09 -4.562670e+09 -2.475786e+03 -6.446373e+02 4.382091e+02
-2.088473e+09 -1.888467e+09 -2.048478e+09 -1.703633e+03 -2.246543e+03 2.043695e+03
-4.995732e+09 -4.795739e+09 -4.955742e+09 7.087017e+02 3.960049e+01 7.860195e+00
-4.303743e+09 -4.103743e+09 -4.263754e+09 -4.612308e+03 -9.416470e+02 1.034290e+03
-1.893229e+09 -1.693235e+09 -1.853238e+09 1.066641e+03 4.262482e+02 3.369906e+02
-2.074063e+09 -1.874071e+09 -2.034073e+09 1.113018e+03 2.383163e+02 6.838759e+02
-4.561933e+09 -4.361938e+09 -4.521942e+09 3.612105e+02 6.663108e+01 1.714943e+01
-4.059280e+09 -3.859282e+09 -4.019288e+09 -3.546011e+02 5.030183e+01 3.097952e+02
-4.916022e+09 -4.716026e+09 -4.876030e+09 1.158808e+02 -4.479986e+01 4.964529e-05
-4.820327e+09 -4.620328e+09 -4.780338e+09 -3.132332e+03 -9.645495e+01 7.043892e+02
-4.980049e+09 -4.780054e+09 -4.940057e+09 2.861543e+02 -4.816826e+01 1.105002e+01
-4.733246e+09 -4.533251e+09 -4.693254e+09 2.377125e+02 1.732175e+00 8.437800e+01
-4.916894e+09 -4.716877e+09 -4.876899e+09 3.752151e+02 2.482827e-05 -6.078629e+00
-4.607456e+09 -4.407456e+09 -4.567466e+09 -2.899622e+03 -4.929875e+02 5.355887e+02
-1.893176e+09 -1.693177e+09 -1.853183e+09 -1.985477e+03 -1.290395e+03 1.327367e+03
-4.915523e+09 -4.715504e+09 -4.875527e+09 -8.175533e+00 -1.492108e-04 -2.210660e+01
-4.820209e+09 -4.620170e+09 -4.780214e+09 6.011761e+03 2.152953e+03 1.265894e+03
-4.992106e+09 -4.792064e+09 -4.952108e+09 5.083076e+03 1.925196e+03 -3.381707e+02
-3.962388e+09 -3.762353e+09 -3.922394e+09 6.460531e+03 6.405203e+03 1.418033e+03
-4.992048e+09 -4.792012e+09 -4.952054e+09 8.767332e+03 1.581862e+03 -3.513454e+02
-4.992533e+09 -4.792474e+09 -4.952525e+09 4.074507e+03 2.115181e+03 -2.882203e+02
-4.134187e+09 -3.934131e+09 -4.094183e+09 7.965707e+03 9.554919e+03 7.248894e+02
-4.133228e+09 -3.933167e+09 -4.093216e+09 1.625033e+04 7.014678e+03 2.142095e+02
-2.905333e+09 -2.705325e+09 -2.865337e+09 1.621857e+02 3.963883e+02 1.086358e+03
-4.599776e+09 -4.399770e+09 -4.559784e+09 4.517707e+03 6.700273e+02 3.242754e+02
-4.182965e+09 -3.982953e+09 -4.142973e+09 4.947670e+03 2.456982e+03 8.972601e+02
-4.648009e+09 -4.447960e+09 -4.608014e+09 1.006465e+04 3.107719e+03 9.428271e+02
-4.039128e+09 -3.839109e+09 -3.999134e+09 1.964064e+03 2.362029e+03 2.341263e+02
-3.962404e+09 -3.762355e+09 -3.922407e+09 7.305564e+03 7.073513e+03 1.560638e+03
-3.881466e+09 -3.681459e+09 -3.841475e+09 4.473236e+03 1.937301e+03 1.431834e+03
-4.133480e+09 -3.933429e+09 -4.093478e+09 7.747605e+03 8.053921e+03 1.304142e+03
-4.652610e+09 -4.452530e+09 -4.611892e+09 -5.828226e+04 8.664092e+04 -2.733561e+04
-1.774198e+09 -1.574195e+09 -1.734202e+09 1.935407e+03 1.742670e+03 1.094581e+03
-3.396937e+09 -3.196934e+09 -3.356943e+09 2.196633e+03 1.249936e+03 4.545805e+02
-4.477689e+09 -4.277613e+09 -4.437044e+09 -6.418109e+04 6.403378e+04 -5.647741e+04
-4.302790e+09 -4.102814e+09 -4.262818e+09 -2.289167e+03 -3.274211e+02 2.588446e+03
-4.646984e+09 -4.446983e+09 -4.607010e+09 -1.984348e+04 -1.565261e+03 1.665450e+03
-2.762650e+09 -2.562663e+09 -2.722664e+09 -7.044394e+02 4.536527e+01 1.483616e+03
-4.992090e+09 -4.792087e+09 -4.952115e+09 -2.555561e+04 -2.469293e+03 2.025484e+03
-3.962081e+09 -3.762069e+09 -3.922099e+09 -2.085009e+04 -4.802225e+03 5.534605e+03
-3.961494e+09 -3.761511e+09 -3.921514e+09 -3.931932e+02 -7.916201e+01 2.185080e+03
-4.927167e+09 -4.727181e+09 -4.887183e+09 -1.186807e+02 2.337319e+01 1.302296e+02
-3.864343e+09 -3.664358e+09 -3.824361e+09 -4.473243e+02 -1.475118e+02 1.167570e+03
-3.971354e+09 -3.771182e+09 -3.930996e+09 4.512351e+03 -8.255280e+04 -2.233125e+04
-4.969145e+09 -4.769160e+09 -4.929162e+09 -5.695998e+02 4.546117e+01 2.103570e+02
-4.296783e+09 -4.096628e+09 -4.256498e+09 4.850313e+04 -3.637938e+04 -1.305109e+04
-4.317614e+09 -4.117469e+09 -4.277395e+09 1.327150e+04 -1.884253e+04 -1.249993e+04
-4.974348e+09 -4.774434e+09 -4.934408e+09 -2.693724e+04 -7.062752e+01 -5.717418e+03
-4.990558e+09 -4.790537e+09 -4.950568e+09 3.941387e+03 -7.983159e+02 -2.420606e+02
-4.988376e+09 -4.788361e+09 -4.948384e+09 4.803603e+03 4.848129e+02 -1.985656e+02
-4.993118e+09 -4.793105e+09 -4.953136e+09 -1.180161e+04 1.130005e+03 -2.120313e+02
-4.648833e+09 -4.448817e+09 -4.608851e+09 -1.876997e+04 2.634424e+03 -1.390747e+03
-4.992399e+09 -4.792387e+09 -4.952408e+09 6.082335e+03 6.552964e+02 3.324003e+02
-4.301350e+09 -4.101335e+09 -4.261358e+09 6.644061e+03 2.707045e+03 1.246418e+03
-4.991007e+09 -4.790966e+09 -4.951013e+09 2.054958e+03 3.109983e+03 -4.064837e+01
-3.960657e+09 -3.760653e+09 -3.920672e+09 -1.113030e+04 -3.094177e+03 3.355231e+03
-4.477698e+09 -4.277670e+09 -4.437704e+09 2.302200e+03 3.618499e+03 -3.302781e+02
-4.475929e+09 -4.275900e+09 -4.435934e+09 2.528939e+03 3.703013e+03 3.692069e+02
-4.990320e+09 -4.790287e+09 -4.950324e+09 1.583091e+03 1.909515e+03 -2.851745e+02
-4.302368e+09 -4.102365e+09 -4.262391e+09 -3.296383e+04 7.391649e+03 -6.001418e+03
-4.992739e+09 -4.792743e+09 -4.952772e+09 -1.464514e+04 2.061463e+03 -5.173143e+02
-3.961719e+09 -3.761720e+09 -3.921739e+09 -1.103751e+04 -3.245175e+03 3.538264e+03
-4.303082e+09 -4.103081e+09 -4.263102e+09 -1.527270e+04 -3.930904e+03 3.950045e+03
-3.962756e+09 -3.762747e+09 -3.922775e+09 -1.764967e+04 7.213263e+03 -3.624680e+03
-4.646784e+09 -4.446767e+09 -4.606808e+09 -2.519521e+04 2.332526e+03 -1.875071e+03
-2.508566e+09 -2.308575e+09 -2.468577e+09 8.358111e+02 3.314822e+02 5.520737e+02
-3.954011e+09 -3.754027e+09 -3.914029e+09 9.326943e+02 1.822745e+02 1.636821e+03
-4.991582e+09 -4.791598e+09 -4.951602e+09 6.173480e+02 -3.135297e+01 -2.058964e+01
-1.871150e+09 -1.671157e+09 -1.831160e+09 1.445992e+03 2.518766e+02 8.584024e+02
-4.476210e+09 -4.276225e+09 -4.436228e+09 -1.507912e+03 1.803394e+01 5.632135e+02
-4.151630e+09 -3.951644e+09 -4.111645e+09 1.922907e+02 2.157208e+01 6.782822e+02
-4.476453e+09 -4.276469e+09 -4.436472e+09 -9.785380e+02 -7.443107e+01 9.727166e+02
-2.195383e+09 -1.995389e+09 -2.155392e+09 1.458642e+03 3.301999e+02 4.964832e+02
-1.670643e+09 -1.470637e+09 -1.630646e+09 -6.867851e+02 -9.490613e+03 -4.305514e+02
-4.991789e+09 -4.791910e+09 -4.951471e+09 -3.898643e+04 -2.269038e+03 4.672897e+03
-2.774705e+09 -2.574708e+09 -2.734712e+09 4.013351e+02 5.938634e+01 -1.143338e+01
-3.962021e+09 -3.762206e+09 -3.921784e+09 -3.928742e+04 -2.608029e+04 8.118054e+04
-3.960967e+09 -3.761094e+09 -3.920926e+09 -5.817962e+04 -1.547075e+04 7.300728e+04
-4.818181e+09 -4.618352e+09 -4.778016e+09 -2.258597e+04 3.497218e+04 1.568958e+04
-4.642760e+09 -4.442765e+09 -4.602771e+09 2.829543e+03 2.249518e+02 5.190707e+02
-4.300765e+09 -4.100772e+09 -4.260777e+09 2.629908e+03 3.194859e+02 4.159267e+02
-4.979209e+09 -4.779214e+09 -4.939218e+09 9.982489e+02 -4.470646e+01 3.980929e+00
-3.963017e+09 -3.763026e+09 -3.923029e+09 2.455123e+03 5.469267e+02 8.807412e+02
-4.990739e+09 -4.790745e+09 -4.950750e+09 2.281342e+03 4.353888e+01 5.251258e+01
-2.266980e+09 -2.066986e+09 -2.226989e+09 5.617979e+02 1.477868e+02 9.473899e+01
-3.961592e+09 -3.761625e+09 -3.921627e+09 5.500132e+02 -2.906753e+01 5.615388e+03
-3.165125e+09 -2.965112e+09 -3.125127e+09 -4.521772e+02 1.096423e+03 -9.582015e+02
-4.821204e+09 -4.621223e+09 -4.781238e+09 -1.810163e+04 -1.527741e+03 3.342782e+03
-4.798099e+09 -4.598085e+09 -4.758106e+09 -3.226846e+03 8.972025e+02 -9.465887e+02
-4.654303e+09 -4.454285e+09 -4.614307e+09 -2.061237e+03 6.403533e+02 -2.641350e+02
-4.496757e+09 -4.296777e+09 -4.456789e+09 -1.269227e+04 -1.123580e+03 3.733903e+03
-4.998059e+09 -4.798067e+09 -4.958083e+09 -1.359064e+04 -9.147059e+02 9.151733e+02
-4.991942e+09 -4.791958e+09 -4.951971e+09 -1.328157e+04 -9.255601e+02 1.758282e+03
-2.264047e+09 -2.064038e+09 -2.224049e+09 -4.361544e+02 2.165486e+03 -1.225739e+03
-4.333852e+09 -4.133868e+09 -4.293878e+09 -8.568517e+03 -1.048034e+03 3.260020e+03
-1.896190e+09 -1.696179e+09 -1.856191e+09 -8.485448e+02 1.169351e+03 -3.803341e+02
-4.990504e+09 -4.790500e+09 -4.950525e+09 -1.724822e+04 -1.655713e+03 1.130394e+03
-4.802198e+09 -4.602211e+09 -4.762222e+09 -1.077944e+04 -9.490256e+02 1.123432e+03
-4.290001e+09 -4.090013e+09 -4.250021e+09 -6.777317e+03 -1.347776e+03 1.830153e+03
-4.637058e+09 -4.437064e+09 -4.597073e+09 -5.921450e+03 -8.978638e+02 1.025461e+03
-4.826812e+09 -4.626821e+09 -4.786841e+09 -1.892526e+04 -1.845452e+03 2.769910e+03
-2.118597e+09 -1.918585e+09 -2.078597e+09 3.922552e+01 4.661740e+02 -3.385375e+01
-4.998613e+09 -4.798627e+09 -4.958635e+09 -8.544368e+03 -9.870642e+02 8.957683e+02
-4.991757e+09 -4.791722e+09 -4.951766e+09 1.430176e+04 2.506111e+03 7.588762e+02
-4.820112e+09 -4.620110e+09 -4.780138e+09 -2.852587e+04 -5.083114e+02 -6.402459e+00
-4.991785e+09 -4.791734e+09 -4.951789e+09 1.998673e+04 3.624838e+03 1.020454e+03
-4.819327e+09 -4.619304e+09 -4.779337e+09 1.099578e+04 2.612951e+03 3.124687e+02
-4.305567e+09 -4.105579e+09 -4.265597e+09 -3.996315e+04 -8.439034e+03 7.457937e+03
-4.647576e+09 -4.447566e+09 -4.607599e+09 -2.489132e+04 -1.847451e+03 1.688989e+03
-3.962058e+09 -3.762035e+09 -3.922069e+09 1.448621e+04 5.592022e+03 3.843579e+03
-3.962061e+09 -3.762033e+09 -3.922070e+09 1.684816e+04 7.136846e+03 3.369005e+03
-4.139063e+09 -3.939039e+09 -4.099075e+09 8.214441e+03 -5.364735e+03 -2.990008e+03
-4.991982e+09 -4.791985e+09 -4.952007e+09 -3.711746e+04 -3.505274e+03 3.111859e+03
-3.960806e+09 -3.760803e+09 -3.920826e+09 -1.678427e+04 -3.876830e+03 4.976143e+03
-4.991735e+09 -4.791779e+09 -4.951780e+09 1.434127e+04 -3.100981e+02 3.082953e+03
-4.992088e+09 -4.792083e+09 -4.952113e+09 -2.188638e+04 -2.937255e+03 9.981126e+02
-4.133779e+09 -3.933786e+09 -4.093807e+09 -4.048346e+04 -8.434008e+03 1.072525e+04
-4.646315e+09 -4.446314e+09 -4.606335e+09 -1.527391e+04 -1.087838e+03 1.938237e+03
-4.456903e+09 -4.256913e+09 -4.416924e+09 -8.371998e+03 -1.274287e+03 1.543799e+03
-3.961974e+09 -3.761963e+09 -3.921985e+09 -4.482987e+04 2.185233e+02 6.147714e+03
-4.132813e+09 -3.932802e+09 -4.092831e+09 -1.200452e+04 6.215711e+03 -1.922184e+03
-4.991958e+09 -4.791929e+09 -4.951936e+09 -5.359894e+04 -7.336601e+03 6.820956e+02
-3.962393e+09 -3.762392e+09 -3.922416e+09 -2.439906e+04 -3.510316e+03 5.751693e+03
-4.819934e+09 -4.619928e+09 -4.779948e+09 -4.706633e+04 -5.345883e+03 7.864683e+03
-3.962282e+09 -3.762280e+09 -3.922305e+09 -2.983211e+04 -5.015179e+03 5.372481e+03
-4.825087e+09 -4.625080e+09 -4.785109e+09 -1.006795e+04 2.193725e+03 -1.089571e+03
-3.962803e+09 -3.762820e+09 -3.922834e+09 -3.236692e+04 -3.386180e+03 5.809208e+03
-4.139214e+09 -3.939272e+09 -4.098939e+09 -8.461981e+04 4.243358e+04 -5.130773e+04
-4.821598e+09 -4.621586e+09 -4.781620e+09 -1.773433e+04 3.152654e+03 -7.242580e+02
-4.992025e+09 -4.792022e+09 -4.952055e+09 -1.504410e+04 1.940693e+03 -1.226069e+03
-3.962198e+09 -3.762231e+09 -3.921559e+09 -8.111112e+04 8.003067e+04 -1.657894e+05
-3.962517e+09 -3.762580e+09 -3.922460e+09 -6.774762e+04 2.679551e+04 -3.532558e+04
-3.767667e+09 -3.567676e+09 -3.727700e+09 8.046571e+03 -6.270217e+03 -4.017845e+03
-3.972583e+09 -3.772548e+09 -3.931759e+09 -5.942352e+04 1.543943e+05 -1.502981e+05
-4.918467e+09 -4.718469e+09 -4.878495e+09 1.751060e+03 -1.093625e+03 -1.336725e-04
-3.972771e+09 -3.772622e+09 -3.931876e+09 -8.303992e+04 1.676840e+05 -7.156102e+04
-3.962764e+09 -3.762740e+09 -3.921585e+09 -1.718423e+04 7.169570e+04 -1.186189e+05
-4.417161e+09 -4.217151e+09 -4.377166e+09 -6.340041e+02 7.479546e+02 -1.321458e+02
-1.834763e+09 -1.634761e+09 -1.794768e+09 -2.975043e+02 -2.984193e+02 1.182782e+03
-1.585627e+09 -1.385624e+09 -1.545631e+09 -3.215787e+02 -6.648538e+02 1.532329e+03
-4.260421e+09 -4.060408e+09 -4.220427e+09 -2.564599e+03 1.593086e+03 -7.285929e+02
-3.701640e+09 -3.501622e+09 -3.661647e+09 3.708329e+03 -2.763254e+03 -1.625268e+03
-4.992599e+09 -4.792566e+09 -4.952607e+09 5.398761e+03 -1.797961e+03 -4.394272e+02
-1.902685e+09 -1.702715e+09 -1.862691e+09 5.458221e+03 4.439009e+03 -1.076459e+04
-1.706347e+09 -1.506356e+09 -1.666343e+09 -4.978318e+03 3.884994e+03 -1.953686e+04
-1.574839e+09 -1.374843e+09 -1.534847e+09 -2.952983e+02 -7.189115e+01 7.148809e+01
-4.917746e+09 -4.717738e+09 -4.877757e+09 -5.729988e+02 4.910551e+02 -5.024534e-06
-2.655284e+09 -2.455287e+09 -2.615292e+09 -6.088103e+02 -1.680781e+02 2.446362e+02
-2.625678e+09 -2.425682e+09 -2.585686e+09 -7.310689e+01 -1.854817e+01 5.046657e+01
-1.895615e+09 -1.695619e+09 -1.855623e+09 -1.385661e+02 -1.748426e+01 4.139567e+01
-3.926266e+09 -3.726261e+09 -3.886272e+09 3.813518e+02 5.234948e+01 2.251385e+02
-4.993955e+09 -4.793955e+09 -4.953962e+09 8.235564e+02 1.080782e+01 1.646596e+01
-4.573033e+09 -4.373023e+09 -4.533046e+09 2.105263e+03 -1.115120e+03 -2.807434e+02
-2.754423e+09 -2.554413e+09 -2.714429e+09 9.975405e+02 -3.194121e+03 -1.401049e+03
-3.901678e+09 -3.701667e+09 -3.861684e+09 1.277781e+02 -1.528060e+02 -3.431102e+02
-4.304468e+09 -4.104488e+09 -4.264491e+09 1.508065e+03 1.517573e+02 1.781622e+03
-4.991582e+09 -4.791603e+09 -4.951608e+09 3.630625e+03 3.689545e+01 6.672357e+02
-4.295284e+09 -4.095274e+09 -4.255305e+09 1.350592e+04 -5.074062e+03 -2.259337e+03
-3.356025e+09 -3.156016e+09 -3.316035e+09 1.893265e+03 -5.123279e+03 -2.024628e+03
-4.628853e+09 -4.428845e+09 -4.588863e+09 -4.016332e+03 -6.773863e+02 8.371071e+02
-1.796378e+09 -1.596415e+09 -1.756415e+09 3.631259e+01 9.898680e+02 -6.304111e+03
-2.986312e+09 -2.786307e+09 -2.946319e+09 -5.062823e+02 -3.352522e+02 1.432011e+03
-3.440209e+09 -3.240282e+09 -3.400286e+09 -5.941414e+03 1.854786e+03 -3.470840e+03
-4.465785e+09 -4.265782e+09 -4.425794e+09 -1.039827e+03 -2.491361e+02 7.070064e+02
-2.181849e+09 -1.981888e+09 -2.141886e+09 -1.712873e+03 5.995286e+03 1.496019e+03
-4.995174e+09 -4.795177e+09 -4.955182e+09 -2.803285e+02 -1.501108e+01 -3.299151e+01
-3.563120e+09 -3.363123e+09 -3.523127e+09 -9.463897e+01 -3.675657e+01 1.254804e+02
-3.998681e+09 -3.798685e+09 -3.958689e+09 -1.764599e+02 -6.183447e+01 3.130728e+01
-1.908130e+09 -1.708134e+09 -1.868138e+09 -3.415045e+01 -3.646837e+01 1.886462e+01
-2.275984e+09 -2.076009e+09 -2.236009e+09 -2.706163e+03 8.124044e+03 -7.981829e+03
-2.186899e+09 -1.986889e+09 -2.146899e+09 -3.450285e+01 7.219706e+02 -6.453825e+01
-1.975337e+09 -1.775325e+09 -1.935337e+09 -4.585216e+03 -1.330981e+04 -1.068891e+03
-1.982216e+09 -1.782204e+09 -1.942217e+09 -1.989977e+02 6.876822e+03 -3.430943e+03
-1.863105e+09 -1.663095e+09 -1.823105e+09 -6.475156e+01 1.261185e+03 -8.721185e+02
-3.603538e+09 -3.403524e+09 -3.563541e+09 -4.965870e+02 4.906905e+02 -7.114404e+02
-1.904866e+09 -1.704856e+09 -1.864866e+09 3.087800e+02 3.796788e+03 -2.253775e+03
-3.465380e+09 -3.265381e+09 -3.425387e+09 1.236027e+03 4.839307e+02 3.482146e+02
-4.629664e+09 -4.429646e+09 -4.589672e+09 -4.090570e+03 1.460655e+03 -4.900214e+02
-3.961988e+09 -3.761972e+09 -3.921998e+09 -5.718531e+03 3.897822e+03 -1.427460e+03
-2.709749e+09 -2.509748e+09 -2.669755e+09 7.265328e+02 2.610707e+02 3.302182e+02
-4.646157e+09 -4.446144e+09 -4.606165e+09 -4.246842e+03 1.195483e+03 -5.488081e+02
-4.991303e+09 -4.791291e+09 -4.951313e+09 -3.901834e+03 5.980876e+02 -2.309909e+02
-3.422331e+09 -3.222319e+09 -3.382338e+09 -4.288549e+03 4.172745e+03 -1.607425e+03
-3.029437e+09 -2.829439e+09 -2.989444e+09 1.252809e+02 2.626807e+01 -6.034789e-01
-4.455959e+09 -4.255960e+09 -4.415965e+09 1.658885e+02 1.969057e+01 1.078547e+02
-4.590057e+09 -4.390057e+09 -4.550064e+09 6.090164e+02 6.566171e+01 1.310320e+02
-4.108974e+09 -3.908975e+09 -4.068980e+09 2.780676e+02 -6.594991e+00 2.819580e+01
-1.946175e+09 -1.746169e+09 -1.906179e+09 8.716539e+02 5.691758e+03 -6.612147e+02
-4.820206e+09 -4.620198e+09 -4.780219e+09 -3.496483e+03 1.347508e+03 -2.771321e+02
-2.649143e+09 -2.449137e+09 -2.609150e+09 -2.086705e+02 4.889039e+03 -3.038512e+02
-1.585219e+09 -1.385227e+09 -1.545229e+09 -1.066990e+03 -4.080880e+02 7.472873e+02
-2.637314e+09 -2.437310e+09 -2.597324e+09 -7.637212e+01 6.630082e+03 -5.387678e+02
-1.705623e+09 -1.505618e+09 -1.665628e+09 1.489386e+02 -7.205453e+03 -1.780236e+03
-1.582705e+09 -1.382712e+09 -1.542715e+09 -7.501040e+02 -2.610969e+02 2.969329e+02
-1.588826e+09 -1.388821e+09 -1.548828e+09 -1.351377e+02 -9.610512e+03 -4.624289e+03
-1.582705e+09 -1.382713e+09 -1.542715e+09 -5.672560e+02 -1.276306e+02 2.249299e+02
-4.996870e+09 -4.796859e+09 -4.956887e+09 7.269473e+03 -9.939875e+02 -5.482920e+02
-1.585938e+09 -1.385931e+09 -1.545939e+09 -3.001670e+02 -9.027204e+03 -3.421996e+03
-1.688325e+09 -1.488329e+09 -1.648333e+09 -7.276145e+02 -1.843848e+02 1.733293e+02
-3.886284e+09 -3.686291e+09 -3.846295e+09 -1.282242e+03 -2.314215e+02 4.422334e+02
-2.050092e+09 -1.850082e+09 -2.010094e+09 -1.045644e+03 3.227852e+03 -1.448067e+03
-2.085359e+09 -1.885365e+09 -2.045368e+09 -8.282142e+01 -2.731408e+00 3.835901e+01
-2.082305e+09 -1.882312e+09 -2.042315e+09 -1.008642e+03 -2.299792e+02 5.579012e+02
-2.204680e+09 -2.004664e+09 -2.164681e+09 -1.150499e+01 -3.944059e+02 4.321033e+01
-1.714054e+09 -1.514046e+09 -1.674056e+09 -7.428419e+02 -3.409625e+03 -1.141176e+03
-1.905890e+09 -1.705878e+09 -1.865892e+09 2.749588e+02 -5.020555e+03 3.732710e+02
-2.602194e+09 -2.402184e+09 -2.562196e+09 -4.159415e+02 1.125197e+03 -7.274753e+02
-3.158587e+09 -2.958576e+09 -3.118589e+09 -4.829850e+02 6.797258e+02 -7.560236e+02
-3.105782e+09 -2.905752e+09 -3.065788e+09 9.695688e+02 -1.354927e+04 -4.021632e+02
-2.218324e+09 -2.018310e+09 -2.178326e+09 4.243812e+02 -4.660498e+03 -1.237445e+03
-2.474833e+09 -2.274821e+09 -2.434837e+09 1.792157e+03 4.203419e+03 1.436340e+03
-1.587963e+09 -1.387955e+09 -1.547964e+09 5.173177e+02 3.577609e+03 1.762777e+03
-1.685531e+09 -1.485524e+09 -1.645533e+09 8.016690e+02 7.112299e+03 2.073259e+03
-1.921767e+09 -1.721758e+09 -1.881768e+09 3.245095e+02 7.128814e+02 -8.665927e+02
-4.820708e+09 -4.620695e+09 -4.780712e+09 -1.256835e+03 3.221902e+02 -4.489626e+02
-4.991954e+09 -4.791928e+09 -4.951962e+09 6.386457e+03 1.016604e+03 -3.494432e+02
-4.992349e+09 -4.792327e+09 -4.952357e+09 4.006585e+03 1.081234e+03 -7.653770e+01
-1.687610e+09 -1.487604e+09 -1.647612e+09 -9.176089e+02 -1.665510e+04 1.771355e+02
-3.088220e+09 -2.888206e+09 -3.048223e+09 8.105934e+02 2.520984e+03 1.614367e+02
-1.957606e+09 -1.757597e+09 -1.917608e+09 1.022481e+03 9.241221e+02 5.824018e+02
-1.579119e+09 -1.379110e+09 -1.539120e+09 3.077849e+02 4.299534e+03 1.357541e+03
-1.876234e+09 -1.676224e+09 -1.836234e+09 -7.078475e+02 6.137186e+03 2.118925e+03
-3.594271e+09 -3.394261e+09 -3.554275e+09 -1.063904e+03 1.156182e+03 -6.336397e+02
-2.494697e+09 -2.294688e+09 -2.454700e+09 -2.898099e+02 1.126656e+03 -7.573657e+02
-4.321528e+09 -4.121523e+09 -4.281534e+09 5.819219e+02 1.702103e+02 6.168939e+02
-1.695455e+09 -1.495447e+09 -1.655456e+09 4.103388e+02 9.134501e+03 1.125328e+02
-3.060368e+09 -2.860353e+09 -3.020372e+09 1.140676e+03 -2.018199e+03 -2.115701e+03
-1.854084e+09 -1.654072e+09 -1.814084e+09 3.244214e+02 2.774923e+03 3.668302e+02
-2.067776e+09 -1.867765e+09 -2.027777e+09 1.533426e+02 5.987730e+02 4.658831e+02
-1.688324e+09 -1.488329e+09 -1.648333e+09 -6.653141e+02 -1.362266e+02 2.224880e+02
-2.799264e+09 -2.599269e+09 -2.759272e+09 -1.991760e+02 -2.189635e+01 6.273679e+01
-2.662356e+09 -2.462347e+09 -2.622358e+09 -6.962314e+01 4.365652e+02 -7.266198e+02
-1.872285e+09 -1.672276e+09 -1.832286e+09 1.232336e+02 5.648247e+02 -4.948959e+02
-1.904818e+09 -1.704823e+09 -1.864826e+09 1.961619e+02 4.847293e+01 1.108727e-01
-1.884600e+09 -1.684603e+09 -1.844608e+09 -1.594086e+03 -8.231887e+02 8.852024e+02
-2.065685e+09 -1.865686e+09 -2.025692e+09 -1.084088e+03 -7.033350e+02 1.015622e+03
-1.688325e+09 -1.488329e+09 -1.648333e+09 -9.614173e+02 -2.833036e+02 4.682696e+02
-2.586462e+09 -2.386509e+09 -2.546509e+09 1.488834e+03 -2.435616e+03 1.868424e+03
-1.887520e+09 -1.687551e+09 -1.847542e+09 -1.193539e+04 -1.361159e+03 -5.272882e+03
-4.820531e+09 -4.620640e+09 -4.780574e+09 3.295081e+04 6.163010e+03 2.219310e+03
-1.917092e+09 -1.717112e+09 -1.877114e+09 9.529005e+03 -7.522490e+03 -4.685800e+03
-4.304076e+09 -4.104100e+09 -4.264104e+09 3.091040e+03 4.153947e+02 2.653338e+03
-4.819462e+09 -4.619481e+09 -4.779487e+09 4.884109e+03 9.002936e+02 5.555471e+02
-2.192547e+09 -1.992549e+09 -2.152554e+09 -2.062343e+03 -1.155292e+03 1.375507e+03
-4.985270e+09 -4.785278e+09 -4.945287e+09 -6.246738e+03 -3.676882e+02 7.434961e+02
-4.122816e+09 -3.922821e+09 -4.082829e+09 -4.435931e+03 -1.261891e+03 9.391952e+02
-3.957472e+09 -3.757479e+09 -3.917484e+09 -2.963180e+03 -5.211207e+02 8.915315e+02
-3.266511e+09 -3.066514e+09 -3.226520e+09 -1.384919e+03 -3.558236e+02 5.764405e+02
-1.579986e+09 -1.379990e+09 -1.539994e+09 -5.259716e+02 -2.873767e+02 1.606592e+02
-4.809769e+09 -4.609777e+09 -4.769783e+09 -3.696964e+03 -3.487789e+00 7.918477e+02
-4.986562e+09 -4.786571e+09 -4.946578e+09 -5.354326e+03 -1.806388e+02 -1.337506e+01
-3.964105e+09 -3.764081e+09 -3.924117e+09 9.269453e+03 -5.749974e+03 -2.524446e+03
-2.150348e+09 -1.950350e+09 -2.110355e+09 -2.309913e+02 -5.846735e+01 2.965777e+02
-2.615630e+09 -2.415631e+09 -2.575637e+09 -1.559306e+02 -1.057565e+02 5.834654e+02
-4.548744e+09 -4.348747e+09 -4.508752e+09 -3.121687e+02 -5.244928e+01 1.724226e+02
-4.995701e+09 -4.795681e+09 -4.955713e+09 5.261461e+03 -8.774046e+02 -1.034461e+03
-4.993804e+09 -4.793774e+09 -4.953816e+09 1.127053e+04 -2.224994e+03 -1.223840e+03
-2.522290e+09 -2.322298e+09 -2.482313e+09 1.114805e+04 -1.238782e+04 -6.671575e+03
-4.131833e+09 -3.931835e+09 -4.091842e+09 2.315000e+03 6.102731e+02 1.669093e+02
-4.989675e+09 -4.789677e+09 -4.949684e+09 2.030999e+03 4.335081e+01 5.524538e+01
-1.964697e+09 -1.764697e+09 -1.924707e+09 3.419668e+03 -9.268471e+03 -1.931060e+03
-3.164898e+09 -2.964898e+09 -3.124916e+09 5.772097e+03 -8.641163e+03 -4.283055e+03
-1.890594e+09 -1.690597e+09 -1.850602e+09 -1.206066e+03 -5.206397e+02 8.073270e+02
-1.887721e+09 -1.687723e+09 -1.847728e+09 -1.388633e+03 -8.732375e+02 1.291960e+03
-4.990514e+09 -4.790517e+09 -4.950523e+09 2.287222e+03 4.600832e+01 5.713257e+01
-3.792832e+09 -3.592829e+09 -3.752838e+09 1.708812e+03 6.127167e+02 5.473946e+02
-4.992860e+09 -4.792855e+09 -4.952866e+09 1.627890e+03 9.885069e+01 1.906854e+02
-4.992830e+09 -4.792827e+09 -4.952838e+09 2.732141e+03 -1.367707e+02 1.601372e+02
-3.327477e+09 -3.127467e+09 -3.287480e+09 -3.834632e+02 1.034915e+03 -4.874755e+02
-1.572446e+09 -1.372440e+09 -1.532447e+09 -3.952127e+02 -7.235579e+03 -2.731658e+03
-4.992654e+09 -4.792659e+09 -4.952663e+09 6.359806e+02 3.444416e+01 4.843466e+01
-4.751945e+09 -4.551950e+09 -4.711954e+09 3.411592e+02 -1.766858e+01 1.296312e+02
-3.321384e+09 -3.121389e+09 -3.281393e+09 1.501819e+03 2.766292e+02 4.734878e+02
-4.637544e+09 -4.437551e+09 -4.597554e+09 1.306611e+03 8.004932e+01 1.676151e+02
-4.823622e+09 -4.623630e+09 -4.783633e+09 1.112759e+03 -1.178854e+02 1.715496e+02
-2.036892e+09 -1.836895e+09 -1.996899e+09 6.126141e+02 7.479959e+01 9.311237e+01
-2.130908e+09 -1.930915e+09 -2.090918e+09 1.469963e+02 4.138278e+01 1.058662e+02
-4.526730e+09 -4.326734e+09 -4.486759e+09 -1.945824e+03 2.605389e+03 -1.199554e+02
-4.992758e+09 -4.792763e+09 -4.952790e+09 -4.621174e+03 6.370496e+02 -1.301502e+03
-1.808874e+09 -1.608880e+09 -1.768883e+09 1.868109e+02 6.366925e+01 1.476433e+02
-2.239760e+09 -2.039768e+09 -2.199770e+09 -2.340227e+02 -2.592366e+01 8.062339e+01
-3.026971e+09 -2.826951e+09 -2.986976e+09 5.081839e+02 -2.566048e+03 -1.423146e+03
-3.476277e+09 -3.276286e+09 -3.436289e+09 -1.428753e+03 -2.814086e+02 6.564371e+02
-3.226481e+09 -3.026489e+09 -3.186492e+09 -9.860711e+02 -4.155373e+02 4.433515e+02
-4.744983e+09 -4.544968e+09 -4.704991e+09 9.372675e+02 -3.682656e+01 -5.246262e+02
-4.520840e+09 -4.320823e+09 -4.480848e+09 1.677676e+03 -6.857381e+02 -6.526412e+02
-1.929687e+09 -1.729695e+09 -1.889697e+09 -1.936619e+02 -1.210956e+02 5.521511e+01
-2.195841e+09 -1.995849e+09 -2.155851e+09 -4.829657e+02 -9.800600e+01 3.188066e+02
-2.937290e+09 -2.737297e+09 -2.897301e+09 1.610111e+03 5.364703e+02 8.296395e+02
-1.896778e+09 -1.696787e+09 -1.856789e+09 1.470221e+03 2.495301e+02 1.094351e+03
-3.964285e+09 -3.764322e+09 -3.924316e+09 -4.102769e+04 -3.132249e+02 2.439373e+03
-2.116014e+09 -1.916019e+09 -2.076023e+09 6.221547e+02 1.123982e+02 1.859670e+02
-4.917164e+09 -4.717169e+09 -4.877172e+09 1.401030e+02 -5.299745e+01 -4.987059e-05
-4.135325e+09 -3.935387e+09 -4.095360e+09 -4.788037e+04 -3.380725e+03 1.108460e+04
-4.995733e+09 -4.795739e+09 -4.955742e+09 9.230054e+02 1.466845e+02 2.070851e+02
-4.992217e+09 -4.792232e+09 -4.952234e+09 -5.030835e+04 -4.280487e+03 4.130497e+03
-4.136090e+09 -3.936124e+09 -4.096129e+09 -3.942636e+04 -5.698627e+03 1.218240e+04
-4.992211e+09 -4.792212e+09 -4.952228e+09 -4.520661e+04 -6.288548e+03 2.684827e+03
-3.969247e+09 -3.769137e+09 -3.929170e+09 -5.401130e+03 -1.972312e+02 3.055471e+03
-4.468448e+09 -4.268332e+09 -4.428397e+09 -2.100987e+04 1.812239e+03 4.043554e+02
-4.474296e+09 -4.274240e+09 -4.434300e+09 -4.417037e+03 -4.045271e+03 4.502012e+02
-2.552929e+09 -2.352908e+09 -2.512930e+09 1.381521e+03 -7.631254e+03 -1.630616e+03
-4.183879e+09 -3.983854e+09 -4.143886e+09 -1.328411e+03 -2.257509e+03 6.271468e+02
-4.812570e+09 -4.612541e+09 -4.772582e+09 -1.338785e+04 3.500334e+03 -8.195881e+02
-4.126109e+09 -3.926085e+09 -4.086118e+09 -9.485690e+03 4.180209e+03 -2.545168e+03
-3.549044e+09 -3.349036e+09 -3.509050e+09 -2.287943e+02 2.248055e+03 -1.549161e+02
-2.880324e+09 -2.680319e+09 -2.840335e+09 -4.853725e+02 6.488445e+03 -1.996372e+02
-3.231258e+09 -3.031264e+09 -3.191283e+09 -8.151844e+03 1.042163e+04 -6.114115e+03
-4.992961e+09 -4.792952e+09 -4.952973e+09 -3.411943e+03 5.585307e+02 -3.842485e+02
-4.045246e+09 -3.845237e+09 -4.005259e+09 -4.930074e+03 3.938350e+03 -1.612424e+03
-4.289322e+09 -4.089311e+09 -4.249337e+09 -7.782434e+03 4.135165e+03 -1.686753e+03
-3.982382e+09 -3.782372e+09 -3.942387e+09 -1.017166e+03 1.340451e+03 -3.196121e+02
-3.169417e+09 -2.969410e+09 -3.129426e+09 -1.370708e+03 4.697114e+03 -1.155084e+03
-3.954117e+09 -3.754104e+09 -3.914130e+09 -8.197218e+03 4.541330e+03 -2.278280e+03
-4.295885e+09 -4.095871e+09 -4.255903e+09 -1.131399e+04 4.672753e+03 -2.253340e+03
-4.141857e+09 -3.941839e+09 -4.101870e+09 -1.196140e+04 5.212290e+03 -1.951622e+03
-4.817782e+09 -4.617772e+09 -4.777798e+09 -6.314087e+03 1.452701e+03 -7.585991e+02
-4.123173e+09 -3.923103e+09 -4.083133e+09 -3.841569e+04 -5.678991e+03 7.148616e+02
-3.964420e+09 -3.764346e+09 -3.924333e+09 -5.215437e+04 -2.012085e+04 1.471181e+04
-3.272389e+09 -3.072440e+09 -3.232441e+09 -1.182281e+04 8.642723e+03 -1.106692e+04
-4.287474e+09 -4.087559e+09 -4.247488e+09 -4.101842e+04 -2.094616e+03 -7.763551e+03
-4.132441e+09 -3.932461e+09 -4.092465e+09 -5.779233e+02 -8.842039e+02 2.416395e+03
-4.303396e+09 -4.103510e+09 -4.263332e+09 -5.309486e+04 -8.694279e+03 -2.176869e+01
-4.971392e+09 -4.771461e+09 -4.931463e+09 -2.509168e+04 2.898635e+03 -3.832093e+03
-4.818742e+09 -4.618761e+09 -4.778765e+09 -1.532904e+03 -7.480018e+02 6.051384e+02
-3.961950e+09 -3.761970e+09 -3.921974e+09 3.441764e+02 7.362613e+01 2.980927e+03
-4.985007e+09 -4.785102e+09 -4.945092e+09 -1.818328e+04 6.168007e+02 -2.682114e+03
-4.825403e+09 -4.625494e+09 -4.785492e+09 -3.488046e+03 5.648580e+02 -2.344335e+03
-4.820517e+09 -4.620633e+09 -4.780565e+09 -3.123978e+04 9.216327e+03 -4.810195e+03
-3.862814e+09 -3.662888e+09 -3.822891e+09 -6.698672e+03 3.120373e+03 -5.033452e+02
-4.136935e+09 -3.936942e+09 -4.096952e+09 7.278616e+03 2.171497e+03 1.219751e+03
-4.647227e+09 -4.447254e+09 -4.607258e+09 3.987822e+02 3.992461e+01 1.584397e+03
-4.133032e+09 -3.933064e+09 -4.093067e+09 -1.310585e+03 -1.291425e+03 4.611494e+03
-4.672154e+09 -4.472163e+09 -4.632174e+09 8.922473e+03 6.773945e+02 1.656490e+03
-4.988931e+09 -4.788939e+09 -4.948947e+09 5.298790e+03 1.560272e+02 2.886696e+02
-4.301856e+09 -4.101811e+09 -4.261855e+09 -1.381021e+03 7.057098e+03 -7.724184e+02
-4.990325e+09 -4.790283e+09 -4.950330e+09 -1.615599e+03 1.701740e+03 -2.184365e+02
-4.990793e+09 -4.790762e+09 -4.950797e+09 -3.689033e+03 1.595133e+03 -4.416051e+02
-4.990393e+09 -4.790355e+09 -4.950400e+09 -5.198387e+03 2.796369e+03 -9.723793e+02
-4.132604e+09 -3.932637e+09 -4.092640e+09 1.878427e+03 -7.504789e+02 4.841159e+03
-3.964150e+09 -3.764068e+09 -3.924120e+09 3.124688e+03 5.667423e+03 6.060738e+01
-4.506509e+09 -4.306411e+09 -4.466449e+09 -1.636201e+04 4.666353e+03 -4.136341e+03
-3.950232e+09 -3.750160e+09 -3.910199e+09 -3.258849e+04 -2.128371e+03 4.902139e+03
-4.825662e+09 -4.625626e+09 -4.785670e+09 2.936874e+04 -1.557293e+03 -3.969244e+02
-2.274527e+09 -2.074506e+09 -2.234525e+09 6.791247e+02 -1.607953e+04 -6.461619e+02
-4.768914e+09 -4.568915e+09 -4.728921e+09 6.019109e+02 6.491686e+01 1.402999e+01
-3.778272e+09 -3.578274e+09 -3.738279e+09 7.140337e+01 7.514763e+00 -4.998272e+00
-1.906332e+09 -1.706334e+09 -1.866339e+09 -5.695398e+00 1.104476e+01 1.350456e+01
-4.992045e+09 -4.792000e+09 -4.952050e+09 1.151326e+04 3.101665e+03 6.228161e+02
-4.991827e+09 -4.791774e+09 -4.951824e+09 1.075149e+04 2.678961e+03 -4.186186e+02
-3.962350e+09 -3.762316e+09 -3.922355e+09 8.825149e+03 7.898564e+03 1.972501e+03
-4.801543e+09 -4.601545e+09 -4.761550e+09 2.416715e+02 1.657792e+01 5.282384e+01
-3.436377e+09 -3.236379e+09 -3.396384e+09 1.087922e+03 1.236820e+02 1.936065e+02
-1.881776e+09 -1.681767e+09 -1.841778e+09 3.121956e+03 6.643343e+03 1.327816e+03
-2.971980e+09 -2.771980e+09 -2.931986e+09 2.751831e+02 5.155333e+01 2.704085e+02
-4.991789e+09 -4.791747e+09 -4.951792e+09 1.514767e+04 2.440955e+03 -3.197138e+02
-4.133862e+09 -3.933793e+09 -4.093848e+09 1.597484e+04 1.050318e+04 3.217090e+03
-5.003040e+09 -4.803043e+09 -4.963048e+09 1.024999e+03 -8.797087e+01 -1.336313e+02
-3.923921e+09 -3.723925e+09 -3.883929e+09 1.066886e+03 1.727170e+02 2.783059e+02
-4.298905e+09 -4.098819e+09 -4.258056e+09 -1.551246e+04 -1.160722e+05 3.217771e+04
-4.991884e+09 -4.791844e+09 -4.951498e+09 -8.875502e+04 7.617527e+02 4.336279e+03
-4.133454e+09 -3.933526e+09 -4.093119e+09 -7.048464e+04 -7.794017e+03 6.384782e+04
-3.093834e+09 -2.893834e+09 -3.053844e+09 -3.362880e+03 -1.672985e+03 2.450997e+03
-3.018462e+09 -2.818534e+09 -2.978507e+09 -1.592954e+04 2.373569e+03 -3.810960e+03
-2.148369e+09 -1.948408e+09 -2.108403e+09 -6.072079e+03 6.241615e+03 -5.215472e+03
-4.994123e+09 -4.794149e+09 -4.954159e+09 -1.172836e+04 -1.754422e+02 1.880496e+03
-3.957004e+09 -3.757026e+09 -3.917040e+09 -1.647085e+04 -2.623841e+03 4.716713e+03
-1.945639e+09 -1.745666e+09 -1.905645e+09 3.938092e+03 8.292131e+03 -1.155047e+04
-4.134739e+09 -3.934758e+09 -4.094772e+09 -1.742047e+04 -2.787160e+03 4.013053e+03
-4.302235e+09 -4.102266e+09 -4.262276e+09 -1.735286e+04 -3.183414e+03 8.060046e+03
-4.990557e+09 -4.790533e+09 -4.950567e+09 5.591052e+03 -7.011083e+02 -1.240216e+02
-3.964327e+09 -3.764358e+09 -3.924363e+09 -2.203154e+04 -1.650472e+03 4.792924e+03
-1.971995e+09 -1.771985e+09 -1.931997e+09 5.729827e+02 -2.881627e+03 -4.210529e+02
-1.896628e+09 -1.696620e+09 -1.856631e+09 1.177677e+03 -4.790211e+03 -8.205771e+02
-4.648666e+09 -4.448688e+09 -4.608532e+09 -7.620424e+04 2.051606e+04 -2.084219e+04
-4.992261e+09 -4.792329e+09 -4.952174e+09 -7.225876e+04 -1.564091e+03 2.490940e+03
-4.991724e+09 -4.791809e+09 -4.951738e+09 -5.102279e+04 -2.896535e+03 5.275738e+03
-4.826041e+09 -4.626053e+09 -4.786068e+09 -1.328664e+04 -1.397121e+03 2.090368e+03
-4.134158e+09 -3.934259e+09 -4.094061e+09 -6.302605e+04 4.498836e+03 -2.151896e+04
-3.962027e+09 -3.762112e+09 -3.922031e+09 -4.539357e+04 4.979034e+03 -7.369589e+03
-4.475052e+09 -4.275172e+09 -4.435073e+09 -2.631198e+04 -3.006759e+01 -2.114380e+03
-4.144946e+09 -3.944800e+09 -4.104765e+09 -1.700451e+04 -2.513948e+04 4.332641e+03
-3.974375e+09 -3.774234e+09 -3.934204e+09 1.633516e+03 -3.028403e+04 -1.016896e+04
-5.004071e+09 -4.803934e+09 -4.963912e+09 -1.643072e+04 1.152164e+04 7.895152e+01
-4.979955e+09 -4.779864e+09 -4.939911e+09 -3.380764e+04 6.730069e+03 -2.064296e+03
-3.961595e+09 -3.761470e+09 -3.921388e+09 -4.829640e+04 -5.089639e+04 2.952929e+04
-4.976803e+09 -4.776798e+09 -4.936676e+09 7.364176e+04 1.008137e+04 -6.074906e+02
-3.961919e+09 -3.761890e+09 -3.921898e+09 5.709240e+04 -1.267807e+04 -4.460117e+02
-5.001036e+09 -4.800880e+09 -4.960653e+09 -1.123498e+04 -3.386449e+03 -1.703151e+04
-4.141936e+09 -3.941764e+09 -4.101653e+09 -1.511810e+04 -4.645814e+04 8.582787e+03
-4.801486e+09 -4.601382e+09 -4.761344e+09 5.372679e+04 -9.270688e+03 -1.666097e+04
-4.987573e+09 -4.787532e+09 -4.947450e+09 7.358710e+04 4.650392e+03 2.016735e+03
-4.985674e+09 -4.785540e+09 -4.945255e+09 4.062540e+04 -7.319809e+03 -3.482759e+03
-4.488188e+09 -4.288037e+09 -4.447953e+09 -2.420801e+03 -1.313155e+04 3.157943e+03
-3.974377e+09 -3.774237e+09 -3.934218e+09 -5.749610e+03 -2.923663e+04 8.687250e+03
-4.134620e+09 -3.934637e+09 -4.094655e+09 -3.072050e+04 -6.291069e+03 9.739046e+03
-4.992533e+09 -4.792545e+09 -4.952564e+09 -2.751453e+04 -2.278147e+03 2.679282e+03
-4.992530e+09 -4.792536e+09 -4.952561e+09 -2.453390e+04 -3.176342e+03 1.821801e+03
-3.962391e+09 -3.762387e+09 -3.922414e+09 -2.126311e+04 -5.358845e+03 4.885339e+03
-4.306632e+09 -4.106683e+09 -4.266651e+09 -5.468602e+04 -4.863165e+03 6.932784e+03
-5.003305e+09 -4.803366e+09 -4.963355e+09 -3.935035e+04 -5.356835e+03 5.719062e+03
-4.303919e+09 -4.103949e+09 -4.263956e+09 -3.052753e+04 -5.113774e+03 7.850962e+03
-3.964323e+09 -3.764344e+09 -3.924359e+09 -2.338114e+04 -3.130446e+03 5.264110e+03
-4.130603e+09 -3.930634e+09 -4.090636e+09 -3.130906e+04 -2.599957e+03 3.071907e+03
-3.962832e+09 -3.762840e+09 -3.922862e+09 -2.326435e+04 -4.051203e+03 5.560989e+03
-4.992317e+09 -4.792323e+09 -4.952344e+09 -1.929803e+04 -1.572302e+03 1.552555e+03
-4.317303e+09 -4.117316e+09 -4.277333e+09 -1.536592e+04 -4.008166e+03 4.433091e+03
-4.991941e+09 -4.791954e+09 -4.951969e+09 -1.248574e+04 -1.853818e+03 1.334684e+03
-3.962243e+09 -3.762256e+09 -3.922269e+09 -1.165955e+04 -2.102445e+03 4.074200e+03
-4.647194e+09 -4.447191e+09 -4.606081e+09 -2.833674e+02 -4.543192e+04 4.454140e+04
-4.127896e+09 -3.927825e+09 -4.087521e+09 8.975887e+04 -8.319344e+04 1.309659e+02
-4.116478e+09 -3.916353e+09 -4.076208e+09 5.761553e+04 -3.633201e+04 1.366933e+03
-4.476544e+09 -4.276615e+09 -4.436387e+09 8.043245e+04 -1.532320e+04 -3.195279e+04
-4.982617e+09 -4.782588e+09 -4.942367e+09 9.063894e+04 9.227287e+02 -1.536890e+03
-3.966062e+09 -3.765948e+09 -3.925570e+09 9.261023e+04 -1.055780e+05 -7.374198e+04
-4.634478e+09 -4.434341e+09 -4.593867e+09 5.440930e+04 -6.556202e+04 -9.647601e+03
-4.818562e+09 -4.618678e+09 -4.778550e+09 5.045135e+04 -1.784328e+04 -2.918438e+03
-4.645420e+09 -4.445434e+09 -4.605440e+09 4.151762e+03 3.544687e+02 8.174307e+02
-4.982590e+09 -4.782515e+09 -4.942344e+09 6.858965e+04 2.686468e+03 -2.905983e+03
-4.991114e+09 -4.791128e+09 -4.951132e+09 2.139069e+03 -1.452945e+02 2.181991e+02
-4.803301e+09 -4.603314e+09 -4.763317e+09 1.898812e+03 4.501070e+02 1.964018e+02
-3.962485e+09 -3.762499e+09 -3.922502e+09 1.630465e+03 3.203808e+02 1.469999e+03
-4.991587e+09 -4.791605e+09 -4.951610e+09 2.867557e+03 -1.926103e+02 1.190698e+02
-4.647678e+09 -4.447693e+09 -4.607697e+09 1.973958e+03 1.818380e+02 8.112815e+02
-4.817595e+09 -4.617605e+09 -4.777612e+09 4.529691e+03 -3.025476e+01 8.315060e+02
-3.960662e+09 -3.760670e+09 -3.920676e+09 3.360667e+03 5.405570e+02 1.403015e+03
-4.134139e+09 -3.934298e+09 -4.093941e+09 6.601315e+03 1.068891e+04 -1.089595e+05
-3.972703e+09 -3.772877e+09 -3.932385e+09 -2.407216e+04 2.040542e+04 -9.658533e+04
-5.002422e+09 -4.802553e+09 -4.962016e+09 -4.194771e+03 1.178389e+04 -1.705495e+04
-3.916315e+09 -3.716319e+09 -3.876324e+09 -9.499821e+02 -2.057040e+02 1.748375e+02
-3.962397e+09 -3.762389e+09 -3.922414e+09 1.415370e+04 4.632311e+03 3.750780e+03
-3.735072e+09 -3.535075e+09 -3.695080e+09 -1.497230e+02 -6.052350e+01 4.661158e+01
-3.972749e+09 -3.772877e+09 -3.932333e+09 -4.360612e+04 2.604107e+04 -1.576154e+05
-4.147831e+09 -3.947907e+09 -4.107457e+09 6.601115e+04 -2.075158e+04 -8.307164e+04
-4.691909e+09 -4.491913e+09 -4.651917e+09 -6.771708e+02 -4.076143e+01 1.057962e+02
-4.132553e+09 -3.932630e+09 -4.091570e+09 -3.071820e+04 1.142643e+05 -1.515198e+05
-3.212830e+09 -3.012839e+09 -3.172842e+09 -1.387892e+03 -5.981151e+02 8.856721e+02
-4.582811e+09 -4.382821e+09 -4.542823e+09 -4.536119e+02 -8.662759e+01 8.798014e+01
-4.092753e+09 -3.892765e+09 -4.052766e+09 -1.596865e+02 -1.211588e+02 8.806924e+01
-4.756644e+09 -4.556656e+09 -4.716658e+09 -3.061469e+02 5.923220e+01 1.357744e+02
-4.513019e+09 -4.313029e+09 -4.473031e+09 5.337221e+02 1.007002e+02 2.317423e+02
-3.760400e+09 -3.560405e+09 -3.720409e+09 1.179272e+03 1.098800e+02 3.019166e+02
-1.895783e+09 -1.695793e+09 -1.855795e+09 1.365875e+03 1.648860e+02 1.251229e+03
-3.236590e+09 -3.036599e+09 -3.196602e+09 1.663655e+03 2.919008e+02 1.004181e+03
-3.961261e+09 -3.761283e+09 -3.921288e+09 -4.598076e+03 -9.753811e+02 3.356113e+03
-4.132437e+09 -3.932398e+09 -4.092442e+09 -2.629185e+04 -6.330198e+03 2.644686e+03
-3.435836e+09 -3.235836e+09 -3.395844e+09 2.551714e+03 9.735901e+02 8.374104e+02
-3.962893e+09 -3.762895e+09 -3.922902e+09 2.418482e+03 5.224768e+02 5.147192e+02
-3.909144e+09 -3.709143e+09 -3.869151e+09 1.903467e+03 5.128680e+02 4.304002e+02
-4.649339e+09 -4.449338e+09 -4.609347e+09 2.606047e+03 3.594189e+02 2.008996e+02
-4.997598e+09 -4.797598e+09 -4.957605e+09 1.212724e+03 3.543096e+01 1.744206e+01
-4.134310e+09 -3.934310e+09 -4.094318e+09 3.064340e+03 8.738556e+02 3.029817e+02
-4.133475e+09 -3.933405e+09 -4.093463e+09 -2.366602e+04 -1.156834e+04 5.438019e+03
-3.961401e+09 -3.761364e+09 -3.921407e+09 -1.894281e+04 -8.477627e+03 3.472156e+03
-4.819872e+09 -4.619881e+09 -4.779886e+09 2.581265e+03 3.541071e+02 1.201465e+02
-4.458587e+09 -4.258696e+09 -4.418643e+09 2.842654e+03 4.866787e+03 4.977491e+03
-4.992716e+09 -4.792724e+09 -4.952728e+09 1.707827e+03 -1.353941e+02 6.903900e+01
-1.882398e+09 -1.682408e+09 -1.842410e+09 -1.028692e+03 -5.207332e+02 8.760756e+02
-4.991633e+09 -4.791646e+09 -4.951649e+09 -2.260438e+03 -8.823247e+01 2.587329e+02
-3.525633e+09 -3.325645e+09 -3.485647e+09 -1.693253e+03 -4.049353e+02 6.871118e+02
-3.349914e+09 -3.149926e+09 -3.309927e+09 -2.180007e+02 1.092433e+01 1.688894e+02
-4.007609e+09 -3.807617e+09 -3.967620e+09 4.571151e+02 7.852113e+00 4.458524e+00
-3.423626e+09 -3.223618e+09 -3.383633e+09 -2.239943e+03 -1.279357e+03 2.019019e+03
-3.843560e+09 -3.643554e+09 -3.803567e+09 -8.530640e+02 -5.205003e+01 9.994996e+02
-3.017619e+09 -2.817631e+09 -2.977634e+09 1.294578e+03 5.269582e+02 1.774806e+03
-2.336733e+09 -2.136732e+09 -2.296741e+09 -1.817903e+03 -1.988680e+03 1.954863e+03
-4.838645e+09 -4.638653e+09 -4.798656e+09 1.190894e+03 -1.267757e+02 5.567895e+01
-3.701415e+09 -3.501426e+09 -3.661429e+09 1.336119e+03 1.186956e+02 8.400392e+02
-4.274797e+09 -4.074793e+09 -4.234804e+09 2.040001e+03 1.000413e+03 7.233173e+02
-2.552389e+09 -2.352384e+09 -2.512395e+09 -4.031539e+02 -3.072378e+02 1.989965e+03
-1.632123e+09 -1.432119e+09 -1.592127e+09 -2.964474e+02 -3.985331e+02 1.683741e+03
-4.992804e+09 -4.792802e+09 -4.952812e+09 2.865892e+03 1.636383e+00 1.356680e+02
-4.995810e+09 -4.795779e+09 -4.955818e+09 5.251446e+02 -1.260764e+03 3.440580e+02
-4.992927e+09 -4.792890e+09 -4.952936e+09 -1.645095e+03 -3.109885e+03 8.270973e+01
-1.943414e+09 -1.743425e+09 -1.903426e+09 8.635900e+01 9.873305e+01 1.890948e+02
-3.442659e+09 -3.242623e+09 -3.402661e+09 -1.067152e+03 -1.337114e+04 -2.265270e+01
-4.992641e+09 -4.792604e+09 -4.952648e+09 3.030424e+03 -2.148754e+03 -2.580062e+02
-3.588881e+09 -3.388859e+09 -3.548888e+09 -1.513973e+02 -5.853512e+02 3.045260e+02
-1.632114e+09 -1.432124e+09 -1.592125e+09 2.860359e+02 6.910336e+01 3.246409e+02
-1.876471e+09 -1.676481e+09 -1.836482e+09 7.008541e+01 2.426060e+01 1.959695e+02
-1.599635e+09 -1.399646e+09 -1.559647e+09 2.444611e+02 8.427973e+01 8.551737e+02
-2.673669e+09 -2.473681e+09 -2.633682e+09 9.772102e+01 7.859143e+01 1.128401e+02
-1.909729e+09 -1.709741e+09 -1.869742e+09 4.092199e+02 4.797971e+02 1.520241e+03
-4.763095e+09 -4.563068e+09 -4.723103e+09 -7.912983e+02 -4.372364e+02 -3.814328e+02
-4.992684e+09 -4.792647e+09 -4.952693e+09 9.818742e+02 -2.287628e+03 -4.703300e+01
-4.003287e+09 -3.803254e+09 -3.963294e+09 5.576553e+02 -5.616318e+03 -4.041708e+02
-3.807446e+09 -3.607423e+09 -3.767452e+09 -1.047523e+02 -5.650950e+02 -5.303604e+01
-4.916023e+09 -4.716026e+09 -4.876031e+09 -1.729118e+02 8.141831e-08 -2.636850e+01
-2.308490e+09 -2.108556e+09 -2.268539e+09 -3.538090e+03 2.490722e+02 -5.440588e+03
-2.280339e+09 -2.080408e+09 -2.240364e+09 -1.984527e+03 5.876695e+03 -1.810792e+04
-4.917165e+09 -4.717167e+09 -4.877173e+09 -2.641900e+02 1.492723e-04 -1.235915e+01
-4.074812e+09 -3.874927e+09 -4.034881e+09 -1.008343e+04 -4.105597e+03 5.963619e+03
-2.680919e+09 -2.480909e+09 -2.640922e+09 -7.404871e+02 1.699451e+03 -1.097001e+03
-3.275459e+09 -3.075445e+09 -3.235463e+09 -1.378308e+03 4.617520e+03 -2.377353e+03
-4.642872e+09 -4.442861e+09 -4.602884e+09 -4.544552e+03 1.437808e+03 -3.044037e+02
-4.991214e+09 -4.791207e+09 -4.951229e+09 -2.146531e+03 4.901573e+02 -3.745307e+02
-4.924785e+09 -4.724866e+09 -4.884873e+09 -2.664546e+03 9.335227e+02 5.319848e-06
-4.731571e+09 -4.531639e+09 -4.691649e+09 -5.196938e+03 4.276869e+02 1.825159e+03
-1.969745e+09 -1.769736e+09 -1.929746e+09 -3.057694e+02 1.652384e+03 -1.913332e+02
-4.558593e+09 -4.358584e+09 -4.518601e+09 -1.247675e+03 6.685682e+02 -1.657398e+02
-4.743773e+09 -4.543764e+09 -4.703781e+09 -8.234283e+02 5.086189e+02 5.171693e+01
-2.371130e+09 -2.171121e+09 -2.331135e+09 -2.438936e+03 4.755343e+03 -2.518253e+03
-4.751195e+09 -4.551189e+09 -4.711211e+09 -2.036492e+03 1.022741e+03 -5.256822e+02
-4.992606e+09 -4.792616e+09 -4.952619e+09 1.759600e+03 5.102551e+01 -8.505371e+00
-2.143694e+09 -1.943715e+09 -2.103720e+09 1.559730e+03 -9.301271e+03 -1.405251e+02
-4.992715e+09 -4.792724e+09 -4.952728e+09 2.167323e+03 -1.302992e+01 1.525964e+02
-4.132980e+09 -3.933005e+09 -4.093009e+09 2.069754e+02 -9.459575e+02 3.533265e+03
-4.992806e+09 -4.792779e+09 -4.952815e+09 -2.460959e+03 -9.393151e+02 4.057666e+02
-3.962036e+09 -3.762060e+09 -3.922063e+09 2.136971e+03 4.242865e+02 3.539464e+03
-3.962204e+09 -3.762228e+09 -3.922232e+09 3.243034e+03 7.446199e+02 4.189285e+03
-3.933503e+09 -3.733478e+09 -3.893511e+09 -5.127437e+02 -2.409507e+03 5.306199e+02
-4.986271e+09 -4.786276e+09 -4.946280e+09 -1.014908e+03 -1.281579e+01 5.395967e+01
-3.788817e+09 -3.588853e+09 -3.748869e+09 -1.216024e+04 5.713001e+03 -3.222689e+03
-2.283675e+09 -2.083710e+09 -2.243713e+09 -6.430352e+03 9.309390e+03 -6.214232e+03
-3.180971e+09 -2.981014e+09 -3.141007e+09 -1.926412e+04 1.131382e+04 -1.580691e+04
-4.489517e+09 -4.289522e+09 -4.449526e+09 -1.492176e+03 -5.803331e+01 2.342465e+02
-4.971258e+09 -4.771264e+09 -4.931268e+09 -1.299988e+03 9.882044e+00 -2.484234e+01
-4.586289e+09 -4.386371e+09 -4.546374e+09 -1.025724e+03 5.160119e+02 -8.970939e+01
-4.284537e+09 -4.084544e+09 -4.244550e+09 -3.064170e+03 -4.826737e+02 4.074306e+02
-4.992716e+09 -4.792726e+09 -4.952728e+09 -9.913532e+02 -1.243013e+02 -9.208552e+01
-2.982982e+09 -2.782991e+09 -2.942993e+09 -3.166341e+02 -2.646855e+02 5.266611e+01
-3.493791e+09 -3.293798e+09 -3.453801e+09 -1.279926e+03 -2.429979e+02 4.800463e+02
-4.818474e+09 -4.618485e+09 -4.778488e+09 -1.040246e+03 7.943649e+01 2.367827e+02
-4.756977e+09 -4.556987e+09 -4.716989e+09 -3.152215e+02 4.366675e+01 1.343033e+02
-3.606073e+09 -3.406083e+09 -3.566085e+09 -1.303984e+02 -1.501675e+02 1.168501e+02
-4.300159e+09 -4.100161e+09 -4.260169e+09 -2.800815e+03 -2.689022e+02 5.242266e+02
-4.307044e+09 -4.107055e+09 -4.267058e+09 -1.786397e+03 -2.699358e+02 5.143580e+02
-3.955648e+09 -3.755652e+09 -3.915658e+09 -2.333510e+03 -4.942202e+02 5.050796e+02
-4.274392e+09 -4.074401e+09 -4.234404e+09 -1.394102e+03 -1.331002e+02 2.365170e+02
-4.135806e+09 -3.935834e+09 -4.095828e+09 -4.442471e+04 -9.804544e+02 -1.407884e+03
-4.986988e+09 -4.786992e+09 -4.946998e+09 -1.544948e+03 -4.281730e+01 5.768235e+01
-4.985345e+09 -4.785350e+09 -4.945356e+09 -2.623416e+03 -8.002406e+01 1.234791e+02
-4.145128e+09 -3.945133e+09 -4.105139e+09 -2.095129e+03 -5.427738e+02 2.646328e+02
-4.307078e+09 -4.107105e+09 -4.267096e+09 -5.104381e+04 -8.630046e+03 5.749078e+03
-4.985116e+09 -4.785121e+09 -4.945127e+09 -2.945180e+03 -1.144560e+02 3.715881e+02
-4.641078e+09 -4.441084e+09 -4.601089e+09 -2.519006e+03 -2.337663e+02 4.447718e+02
-3.230706e+09 -3.030790e+09 -3.190773e+09 -4.952480e+03 3.311356e+03 -1.442414e+04
-4.133538e+09 -3.933542e+09 -4.093515e+09 -5.909841e+04 3.324430e+03 -9.062283e+03
-5.010444e+09 -4.810449e+09 -4.970454e+09 -1.738716e+03 -1.641768e+02 2.451587e+01
-4.282711e+09 -4.082717e+09 -4.242723e+09 -3.033467e+03 -4.075007e+02 7.045663e+02
-4.991119e+09 -4.791130e+09 -4.951135e+09 3.309980e+03 1.138451e+02 3.782814e+02
-4.645809e+09 -4.445807e+09 -4.605819e+09 5.246376e+03 8.772591e+02 4.661283e+02
-4.474679e+09 -4.274688e+09 -4.434693e+09 2.905880e+03 3.373127e+02 6.023837e+02
-3.961613e+09 -3.761613e+09 -3.921624e+09 4.783352e+03 1.305922e+03 1.250569e+03
-4.816067e+09 -4.616074e+09 -4.776080e+09 3.497629e+03 5.604477e+02 1.559664e+02
-4.645863e+09 -4.445878e+09 -4.605882e+09 3.204773e+03 1.915911e+02 9.609281e+02
-3.962182e+09 -3.762197e+09 -3.922202e+09 3.746651e+03 7.802509e+02 2.362435e+03
-3.961884e+09 -3.761905e+09 -3.921909e+09 3.695787e+03 8.611893e+02 3.395420e+03
-4.640274e+09 -4.440290e+09 -4.600292e+09 1.360099e+03 1.650383e+02 9.920849e+02
-4.301432e+09 -4.101448e+09 -4.261454e+09 5.221748e+03 5.606520e+02 1.851067e+03
-4.256132e+09 -4.056141e+09 -4.216144e+09 1.684229e+03 -2.390723e+01 3.599521e+02
-1.706010e+09 -1.506026e+09 -1.666005e+09 -5.754582e+02 -4.364293e+03 -1.738280e+04
-3.961697e+09 -3.761675e+09 -3.921678e+09 -5.228545e+04 1.091620e+02 5.402032e+03
-3.963957e+09 -3.763917e+09 -3.923935e+09 -4.551905e+04 -2.737362e+03 4.533788e+03
-3.529556e+09 -3.329624e+09 -3.489626e+09 1.682243e+03 -3.520160e+03 4.366608e+02
-4.647686e+09 -4.447674e+09 -4.607664e+09 -6.189082e+04 -8.166617e+02 8.975106e+03
-4.822280e+09 -4.622218e+09 -4.782191e+09 -6.245824e+04 1.166065e+04 -3.014013e+03
-3.549420e+09 -3.349531e+09 -3.509501e+09 -1.854742e+04 1.691608e+03 -2.464427e+03
-1.632114e+09 -1.432123e+09 -1.592125e+09 1.202413e+02 1.571737e+02 1.915244e+02
-2.358232e+09 -2.158214e+09 -2.318233e+09 -2.541697e+00 -5.255909e+03 -9.802663e+02
-3.966024e+09 -3.765918e+09 -3.925930e+09 -2.787839e+04 -1.895423e+04 8.399908e+03
-3.176537e+09 -2.976518e+09 -3.136542e+09 2.381407e+02 -2.640059e+03 -1.582353e+03
-4.144219e+09 -3.944099e+09 -4.104142e+09 -1.005232e+04 -6.411730e+02 -9.610597e+01
-4.833210e+09 -4.633034e+09 -4.792775e+09 2.411003e+04 3.187274e+03 -1.384883e+04
-1.690810e+09 -1.490803e+09 -1.650811e+09 -1.412089e+03 -1.255778e+04 -4.386418e+03
-3.978861e+09 -3.778663e+09 -3.938499e+09 -1.219681e+03 7.301085e+04 2.233842e+03
-4.820730e+09 -4.620605e+09 -4.780618e+09 3.901125e+04 -1.243567e+04 -9.526091e+03
-1.884736e+09 -1.684734e+09 -1.844741e+09 1.333535e+03 1.362953e+03 1.446454e+03
-4.649194e+09 -4.449212e+09 -4.609224e+09 -1.588627e+04 -1.454742e+02 2.134658e+03
-4.128828e+09 -3.928860e+09 -4.088870e+09 -1.803198e+04 -2.202987e+03 7.794194e+03
-4.992534e+09 -4.792566e+09 -4.952579e+09 -2.176185e+04 -2.902067e+03 3.632135e+03
-2.193141e+09 -1.993139e+09 -2.153147e+09 2.433401e+03 1.823471e+03 1.473679e+03
-4.471453e+09 -4.271479e+09 -4.431491e+09 -1.426829e+04 -2.168390e+03 3.430595e+03
-3.964425e+09 -3.764450e+09 -3.924459e+09 -1.238238e+04 -1.284568e+03 4.916026e+03
-1.569332e+09 -1.369328e+09 -1.529336e+09 9.122782e+02 1.144463e+03 8.696420e+02
-4.647854e+09 -4.447893e+09 -4.607898e+09 -5.728096e+03 -6.416365e+02 2.710898e+03
-1.687942e+09 -1.487941e+09 -1.647948e+09 1.574058e+03 1.564451e+03 1.491935e+03
-1.585205e+09 -1.385202e+09 -1.545210e+09 1.038439e+03 9.623207e+02 9.352915e+02
-4.822605e+09 -4.622622e+09 -4.782640e+09 -2.655731e+04 -2.475487e+03 4.461426e+03
-3.968755e+09 -3.768772e+09 -3.928785e+09 -1.842764e+04 -2.789755e+03 5.550088e+03
-3.962620e+09 -3.762627e+09 -3.922645e+09 -1.808378e+04 -2.793621e+03 5.100999e+03
-3.066675e+09 -2.866744e+09 -3.026742e+09 1.364313e+03 -4.557650e+03 1.032985e+03
-4.817674e+09 -4.617690e+09 -4.777709e+09 2.092094e+04 2.229654e+03 3.683714e+03
-4.154889e+09 -3.954898e+09 -4.114909e+09 8.552656e+03 1.322110e+03 3.061495e+03
-4.990972e+09 -4.790983e+09 -4.950998e+09 1.572852e+04 1.306346e+03 1.309654e+03
-4.994117e+09 -4.794146e+09 -4.954157e+09 -1.453964e+04 -5.425758e+02 2.155916e+03
-4.664886e+09 -4.464915e+09 -4.624923e+09 -1.141123e+04 -9.491457e+02 2.552939e+03
-1.628215e+09 -1.428218e+09 -1.588223e+09 -1.394942e+02 -1.022466e+04 1.579423e+02
-1.903907e+09 -1.703925e+09 -1.863924e+09 -6.401535e+03 -9.281482e+03 -4.001133e+03
-4.820796e+09 -4.620707e+09 -4.780760e+09 2.086925e+04 4.294159e+03 3.409968e+03
-4.816263e+09 -4.616146e+09 -4.776194e+09 2.472031e+04 4.698139e+03 1.539764e+03
-5.004112e+09 -4.803945e+09 -4.963924e+09 1.376679e+04 6.273558e+03 -8.867775e+03
-4.294787e+09 -4.094665e+09 -4.254675e+09 4.354677e+04 -7.287003e+03 -9.057634e+03
-3.796778e+09 -3.596876e+09 -3.756850e+09 2.961412e+04 -1.794021e+03 -4.355018e+03
-4.991816e+09 -4.791889e+09 -4.951881e+09 8.604236e+02 1.106990e+02 3.800258e+03
-4.991616e+09 -4.791686e+09 -4.951683e+09 1.152870e+04 1.349004e+02 2.377700e+03
-2.647473e+09 -2.447482e+09 -2.607485e+09 -1.226527e+03 -1.450051e+02 9.190735e+02
-4.304591e+09 -4.104663e+09 -4.264655e+09 5.605939e+03 4.762336e+02 7.857798e+03
-1.585938e+09 -1.385933e+09 -1.545940e+09 -1.529518e+02 -8.087430e+03 -3.785818e+03
-2.076945e+09 -1.876935e+09 -2.036947e+09 2.215233e+02 -2.625369e+03 -1.446300e+03
-1.697432e+09 -1.497442e+09 -1.657443e+09 -1.131681e+03 -5.847617e+02 1.368703e+03
-2.191426e+09 -1.991435e+09 -2.151437e+09 -1.503534e+03 -4.009596e+02 1.098649e+03
-4.738983e+09 -4.538973e+09 -4.698995e+09 1.476728e+03 -8.701854e+02 -4.645559e+02
-2.725867e+09 -2.525859e+09 -2.685874e+09 1.719412e+03 -4.692763e+03 -1.558341e+03
-1.686775e+09 -1.486768e+09 -1.646777e+09 7.587406e+01 -7.721586e+03 -4.270868e+03
-1.907034e+09 -1.707039e+09 -1.867045e+09 3.398757e+03 9.721428e+03 -2.126539e+03
-2.959221e+09 -2.759241e+09 -2.919255e+09 -2.941056e+03 1.050951e+04 -3.311718e+03
-1.556311e+09 -1.356313e+09 -1.516318e+09 2.864315e+02 4.256144e+01 -7.437031e+00
-3.763391e+09 -3.563382e+09 -3.723398e+09 -3.528298e+02 2.180538e+03 -1.835085e+02
-1.693236e+09 -1.493237e+09 -1.653243e+09 -1.616435e+03 -1.603097e+03 1.945976e+03
-2.282249e+09 -2.082249e+09 -2.242255e+09 -1.823084e+03 -1.353065e+03 7.800573e+02
-4.233228e+09 -4.033217e+09 -4.193238e+09 -4.592331e+03 2.607877e+03 -1.109591e+03
-2.748073e+09 -2.548109e+09 -2.708114e+09 -2.004052e+03 6.705680e+03 7.905953e+02
-3.737217e+09 -3.537221e+09 -3.697225e+09 -6.845913e+01 -1.314796e+01 4.369704e+00
-4.014566e+09 -3.814600e+09 -3.974617e+09 -1.453570e+04 4.331812e+03 -1.635738e+03
-4.741399e+09 -4.541456e+09 -4.701470e+09 -7.315941e+03 2.057876e+03 -2.557227e+03
-2.369178e+09 -2.169204e+09 -2.329209e+09 6.606452e+02 -6.791616e+03 -7.980894e+03
-1.889609e+09 -1.689597e+09 -1.849609e+09 1.113028e+03 1.324133e+03 -5.340340e+02
-2.945153e+09 -2.745151e+09 -2.905160e+09 -6.142255e+02 -4.461629e+02 1.334278e+03
-1.939149e+09 -1.739139e+09 -1.899150e+09 -6.371091e+02 9.954913e+02 -5.285238e+02
-1.588350e+09 -1.388351e+09 -1.548356e+09 -9.206797e+02 -7.435571e+02 1.010285e+03
-4.180292e+09 -3.980277e+09 -4.140296e+09 1.062288e+03 1.150954e+03 5.721795e+02
-4.991277e+09 -4.791319e+09 -4.951323e+09 5.815093e+02 -5.072735e+00 1.678548e+03
-3.961679e+09 -3.761722e+09 -3.921721e+09 -1.511743e+03 -3.336355e+02 7.094846e+03
-4.991360e+09 -4.791415e+09 -4.951416e+09 -2.567281e+03 -8.350017e+01 2.524648e+03
-4.652438e+09 -4.452437e+09 -4.612455e+09 1.088320e+04 1.066859e+03 1.183550e+03
-4.027035e+09 -3.827019e+09 -3.987041e+09 1.401293e+03 1.892455e+03 5.939791e+02
-4.678483e+09 -4.478472e+09 -4.638488e+09 5.750964e+02 3.213766e+01 3.685739e+02
-4.979617e+09 -4.779603e+09 -4.939623e+09 1.033007e+03 9.626570e+01 -1.940346e+02
-4.738624e+09 -4.538609e+09 -4.698629e+09 9.657615e+02 2.930465e+02 -4.839652e+01
-3.401732e+09 -3.201722e+09 -3.361736e+09 1.139519e+03 6.892377e+02 1.249244e+03
-1.961737e+09 -1.761728e+09 -1.921739e+09 3.536396e+02 1.141392e+03 1.187800e+03
-1.809041e+09 -1.609053e+09 -1.769054e+09 -2.187651e+01 -5.713762e+01 1.754366e+02
-1.631287e+09 -1.431297e+09 -1.591298e+09 -1.005434e+02 -1.329249e+02 2.044427e+02
-4.997796e+09 -4.797797e+09 -4.957817e+09 1.341672e+04 1.516812e+03 1.022895e+03
-4.133185e+09 -3.933189e+09 -4.093194e+09 1.715853e+03 2.158690e+02 2.411938e+02
-4.991230e+09 -4.791231e+09 -4.951237e+09 1.638433e+03 3.733722e+01 2.763304e+01
-4.652740e+09 -4.452751e+09 -4.612753e+09 -1.227840e+03 -7.596356e+01 1.587862e+02
-3.080436e+09 -2.880447e+09 -3.040449e+09 -1.029939e+03 -3.582338e+01 6.667783e+02
-4.989796e+09 -4.789808e+09 -4.949810e+09 -5.927148e+02 -3.081443e+01 1.151384e+02
-1.637545e+09 -1.437556e+09 -1.597557e+09 -8.423624e+01 -1.165000e+02 2.448236e+02
-4.132906e+09 -3.932916e+09 -4.092918e+09 -1.670408e+02 -6.151840e+01 8.096808e+01
-4.992688e+09 -4.792649e+09 -4.952694e+09 -2.135464e+02 -2.351581e+03 -2.412250e+02
-4.992931e+09 -4.792892e+09 -4.952938e+09 -2.939792e+03 -3.064569e+03 2.655468e+02
-1.629407e+09 -1.429412e+09 -1.589415e+09 -7.409175e+01 -6.671386e+01 5.015175e+01
-4.305975e+09 -4.105931e+09 -4.265980e+09 4.405222e+03 -7.440679e+03 -1.653239e+03
-3.385266e+09 -3.185252e+09 -3.345271e+09 -1.095522e+03 3.161124e+03 -1.556515e+03
-1.932657e+09 -1.732647e+09 -1.892658e+09 -5.154350e+02 7.045967e+02 -7.983127e+02
-4.133896e+09 -3.933854e+09 -4.093903e+09 2.827453e+03 -8.564528e+03 -6.997637e+02
-2.636146e+09 -2.436135e+09 -2.596148e+09 -1.297439e+02 4.685408e+02 -9.821180e+02
-4.990684e+09 -4.790635e+09 -4.950691e+09 -2.834083e+02 -3.760089e+03 -5.418551e+02
-3.476129e+09 -3.276112e+09 -3.436134e+09 -3.367487e+03 5.049703e+03 -1.973411e+03
-1.903518e+09 -1.703519e+09 -1.863524e+09 1.064800e+03 2.841825e+02 3.945612e+02
-1.887895e+09 -1.687895e+09 -1.847901e+09 1.256756e+03 5.533940e+02 6.768909e+02
-4.134193e+09 -3.934298e+09 -4.094067e+09 7.049815e+04 -3.707988e+04 -7.416880e+04
-4.820620e+09 -4.620763e+09 -4.780491e+09 1.575493e+04 1.665929e+03 5.808622e+03
-3.960238e+09 -3.760431e+09 -3.919935e+09 4.649734e+04 -4.543817e+04 -8.044458e+04
-2.614280e+09 -2.414269e+09 -2.574282e+09 -5.895493e+01 2.182769e+02 -1.049200e+03
-1.885539e+09 -1.685529e+09 -1.845540e+09 3.137350e+02 5.907806e+02 -1.121583e+03
-1.590010e+09 -1.390000e+09 -1.550009e+09 -3.618154e+02 -5.305586e+03 -3.182644e+03
-3.858392e+09 -3.658374e+09 -3.818403e+09 5.140809e+03 -4.041036e+03 -2.061037e+03
-3.968011e+09 -3.768059e+09 -3.928058e+09 -2.088171e+04 -1.306945e+03 5.297706e+03
-2.550851e+09 -2.350839e+09 -2.510855e+09 5.559432e+01 -6.767645e+02 -2.149653e+03
-1.692883e+09 -1.492884e+09 -1.652889e+09 1.090392e+03 3.446721e+02 4.339084e+02
-1.601835e+09 -1.401837e+09 -1.561842e+09 6.184055e+02 1.511557e+02 1.621866e+02
-1.956329e+09 -1.756321e+09 -1.916331e+09 2.320949e+02 2.427090e+03 -3.325885e+02
-3.958241e+09 -3.758284e+09 -3.918289e+09 -1.351709e+04 -1.087600e+03 6.855971e+03
-4.663270e+09 -4.463303e+09 -4.623309e+09 -8.279620e+03 -9.181757e+02 1.926063e+03
-4.638036e+09 -4.437887e+09 -4.597837e+09 3.631432e+04 -4.626669e+03 2.531842e+04
-4.113956e+09 -3.913947e+09 -4.073826e+09 7.481219e+04 -2.172702e+04 -3.489479e+04
-1.912613e+09 -1.712613e+09 -1.872621e+09 -3.474840e+03 9.071337e+03 -2.118792e+03
-4.815217e+09 -4.615171e+09 -4.775149e+09 5.952682e+04 -7.318649e+03 -1.425177e+04
-4.807820e+09 -4.607744e+09 -4.767714e+09 6.073575e+04 4.119870e+03 1.339052e+04
-1.944052e+09 -1.744053e+09 -1.904060e+09 2.446576e+03 8.910839e+03 -1.614143e+03
-4.640398e+09 -4.440322e+09 -4.600370e+09 3.849932e+04 -3.740854e+03 3.144861e+02
-1.631459e+09 -1.431461e+09 -1.591466e+09 -7.987166e+00 9.883905e+03 -3.423513e+02
-4.991779e+09 -4.791765e+09 -4.951798e+09 -2.158575e+04 -2.446648e+03 1.613064e+03
-4.304702e+09 -4.104694e+09 -4.264703e+09 -5.066070e+04 -9.816988e+03 4.479105e+03
-4.132984e+09 -3.932971e+09 -4.093005e+09 -2.479021e+04 -8.146371e+03 6.540421e+03
-4.991188e+09 -4.791208e+09 -4.951211e+09 -4.213142e+02 -2.467480e+01 4.673313e+02
-4.646919e+09 -4.446936e+09 -4.606939e+09 -8.722418e+02 -6.848822e+01 8.688186e+02
-4.991675e+09 -4.791695e+09 -4.951700e+09 -1.194424e+03 8.498581e+01 6.503323e+01
-1.615724e+09 -1.415715e+09 -1.575725e+09 4.055202e+01 8.827251e+02 -3.826701e+02
-4.131368e+09 -3.931387e+09 -4.091391e+09 -1.726637e+03 -9.344929e+02 1.867405e+03
-4.991315e+09 -4.791384e+09 -4.951323e+09 5.598070e+04 -3.891344e+03 -6.206955e+03
-4.136510e+09 -3.936488e+09 -4.096517e+09 -5.409688e+03 4.197993e+03 -9.199113e+02
-2.687269e+09 -2.487261e+09 -2.647273e+09 -3.986651e+01 2.092494e+03 -1.839964e+02
-2.816365e+09 -2.616356e+09 -2.776370e+09 -5.439229e+02 3.011850e+03 -1.151808e+03
-3.464409e+09 -3.264390e+09 -3.424414e+09 -3.132239e+03 5.764062e+03 -1.671792e+03
-3.961989e+09 -3.761976e+09 -3.921999e+09 -4.457493e+03 3.840882e+03 -1.429526e+03
-4.825708e+09 -4.625688e+09 -4.785713e+09 -3.138954e+03 1.048222e+03 -1.081305e+02
-4.133337e+09 -3.933307e+09 -4.093344e+09 -6.282153e+03 6.395326e+03 -2.077406e+03
-4.807267e+09 -4.607244e+09 -4.767276e+09 -7.021443e+03 1.771443e+03 -2.609671e+02
-4.991543e+09 -4.791519e+09 -4.951553e+09 9.796432e+03 1.617984e+03 6.240490e+02
-1.932062e+09 -1.732052e+09 -1.892063e+09 -8.920986e+01 5.222488e+02 -4.785904e+01
-1.693773e+09 -1.493776e+09 -1.653781e+09 -1.229672e+03 -6.306625e+02 8.370907e+02
-3.962058e+09 -3.762045e+09 -3.922068e+09 7.081374e+03 4.073258e+03 2.289186e+03
-3.961845e+09 -3.761822e+09 -3.921854e+09 9.877194e+03 5.284168e+03 2.750706e+03
-4.992517e+09 -4.792505e+09 -4.952527e+09 -1.912653e+03 -4.716587e+02 -1.818341e+02
-1.687780e+09 -1.487782e+09 -1.647787e+09 -1.483883e+03 -1.010934e+03 1.342017e+03
-4.754695e+09 -4.554684e+09 -4.714704e+09 -1.329727e+03 8.678807e+01 5.273614e+02
-4.693594e+09 -4.493577e+09 -4.653603e+09 -1.362478e+03 -2.974249e+02 5.395002e+02
-1.637542e+09 -1.437551e+09 -1.597553e+09 1.289088e+02 1.579116e+02 1.545039e+02
-4.932672e+09 -4.732656e+09 -4.892681e+09 -1.667118e+03 -1.804657e+02 2.613287e+02
-1.596779e+09 -1.396786e+09 -1.556780e+09 4.391362e+02 -1.261637e+04 -1.051053e+04
-2.849259e+09 -2.649269e+09 -2.809271e+09 3.465024e+02 1.092546e+02 2.295333e+00
-2.698796e+09 -2.498805e+09 -2.658807e+09 1.178417e+02 1.682547e+02 1.275443e+02
-2.221178e+09 -2.021219e+09 -2.181203e+09 1.775259e+04 -7.452697e+03 -1.858509e+04
-1.590010e+09 -1.390001e+09 -1.550010e+09 -7.589899e+02 -4.714917e+03 -2.992741e+03
-2.128652e+09 -1.928640e+09 -2.088653e+09 7.237306e+02 -2.955752e+03 -2.253198e+03
-2.044395e+09 -1.844383e+09 -2.004398e+09 1.477541e+03 -4.963576e+03 -2.726607e+03
-4.983577e+09 -4.783557e+09 -4.943587e+09 -4.512387e+03 -5.180904e+02 -2.174117e+02
-1.585249e+09 -1.385243e+09 -1.545251e+09 8.297684e+01 -6.046834e+03 3.436522e+03
-1.583611e+09 -1.383605e+09 -1.543612e+09 4.366796e+01 -7.938088e+03 2.284798e+03
-1.698570e+09 -1.498564e+09 -1.658572e+09 -3.712314e+02 -9.454634e+03 5.000601e+03
-2.989975e+09 -2.789963e+09 -2.949984e+09 -4.892880e+03 -7.822171e+03 4.845110e+03
-1.810473e+09 -1.610467e+09 -1.770476e+09 1.058420e+03 1.310793e+03 1.103562e+03
-2.181477e+09 -1.981488e+09 -2.141489e+09 -7.645848e+01 -5.246188e+01 1.622782e+02
-3.129823e+09 -2.929814e+09 -3.089828e+09 2.893919e+03 3.410987e+03 1.927834e+03
-1.906368e+09 -1.706361e+09 -1.866370e+09 8.991769e+02 1.407833e+03 1.278476e+03
-2.660657e+09 -2.460668e+09 -2.620669e+09 -8.127025e+01 -1.773942e+02 1.584258e+02
-1.623458e+09 -1.423470e+09 -1.583471e+09 4.882384e+01 1.190852e+00 2.747515e+02
-3.408338e+09 -3.208349e+09 -3.368351e+09 -3.674248e+02 -1.260675e+02 4.222697e+02
-3.999625e+09 -3.799637e+09 -3.959638e+09 -4.545562e+01 2.966804e+01 7.754138e+01
-1.954893e+09 -1.754886e+09 -1.914896e+09 -1.364486e+02 6.050112e+02 1.135033e+03
-1.882711e+09 -1.682722e+09 -1.842723e+09 4.223789e+01 1.015041e+02 1.965227e+02
-1.857023e+09 -1.657018e+09 -1.817026e+09 7.414639e+00 4.156607e+02 9.556088e+02
-4.103611e+09 -3.903598e+09 -4.063615e+09 -3.095193e+02 7.640671e+02 -7.245518e+02
-1.867193e+09 -1.667205e+09 -1.827206e+09 -3.199208e+01 7.276901e+00 2.340916e+02
-2.186719e+09 -1.986710e+09 -2.146722e+09 -4.903770e+02 -1.566216e+02 1.823440e+03
-4.383980e+09 -4.183976e+09 -4.343989e+09 -6.272165e+02 -1.080354e+01 7.720188e+02
-4.992791e+09 -4.792777e+09 -4.952796e+09 -8.298105e+02 3.224554e+02 3.367243e-01
-4.046801e+09 -3.846786e+09 -4.006805e+09 -1.609688e+03 1.459499e+03 -3.271014e+02
-2.451509e+09 -2.251507e+09 -2.411516e+09 -2.351301e+03 -2.029578e+03 2.061006e+03
-3.799667e+09 -3.599656e+09 -3.759676e+09 -5.847610e+03 -2.396451e+03 2.345320e+03
-2.184596e+09 -1.984585e+09 -2.144598e+09 1.092308e+02 -1.184471e+03 -8.870248e+02
-2.176653e+09 -1.976643e+09 -2.136655e+09 8.421383e+01 -5.328463e+02 -6.740064e+02
-4.564634e+09 -4.364622e+09 -4.524639e+09 -1.262263e+03 1.023616e+03 -4.431211e+02
-4.990833e+09 -4.790821e+09 -4.950838e+09 -7.412242e+02 2.808116e+02 3.126122e+01
-2.178418e+09 -1.978408e+09 -2.138420e+09 8.567758e+01 -1.276872e+03 -2.048239e+02
-2.683419e+09 -2.483407e+09 -2.643423e+09 6.965135e+02 -1.441644e+03 -1.572165e+03
-1.913874e+09 -1.713867e+09 -1.873878e+09 3.672197e+02 -4.764217e+03 -2.301339e+03
-3.961948e+09 -3.761942e+09 -3.921962e+09 9.359255e+03 3.367621e+03 2.524697e+03
-4.290529e+09 -4.090523e+09 -4.250538e+09 5.759712e+03 1.546741e+03 9.712336e+02
-1.581616e+09 -1.381614e+09 -1.541619e+09 7.554466e+01 -1.080151e+04 -4.894543e+03
-3.961334e+09 -3.761332e+09 -3.921345e+09 4.972474e+03 1.709086e+03 1.666226e+03
-3.752057e+09 -3.552091e+09 -3.712110e+09 2.925287e+04 -6.653798e+03 -4.507012e+03
-4.750690e+09 -4.550694e+09 -4.710721e+09 3.664463e+03 -1.502104e+03 7.677027e+02
-4.819585e+09 -4.619574e+09 -4.779595e+09 6.673207e+03 1.310393e+03 1.109836e+02
-3.960362e+09 -3.760357e+09 -3.920373e+09 5.939394e+03 2.323451e+03 2.007430e+03
-4.996183e+09 -4.796189e+09 -4.956216e+09 5.204187e+03 -6.487971e+02 -7.569429e+02
-4.818162e+09 -4.618159e+09 -4.778174e+09 6.922637e+03 4.032840e+02 6.778993e+02
-4.645574e+09 -4.445569e+09 -4.605585e+09 6.090287e+03 1.009716e+03 6.250302e+02
-4.752305e+09 -4.552328e+09 -4.712353e+09 6.774638e+03 -2.027007e+03 -2.199051e+03
-4.994566e+09 -4.794585e+09 -4.954612e+09 6.775786e+03 -4.696824e+02 -1.724759e+03
-4.309205e+09 -4.109204e+09 -4.269222e+09 1.089585e+04 2.876888e+03 2.241940e+03
-4.131271e+09 -3.931265e+09 -4.091284e+09 8.986122e+03 3.296531e+03 1.923956e+03
-4.990323e+09 -4.790303e+09 -4.950345e+09 4.065194e+04 -3.909053e+03 -2.678941e+03
-2.809637e+09 -2.609624e+09 -2.769639e+09 -1.355017e+01 5.789368e+02 -3.340931e+02
-2.826411e+09 -2.626399e+09 -2.786413e+09 2.163274e+01 4.159722e+02 -7.710072e+02
-3.470722e+09 -3.270700e+09 -3.430726e+09 -2.142334e+03 7.330077e+03 -1.470793e+03
-4.303381e+09 -4.103351e+09 -4.263389e+09 -5.713349e+03 5.966796e+03 -2.149062e+03
-4.582096e+09 -4.382080e+09 -4.542101e+09 -8.132252e+02 3.172571e+02 -2.922939e+02
-1.577091e+09 -1.377082e+09 -1.537092e+09 1.719645e+02 4.222116e+03 -1.276902e+03
-4.995292e+09 -4.795272e+09 -4.955297e+09 -1.148054e+03 3.891169e+02 -6.271852e+01
-4.082958e+09 -3.882937e+09 -4.042962e+09 -1.996833e+03 2.640490e+03 -7.295467e+02
-4.304079e+09 -4.104044e+09 -4.264091e+09 3.878592e+04 -6.457123e+03 -6.553930e+03
-3.961002e+09 -3.760969e+09 -3.921009e+09 -7.305482e+03 5.882248e+03 -1.671696e+03
-4.644951e+09 -4.444915e+09 -4.604954e+09 -1.981929e+03 2.304707e+03 -8.842456e+01
-4.304344e+09 -4.104315e+09 -4.264348e+09 -1.984023e+03 4.274063e+03 -9.495315e+02
-4.993855e+09 -4.793828e+09 -4.953875e+09 2.625642e+04 -3.848417e+03 -2.231916e+03
-4.991517e+09 -4.791524e+09 -4.951529e+09 2.614098e+03 6.446731e+01 1.918438e+02
-4.990359e+09 -4.790368e+09 -4.950374e+09 3.940705e+03 1.305700e+02 4.333945e+02
-4.990339e+09 -4.790318e+09 -4.950352e+09 3.072391e+04 -3.168654e+03 -1.274746e+03
-4.819336e+09 -4.619341e+09 -4.779348e+09 3.632236e+03 3.262351e+02 -6.562541e+00
-3.963322e+09 -3.763328e+09 -3.923335e+09 4.716146e+03 1.013141e+03 1.431301e+03
-4.300462e+09 -4.100468e+09 -4.260475e+09 4.372348e+03 7.309907e+02 9.340955e+02
-4.815979e+09 -4.615964e+09 -4.776002e+09 2.922123e+04 -1.613125e+03 -1.574625e+03
-4.477035e+09 -4.277043e+09 -4.437048e+09 2.562179e+03 2.701116e+02 5.668747e+02
-3.960644e+09 -3.760622e+09 -3.920653e+09 3.098132e+04 -7.267372e+03 -4.795762e+03
-4.991199e+09 -4.791211e+09 -4.951217e+09 5.672563e+03 2.404321e+02 4.925928e+02
-4.131130e+09 -3.931140e+09 -4.091147e+09 4.657921e+03 1.192312e+03 1.366624e+03
-4.637917e+09 -4.437932e+09 -4.597938e+09 6.052187e+03 3.965449e+02 1.232596e+03
-4.989598e+09 -4.789590e+09 -4.949630e+09 2.717882e+04 -2.681353e+03 -2.212826e+03
-4.318398e+09 -4.118406e+09 -4.278415e+09 6.322573e+03 1.102128e+03 1.523775e+03
-3.961041e+09 -3.761047e+09 -3.921051e+09 2.519346e+03 4.322876e+02 8.651099e+02
-3.961889e+09 -3.761907e+09 -3.921911e+09 2.962493e+03 6.754191e+02 2.697367e+03
-4.992299e+09 -4.792317e+09 -4.952321e+09 1.943770e+03 3.808312e+01 4.194056e+02
-2.626125e+09 -2.426107e+09 -2.586129e+09 2.210923e+03 -6.982885e+03 -1.744043e+03
-3.604030e+09 -3.404009e+09 -3.564037e+09 -3.894468e+02 -5.846875e+02 1.005034e+03
-3.961236e+09 -3.761279e+09 -3.921094e+09 8.343533e+04 4.115037e+04 4.061462e+04
-4.656272e+09 -4.456241e+09 -4.616281e+09 2.937330e+03 -9.447754e+02 -1.215443e+02
-4.656425e+09 -4.456424e+09 -4.616431e+09 1.077574e+03 4.322808e+01 3.320229e+02
-4.995381e+09 -4.795382e+09 -4.955388e+09 1.203000e+03 2.802975e+01 1.620613e+01
-4.991478e+09 -4.791556e+09 -4.951211e+09 7.777199e+04 -7.098061e+02 3.047393e+03
-3.775542e+09 -3.575544e+09 -3.735548e+09 3.674049e+02 8.281676e+01 5.959917e+01
-4.991756e+09 -4.791782e+09 -4.951787e+09 -7.510038e+02 -4.566944e+00 3.172260e+02
-4.751118e+09 -4.551094e+09 -4.711126e+09 8.049371e+02 -5.422463e+01 -6.297550e+02
-4.754962e+09 -4.554935e+09 -4.714970e+09 6.744311e+02 -4.413495e+02 3.223875e+02
-3.962042e+09 -3.762061e+09 -3.922065e+09 1.726376e+03 3.102038e+02 2.904159e+03
-4.991289e+09 -4.791323e+09 -4.951327e+09 5.462565e+02 -1.356546e+01 6.599284e+02
-4.820525e+09 -4.620540e+09 -4.780543e+09 1.661142e+03 5.642220e+02 3.890327e+02
-4.309436e+09 -4.109356e+09 -4.268859e+09 -5.881006e+04 9.170180e+04 -2.851469e+04
-4.982517e+09 -4.782472e+09 -4.942051e+09 -6.938072e+04 1.561784e+04 -9.999031e+03
-3.832149e+09 -3.632127e+09 -3.792156e+09 1.956127e+02 -5.923708e+02 -5.245593e+02
-5.002372e+09 -4.802370e+09 -4.961529e+09 -5.063991e+04 2.121145e+04 -7.494901e+03
-4.303739e+09 -4.103766e+09 -4.262948e+09 -3.402814e+04 3.522180e+04 -9.331997e+04
-4.115083e+09 -3.915049e+09 -4.075091e+09 -1.126581e+04 7.386093e+03 -2.869276e+03
-1.686773e+09 -1.486765e+09 -1.646774e+09 -2.254242e+02 4.625511e+03 -2.492266e+03
-4.476495e+09 -4.276562e+09 -4.436557e+09 -1.155390e+04 -1.376481e+03 6.045791e+03
-4.991531e+09 -4.791583e+09 -4.951586e+09 -8.678498e+03 -3.637045e+02 2.777885e+03
-3.961236e+09 -3.761258e+09 -3.921265e+09 7.778957e+03 1.570749e+03 4.098695e+03
-3.961559e+09 -3.761577e+09 -3.921585e+09 1.033876e+04 2.071178e+03 4.064874e+03
-4.472313e+09 -4.272364e+09 -4.432361e+09 -9.025561e+03 -1.434507e+02 5.019315e+03
-4.494569e+09 -4.294588e+09 -4.454600e+09 -1.127367e+04 -1.594207e+03 3.410035e+03
-4.142007e+09 -3.942049e+09 -4.102054e+09 -1.250777e+04 -2.060364e+03 7.436887e+03
-5.004468e+09 -4.804507e+09 -4.964515e+09 -1.307733e+04 -5.349595e+02 1.722218e+03
-4.994115e+09 -4.794149e+09 -4.954157e+09 -1.605481e+04 -1.201536e+03 1.006171e+03
-3.980121e+09 -3.780139e+09 -3.940147e+09 -8.374811e+03 -2.188648e+03 3.841488e+03
-3.980116e+09 -3.780137e+09 -3.940145e+09 -1.034099e+04 -2.480426e+03 4.548693e+03
-3.958798e+09 -3.758835e+09 -3.918838e+09 -2.830535e+04 -1.809746e+03 5.143076e+03
-4.647153e+09 -4.447183e+09 -4.607191e+09 -3.040018e+04 6.262660e+02 1.824478e+03
-3.962839e+09 -3.762871e+09 -3.922879e+09 -1.834345e+04 -1.352921e+03 6.448066e+03
-3.962277e+09 -3.762293e+09 -3.922267e+09 -5.566600e+04 3.275288e+03 -5.160210e+03
-4.657964e+09 -4.458017e+09 -4.618006e+09 -3.802997e+04 2.366365e+03 5.202388e+02
-4.997702e+09 -4.797757e+09 -4.957757e+09 -2.795743e+04 -5.470861e+01 3.019167e+03
-3.962549e+09 -3.762569e+09 -3.922576e+09 -7.064390e+03 -1.140641e+03 3.632824e+03
-4.650883e+09 -4.450929e+09 -4.610929e+09 -2.428951e+04 6.873944e+02 9.351067e+02
-4.992246e+09 -4.792269e+09 -4.952275e+09 -7.587255e+03 -4.712872e+02 8.596961e+02
-4.647184e+09 -4.447035e+09 -4.606618e+09 1.369976e+04 -5.707390e+04 -8.303232e+03
-3.964488e+09 -3.764511e+09 -3.924517e+09 -7.711610e+03 -1.359732e+03 4.909954e+03
-4.990956e+09 -4.790928e+09 -4.949957e+09 -1.279284e+04 -2.057390e+04 6.984899e+03
-3.962578e+09 -3.762471e+09 -3.922497e+09 -2.254462e+04 -4.305389e+02 -1.149119e+03
-4.819911e+09 -4.619991e+09 -4.779568e+09 -6.803924e+04 -5.763904e+04 3.575349e+04
-4.128762e+09 -3.928624e+09 -4.088025e+09 -3.451179e+04 -1.502961e+05 5.500731e+04
-3.961117e+09 -3.760967e+09 -3.920361e+09 -6.936166e+04 -1.326134e+05 8.946792e+04
-4.820030e+09 -4.620126e+09 -4.779262e+09 -3.476162e+04 4.782782e+04 4.728773e+04
-3.962518e+09 -3.762594e+09 -3.922569e+09 7.406031e+03 1.668294e+03 6.486977e+03
-4.477439e+09 -4.277517e+09 -4.437496e+09 2.115046e+04 4.183803e+02 7.876366e+03
-4.658507e+09 -4.458393e+09 -4.618475e+09 -1.344343e+03 2.247008e+03 -3.928144e+02
-4.991418e+09 -4.791420e+09 -4.951438e+09 -1.289915e+04 -9.617231e+02 8.775871e+02
-1.693627e+09 -1.493618e+09 -1.653628e+09 3.177448e+02 6.205187e+03 -2.629864e+03
-4.811693e+09 -4.611593e+09 -4.771632e+09 -3.112991e+04 -3.448740e+03 7.750824e+02
-4.120821e+09 -3.920765e+09 -4.080805e+09 -3.224286e+04 3.092343e+03 -2.353814e+03
-3.962618e+09 -3.762621e+09 -3.922643e+09 -1.641571e+04 -4.149151e+03 4.637833e+03
-4.648454e+09 -4.448437e+09 -4.608465e+09 -6.916353e+03 2.509240e+03 -1.669210e+03
-2.959488e+09 -2.759473e+09 -2.919493e+09 -2.404159e+03 6.100716e+03 -2.440814e+03
-4.819564e+09 -4.619540e+09 -4.779580e+09 -2.642846e+04 -4.462878e+03 3.053401e+03
-4.991638e+09 -4.791622e+09 -4.951657e+09 -3.194484e+04 -3.425951e+03 2.246815e+03
-1.836147e+09 -1.636140e+09 -1.796149e+09 4.474700e+02 3.826204e+03 -4.651443e+02
-3.430250e+09 -3.230233e+09 -3.390253e+09 -1.100011e+03 4.426263e+03 -1.314855e+03
-1.606508e+09 -1.406499e+09 -1.566509e+09 -2.729377e+02 2.592984e+03 -1.296258e+03
-3.961092e+09 -3.761065e+09 -3.921098e+09 -3.541529e+03 5.040469e+03 -1.157388e+03
-3.961939e+09 -3.761924e+09 -3.921956e+09 -2.546920e+04 -6.488192e+03 4.969735e+03
-3.960806e+09 -3.760801e+09 -3.920825e+09 -1.396226e+04 -4.332652e+03 3.735551e+03
-3.061341e+09 -2.861325e+09 -3.021344e+09 -1.221015e+03 5.898850e+03 -1.344734e+03
-3.765503e+09 -3.565486e+09 -3.725507e+09 -9.047032e+02 1.758361e+03 -5.437267e+02
-4.301718e+09 -4.101682e+09 -4.261721e+09 -2.008389e+03 6.384032e+03 -9.462942e+02
-1.885198e+09 -1.685187e+09 -1.845198e+09 -2.606921e+03 7.535172e+03 -6.859250e+02
-4.660914e+09 -4.460922e+09 -4.620939e+09 -1.667502e+04 -3.587157e+02 1.905197e+03
-4.304143e+09 -4.104123e+09 -4.264160e+09 -2.424474e+04 -6.897490e+03 4.912208e+03
-4.818629e+09 -4.618625e+09 -4.778653e+09 -1.952525e+04 -7.473699e+02 7.935736e+02
-4.487824e+09 -4.287831e+09 -4.447847e+09 1.261149e+04 2.063173e+03 1.878577e+03
-4.133121e+09 -3.933121e+09 -4.093131e+09 3.863956e+03 1.198057e+03 5.283864e+02
-3.333166e+09 -3.133157e+09 -3.293172e+09 -1.075114e+03 2.881929e+03 -9.466596e+02
-1.871302e+09 -1.671292e+09 -1.831305e+09 4.865131e+03 -1.199271e+04 -3.084745e+03
-4.979625e+09 -4.779732e+09 -4.939716e+09 1.728438e+04 -2.084119e+03 -4.290594e+03
-2.882737e+09 -2.682722e+09 -2.842740e+09 -1.507522e+02 -7.686668e+02 -1.210035e+03
-4.921961e+09 -4.721974e+09 -4.882001e+09 2.516866e+03 -1.232111e+03 -5.537603e-05
-4.488738e+09 -4.288729e+09 -4.448744e+09 -2.810534e+02 8.634862e+02 -1.409703e+02
-3.422908e+09 -3.222885e+09 -3.382914e+09 2.274477e+03 -7.854898e+03 -2.368308e+03
-3.779649e+09 -3.579640e+09 -3.739654e+09 -1.588757e+02 1.367855e+03 -2.964174e+02
-3.881016e+09 -3.681005e+09 -3.841024e+09 -2.619144e+03 2.266649e+03 -1.112493e+03
-4.907900e+09 -4.707889e+09 -4.867906e+09 -2.102618e+03 4.362253e+02 -1.800779e+02
-3.524867e+09 -3.324857e+09 -3.484870e+09 -3.563112e+02 4.966446e+02 -5.500140e+02
-2.651946e+09 -2.451988e+09 -2.611991e+09 1.149820e+03 -7.164250e+03 9.086734e+01
-4.494980e+09 -4.295036e+09 -4.455051e+09 4.047476e+03 -2.572990e+03 4.234715e+02
-4.055249e+09 -3.855304e+09 -4.015314e+09 3.285829e+03 -5.953204e+03 -3.064861e+03
-4.499337e+09 -4.299413e+09 -4.459421e+09 3.039862e+03 -2.157428e+03 7.094990e+02
-3.759063e+09 -3.559131e+09 -3.719133e+09 1.531389e+03 -3.069503e+03 3.700317e+02
-1.587419e+09 -1.387413e+09 -1.547420e+09 -3.004792e+02 -8.824546e+03 -1.962134e+03
-3.503302e+09 -3.303353e+09 -3.463362e+09 2.682566e+03 -5.088865e+03 1.176263e+03
-4.996012e+09 -4.795987e+09 -4.956021e+09 3.420166e+03 -8.236115e+02 -2.510858e+02
-4.991115e+09 -4.791103e+09 -4.951123e+09 -3.599930e+03 6.525308e+02 -4.141539e+02
-4.763427e+09 -4.563416e+09 -4.723431e+09 -3.833171e+02 2.151462e+02 -1.330355e+02
-1.892110e+09 -1.692101e+09 -1.852112e+09 5.131732e+03 -1.297196e+04 -1.629646e+03
-2.044863e+09 -1.844856e+09 -2.004866e+09 -7.087523e+02 4.295090e+03 -1.870523e+03
-2.917344e+09 -2.717336e+09 -2.877352e+09 -1.849019e+03 4.510401e+03 -1.273866e+03
-1.587419e+09 -1.387415e+09 -1.547420e+09 -1.601519e+02 -8.677823e+03 -1.996333e+03
-4.992820e+09 -4.792796e+09 -4.952826e+09 1.129574e+03 1.716232e+03 -3.501240e+01
-4.989801e+09 -4.789777e+09 -4.949806e+09 2.567658e+03 1.058889e+03 3.106424e+02
-3.397493e+09 -3.197492e+09 -3.357499e+09 1.009317e+03 3.863381e+02 4.158082e+02
-1.935615e+09 -1.735615e+09 -1.895621e+09 2.599083e+02 1.737738e+02 1.776334e+02
-2.182513e+09 -1.982517e+09 -2.142521e+09 9.542393e+02 1.390579e+02 2.009372e+02
-4.507025e+09 -4.307009e+09 -4.467030e+09 4.834158e+02 1.765269e+02 2.759980e+02
-4.652153e+09 -4.452132e+09 -4.612159e+09 8.406447e+02 1.136269e+03 -3.419270e+02
-4.744237e+09 -4.544218e+09 -4.704241e+09 9.344869e+01 1.435219e+02 -2.668874e+02
-4.494888e+09 -4.294870e+09 -4.454893e+09 7.745414e+01 1.687266e+02 -1.535093e+01
-1.863900e+09 -1.663904e+09 -1.823908e+09 3.907822e+02 1.292570e+02 4.730071e+01
-3.434312e+09 -3.234298e+09 -3.394317e+09 2.443398e+03 4.123846e+03 1.449462e+03
-4.914629e+09 -4.714610e+09 -4.874633e+09 1.874715e+02 -8.708186e-08 -2.601240e+01
-2.713105e+09 -2.513108e+09 -2.673112e+09 4.833141e+02 4.899414e+01 5.231588e+01
-3.806047e+09 -3.606044e+09 -3.766053e+09 3.342908e+02 1.729387e+02 2.426458e+02
-4.045150e+09 -3.845148e+09 -4.005157e+09 1.901679e+03 3.914595e+02 7.785361e+02
-4.636588e+09 -4.436583e+09 -4.596594e+09 6.155415e+02 4.454914e+01 3.162528e+02
-3.964169e+09 -3.764144e+09 -3.924182e+09 2.059631e+04 -7.299073e+03 -4.910585e+03
-4.991151e+09 -4.791124e+09 -4.951170e+09 1.675524e+04 -3.590007e+03 -1.917701e+03
-4.189825e+09 -3.989818e+09 -4.149832e+09 2.751870e+03 1.026677e+03 6.229821e+02
-4.876980e+09 -4.676976e+09 -4.836987e+09 7.715195e+02 6.038165e+01 1.127060e+02
-4.979221e+09 -4.779214e+09 -4.939230e+09 5.311044e+03 5.424499e+02 2.725451e+02
-4.924543e+09 -4.724607e+09 -4.884619e+09 -3.351765e+03 7.595787e+02 7.888199e-05
-4.647506e+09 -4.447511e+09 -4.607430e+09 -6.927631e+04 -1.097958e+04 1.140401e+04
-4.731823e+09 -4.531900e+09 -4.691905e+09 -6.732839e+03 1.640613e+03 -1.734791e+03
-4.990987e+09 -4.791021e+09 -4.951034e+09 -4.027679e+04 3.102847e+03 -1.725975e+03
-4.818610e+09 -4.618617e+09 -4.778617e+09 -5.058073e+04 7.745385e+03 -5.706963e+03
-4.991388e+09 -4.791369e+09 -4.951376e+09 -5.553528e+04 5.318676e+03 -4.024500e+03
-4.991001e+09 -4.791023e+09 -4.951038e+09 -3.214177e+04 3.032617e+03 -2.669602e+03
-4.929221e+09 -4.729314e+09 -4.889315e+09 -6.926557e+02 -1.342601e+02 7.626770e-05
-4.648767e+09 -4.448766e+09 -4.608800e+09 -2.325337e+04 1.338433e+03 -2.284538e+03
-4.991488e+09 -4.791494e+09 -4.951523e+09 -3.329525e+04 2.552232e+03 -2.178887e+03
-3.799157e+09 -3.599221e+09 -3.759227e+09 -2.323454e+03 3.819180e+03 9.751620e+02
-3.887976e+09 -3.688053e+09 -3.848057e+09 -2.067601e+03 2.169042e+03 1.490608e+03
-3.961070e+09 -3.761025e+09 -3.921072e+09 6.491715e+03 -1.150805e+04 -2.256802e+03
-4.648015e+09 -4.447971e+09 -4.608023e+09 1.099426e+04 -2.448126e+03 -2.467611e+02
-1.683024e+09 -1.483015e+09 -1.643026e+09 -8.826308e+02 -1.012737e+04 -4.680914e+03
-4.106115e+09 -3.906195e+09 -4.066191e+09 -6.827554e+03 -2.322886e+02 -3.071747e+03
-4.653903e+09 -4.453872e+09 -4.613912e+09 5.387516e+02 -8.372918e+02 -5.915353e+02
-4.992164e+09 -4.792147e+09 -4.952132e+09 5.846296e+04 -6.824763e+03 -3.565266e+03
-3.961143e+09 -3.761138e+09 -3.921146e+09 4.245346e+04 -7.081451e+03 -2.524690e+03
-3.959434e+09 -3.759413e+09 -3.919436e+09 3.992846e+04 -5.980030e+03 -7.365181e+01
-4.820343e+09 -4.620347e+09 -4.780204e+09 -7.950926e+04 1.888392e+04 -3.183116e+04
-2.753789e+09 -2.553780e+09 -2.713792e+09 -1.191291e+03 2.844876e+03 -8.820872e+02
-4.303173e+09 -4.103186e+09 -4.263188e+09 4.142362e+04 -9.933670e+03 -4.185774e+03
-4.302006e+09 -4.102000e+09 -4.262032e+09 3.998493e+04 -6.825049e+03 -5.097420e+03
-4.648242e+09 -4.448166e+09 -4.608142e+09 -6.616763e+04 1.859668e+04 -2.624287e+02
-4.817210e+09 -4.617198e+09 -4.777226e+09 4.234330e+04 -3.765933e+03 -5.101671e+03
-3.962288e+09 -3.762442e+09 -3.921811e+09 6.352720e+04 7.239640e+04 1.443385e+05
-4.819881e+09 -4.620038e+09 -4.779459e+09 4.450283e+03 5.607970e+04 3.965213e+04
-4.992118e+09 -4.792164e+09 -4.951503e+09 6.115061e+04 5.254182e+03 1.623248e+04
-4.818297e+09 -4.618471e+09 -4.778126e+09 8.631368e+03 -3.617165e+04 1.835309e+04
-4.815873e+09 -4.615846e+09 -4.775414e+09 -7.303461e+04 1.291714e+04 -4.162557e+03
-3.952821e+09 -3.752786e+09 -3.912395e+09 -8.919278e+04 1.060502e+05 -4.824104e+04
-3.961568e+09 -3.761721e+09 -3.921496e+09 3.049527e+04 1.377561e+04 3.455588e+04
-4.131697e+09 -3.931871e+09 -4.091514e+09 -2.841355e+04 -5.360154e+04 6.653202e+04
-4.818431e+09 -4.618590e+09 -4.778413e+09 -1.455942e+04 -1.998403e+04 7.840637e+03
-4.818520e+09 -4.618668e+09 -4.778364e+09 -4.164687e+04 -4.229869e+04 2.444424e+04
-4.644112e+09 -4.444106e+09 -4.603788e+09 -9.528526e+04 3.752179e+04 -2.057619e+04
-4.992426e+09 -4.792315e+09 -4.952388e+09 -9.336143e+03 -7.035133e+03 -3.279880e+01
-4.645199e+09 -4.445127e+09 -4.605190e+09 -5.594355e+03 -3.528253e+03 1.972736e+02
-4.304189e+09 -4.104110e+09 -4.264167e+09 -3.328232e+04 -9.490304e+03 4.060657e+03
-4.132751e+09 -3.932795e+09 -4.092795e+09 8.510625e+02 9.724566e+02 6.281054e+03
-4.991891e+09 -4.791931e+09 -4.951936e+09 4.725978e+03 1.282002e+02 1.889257e+03
-4.991984e+09 -4.792023e+09 -4.951979e+09 -6.591339e+04 -5.250085e+03 5.460951e+03
-4.133884e+09 -3.933896e+09 -4.093759e+09 -8.294397e+04 1.755598e+04 -1.291588e+03
-3.962204e+09 -3.762236e+09 -3.922240e+09 3.658318e+03 6.070059e+02 5.696619e+03
-4.649991e+09 -4.449996e+09 -4.610019e+09 2.339907e+04 3.498311e+03 3.275737e+03
-4.991727e+09 -4.791758e+09 -4.951763e+09 1.881578e+03 9.606046e+01 1.170875e+03
-2.124690e+09 -1.924679e+09 -2.084691e+09 -8.519472e+01 4.285095e+02 -8.247722e+02
-4.663649e+09 -4.463753e+09 -4.623340e+09 5.322787e+04 -2.595759e+04 1.855237e+04
-4.992366e+09 -4.792262e+09 -4.952231e+09 5.738841e+04 -6.536181e+03 -2.744681e+03
-4.483289e+09 -4.283143e+09 -4.443129e+09 5.192594e+04 1.557280e+04 6.298501e+03
-4.139075e+09 -3.939081e+09 -4.098814e+09 9.604846e+04 -7.143714e+04 -8.612911e+04
-4.073871e+09 -3.873966e+09 -4.033944e+09 2.065311e+04 8.513593e+02 1.967514e+03
-2.204170e+09 -2.004173e+09 -2.164183e+09 9.900937e+02 -8.864075e+03 -3.906093e+03
-4.308891e+09 -4.108751e+09 -4.268792e+09 1.366858e+04 1.310782e+02 -1.099666e+03
-4.306916e+09 -4.106839e+09 -4.266760e+09 6.310018e+04 1.542316e+04 1.062020e+02
-4.997229e+09 -4.797231e+09 -4.957246e+09 1.002602e+04 5.355889e+02 9.771068e+02
-3.968097e+09 -3.768100e+09 -3.928119e+09 1.320584e+04 3.231237e+03 3.404262e+03
-4.993229e+09 -4.793226e+09 -4.953253e+09 1.752201e+04 2.814843e+03 8.844685e+02
-4.997797e+09 -4.797802e+09 -4.957818e+09 1.446752e+04 1.148507e+03 1.277758e+03
-4.998454e+09 -4.798470e+09 -4.958485e+09 -1.918586e+04 -1.615382e+03 1.847341e+03
-4.759476e+09 -4.559488e+09 -4.719515e+09 -3.995599e+03 1.542015e+03 7.930109e+02
-4.285009e+09 -4.085016e+09 -4.245027e+09 -8.869763e+03 -1.690026e+03 2.058223e+03
-4.760023e+09 -4.560025e+09 -4.720051e+09 -2.907346e+03 1.387640e+03 4.752066e+02
-4.754159e+09 -4.554177e+09 -4.714203e+09 -6.254021e+03 1.938073e+03 -2.096193e+03
-3.817692e+09 -3.617707e+09 -3.777729e+09 -1.836756e+03 5.756633e+03 -1.374349e+02
-1.625370e+09 -1.425360e+09 -1.585370e+09 -6.835087e+01 5.983565e+02 -9.295984e+02
-1.637173e+09 -1.437164e+09 -1.597173e+09 -1.529086e+01 5.709371e+02 -7.844395e+02
-3.962788e+09 -3.762907e+09 -3.922881e+09 1.625083e+04 3.677277e+02 1.468238e+04
-4.991281e+09 -4.791423e+09 -4.951185e+09 4.296157e+04 -1.564441e+03 -3.140685e+03
-3.962203e+09 -3.762322e+09 -3.922241e+09 4.292224e+04 -4.325227e+02 3.276511e+04
-4.990833e+09 -4.790819e+09 -4.950837e+09 -1.895574e+03 -1.661667e+01 -2.413405e+02
-4.090331e+09 -3.890317e+09 -4.050338e+09 -3.046245e+03 2.176633e+03 -3.960941e+02
-1.690898e+09 -1.490889e+09 -1.650899e+09 2.030648e+01 1.136389e+03 -1.110041e+03
-2.178328e+09 -1.978318e+09 -2.138329e+09 -9.123778e+01 3.381953e+02 -6.160531e+02
-4.578853e+09 -4.378841e+09 -4.538858e+09 -9.157006e+02 3.779924e+02 -3.440002e+02
-3.962205e+09 -3.762318e+09 -3.922220e+09 3.156724e+04 3.305430e+03 8.743711e+03
-3.504071e+09 -3.304055e+09 -3.464074e+09 -4.574368e+01 4.363824e+02 -2.212652e+02
-1.843711e+09 -1.643699e+09 -1.803711e+09 -7.083326e+01 2.796508e+03 -4.992754e+02
-4.645967e+09 -4.446103e+09 -4.605919e+09 4.612585e+04 5.854699e+03 1.319116e+04
-4.646181e+09 -4.446373e+09 -4.605942e+09 -8.342453e+03 -1.826087e+03 3.479415e+04
-4.647257e+09 -4.447404e+09 -4.607299e+09 3.192985e+04 -6.470619e+03 1.931366e+04
-3.962100e+09 -3.762251e+09 -3.922115e+09 1.084573e+04 -1.938840e+03 4.526588e+04
-1.885352e+09 -1.685356e+09 -1.845360e+09 -1.196268e+03 -5.083618e+02 4.774282e+02
-4.650632e+09 -4.450591e+09 -4.610642e+09 2.239395e+04 -7.602549e+03 -3.370515e+03
-4.302008e+09 -4.101985e+09 -4.262027e+09 1.852672e+04 -6.775198e+03 -4.057716e+03
-4.988160e+09 -4.788145e+09 -4.948185e+09 1.827840e+04 -2.273028e+03 -1.696414e+03
-4.299911e+09 -4.099909e+09 -4.259939e+09 2.038299e+04 -6.242722e+03 -3.650962e+03
-2.020501e+09 -1.820505e+09 -1.980509e+09 -7.221993e+02 -1.271884e+02 1.780294e+02
-4.129024e+09 -3.929027e+09 -4.089034e+09 -2.836404e+03 -2.506882e+02 1.075906e+03
-2.185269e+09 -1.985274e+09 -2.145278e+09 -1.217002e+03 -4.216143e+02 4.506564e+02
-4.992095e+09 -4.792086e+09 -4.952113e+09 1.737863e+04 1.905274e+03 1.335664e+03
-4.301698e+09 -4.101650e+09 -4.261673e+09 5.530950e+04 -6.249634e+03 -9.915798e+03
-4.956075e+09 -4.756069e+09 -4.916083e+09 3.207247e+03 2.666215e+02 1.784192e+02
-5.006438e+09 -4.806431e+09 -4.966444e+09 1.849349e+03 1.102504e+02 2.127239e+02
-1.630175e+09 -1.430165e+09 -1.590175e+09 -2.404982e+01 5.207385e+02 -9.976889e+02
-5.006438e+09 -4.806432e+09 -4.966444e+09 2.228320e+03 4.632565e+02 4.011254e+02
-1.476806e+09 -1.276805e+09 -1.436805e+09 -5.913656e+02 -1.270530e+04 -1.079755e+04
-1.653581e+09 -1.453576e+09 -1.613580e+09 1.138442e+03 -1.085272e+04 -7.794382e+03
-1.565193e+09 -1.365189e+09 -1.525192e+09 -4.113615e+02 -1.057443e+04 -8.935953e+03
-1.914152e+09 -1.714155e+09 -1.874166e+09 6.910941e+03 -1.429142e+04 -1.041324e+04
-2.033582e+09 -1.833585e+09 -1.993592e+09 7.309838e+03 -1.511706e+04 -1.103149e+04
-2.243018e+09 -2.043022e+09 -2.203034e+09 7.319553e+03 -1.646134e+04 -1.343353e+04
-1.492328e+09 -1.292327e+09 -1.452327e+09 -2.605175e+02 -1.061618e+04 -9.692616e+03
-1.492328e+09 -1.292327e+09 -1.452328e+09 1.334481e+03 -9.413935e+03 -9.959681e+03
-1.700145e+09 -1.500147e+09 -1.660144e+09 7.671468e+02 -9.704786e+03 -8.644512e+03
-1.648996e+09 -1.448999e+09 -1.609003e+09 3.599116e+03 -1.259326e+04 -1.149764e+04
-2.066247e+09 -1.866252e+09 -2.026257e+09 4.608504e+03 -1.209845e+04 -1.086716e+04
-1.856814e+09 -1.656819e+09 -1.816818e+09 2.637942e+03 -1.233120e+04 -9.806281e+03
-1.965539e+09 -1.765539e+09 -1.925551e+09 7.315823e+03 -1.251259e+04 -1.095872e+04
-2.190495e+09 -1.990496e+09 -2.150508e+09 7.409766e+03 -1.368368e+04 -1.465855e+04
-2.344414e+09 -2.144412e+09 -2.304429e+09 1.094530e+04 -1.262001e+04 -1.033385e+04
-1.757481e+09 -1.557483e+09 -1.717490e+09 4.772719e+03 -1.240635e+04 -1.093989e+04
-1.669098e+09 -1.469097e+09 -1.629105e+09 3.780124e+03 -1.253788e+04 -8.803476e+03
-1.876917e+09 -1.676916e+09 -1.836923e+09 4.180686e+03 -1.200850e+04 -8.422732e+03
-1.609387e+09 -1.409386e+09 -1.569388e+09 -5.140769e+02 -1.332109e+04 -7.507693e+03
-1.520998e+09 -1.320997e+09 -1.480998e+09 2.683423e+02 -1.336012e+04 -8.795224e+03
-1.432613e+09 -1.232611e+09 -1.392615e+09 -3.229810e+02 -1.271098e+04 -7.295611e+03
-1.432614e+09 -1.232612e+09 -1.392615e+09 -6.153312e+02 -1.352533e+04 -8.441034e+03
-1.521000e+09 -1.321000e+09 -1.481001e+09 -7.895301e+02 -1.460779e+04 -9.801727e+03
-1.697772e+09 -1.497774e+09 -1.657775e+09 -4.080569e+01 -1.306503e+04 -7.771126e+03
-1.697772e+09 -1.497774e+09 -1.657776e+09 -3.801074e+02 -1.153951e+04 -7.926447e+03
-1.609388e+09 -1.409386e+09 -1.569389e+09 -7.513891e+02 -1.254571e+04 -6.364143e+03
-1.808869e+09 -1.608871e+09 -1.768877e+09 4.036470e+03 -1.399816e+04 -9.868579e+03
-2.031072e+09 -1.831071e+09 -1.991081e+09 7.018365e+03 -1.490107e+04 -9.046360e+03
-1.875785e+09 -1.675782e+09 -1.835790e+09 1.699672e+03 -1.286569e+04 -7.422445e+03
-1.641977e+09 -1.441987e+09 -1.601988e+09 8.141364e+02 3.682225e+02 1.276811e+03
-1.836901e+09 -1.636912e+09 -1.796913e+09 8.535223e+02 4.236709e+02 1.119924e+03
-2.051661e+09 -1.851672e+09 -2.011673e+09 7.359571e+02 5.591989e+02 1.282338e+03
-1.543451e+09 -1.343461e+09 -1.503463e+09 8.582720e+02 4.182631e+02 1.627805e+03
-1.543451e+09 -1.343462e+09 -1.503463e+09 9.045938e+02 3.699684e+02 1.645265e+03
-1.853545e+09 -1.653556e+09 -1.813557e+09 9.687169e+02 3.220071e+02 1.791330e+03
-1.485866e+09 -1.285876e+09 -1.445877e+09 9.389476e+02 4.430572e+02 1.158514e+03
-1.485866e+09 -1.285876e+09 -1.445877e+09 8.414918e+02 3.649424e+02 1.255218e+03
-1.680790e+09 -1.480800e+09 -1.640801e+09 8.622476e+02 3.472648e+02 1.136848e+03
-1.991948e+09 -1.791959e+09 -1.951960e+09 1.122368e+03 3.922316e+02 1.223419e+03
-2.204580e+09 -2.004591e+09 -2.164593e+09 1.124714e+03 3.881612e+02 1.535193e+03
-2.361755e+09 -2.161766e+09 -2.321768e+09 1.229116e+03 2.825252e+02 1.388296e+03
-1.640912e+09 -1.440923e+09 -1.600924e+09 1.055835e+03 2.451035e+02 1.438121e+03
-2.048469e+09 -1.848480e+09 -2.008481e+09 1.330627e+03 -6.543061e+00 1.456514e+03
-1.835837e+09 -1.635848e+09 -1.795848e+09 1.016601e+03 2.510414e+02 1.295828e+03
-1.544515e+09 -1.344525e+09 -1.504527e+09 1.279107e+03 4.504640e+02 1.502181e+03
-1.544515e+09 -1.344525e+09 -1.504526e+09 1.213849e+03 4.092557e+02 1.410155e+03
-1.856737e+09 -1.656747e+09 -1.816749e+09 1.244685e+03 5.136991e+02 1.476057e+03
-1.432612e+09 -1.232611e+09 -1.392609e+09 -2.197108e+02 -1.175051e+04 -1.081150e+04
-1.432613e+09 -1.232611e+09 -1.392612e+09 -2.930232e+02 -1.297655e+04 -1.150743e+04
-1.520999e+09 -1.320996e+09 -1.480996e+09 8.964390e+02 -1.131528e+04 -9.586663e+03
-1.476806e+09 -1.276804e+09 -1.436803e+09 -6.960663e+02 -1.172870e+04 -1.072321e+04
-1.562899e+09 -1.362899e+09 -1.522905e+09 3.961660e+03 -1.406283e+04 -1.104185e+04
-1.651285e+09 -1.451285e+09 -1.611293e+09 4.724121e+03 -1.339188e+04 -1.021766e+04
-1.711000e+09 -1.511000e+09 -1.671006e+09 5.076828e+03 -1.421289e+04 -1.091651e+04
-1.815717e+09 -1.615718e+09 -1.775726e+09 5.170705e+03 -1.584081e+04 -1.288124e+04
-1.440374e+09 -1.240373e+09 -1.400372e+09 -6.511001e+01 -1.051495e+04 -1.014214e+04
-1.440374e+09 -1.240373e+09 -1.400373e+09 -3.655926e+02 -1.119550e+04 -9.869250e+03
-1.440374e+09 -1.240373e+09 -1.400374e+09 4.547498e+02 -1.049396e+04 -1.001582e+04
-1.544283e+09 -1.344283e+09 -1.504282e+09 2.790830e+02 -1.069565e+04 -9.535659e+03
-1.518709e+09 -1.318709e+09 -1.478711e+09 1.526939e+03 -1.275003e+04 -1.054412e+04
-1.518708e+09 -1.318709e+09 -1.478711e+09 2.007271e+03 -1.267355e+04 -1.086588e+04
-1.727332e+09 -1.527334e+09 -1.687338e+09 3.541545e+03 -1.342175e+04 -1.152310e+04
-1.622617e+09 -1.422619e+09 -1.582619e+09 1.711348e+03 -1.270642e+04 -1.033568e+04
-1.588592e+09 -1.388591e+09 -1.548597e+09 4.213121e+03 -1.320837e+04 -1.131323e+04
-1.676978e+09 -1.476978e+09 -1.636986e+09 4.797347e+03 -1.240060e+04 -1.072330e+04
-1.789455e+09 -1.589456e+09 -1.749463e+09 4.971195e+03 -1.423993e+04 -1.386273e+04
-1.866414e+09 -1.666412e+09 -1.826423e+09 6.963517e+03 -1.299197e+04 -1.146976e+04
-1.484566e+09 -1.284564e+09 -1.444568e+09 1.616542e+03 -1.185883e+04 -1.000838e+04
-1.572949e+09 -1.372949e+09 -1.532954e+09 3.166535e+03 -1.201058e+04 -1.072802e+04
-1.528758e+09 -1.328756e+09 -1.488762e+09 2.468452e+03 -1.213924e+04 -9.092897e+03
-1.632668e+09 -1.432666e+09 -1.592671e+09 2.749827e+03 -1.186899e+04 -9.171583e+03
-1.432613e+09 -1.232611e+09 -1.392610e+09 -1.123148e+02 -1.326625e+04 -9.596149e+03
-1.498903e+09 -1.298901e+09 -1.458902e+09 -2.017158e+02 -1.359229e+04 -9.118933e+03
-1.454708e+09 -1.254707e+09 -1.414707e+09 3.094972e+02 -1.305976e+04 -9.562114e+03
-1.410516e+09 -1.210515e+09 -1.370517e+09 -1.309953e+02 -1.257392e+04 -8.350480e+03
-1.410517e+09 -1.210514e+09 -1.370516e+09 -2.295044e+02 -1.364714e+04 -9.831257e+03
-1.454710e+09 -1.254709e+09 -1.414711e+09 -4.173209e+02 -1.447776e+04 -1.061930e+04
-1.543095e+09 -1.343095e+09 -1.503095e+09 -3.123449e+01 -1.368179e+04 -8.845238e+03
-1.543095e+09 -1.343096e+09 -1.503096e+09 -6.087087e+01 -1.189472e+04 -9.082001e+03
-1.498903e+09 -1.298902e+09 -1.458903e+09 -3.815081e+02 -1.268150e+04 -7.829418e+03
-1.510259e+09 -1.310259e+09 -1.470261e+09 1.194000e+03 -1.328491e+04 -1.002733e+04
-1.598643e+09 -1.398644e+09 -1.558648e+09 3.137358e+03 -1.374751e+04 -1.033503e+04
-1.709744e+09 -1.509744e+09 -1.669750e+09 3.709594e+03 -1.393001e+04 -1.022320e+04
-1.632101e+09 -1.432101e+09 -1.592104e+09 8.881597e+02 -1.344817e+04 -9.766674e+03
-1.515190e+09 -1.315201e+09 -1.475202e+09 8.497815e+02 5.184003e+02 1.457019e+03
-1.515190e+09 -1.315201e+09 -1.475202e+09 8.756171e+02 4.159735e+02 1.394963e+03
-1.612652e+09 -1.412663e+09 -1.572664e+09 8.943138e+02 4.630716e+02 1.268601e+03
-1.720032e+09 -1.520043e+09 -1.680044e+09 7.774497e+02 5.698886e+02 1.413545e+03
-1.465927e+09 -1.265938e+09 -1.425939e+09 1.017650e+03 3.453912e+02 1.630652e+03
-1.465927e+09 -1.265938e+09 -1.425939e+09 9.261490e+02 3.929313e+02 1.589755e+03
-1.465927e+09 -1.265938e+09 -1.425939e+09 9.471908e+02 3.278601e+02 1.596021e+03
-1.620974e+09 -1.420985e+09 -1.580986e+09 1.008877e+03 3.197652e+02 1.704820e+03
-1.437135e+09 -1.237145e+09 -1.397146e+09 9.443719e+02 4.373262e+02 1.397252e+03
-1.437135e+09 -1.237145e+09 -1.397146e+09 9.647464e+02 4.491145e+02 1.312115e+03
-1.437135e+09 -1.237145e+09 -1.397146e+09 8.908799e+02 4.091076e+02 1.365894e+03
-1.534597e+09 -1.334607e+09 -1.494608e+09 8.870199e+02 4.123739e+02 1.286174e+03
-1.592714e+09 -1.392725e+09 -1.552726e+09 1.107547e+03 3.643310e+02 1.513783e+03
-1.690176e+09 -1.490187e+09 -1.650187e+09 1.093470e+03 4.098177e+02 1.337681e+03
-1.796492e+09 -1.596503e+09 -1.756504e+09 1.092340e+03 3.795491e+02 1.551343e+03
-1.875079e+09 -1.675090e+09 -1.835092e+09 1.138566e+03 3.408405e+02 1.487434e+03
-1.514658e+09 -1.314669e+09 -1.474670e+09 1.123308e+03 2.459461e+02 1.518070e+03
-1.514658e+09 -1.314669e+09 -1.474670e+09 1.027762e+03 2.942873e+02 1.482208e+03
-1.718436e+09 -1.518447e+09 -1.678448e+09 1.213171e+03 1.435908e+02 1.505890e+03
-1.612120e+09 -1.412131e+09 -1.572132e+09 9.975508e+02 3.297497e+02 1.395985e+03
-1.466460e+09 -1.266470e+09 -1.426471e+09 1.134000e+03 4.839193e+02 1.579303e+03
-1.466459e+09 -1.266470e+09 -1.426471e+09 1.262042e+03 4.602099e+02 1.551720e+03
-1.466459e+09 -1.266470e+09 -1.426471e+09 1.173921e+03 4.517350e+02 1.501029e+03
-1.622571e+09 -1.422581e+09 -1.582582e+09 1.165917e+03 5.318054e+02 1.571013e+03
-2.550004e+09 -2.349921e+09 -2.509910e+09 -7.444159e+04 8.291098e+04 -2.502143e+04
-3.097731e+09 -2.897625e+09 -3.057526e+09 -1.050463e+05 1.226610e+05 -3.739953e+04
-3.079336e+09 -2.879250e+09 -3.039092e+09 -1.126291e+05 1.165009e+05 -1.072368e+05
-3.262102e+09 -3.062040e+09 -3.221867e+09 -1.191468e+05 1.033029e+05 -1.125353e+05
-2.501290e+09 -2.301291e+09 -2.461024e+09 -9.476123e+04 1.544993e+05 -1.018904e+05
-2.558957e+09 -2.358900e+09 -2.518643e+09 -7.898870e+04 1.286169e+05 -8.336617e+04
-3.406234e+09 -3.206231e+09 -3.366232e+09 3.775640e+04 1.003718e+04 9.276527e+03
-2.588156e+09 -2.388151e+09 -2.548170e+09 2.429237e+04 1.779685e+04 1.353120e+04
-2.351134e+09 -2.151126e+09 -2.311142e+09 1.425793e+04 9.821715e+03 1.096490e+04
-3.197313e+09 -2.997304e+09 -3.157322e+09 2.531661e+04 9.685816e+03 6.665787e+03
-2.752013e+09 -2.551994e+09 -2.712020e+09 2.422741e+04 1.517829e+04 1.198365e+04
-2.573697e+09 -2.373677e+09 -2.533690e+09 1.807188e+04 1.246474e+04 8.609914e+03
-3.180564e+09 -2.980503e+09 -3.140543e+09 1.316452e+04 8.622432e+03 -1.387585e+02
-2.564786e+09 -2.364744e+09 -2.524762e+09 1.395424e+04 1.626305e+04 5.859444e+03
-2.580254e+09 -2.380203e+09 -2.540250e+09 8.359686e+03 1.644163e+04 2.525720e+03
-2.763842e+09 -2.563777e+09 -2.723823e+09 8.170601e+03 1.722828e+04 2.131005e+02
-3.200825e+09 -3.000809e+09 -3.160645e+09 8.125881e+04 -3.833347e+04 -5.074580e+04
-2.827090e+09 -2.627074e+09 -2.786823e+09 7.835197e+04 -2.370295e+04 -3.420292e+04
-2.845406e+09 -2.645403e+09 -2.805190e+09 1.434169e+05 -1.427804e+05 -2.283426e+05
-2.692819e+09 -2.492780e+09 -2.652548e+09 8.061768e+04 -5.430446e+04 -1.218850e+05
-2.596035e+09 -2.395985e+09 -2.556021e+09 -1.606424e+04 1.994441e+04 -6.853583e+03
-3.080151e+09 -2.880083e+09 -3.040090e+09 -1.698330e+04 7.812377e+01 -5.422909e+03
-2.772744e+09 -2.572684e+09 -2.732709e+09 -2.095714e+04 2.427880e+04 -6.145375e+03
-3.292223e+09 -3.092144e+09 -3.252140e+09 -2.067919e+04 4.426654e+03 -9.360890e+02
-1.762956e+09 -1.562947e+09 -1.722956e+09 -3.539835e+03 -2.276404e+04 8.108975e+03
-3.576841e+09 -3.376768e+09 -3.536817e+09 -3.258849e+04 1.133035e+04 -9.838205e+02
-2.775279e+09 -2.575242e+09 -2.735277e+09 -2.358989e+04 1.939956e+04 -5.938645e+03
-2.770697e+09 -2.570649e+09 -2.730690e+09 -2.046281e+04 1.901832e+04 -1.352622e+04
-2.604253e+09 -2.404228e+09 -2.564245e+09 -1.489364e+04 1.284702e+04 -6.089126e+03
-2.589169e+09 -2.389146e+09 -2.549173e+09 -1.467796e+04 1.560920e+04 -7.224356e+03
-3.373545e+09 -3.173490e+09 -3.333538e+09 -2.046635e+04 1.057926e+04 -2.418607e+03
-2.576169e+09 -2.376136e+09 -2.536167e+09 -1.713340e+04 1.603610e+04 -6.438364e+03
-2.021874e+09 -1.821856e+09 -1.981877e+09 -1.410379e+04 1.815509e+04 -1.780928e+04
-1.793989e+09 -1.593992e+09 -1.753981e+09 -1.262748e+04 1.650581e+04 -9.976403e+03
-2.007780e+09 -1.807759e+09 -1.967778e+09 -1.209044e+04 1.933638e+04 -1.056394e+04
-2.386471e+09 -2.186446e+09 -2.346451e+09 -1.322053e+04 2.524092e+04 -6.574523e+03
-1.576885e+09 -1.376889e+09 -1.536866e+09 1.124636e+03 2.909341e+04 -1.864354e+03
-1.861108e+09 -1.661120e+09 -1.821121e+09 1.186316e+03 3.608744e+02 2.898008e+03
-1.949395e+09 -1.749515e+09 -1.906814e+09 1.072895e+05 -1.001967e+05 6.492479e+05
-2.036647e+09 -1.836660e+09 -1.996661e+09 1.254727e+03 3.643696e+02 3.578911e+03
-2.567659e+09 -2.367673e+09 -2.527675e+09 9.393878e+02 8.197278e+02 3.864894e+03
-2.645195e+09 -2.445210e+09 -2.605212e+09 1.960048e+03 3.653724e+02 3.224161e+03
-2.490847e+09 -2.290860e+09 -2.450862e+09 2.045850e+03 4.965875e+02 4.328808e+03
-3.422878e+09 -3.222900e+09 -3.382906e+09 -6.824627e+03 -1.854405e+03 5.803101e+03
-3.443653e+09 -3.243675e+09 -3.403680e+09 -3.537405e+03 -1.064266e+03 5.867167e+03
-2.707038e+09 -2.507102e+09 -2.667083e+09 -3.235760e+03 -6.644455e+02 1.822579e+04
-3.072156e+09 -2.872215e+09 -3.032191e+09 2.027019e+03 -1.405597e+03 1.159590e+04
-2.157390e+09 -1.957462e+09 -2.117417e+09 1.237500e+04 4.474198e+03 2.927691e+04
-2.543140e+09 -2.343193e+09 -2.503180e+09 -2.164084e+02 3.823331e+03 1.131061e+04
-2.582324e+09 -2.382293e+09 -2.542315e+09 7.761992e+03 1.975253e+04 3.636988e+03
-2.033757e+09 -1.833745e+09 -1.993758e+09 -2.807511e+03 9.387532e+03 -3.364246e+03
-2.398391e+09 -2.198418e+09 -2.358414e+09 -3.845724e+03 -2.384723e+02 1.700101e+04
-1.998389e+09 -1.798422e+09 -1.958414e+09 -4.429951e+03 -3.057170e+03 1.198371e+04
-1.882887e+09 -1.682949e+09 -1.842895e+09 2.981641e+03 -1.129680e+04 1.309431e+04
-3.396778e+09 -3.196782e+09 -3.356790e+09 -4.498425e+03 -1.791734e+03 2.378167e+03
-3.310769e+09 -3.110773e+09 -3.270778e+09 1.688302e+03 5.192850e+02 5.159911e+02
-1.573837e+09 -1.373838e+09 -1.533844e+09 -2.477321e+03 -4.169580e+03 4.450467e+03
-2.446383e+09 -2.246391e+09 -2.406396e+09 4.112489e+03 2.341873e+03 4.079214e+03
-2.307670e+09 -2.107677e+09 -2.267683e+09 6.179593e+03 3.769243e+03 4.793960e+03
-2.783246e+09 -2.583257e+09 -2.743262e+09 6.281800e+03 2.944486e+03 5.391710e+03
-2.503741e+09 -2.303727e+09 -2.463745e+09 5.446031e+03 1.195024e+04 4.404132e+03
-2.663494e+09 -2.463477e+09 -2.623497e+09 6.070878e+03 9.961939e+03 5.839650e+03
-2.637469e+09 -2.437450e+09 -2.597472e+09 8.472642e+03 1.337701e+04 6.689343e+03
-2.526495e+09 -2.326485e+09 -2.486502e+09 5.588178e+03 9.383384e+03 4.454894e+03
-1.831751e+09 -1.631736e+09 -1.791754e+09 4.652152e+03 1.020647e+04 6.060012e+03
-2.458566e+09 -2.258552e+09 -2.418571e+09 6.421810e+03 1.369749e+04 5.759113e+03
-2.113282e+09 -1.913305e+09 -2.073305e+09 -4.202289e+03 -3.319798e+03 1.152151e+04
-2.844859e+09 -2.644895e+09 -2.804898e+09 -9.347294e+03 -3.335711e+03 1.648144e+04
-3.221603e+09 -3.021634e+09 -3.181634e+09 -3.634760e+03 -9.019844e+02 8.760382e+03
-2.838789e+09 -2.638810e+09 -2.798814e+09 -4.663017e+03 -1.750201e+03 8.778670e+03
-2.914463e+09 -2.714486e+09 -2.874489e+09 -7.398051e+03 -2.197989e+03 9.510295e+03
-3.404793e+09 -3.204827e+09 -3.364831e+09 -8.780994e+03 -2.051521e+03 1.174735e+04
-2.620366e+09 -2.420210e+09 -2.580062e+09 1.078464e+05 1.907071e+05 3.848279e+04
-2.669285e+09 -2.469019e+09 -2.628868e+09 5.560412e+04 2.830909e+05 9.079749e+04
-2.490114e+09 -2.289984e+09 -2.449924e+09 3.946753e+04 8.462080e+04 2.905739e+04
-3.495596e+09 -3.295577e+09 -3.455601e+09 -4.799035e+03 5.551842e+03 -1.973411e+03
-3.394996e+09 -3.194853e+09 -3.354790e+09 7.286182e+04 7.130124e+04 2.539130e+04
-2.636351e+09 -2.436247e+09 -2.596282e+09 5.027802e+04 6.256668e+04 1.693878e+04
-3.173711e+09 -2.973635e+09 -3.133482e+09 1.143546e+05 1.906221e+05 1.350872e+05
-3.404296e+09 -3.204189e+09 -3.363939e+09 8.817878e+04 1.198220e+05 7.094378e+04
-2.596709e+09 -2.396721e+09 -2.556725e+09 3.617835e+03 1.497904e+03 4.219307e+03
-2.827678e+09 -2.627693e+09 -2.787696e+09 3.536301e+03 1.405623e+03 4.083267e+03
-3.189720e+09 -2.989735e+09 -3.149738e+09 3.606930e+03 1.459059e+03 3.717490e+03
-2.987466e+09 -2.787467e+09 -2.947478e+09 -4.382253e+03 -3.434345e+03 3.611092e+03
-3.162957e+09 -2.962969e+09 -3.122974e+09 3.616023e+03 7.768088e+02 3.562551e+03
-1.571608e+09 -1.371606e+09 -1.531612e+09 -2.204978e+03 -6.052840e+03 5.300810e+03
-2.116688e+09 -1.916652e+09 -2.076624e+09 1.507830e+04 1.588813e+04 -3.778552e+03
-2.491077e+09 -2.291028e+09 -2.451002e+09 4.811670e+04 -5.452243e+04 9.546605e+02
-2.721582e+09 -2.521538e+09 -2.681383e+09 5.469759e+04 -1.218447e+04 1.440446e+03
-2.029493e+09 -1.829452e+09 -1.989476e+09 -1.874086e+04 -1.781311e+04 2.131316e+04
-1.773481e+09 -1.573469e+09 -1.733441e+09 -1.854185e+03 -2.040988e+04 1.125729e+04
-1.800811e+09 -1.600801e+09 -1.760782e+09 4.226840e+02 -1.439688e+04 2.911067e+03
-2.768950e+09 -2.568881e+09 -2.728916e+09 9.127335e+03 1.456266e+04 1.305494e+03
-2.714974e+09 -2.514968e+09 -2.674981e+09 -3.875132e+04 -1.105003e+04 1.537798e+04
-3.178855e+09 -2.978776e+09 -3.138837e+09 9.682929e+03 4.725570e+02 1.391668e+03
-3.059174e+09 -2.859092e+09 -3.019097e+09 2.617884e+03 5.225890e+03 8.790642e+03
-2.449138e+09 -2.249068e+09 -2.409122e+09 7.187232e+02 6.726062e+03 3.245181e+03
-2.556801e+09 -2.356747e+09 -2.516795e+09 1.149650e+03 2.087332e+04 2.823489e+01
-2.750582e+09 -2.550517e+09 -2.710564e+09 -7.323583e+02 2.196986e+04 2.170819e+03
-2.707685e+09 -2.507701e+09 -2.667702e+09 -9.167111e+02 -7.091171e+02 4.297449e+03
-2.715945e+09 -2.515964e+09 -2.675965e+09 -1.286882e+03 -1.254356e+03 6.213216e+03
-1.931442e+09 -1.731458e+09 -1.891459e+09 -2.391714e+02 -2.607587e+02 6.170517e+03
-3.096883e+09 -2.896900e+09 -3.056901e+09 -4.935361e+02 -2.645090e+02 3.647111e+03
-2.297835e+09 -2.097853e+09 -2.257853e+09 -1.795086e+03 -4.723971e+02 5.296556e+03
-3.097622e+09 -2.897640e+09 -3.057644e+09 -2.833914e+02 -1.801631e+02 5.310457e+03
-2.699490e+09 -2.499509e+09 -2.659510e+09 -3.700216e+02 -3.282407e+01 4.896531e+03
-2.827251e+09 -2.627232e+09 -2.787256e+09 1.210894e+04 1.112752e+04 5.540390e+03
-2.987741e+09 -2.787627e+09 -2.947522e+09 2.711125e+04 -1.206021e+05 -4.545483e+04
-3.391957e+09 -3.191911e+09 -3.351948e+09 -9.793981e+03 1.530283e+04 -2.415226e+03
-3.005873e+09 -2.805730e+09 -2.965695e+09 3.627366e+04 -1.641326e+05 -3.509924e+04
-3.575474e+09 -3.375422e+09 -3.535474e+09 -1.130466e+04 -1.777642e+04 5.297995e+03
-2.452239e+09 -2.252087e+09 -2.412119e+09 6.194581e+03 -1.034254e+05 1.266692e+04
-3.120242e+09 -2.919947e+09 -3.079772e+09 3.914916e+03 -2.056595e+05 -1.725292e+04
-2.840381e+09 -2.640139e+09 -2.799604e+09 -1.416112e+04 -3.153064e+05 -1.152566e+04
-1.593074e+09 -1.393076e+09 -1.553081e+09 -3.021173e+03 -5.435930e+03 6.309457e+03
-2.337244e+09 -2.137216e+09 -2.297254e+09 -3.782436e+03 -1.864203e+04 2.873027e+03
-3.064925e+09 -2.864888e+09 -3.024927e+09 -6.267873e+03 -1.456380e+04 2.699345e+03
-3.145335e+09 -2.945290e+09 -3.105337e+09 -3.096617e+03 -1.321457e+04 1.381389e+03
-2.527822e+09 -2.327790e+09 -2.487820e+09 -4.139015e+03 -2.006112e+04 3.934921e+03
-2.383720e+09 -2.183694e+09 -2.343718e+09 -3.471711e+03 -2.061604e+04 2.763113e+03
-3.147817e+09 -2.947780e+09 -3.107813e+09 -1.111494e+04 1.384674e+04 -4.426490e+03
-3.155749e+09 -2.955702e+09 -3.115756e+09 -1.574171e+04 8.826035e+03 -3.365324e+03
-2.377163e+09 -2.177133e+09 -2.337166e+09 -5.721799e+03 6.759118e+03 -2.918115e+03
-2.560289e+09 -2.360286e+09 -2.520298e+09 -9.059002e+03 -9.440255e+03 9.368119e+03
-2.380179e+09 -2.180149e+09 -2.340161e+09 -1.039049e+04 1.298325e+04 -7.180535e+03
-3.369097e+09 -3.169040e+09 -3.329089e+09 -2.022041e+04 1.619849e+04 -9.876710e+03
-3.373541e+09 -3.173494e+09 -3.333538e+09 -1.775515e+04 1.021770e+04 -3.452644e+03
-3.163923e+09 -2.963885e+09 -3.123908e+09 -2.320519e+04 1.231742e+04 -4.025783e+03
-3.179838e+09 -2.979779e+09 -3.139806e+09 -2.238667e+04 6.680752e+03 2.831248e+03
-2.739095e+09 -2.539057e+09 -2.699089e+09 -1.126411e+04 2.230824e+04 -7.321497e+03
-3.164500e+09 -2.964469e+09 -3.124506e+09 -1.268166e+04 1.086081e+04 -2.576123e+03
-3.159336e+09 -2.959289e+09 -3.119309e+09 -2.093509e+04 9.421097e+03 -7.609996e+03
-2.307389e+09 -2.107532e+09 -2.267309e+09 -8.394140e+03 7.618514e+02 9.164353e+04
-3.292406e+09 -3.092394e+09 -3.252412e+09 -3.924732e+03 4.902864e+03 -1.804070e+03
-3.152024e+09 -2.952181e+09 -3.111828e+09 5.152012e+04 1.426200e+04 1.453640e+05
-3.139926e+09 -2.940132e+09 -3.099743e+09 3.594122e+04 6.527738e+04 1.902739e+05
-2.061650e+09 -1.861745e+09 -2.021018e+09 1.290936e+04 -5.067471e+04 3.997197e+05
-2.067979e+09 -1.868150e+09 -2.027402e+09 -1.396017e+04 2.958200e+05 3.415648e+05
-1.878024e+09 -1.678023e+09 -1.837393e+09 4.397428e+04 -6.601036e+04 3.784360e+05
-1.768976e+09 -1.569072e+09 -1.728503e+09 -2.356713e+04 -4.802416e+04 4.344577e+05
-1.571837e+09 -1.371828e+09 -1.531428e+09 3.950753e+03 -7.831453e+04 4.607993e+05
-2.368661e+09 -2.168862e+09 -2.328428e+09 -1.748373e+04 3.380430e+04 2.959615e+05
-2.876964e+09 -2.676996e+09 -2.836743e+09 9.236573e+04 -1.084707e+05 -1.023951e+05
-2.061032e+09 -1.861027e+09 -2.020683e+09 9.495602e+04 -8.184694e+04 -6.894983e+04
-1.848300e+09 -1.648327e+09 -1.808027e+09 4.981732e+04 -1.802203e+05 -9.595526e+04
-2.457837e+09 -2.257782e+09 -2.417688e+09 7.205867e+04 -1.029044e+05 -1.351064e+05
-2.382750e+09 -2.182728e+09 -2.342657e+09 5.977685e+04 -7.148378e+04 -2.713681e+04
-2.396455e+09 -2.196457e+09 -2.356402e+09 5.578919e+04 -4.547133e+04 -8.511996e+04
-3.183733e+09 -2.983739e+09 -3.143756e+09 -1.358502e+04 -6.517932e+03 1.062058e+04
-3.219753e+09 -3.019761e+09 -3.179775e+09 -1.653176e+04 -5.899235e+03 9.020627e+03
-2.803425e+09 -2.603425e+09 -2.763446e+09 -2.062584e+04 -9.289904e+03 1.144384e+04
-2.843478e+09 -2.643485e+09 -2.803500e+09 -2.016398e+04 -1.107166e+04 1.136246e+04
-2.789963e+09 -2.589964e+09 -2.749980e+09 -1.600196e+04 -1.102877e+04 1.246993e+04
-2.793990e+09 -2.593993e+09 -2.754009e+09 -1.394616e+04 -1.037625e+04 1.318056e+04
-2.380234e+09 -2.180240e+09 -2.340244e+09 2.725521e+03 1.077151e+03 1.991870e+03
-2.464486e+09 -2.264493e+09 -2.424498e+09 3.579825e+03 2.076734e+03 3.670491e+03
-1.804455e+09 -1.604460e+09 -1.764465e+09 3.897484e+03 1.617244e+03 2.811884e+03
-2.015602e+09 -1.815607e+09 -1.975611e+09 2.881557e+03 1.211072e+03 1.627228e+03
-2.048331e+09 -1.848338e+09 -2.008342e+09 3.308481e+03 1.362877e+03 2.423434e+03
-2.552050e+09 -2.352057e+09 -2.512065e+09 -1.016864e+04 -6.939499e+03 8.795017e+03
-2.031664e+09 -1.831665e+09 -1.991672e+09 2.864679e+03 1.760267e+03 1.683334e+03
-2.596398e+09 -2.396398e+09 -2.556406e+09 2.687595e+03 1.204662e+03 1.628107e+03
-2.040786e+09 -1.840786e+09 -2.000792e+09 3.136335e+03 2.299724e+03 1.860977e+03
-1.881142e+09 -1.681148e+09 -1.841151e+09 1.689722e+03 5.638610e+02 9.736978e+02
-2.447973e+09 -2.247972e+09 -2.407980e+09 3.336716e+03 2.713741e+03 2.233293e+03
-1.943564e+09 -1.743563e+09 -1.903569e+09 2.194832e+03 1.748047e+03 1.535100e+03
-2.246519e+09 -2.046519e+09 -2.206525e+09 2.694158e+03 1.430670e+03 1.043881e+03
-3.197257e+09 -2.997331e+09 -3.157286e+09 -2.070598e+04 -3.693747e+03 1.000120e+04
-3.177061e+09 -2.977142e+09 -3.137072e+09 -2.499213e+04 9.121619e+02 -5.378543e+03
-2.644235e+09 -2.444300e+09 -2.604237e+09 -1.298958e+04 -3.254747e+03 1.024269e+04
-2.643324e+09 -2.443383e+09 -2.603372e+09 -2.082497e+04 -3.053790e+03 1.317218e+04
-2.793398e+09 -2.593460e+09 -2.753446e+09 -2.378135e+04 -3.840550e+03 1.239088e+04
-2.562075e+09 -2.362142e+09 -2.522115e+09 -2.731461e+04 -5.086638e+03 9.069892e+03
-2.338868e+09 -2.138869e+09 -2.298880e+09 -8.500092e+03 -7.727482e+03 9.163613e+03
-2.724546e+09 -2.524549e+09 -2.684561e+09 -9.729569e+03 -5.182003e+03 7.300005e+03
-3.384054e+09 -3.184060e+09 -3.344075e+09 -1.632768e+04 -7.092004e+03 8.783358e+03
-2.771090e+09 -2.571096e+09 -2.731105e+09 -1.025509e+04 -4.886548e+03 7.025576e+03
-2.487684e+09 -2.287686e+09 -2.447697e+09 -9.167772e+03 -7.922224e+03 9.388481e+03
-3.376522e+09 -3.176524e+09 -3.336545e+09 -1.700852e+04 -6.657008e+03 7.766103e+03
-3.040717e+09 -2.840732e+09 -3.000735e+09 1.968627e+03 5.877681e+02 3.278015e+03
-3.388296e+09 -3.188311e+09 -3.348314e+09 1.784073e+03 2.140228e+02 3.156061e+03
-2.759470e+09 -2.559485e+09 -2.719487e+09 1.750304e+03 4.422572e+02 4.529845e+03
-2.429614e+09 -2.229627e+09 -2.389629e+09 1.217632e+03 6.265396e+02 3.737819e+03
-2.210995e+09 -2.011007e+09 -2.171008e+09 1.126962e+03 2.075143e+02 2.178380e+03
-1.728230e+09 -1.528237e+09 -1.688239e+09 -3.331285e+03 -2.603092e+03 7.407190e+03
-2.344742e+09 -2.144750e+09 -2.304755e+09 -4.608152e+03 -2.707943e+03 5.662318e+03
-1.955297e+09 -1.755306e+09 -1.915309e+09 -4.423603e+03 -2.217917e+03 4.379848e+03
-2.009429e+09 -1.809438e+09 -1.969442e+09 -5.039888e+03 -3.513542e+03 6.887358e+03
-1.732038e+09 -1.532048e+09 -1.692050e+09 -3.509605e+03 -2.421332e+03 4.859652e+03
-2.396832e+09 -2.196838e+09 -2.356846e+09 -6.326105e+03 -4.300449e+03 7.029507e+03
-2.469058e+09 -2.269067e+09 -2.429073e+09 -5.727485e+03 -5.024510e+03 8.775597e+03
-2.375356e+09 -2.175363e+09 -2.335372e+09 -9.270619e+03 -6.546375e+03 8.928371e+03
-2.813333e+09 -2.613344e+09 -2.773353e+09 -1.174404e+04 -4.744249e+03 8.070903e+03
-2.604383e+09 -2.404388e+09 -2.564397e+09 -7.489293e+03 -4.366151e+03 8.089165e+03
-3.590713e+09 -3.390722e+09 -3.550735e+09 -1.301697e+04 -5.131163e+03 8.000215e+03
-1.925797e+09 -1.725803e+09 -1.885807e+09 3.613502e+03 4.577095e+03 6.002527e+03
-2.173587e+09 -1.973594e+09 -2.133600e+09 7.433412e+03 4.773933e+03 8.220360e+03
-2.671265e+09 -2.471272e+09 -2.631279e+09 7.055134e+03 2.816982e+03 6.135706e+03
-3.207492e+09 -3.007498e+09 -3.167510e+09 9.532397e+03 4.213835e+03 4.814207e+03
-2.959092e+09 -2.759098e+09 -2.919106e+09 6.300594e+03 3.661718e+03 3.866623e+03
-2.257462e+09 -2.057465e+09 -2.217472e+09 6.031683e+03 3.574085e+03 5.480875e+03
-3.441040e+09 -3.241054e+09 -3.401061e+09 6.893892e+03 2.343579e+03 4.207494e+03
-2.581045e+09 -2.381056e+09 -2.541062e+09 5.927730e+03 3.094093e+03 5.668656e+03
-3.203978e+09 -3.003991e+09 -3.163998e+09 6.838650e+03 2.697157e+03 5.686767e+03
-2.640464e+09 -2.440472e+09 -2.600478e+09 -4.632066e+03 -2.352591e+03 3.831364e+03
-3.368782e+09 -3.168790e+09 -3.328799e+09 7.307816e+03 2.646962e+03 5.378983e+03
-2.749858e+09 -2.549867e+09 -2.709875e+09 6.346093e+03 3.152727e+03 5.073437e+03
-3.392468e+09 -3.192486e+09 -3.352491e+09 4.470013e+03 1.462181e+03 4.218193e+03
-3.208777e+09 -3.008795e+09 -3.168800e+09 4.364916e+03 1.588795e+03 4.830890e+03
-3.603042e+09 -3.403013e+09 -3.563049e+09 8.650449e+03 9.680211e+03 3.394893e+03
-2.658340e+09 -2.458355e+09 -2.618358e+09 2.777536e+03 9.972243e+02 6.191438e+03
-2.831825e+09 -2.631844e+09 -2.791846e+09 3.344126e+03 1.178554e+03 6.288880e+03
-2.809000e+09 -2.609019e+09 -2.769021e+09 4.007237e+03 1.605183e+03 6.091137e+03
-2.259836e+09 -2.059818e+09 -2.219835e+09 -2.846066e+01 8.890244e+03 -2.886890e+02
-2.466852e+09 -2.266832e+09 -2.426853e+09 9.793210e+02 1.603330e+04 2.362482e+01
-3.250248e+09 -3.050217e+09 -3.210248e+09 -7.323250e+02 1.113060e+04 -1.011874e+03
-2.956624e+09 -2.756598e+09 -2.916627e+09 -3.209761e+03 1.014401e+04 -3.289579e+02
-2.091265e+09 -1.891248e+09 -2.051265e+09 6.476504e+02 1.292912e+04 1.141393e+02
-3.596756e+09 -3.396758e+09 -3.556764e+09 2.756609e+03 6.381560e+02 8.125298e+02
-2.972308e+09 -2.772286e+09 -2.932311e+09 3.097605e+02 1.105363e+04 -1.818041e+01
-3.439228e+09 -3.239305e+09 -3.399273e+09 -3.549243e+03 -7.868738e+02 6.954909e+03
-3.415874e+09 -3.215929e+09 -3.375916e+09 2.274196e+03 9.238015e+02 1.037963e+04
-2.706638e+09 -2.506720e+09 -2.666698e+09 1.835846e+03 -2.734112e+03 2.950885e+03
-3.238495e+09 -3.038550e+09 -3.198537e+09 3.321184e+03 1.135479e+03 1.076163e+04
-3.088267e+09 -2.888355e+09 -3.048335e+09 1.861308e+03 3.617457e+03 2.175151e+03
-1.990346e+09 -1.790302e+09 -1.950335e+09 4.440565e+03 -3.756072e+04 -1.278774e+04
-2.090150e+09 -1.890123e+09 -2.050145e+09 1.301643e+04 -4.373754e+04 -1.551292e+03
-1.590729e+09 -1.390734e+09 -1.550738e+09 1.536477e+03 3.966583e+02 6.691922e+02
-2.125339e+09 -1.925288e+09 -2.085317e+09 1.568811e+04 -2.392194e+04 -7.727567e+03
-2.560375e+09 -2.360283e+09 -2.520351e+09 2.741713e+03 1.619167e+04 -2.061961e+03
-2.131179e+09 -1.931115e+09 -2.091110e+09 8.045552e+03 -3.041302e+04 8.863589e+03
-2.153202e+09 -1.953124e+09 -2.113164e+09 9.332330e+02 -1.028465e+04 4.005519e+03
-2.835969e+09 -2.635885e+09 -2.795931e+09 1.249473e+04 -1.948428e+04 -5.124297e+03
-1.791764e+09 -1.591756e+09 -1.751749e+09 2.935723e+03 -2.393271e+04 -2.217020e+01
-2.017601e+09 -1.817572e+09 -1.977597e+09 -2.268398e+03 -2.488422e+04 8.596843e+03
-1.819854e+09 -1.619833e+09 -1.779854e+09 -4.873880e+02 -1.817039e+04 3.716050e+03
-2.644410e+09 -2.444365e+09 -2.604406e+09 -1.023237e+04 -2.681107e+04 7.168046e+03
-2.686078e+09 -2.486005e+09 -2.646056e+09 -1.279660e+04 -1.392180e+04 7.088573e+03
-2.387636e+09 -2.187614e+09 -2.347631e+09 1.633840e+04 -1.111822e+04 -9.744397e+03
-2.422505e+09 -2.222487e+09 -2.382497e+09 2.153915e+04 -1.724760e+04 -7.362054e+03
-3.381371e+09 -3.181336e+09 -3.341371e+09 3.419720e+04 -1.015235e+04 -8.025829e+03
-3.171854e+09 -2.971865e+09 -3.131876e+09 1.023094e+04 4.054708e+03 7.824015e+03
-2.508391e+09 -2.308405e+09 -2.468410e+09 9.385912e+03 5.968981e+03 1.050689e+04
-2.781843e+09 -2.581854e+09 -2.741863e+09 1.019576e+04 5.172160e+03 9.117942e+03
-2.552421e+09 -2.352431e+09 -2.512437e+09 1.015178e+04 5.021137e+03 1.277624e+04
-2.551135e+09 -2.351129e+09 -2.511141e+09 4.312400e+03 4.339222e+03 3.259266e+03
-2.974816e+09 -2.774808e+09 -2.934824e+09 6.431400e+03 4.813843e+03 3.068618e+03
-3.070303e+09 -2.870295e+09 -3.030311e+09 7.334544e+03 5.110531e+03 3.026693e+03
-3.049525e+09 -2.849519e+09 -3.009533e+09 6.006285e+03 4.577339e+03 2.866598e+03
-2.789974e+09 -2.589985e+09 -2.749993e+09 -7.998458e+03 -3.559226e+03 5.640929e+03
-1.588467e+09 -1.388472e+09 -1.548475e+09 -2.934015e+03 -3.617206e+03 6.130664e+03
-2.495633e+09 -2.295644e+09 -2.455652e+09 -7.700374e+03 -4.487995e+03 8.449192e+03
-1.996968e+09 -1.796975e+09 -1.956981e+09 -6.322198e+03 -4.499243e+03 6.302914e+03
-2.411444e+09 -2.211450e+09 -2.371457e+09 -5.432564e+03 -4.260316e+03 6.881377e+03
-2.056844e+09 -1.856852e+09 -2.016856e+09 -5.989172e+03 -3.535892e+03 7.288170e+03
-2.011581e+09 -1.811586e+09 -1.971592e+09 -5.385326e+03 -4.561801e+03 6.245306e+03
-1.806086e+09 -1.606104e+09 -1.766017e+09 1.917996e+04 2.604326e+03 -2.196928e+04
-2.007406e+09 -1.807446e+09 -1.967438e+09 4.195646e+04 1.283985e+04 -1.600248e+04
-2.011303e+09 -1.811358e+09 -1.971321e+09 2.648127e+04 -2.269051e+03 1.110615e+04
-2.411135e+09 -2.211177e+09 -2.371151e+09 3.081442e+04 -2.247645e+04 -1.291520e+04
-3.250612e+09 -3.050653e+09 -3.210254e+09 9.252379e+04 -1.362964e+05 -1.181172e+05
-2.777818e+09 -2.577750e+09 -2.737439e+09 8.801604e+04 -1.063074e+05 1.142292e+04
-3.376750e+09 -3.176900e+09 -3.336280e+09 1.051298e+05 -8.061494e+04 -2.399442e+05
-2.621179e+09 -2.421149e+09 -2.580915e+09 1.480166e+05 -1.763988e+05 -2.351830e+05
-2.671352e+09 -2.471241e+09 -2.631244e+09 1.979342e+03 -1.038204e+04 7.526604e+03
-2.061884e+09 -1.861788e+09 -2.021817e+09 1.309347e+04 -5.422124e+03 1.355424e+04
-2.451922e+09 -2.251850e+09 -2.411849e+09 -9.311329e+03 -1.327728e+04 -1.155756e+04
-2.554043e+09 -2.353967e+09 -2.513982e+09 1.246565e+04 1.313155e+03 1.110200e+03
-3.288250e+09 -3.088113e+09 -3.248150e+09 8.536063e+03 -3.725708e+04 -3.452230e+04
-2.459691e+09 -2.259597e+09 -2.419586e+09 1.173612e+04 7.346013e+02 1.760527e+04
-2.930031e+09 -2.729918e+09 -2.889928e+09 1.392180e+04 -3.581387e+04 -3.495095e+03
-2.600270e+09 -2.400257e+09 -2.560281e+09 1.292372e+04 1.305773e+04 7.307003e+03
-2.422428e+09 -2.222418e+09 -2.382434e+09 6.281016e+03 1.175958e+04 7.371020e+03
-1.590729e+09 -1.390734e+09 -1.550737e+09 2.029184e+03 8.344583e+02 1.270607e+03
-1.968653e+09 -1.768647e+09 -1.928657e+09 5.958433e+03 7.155752e+03 5.089111e+03
-1.765447e+09 -1.565435e+09 -1.725449e+09 5.268742e+03 1.205750e+04 8.037346e+03
-1.768690e+09 -1.568679e+09 -1.728692e+09 4.064611e+03 8.441778e+03 5.610044e+03
-2.229989e+09 -2.030004e+09 -2.190005e+09 3.287903e+01 -4.285549e+02 3.727203e+03
-2.561435e+09 -2.361449e+09 -2.521451e+09 1.013064e+03 6.855516e+02 3.145623e+03
-1.831512e+09 -1.631525e+09 -1.791526e+09 9.131363e+02 4.399171e+02 3.717976e+03
-3.616809e+09 -3.416773e+09 -3.576238e+09 -5.942352e+04 1.755097e+05 -1.286756e+05
-1.955259e+09 -1.755272e+09 -1.915272e+09 -9.835703e+01 3.745920e+02 2.892689e+03
-3.204062e+09 -3.004069e+09 -3.164074e+09 3.422140e+03 1.144503e+03 2.212652e+03
-3.386933e+09 -3.186941e+09 -3.346946e+09 3.499683e+03 1.134894e+03 1.651080e+03
-2.748758e+09 -2.548765e+09 -2.708770e+09 3.195324e+03 9.083110e+02 1.930312e+03
-2.528007e+09 -2.328013e+09 -2.488017e+09 2.636209e+03 1.126919e+03 1.552509e+03
-3.201775e+09 -3.001782e+09 -3.161788e+09 2.938633e+03 8.105010e+02 1.483347e+03
-3.152667e+09 -2.952674e+09 -3.112679e+09 3.238442e+03 7.619687e+02 1.750567e+03
-2.597452e+09 -2.397429e+09 -2.557457e+09 1.236254e+04 1.513983e+04 7.633172e+03
-3.421345e+09 -3.221321e+09 -3.381352e+09 1.617030e+04 1.177454e+04 5.241320e+03
-3.208030e+09 -3.008006e+09 -3.168038e+09 1.499095e+04 1.051188e+04 4.907769e+03
-2.730492e+09 -2.530473e+09 -2.690502e+09 1.978408e+04 1.602144e+04 6.805843e+03
-2.523919e+09 -2.323906e+09 -2.483924e+09 1.641536e+04 1.717154e+04 1.025848e+04
-2.755466e+09 -2.555438e+09 -2.715471e+09 1.804855e+04 1.343470e+04 9.617780e+03
-3.137949e+09 -2.937929e+09 -3.097954e+09 1.963800e+04 1.276188e+04 5.472188e+03
-2.475215e+09 -2.275196e+09 -2.435216e+09 2.534875e+03 1.464582e+04 1.758271e+03
-2.613153e+09 -2.413133e+09 -2.573156e+09 1.998638e+03 1.424338e+04 1.911351e+03
-3.247499e+09 -3.047471e+09 -3.207501e+09 4.361702e+03 1.044991e+04 1.082357e+03
-2.254011e+09 -2.053994e+09 -2.214012e+09 1.799231e+03 1.239077e+04 3.614335e+03
-2.949500e+09 -2.749477e+09 -2.909502e+09 1.427844e+03 9.197238e+03 1.949125e+03
-3.060462e+09 -2.860435e+09 -3.020465e+09 4.629297e+03 1.125610e+04 1.459392e+03
-2.278564e+09 -2.078620e+09 -2.238567e+09 -5.730463e+04 -2.700370e+04 3.992363e+04
-2.697507e+09 -2.497594e+09 -2.657506e+09 -5.773648e+04 -3.992407e+04 5.877794e+04
-2.615044e+09 -2.415047e+09 -2.575053e+09 5.115160e+03 1.963563e+03 2.798138e+03
-2.599021e+09 -2.399024e+09 -2.559031e+09 4.201024e+03 2.341402e+03 2.922048e+03
-1.826779e+09 -1.626785e+09 -1.786789e+09 3.591464e+03 3.220434e+03 2.748972e+03
-3.139883e+09 -2.939892e+09 -3.099902e+09 1.019052e+04 4.320601e+03 6.187280e+03
-2.243846e+09 -2.043850e+09 -2.203857e+09 6.317776e+03 3.756906e+03 5.683021e+03
-2.218997e+09 -2.019002e+09 -2.179008e+09 4.227359e+03 2.863691e+03 4.177630e+03
-2.406092e+09 -2.206095e+09 -2.366102e+09 3.856376e+03 2.782964e+03 4.677451e+03
-3.404867e+09 -3.204852e+09 -3.364881e+09 -1.308549e+04 9.481791e+03 -4.085639e+03
-2.951956e+09 -2.751941e+09 -2.911973e+09 -1.512583e+04 1.354267e+04 -6.235900e+03
-1.892066e+09 -1.691762e+09 -1.849427e+09 -1.174699e+05 -3.810098e+05 -1.522805e+05
-2.660602e+09 -2.460586e+09 -2.620614e+09 -1.186365e+04 1.477221e+04 -7.575665e+03
-2.564414e+09 -2.364406e+09 -2.524420e+09 -8.469325e+03 1.452003e+04 -7.305771e+03
-1.845472e+09 -1.645468e+09 -1.805471e+09 -1.335256e+03 1.352561e+04 -8.446842e+03
-2.058568e+09 -1.858560e+09 -2.018575e+09 -8.645091e+03 1.550306e+04 -1.086959e+04
-2.147028e+09 -1.947017e+09 -2.107033e+09 -8.630381e+03 1.427030e+04 -6.637712e+03
-2.137540e+09 -1.937825e+09 -2.096562e+09 1.603665e+04 1.377151e+05 -4.005875e+05
-2.506100e+09 -2.306152e+09 -2.464390e+09 -7.789462e+04 -2.913324e+03 -2.089104e+05
-2.751492e+09 -2.551491e+09 -2.709678e+09 6.140868e+04 -3.452820e+05 -2.162075e+05
-2.213670e+09 -2.013294e+09 -2.171499e+09 -9.413122e+04 -6.451764e+04 -1.665301e+05
-1.956951e+09 -1.757186e+09 -1.913689e+09 -1.542195e+05 -2.092723e+05 -3.526686e+05
-2.202633e+09 -2.002658e+09 -2.159011e+09 -1.144990e+05 -1.557226e+05 5.679247e+04
-1.816764e+09 -1.616774e+09 -1.776245e+09 1.362755e+05 -4.231828e+05 -7.153323e+05
-1.975299e+09 -1.775691e+09 -1.934093e+09 -1.040303e+04 -4.171323e+05 -1.099576e+06
-2.217814e+09 -2.017815e+09 -2.177819e+09 1.927254e+04 -1.512578e+04 -2.325247e+04
-1.929346e+09 -1.729360e+09 -1.889342e+09 5.539450e+03 -6.618906e+03 -8.813636e+03
-2.790588e+09 -2.590541e+09 -2.750583e+09 2.584549e+02 -2.265788e+04 1.072703e+03
-3.196739e+09 -2.996691e+09 -3.156734e+09 5.082303e+02 -2.085432e+04 -1.050602e+03
-3.187985e+09 -2.987942e+09 -3.147987e+09 3.346770e+03 -1.192723e+04 -1.712747e+03
-3.197759e+09 -2.997693e+09 -3.157731e+09 4.955228e+03 -1.947537e+04 -3.244847e+03
-3.378564e+09 -3.178508e+09 -3.338557e+09 2.718434e+03 -1.563233e+04 -2.680545e+03
-3.395378e+09 -3.195300e+09 -3.355357e+09 1.509803e+03 -1.436160e+04 6.192008e+02
-1.951545e+09 -1.751551e+09 -1.911555e+09 2.193439e+03 9.356329e+02 1.471473e+03
-3.258264e+09 -3.058271e+09 -3.218275e+09 2.009834e+03 2.957295e+02 1.185430e+03
-2.142127e+09 -1.942133e+09 -2.102137e+09 2.218894e+03 7.654180e+02 1.604335e+03
-3.066655e+09 -2.866662e+09 -3.026665e+09 2.208307e+03 5.606103e+02 1.093628e+03
-2.740306e+09 -2.540312e+09 -2.700316e+09 2.737801e+03 8.556300e+02 1.508654e+03
-2.477605e+09 -2.277591e+09 -2.437611e+09 1.302903e+04 -1.655173e+04 -8.636362e+03
-2.085523e+09 -1.885508e+09 -2.045522e+09 9.584330e+03 -1.590138e+04 -5.640836e+03
-2.074733e+09 -1.874713e+09 -2.034730e+09 5.751653e+03 -1.559323e+04 -9.617657e+03
-2.601806e+09 -2.401781e+09 -2.561801e+09 6.535534e+03 -2.114178e+04 -7.513941e+03
-3.086424e+09 -2.886401e+09 -3.046431e+09 1.299131e+04 -1.542681e+04 -5.919859e+03
-2.549290e+09 -2.349266e+09 -2.509298e+09 1.118555e+04 -1.431218e+04 -9.883526e+03
-3.005686e+09 -2.805656e+09 -2.965691e+09 1.325619e+04 -1.404217e+04 -7.781678e+03
-3.203669e+09 -3.003636e+09 -3.163671e+09 -1.327873e+03 1.397010e+04 -6.812339e+02
-3.185302e+09 -2.985265e+09 -3.145300e+09 1.014788e+02 1.380289e+04 -2.848153e+02
-2.997450e+09 -2.797405e+09 -2.957443e+09 -3.015188e+03 1.739377e+04 -1.387915e+03
-3.374039e+09 -3.173986e+09 -3.334024e+09 -8.383780e+02 1.392454e+04 2.813624e+01
-3.173846e+09 -2.973800e+09 -3.133839e+09 3.054790e+02 1.359732e+04 1.046235e+03
-3.534607e+09 -3.334714e+09 -3.494638e+09 -2.417442e+04 4.557425e+03 -7.230229e+03
-2.713980e+09 -2.514075e+09 -2.673934e+09 -1.239291e+04 -1.942637e+04 2.394853e+04
-2.984470e+09 -2.784571e+09 -2.944430e+09 -3.128959e+04 -1.941095e+04 1.885309e+04
-3.272048e+09 -3.072158e+09 -3.232075e+09 -2.089888e+04 1.471655e+03 -5.728953e+03
-2.403595e+09 -2.203597e+09 -2.363603e+09 2.698834e+03 1.381066e+03 1.860591e+03
-2.522937e+09 -2.322939e+09 -2.482945e+09 2.120472e+03 9.063937e+02 1.110846e+03
-3.401825e+09 -3.201826e+09 -3.361834e+09 2.637012e+03 8.959302e+02 1.122741e+03
-3.041092e+09 -2.841093e+09 -3.001100e+09 2.661239e+03 1.213442e+03 1.171538e+03
-2.941433e+09 -2.741434e+09 -2.901441e+09 2.693538e+03 1.203586e+03 1.281807e+03
-2.615408e+09 -2.415409e+09 -2.575416e+09 2.816593e+03 1.504441e+03 1.548888e+03
-2.793658e+09 -2.593653e+09 -2.753666e+09 -2.027815e+04 -1.482780e+04 1.345059e+04
-2.797136e+09 -2.597126e+09 -2.757154e+09 -2.719799e+04 -8.043355e+03 9.939435e+03
-3.187563e+09 -2.987553e+09 -3.147574e+09 -2.678379e+04 -5.308644e+03 9.046330e+03
-2.522548e+09 -2.322545e+09 -2.482562e+09 -1.729710e+04 -1.699045e+04 1.507444e+04
-3.115628e+09 -2.915475e+09 -3.075437e+09 -1.257516e+04 2.072496e+04 -2.894394e+04
-2.446937e+09 -2.246939e+09 -2.406946e+09 -4.198647e+03 -3.439659e+03 3.448654e+03
-1.945004e+09 -1.745007e+09 -1.905012e+09 -5.002191e+03 -5.020997e+03 5.941796e+03
-3.003042e+09 -2.803008e+09 -2.963048e+09 9.618592e+02 -1.262095e+04 -4.021632e+02
-2.323043e+09 -2.123046e+09 -2.283053e+09 -4.020599e+03 -3.367385e+03 3.533585e+03
-2.366551e+09 -2.166554e+09 -2.326563e+09 -4.926871e+03 -4.795891e+03 5.419686e+03
-1.666354e+09 -1.466424e+09 -1.625253e+09 3.356455e+04 -5.634613e+05 -4.984254e+05
-2.044853e+09 -1.844855e+09 -2.004854e+09 -3.070637e+04 -9.984150e+03 1.318887e+04
-3.413369e+09 -3.213306e+09 -3.373358e+09 -1.900067e+04 -1.548331e+04 7.491554e+03
-3.396448e+09 -3.196372e+09 -3.356427e+09 -8.939770e+03 -1.904204e+04 3.447724e+03
-2.738502e+09 -2.538436e+09 -2.698480e+09 -1.949818e+04 -9.620060e+03 -1.922263e+03
-3.206032e+09 -3.005970e+09 -3.166018e+09 -5.512181e+03 -9.792461e+03 -1.452136e+03
-2.807936e+09 -2.607886e+09 -2.767922e+09 -1.263356e+04 -2.676751e+04 6.209285e+03
-2.597229e+09 -2.397191e+09 -2.557222e+09 -9.217535e+03 -2.025118e+04 8.124627e+03
-2.444149e+09 -2.244115e+09 -2.404140e+09 -2.029974e+03 -2.339029e+04 2.724945e+03
-2.626583e+09 -2.426542e+09 -2.586565e+09 -1.062652e+04 -2.881022e+04 2.372238e+03
-1.619226e+09 -1.419224e+09 -1.579224e+09 1.059119e+03 -1.582262e+04 1.086592e+04
-1.684722e+09 -1.484799e+09 -1.642920e+09 -3.812761e+04 -4.593694e+05 6.018022e+05
-1.576313e+09 -1.376310e+09 -1.536312e+09 1.626789e+03 1.565632e+04 -5.916572e+03
-3.269249e+09 -3.069263e+09 -3.229265e+09 2.405276e+03 4.362937e+02 2.853940e+03
-3.074206e+09 -2.874220e+09 -3.034223e+09 2.527054e+03 7.084384e+02 2.979962e+03
-2.980815e+09 -2.780828e+09 -2.940831e+09 1.392632e+03 4.570803e+01 2.526914e+03
-2.865242e+09 -2.665259e+09 -2.825264e+09 6.553030e+03 2.291477e+03 7.725360e+03
-3.411197e+09 -3.211209e+09 -3.371216e+09 5.610917e+03 1.508824e+03 4.141049e+03
-3.184630e+09 -2.984644e+09 -3.144652e+09 7.827550e+03 2.971788e+03 6.333974e+03
-3.421694e+09 -3.221709e+09 -3.381718e+09 8.247413e+03 2.493668e+03 6.926476e+03
-1.925883e+09 -1.725898e+09 -1.885874e+09 -2.575338e+03 3.084026e+03 -1.001956e+04
-1.618052e+09 -1.418050e+09 -1.578043e+09 2.580825e+03 2.104263e+04 -1.863512e+04
-3.616083e+09 -3.416109e+09 -3.576094e+09 -3.729101e+04 5.628477e+03 -1.395920e+04
-2.139941e+09 -1.939964e+09 -2.099952e+09 -2.481108e+04 1.241778e+04 -1.977388e+04
-3.051959e+09 -2.851990e+09 -3.012000e+09 -3.659219e+04 3.156490e+03 -6.891757e+03
-3.323261e+09 -3.123289e+09 -3.283286e+09 -3.658326e+04 1.623312e+04 -8.915756e+03
-2.657585e+09 -2.457616e+09 -2.617600e+09 -2.866802e+04 6.819214e+03 -1.491927e+03
-3.317102e+09 -3.117156e+09 -3.277151e+09 -1.694194e+04 -5.183190e+03 1.578606e+04
-3.136582e+09 -2.936639e+09 -3.096626e+09 -1.493380e+04 -4.097901e+03 7.238080e+03
-2.585861e+09 -2.386100e+09 -2.545499e+09 -3.824201e+04 -2.908669e+04 2.895469e+05
-2.721695e+09 -2.521731e+09 -2.681732e+09 -2.048631e+04 -1.187422e+04 2.110209e+04
-2.757187e+09 -2.557230e+09 -2.717227e+09 -1.258466e+04 -2.997111e+03 1.379038e+04
-2.129031e+09 -1.929057e+09 -2.089053e+09 -7.353989e+03 -6.407293e+03 2.123871e+04
-1.836021e+09 -1.636006e+09 -1.796023e+09 6.329483e+02 1.321799e+04 -4.621827e+02
-2.522629e+09 -2.322610e+09 -2.482631e+09 2.093337e+03 1.452103e+04 1.837308e+03
-2.955772e+09 -2.755747e+09 -2.915774e+09 -1.242906e+03 1.001748e+04 1.053250e+03
-2.449246e+09 -2.249225e+09 -2.409246e+09 7.932196e+02 1.608826e+04 2.210329e+02
-3.258598e+09 -3.058567e+09 -3.218598e+09 2.146376e+03 1.113167e+04 2.240881e+02
-3.063532e+09 -2.863501e+09 -3.023533e+09 2.399245e+03 1.176330e+04 5.977150e+02
-3.184807e+09 -2.984714e+09 -3.143381e+09 1.579332e+04 -2.029829e+05 -5.575747e+04
-3.388728e+09 -3.188856e+09 -3.348660e+09 6.247230e+04 -6.158855e+03 -6.130187e+04
-3.203352e+09 -3.003465e+09 -3.163303e+09 6.124008e+04 -3.220536e+04 -4.293207e+04
-3.191880e+09 -2.992025e+09 -3.151816e+09 3.163597e+04 -1.758874e+04 -4.407687e+04
-2.806004e+09 -2.606149e+09 -2.766018e+09 3.429560e+04 -1.978925e+02 -3.810173e+04
-2.415956e+09 -2.216040e+09 -2.375865e+09 3.640810e+04 -5.892172e+04 -7.599163e+04
-2.616506e+09 -2.416575e+09 -2.576377e+09 5.926998e+04 -4.895317e+04 -7.117657e+04
-3.219313e+09 -3.019332e+09 -3.179336e+09 4.021200e+03 1.348651e+03 6.339806e+03
-2.626734e+09 -2.426755e+09 -2.586759e+09 5.143696e+03 2.401732e+03 8.218111e+03
-1.685985e+09 -1.485986e+09 -1.645991e+09 1.694837e+03 8.632992e+02 7.382955e+02
-2.616872e+09 -2.416887e+09 -2.576892e+09 5.554553e+03 1.397395e+03 7.347948e+03
-3.404364e+09 -3.204384e+09 -3.364390e+09 7.457999e+03 2.128235e+03 7.606854e+03
-2.092064e+09 -1.892028e+09 -2.052060e+09 1.451354e+04 -1.027044e+04 4.448373e+03
-1.766701e+09 -1.566670e+09 -1.726696e+09 -2.000900e+03 -2.495552e+04 -1.204949e+04
-1.943130e+09 -1.743138e+09 -1.903141e+09 -1.603981e+03 -7.080232e+02 1.361992e+03
-1.786920e+09 -1.586909e+09 -1.746906e+09 2.773784e+03 -1.479301e+04 -4.097490e+03
-3.376636e+09 -3.176612e+09 -3.336641e+09 -9.447593e+03 1.056725e+04 -3.337461e+03
-1.788363e+09 -1.588457e+09 -1.747790e+09 2.505433e+04 -3.571297e+05 -2.843355e+05
-2.569152e+09 -2.369128e+09 -2.529157e+09 -6.730552e+03 1.563712e+04 -5.490996e+03
-2.559624e+09 -2.359605e+09 -2.519624e+09 -3.155706e+03 1.261721e+04 -4.905013e+03
-2.596608e+09 -2.396593e+09 -2.556613e+09 -6.218563e+03 1.226737e+04 -4.573435e+03
-3.199416e+09 -2.999397e+09 -3.159425e+09 -7.672324e+03 1.185794e+04 -4.552675e+03
-3.410337e+09 -3.210403e+09 -3.370384e+09 2.159492e+04 -4.715807e+01 1.769693e+04
-2.570224e+09 -2.370252e+09 -2.530236e+09 1.782575e+04 4.306380e+03 2.036047e+04
-3.223865e+09 -3.023925e+09 -3.183891e+09 2.603478e+04 1.207957e+03 2.649547e+03
-2.600710e+09 -2.400750e+09 -2.560729e+09 2.148407e+04 5.561059e+03 5.056056e+03
-2.065354e+09 -1.865329e+09 -2.025351e+09 -4.197578e+03 2.005512e+04 -6.065617e+03
-1.816669e+09 -1.616645e+09 -1.776671e+09 4.916436e+02 2.171639e+04 -2.105381e+03
-2.569482e+09 -2.369438e+09 -2.529468e+09 -6.590624e+03 1.543459e+04 -1.949022e+03
-2.393616e+09 -2.193581e+09 -2.353601e+09 -2.929955e+02 2.422185e+04 1.235676e+03
-2.800210e+09 -2.600173e+09 -2.760199e+09 -6.880682e+02 1.553214e+04 7.635635e+02
-2.179337e+09 -1.979194e+09 -2.138100e+09 1.201227e+05 3.476353e+05 1.184533e+05
-2.991783e+09 -2.791720e+09 -2.951776e+09 -8.189959e+03 1.636427e+04 -3.584804e+03
-2.583122e+09 -2.383081e+09 -2.543103e+09 1.636175e+04 -1.036598e+04 -2.752841e+03
-1.994740e+09 -1.794723e+09 -1.954737e+09 1.563233e+04 -3.356082e+04 -1.444395e+04
-2.439603e+09 -2.239595e+09 -2.399619e+09 2.118939e+04 -9.948280e+03 -6.527659e+03
-2.443835e+09 -2.243821e+09 -2.403838e+09 1.265040e+04 -1.557373e+04 -1.243635e+04
-1.632968e+09 -1.432974e+09 -1.592978e+09 2.625203e+03 1.689681e+03 3.897676e+03
-2.974268e+09 -2.774292e+09 -2.933171e+09 1.269079e+05 2.735207e+05 2.878180e+05
-3.304969e+09 -3.104981e+09 -3.263625e+09 -7.469461e+03 7.495402e+04 2.199023e+05
-2.720325e+09 -2.520297e+09 -2.678312e+09 -2.863062e+04 1.923205e+05 -1.261389e+05
-3.089063e+09 -2.889071e+09 -3.047184e+09 -2.358935e+04 -1.099329e+05 -3.413751e+04
-2.046750e+09 -1.846759e+09 -2.006762e+09 4.190919e+03 2.322602e+03 4.482351e+03
-3.612968e+09 -3.412942e+09 -3.571485e+09 2.687253e+03 6.721566e+04 1.641414e+05
-2.979244e+09 -2.779109e+09 -2.937750e+09 6.933259e+04 5.261428e+05 9.092014e+04
-3.352488e+09 -3.152688e+09 -3.311894e+09 -2.929543e+04 -2.349455e+04 2.969458e+05
-3.559858e+09 -3.359937e+09 -3.519059e+09 -2.635650e+04 -2.503045e+04 2.459570e+05
-3.381667e+09 -3.181713e+09 -3.340510e+09 -4.077531e+04 -1.412853e+05 3.789521e+05
-2.698470e+09 -2.498489e+09 -2.657049e+09 -6.293171e+04 -7.791945e+04 4.242643e+05
-3.110048e+09 -2.910009e+09 -3.069117e+09 -6.343313e+04 -2.425879e+05 2.967581e+05
-2.749115e+09 -2.549283e+09 -2.708658e+09 -7.076845e+04 -1.669399e+04 2.787844e+05
-2.803830e+09 -2.603834e+09 -2.763840e+09 3.809511e+03 1.548282e+03 2.100794e+03
-3.211879e+09 -3.011883e+09 -3.171889e+09 2.492789e+03 9.861499e+02 1.122110e+03
-3.215845e+09 -3.015850e+09 -3.175856e+09 3.324623e+03 1.085313e+03 1.495144e+03
-2.594729e+09 -2.394733e+09 -2.554738e+09 2.538659e+03 7.606126e+02 1.398189e+03
-2.816216e+09 -2.616220e+09 -2.776225e+09 2.514151e+03 7.001328e+02 1.047809e+03
-3.587517e+09 -3.387523e+09 -3.547538e+09 -1.251167e+04 -3.138833e+03 3.991782e+03
-2.550906e+09 -2.350900e+09 -2.510922e+09 1.895924e+04 1.269466e+04 1.265524e+04
-3.590946e+09 -3.390951e+09 -3.550974e+09 3.467977e+04 1.039479e+04 9.129920e+03
-3.339613e+09 -3.139721e+09 -3.298858e+09 -9.764948e+04 1.427200e+05 -2.674846e+05
-3.151835e+09 -2.951792e+09 -3.110592e+09 8.650366e+04 9.891176e+04 -3.738825e+05
-2.734149e+09 -2.534440e+09 -2.693774e+09 -2.635747e+03 -5.081157e+03 -2.720529e+05
-3.076679e+09 -2.876823e+09 -3.035729e+09 -1.257976e+05 8.701507e+04 -3.399622e+05
-2.580007e+09 -2.380051e+09 -2.538151e+09 -8.813261e+04 5.920325e+04 -4.561784e+05
-2.794724e+09 -2.594658e+09 -2.752549e+09 -9.008164e+04 2.857325e+05 -3.258442e+05
-2.166059e+09 -1.966155e+09 -2.125677e+09 1.480398e+05 -4.300656e+05 -2.260121e+05
-2.777443e+09 -2.577632e+09 -2.737462e+09 -1.748403e+04 -1.668753e+04 6.108584e+04
-2.761245e+09 -2.561435e+09 -2.721173e+09 -8.376542e+03 -5.770461e+03 1.644332e+05
-2.503640e+09 -2.303580e+09 -2.463640e+09 -1.072209e+04 -1.086820e+04 3.211371e+03
-2.427519e+09 -2.227488e+09 -2.387499e+09 -1.402269e+04 -8.476782e+03 1.344314e+03
-2.406156e+09 -2.206131e+09 -2.366139e+09 -2.618818e+04 3.865233e+03 -3.172094e+03
-2.532073e+09 -2.332031e+09 -2.492041e+09 -2.272024e+04 -1.214067e+04 8.015285e+03
-3.419540e+09 -3.219486e+09 -3.379522e+09 -2.822557e+04 -6.593079e+03 3.645542e+03
-1.797052e+09 -1.597015e+09 -1.757043e+09 -5.127299e+03 -2.800486e+04 8.906245e+03
-2.630593e+09 -2.430548e+09 -2.590597e+09 -2.321515e+04 -2.336197e+04 1.239210e+04
-2.513181e+09 -2.313187e+09 -2.473198e+09 -1.466582e+04 -5.848739e+03 9.925132e+03
-2.587751e+09 -2.387763e+09 -2.547767e+09 -2.392583e+04 -1.172030e+04 2.535644e+04
-2.569992e+09 -2.370009e+09 -2.530011e+09 -1.425060e+04 -7.769716e+03 6.233848e+03
-2.464381e+09 -2.264401e+09 -2.424398e+09 -1.770832e+04 -8.374521e+03 1.567766e+04
-2.949433e+09 -2.749454e+09 -2.909461e+09 -2.183947e+04 -6.767011e+03 1.094769e+04
-3.199510e+09 -2.999517e+09 -3.159522e+09 -3.186848e+03 -1.124407e+03 1.828055e+03
-2.561042e+09 -2.361047e+09 -2.521052e+09 -3.058322e+03 -1.351082e+03 1.872532e+03
-2.607999e+09 -2.408004e+09 -2.568009e+09 -3.097089e+03 -1.842971e+03 2.312002e+03
-3.387062e+09 -3.187070e+09 -3.347077e+09 -4.498958e+03 -1.307635e+03 2.161132e+03
-2.599398e+09 -2.399404e+09 -2.559409e+09 -3.101165e+03 -1.591828e+03 2.283360e+03
-3.382640e+09 -3.182694e+09 -3.342683e+09 -6.338424e+03 -1.190069e+03 1.064326e+04
-3.191756e+09 -2.991811e+09 -3.151798e+09 -4.400046e+03 -1.437526e+03 1.160751e+04
-2.002958e+09 -1.802997e+09 -1.962989e+09 -4.628662e+03 1.686451e+02 1.892299e+04
-2.495207e+09 -2.295250e+09 -2.455234e+09 -2.315923e+03 -1.170607e+03 1.332750e+04
-2.906988e+09 -2.707050e+09 -2.867022e+09 -1.059003e+04 -8.994449e+02 1.943664e+04
-2.660609e+09 -2.460662e+09 -2.620644e+09 -4.867970e+03 2.835409e+03 1.248995e+04
-2.622670e+09 -2.422717e+09 -2.582696e+09 -3.455662e+03 -1.773770e+02 1.258619e+04
-1.786501e+09 -1.586628e+09 -1.746476e+09 2.914782e+04 5.707332e+04 -1.718983e+05
-2.356613e+09 -2.156746e+09 -2.316547e+09 -2.265283e+04 5.628690e+04 -1.170588e+05
-1.829031e+09 -1.629040e+09 -1.789042e+09 2.457893e+03 1.291890e+03 3.773755e+03
-2.589493e+09 -2.389671e+09 -2.549378e+09 -3.260430e+04 2.616643e+04 -1.178065e+05
-2.006019e+09 -1.806160e+09 -1.965789e+09 -4.147339e+04 -4.719219e+03 -1.089411e+05
-2.459497e+09 -2.259544e+09 -2.419535e+09 -5.780166e+03 -3.901052e+03 1.117779e+04
-2.457060e+09 -2.257102e+09 -2.417086e+09 -1.092094e+04 -1.575902e+03 1.607838e+04
-2.055926e+09 -1.855976e+09 -2.015959e+09 -7.952252e+03 3.054203e+03 8.373513e+03
-1.800599e+09 -1.600622e+09 -1.760603e+09 -1.278536e+04 -3.699961e+03 1.222588e+04
-2.705875e+09 -2.505932e+09 -2.665917e+09 -6.852157e+03 -1.939472e+03 1.931805e+04
-2.056158e+09 -1.856204e+09 -2.016185e+09 -7.314885e+03 -3.130753e+02 1.279298e+04
-1.837136e+09 -1.637157e+09 -1.797149e+09 -1.644675e+04 -7.776680e+03 2.431437e+04
-3.030386e+09 -2.830356e+09 -2.990385e+09 -4.077301e+03 1.301912e+04 -3.029193e+03
-1.586985e+09 -1.387057e+09 -1.546850e+09 1.544812e+04 4.139742e+04 -1.557764e+05
-3.195005e+09 -2.995010e+09 -3.155014e+09 -1.766728e+03 -4.129882e+02 6.913333e+02
-2.499311e+09 -2.299290e+09 -2.459312e+09 -2.252748e+03 1.865836e+04 -3.116702e+03
-2.665888e+09 -2.465866e+09 -2.625890e+09 -7.261939e+03 1.460077e+04 -2.607856e+03
-2.448220e+09 -2.248193e+09 -2.408219e+09 -4.324289e+03 2.312537e+04 -5.525197e+03
-3.052217e+09 -2.852179e+09 -3.012214e+09 -7.221397e+03 1.313071e+04 -3.463277e+03
-2.612708e+09 -2.412681e+09 -2.572707e+09 -9.741473e+03 1.924948e+04 -5.347571e+03
-1.868900e+09 -1.668869e+09 -1.828889e+09 -1.963404e+04 -1.383590e+04 1.075861e+04
-1.590504e+09 -1.390501e+09 -1.550500e+09 -1.435250e+02 2.145692e+04 2.390815e+03
-2.660726e+09 -2.460631e+09 -2.620583e+09 -2.072306e+04 1.453446e+01 -6.082156e+03
-3.094169e+09 -2.894140e+09 -3.054181e+09 1.413935e+04 -1.330176e+04 -4.402378e+03
-3.590867e+09 -3.390814e+09 -3.550866e+09 2.258374e+03 1.392655e+04 5.957575e+02
-2.699189e+09 -2.499159e+09 -2.659197e+09 8.391146e+03 -1.875602e+04 -6.189916e+03
-1.776653e+09 -1.576803e+09 -1.736177e+09 -1.008477e+04 -5.025334e+04 4.471453e+05
-2.707094e+09 -2.507060e+09 -2.667092e+09 1.301090e+04 -1.937286e+04 -9.600494e+03
-2.666572e+09 -2.466548e+09 -2.626575e+09 7.922935e+03 -1.388398e+04 -5.668510e+03
-2.561868e+09 -2.361858e+09 -2.521874e+09 -3.210366e+03 8.114747e+03 -3.195514e+03
-2.806075e+09 -2.606059e+09 -2.766080e+09 -7.373572e+03 1.050249e+04 -5.469199e+03
-2.967510e+09 -2.767496e+09 -2.927516e+09 -3.426735e+03 8.102571e+03 -2.915176e+03
-3.594705e+09 -3.394692e+09 -3.554715e+09 -8.197218e+03 7.585347e+03 -3.322376e+03
-3.395534e+09 -3.195521e+09 -3.355544e+09 -7.853605e+03 8.379590e+03 -3.564619e+03
-3.073051e+09 -2.873034e+09 -3.033057e+09 -5.887100e+03 8.287585e+03 -3.046166e+03
-2.580955e+09 -2.380935e+09 -2.540954e+09 -6.211483e+03 1.481029e+04 -6.926725e+03
-2.399369e+09 -2.199356e+09 -2.359374e+09 -4.379130e+03 1.104114e+04 -5.031167e+03
-2.001596e+09 -1.801584e+09 -1.961600e+09 -5.477033e+03 1.355950e+04 -9.166311e+03
-2.806149e+09 -2.606129e+09 -2.766158e+09 -1.079428e+04 1.374082e+04 -5.811823e+03
-2.607700e+09 -2.407686e+09 -2.567704e+09 -5.792839e+03 1.087296e+04 -5.343521e+03
-3.143341e+09 -2.943215e+09 -3.103202e+09 3.259403e+04 4.328983e+04 5.544667e+03
-1.598494e+09 -1.398498e+09 -1.558497e+09 -2.440991e+03 -9.131581e+03 1.402628e+04
-2.804395e+09 -2.604280e+09 -2.764229e+09 8.228799e+04 4.214503e+04 6.069373e+04
-2.598625e+09 -2.398518e+09 -2.558580e+09 3.816875e+04 4.203309e+04 -1.866021e+04
-2.474067e+09 -2.274213e+09 -2.434030e+09 -5.801887e+04 6.829371e+04 -1.675772e+05
-2.567662e+09 -2.367776e+09 -2.527452e+09 -9.101341e+04 9.429069e+04 -1.304302e+05
-2.695460e+09 -2.495557e+09 -2.655289e+09 -9.825949e+04 9.706843e+04 -1.407066e+05
-3.420216e+09 -3.220259e+09 -3.379752e+09 -1.188943e+05 1.396760e+05 -1.676850e+05
-3.428880e+09 -3.228857e+09 -3.388313e+09 -8.120575e+04 1.516801e+05 -1.499505e+05
-3.078440e+09 -2.878364e+09 -3.037210e+09 -3.350797e+04 9.924363e+04 -3.719929e+05
-1.560175e+09 -1.360177e+09 -1.520173e+09 8.285723e+02 -2.176735e+04 3.468819e+03
-2.030660e+09 -1.830629e+09 -1.990647e+09 -1.836382e+03 -1.988455e+04 4.048436e+03
-2.843857e+09 -2.643804e+09 -2.803850e+09 -7.645830e+03 -2.297296e+04 3.953378e+03
-2.458317e+09 -2.258284e+09 -2.418310e+09 -1.366345e+03 -1.985501e+04 -1.186099e+03
-2.740740e+09 -2.540751e+09 -2.700761e+09 1.120273e+04 4.978619e+03 8.711774e+03
-3.403659e+09 -3.203671e+09 -3.363685e+09 1.399116e+04 5.269681e+03 7.548983e+03
-2.566173e+09 -2.366181e+09 -2.526191e+09 8.665538e+03 6.542692e+03 8.835371e+03
-3.603338e+09 -3.403266e+09 -3.563272e+09 5.158745e+04 -6.997413e+03 -1.457255e+04
-2.749873e+09 -2.549883e+09 -2.709891e+09 9.262939e+03 5.316030e+03 8.928043e+03
-2.903745e+09 -2.703749e+09 -2.863760e+09 8.258679e+03 5.213454e+03 6.370786e+03
-3.029074e+09 -2.829081e+09 -2.989093e+09 1.238119e+04 5.560114e+03 6.556274e+03
-3.594707e+09 -3.394694e+09 -3.554716e+09 -4.457493e+03 5.299849e+03 -2.615754e+03
-2.051580e+09 -1.851568e+09 -2.011581e+09 -2.982917e+03 9.577965e+03 -3.920862e+03
-2.571635e+09 -2.371623e+09 -2.531640e+09 -2.728844e+03 7.541402e+03 -3.456116e+03
-2.137863e+09 -1.937851e+09 -2.097866e+09 -3.019304e+03 7.524118e+03 -2.500199e+03
-1.686773e+09 -1.486766e+09 -1.646775e+09 -3.880710e+02 5.236970e+03 -2.492266e+03
-1.862105e+09 -1.662096e+09 -1.822107e+09 -2.089674e+03 6.295057e+03 -2.946090e+03
-1.868961e+09 -1.668952e+09 -1.828962e+09 -2.481093e+02 6.903186e+03 -2.629864e+03
-2.976554e+09 -2.776664e+09 -2.936526e+09 -2.412965e+04 -1.030414e+03 3.065644e+04
-2.989359e+09 -2.789457e+09 -2.949400e+09 -1.810280e+04 -2.997834e+03 1.622836e+04
-3.012091e+09 -2.812182e+09 -2.972139e+09 -1.276360e+04 6.564422e+02 1.867108e+04
-2.388705e+09 -2.188795e+09 -2.348719e+09 -1.813738e+04 -1.933044e+02 -1.979779e+04
-2.163436e+09 -1.963550e+09 -2.123483e+09 -1.539692e+04 -9.206859e+03 2.435380e+04
-2.122166e+09 -1.922249e+09 -2.082210e+09 -1.273284e+04 -3.262347e+03 3.109270e+04
-2.574479e+09 -2.374584e+09 -2.534433e+09 -8.298681e+03 -1.521554e+04 1.672612e+04
-2.695472e+09 -2.495574e+09 -2.655527e+09 -3.168316e+03 -1.673473e+04 5.046668e+01
-2.083418e+09 -1.883431e+09 -2.043436e+09 -7.562634e+03 -4.979976e+03 1.056687e+04
-2.639626e+09 -2.439643e+09 -2.599650e+09 -9.807856e+03 -5.672465e+03 9.057783e+03
-3.598895e+09 -3.398916e+09 -3.558928e+09 -1.647085e+04 -5.881309e+03 1.093274e+04
-3.410464e+09 -3.210478e+09 -3.370487e+09 -1.179542e+04 -4.330439e+03 7.492150e+03
-3.201475e+09 -3.001485e+09 -3.161495e+09 -9.319512e+03 -3.454230e+03 5.716214e+03
-2.654650e+09 -2.454663e+09 -2.614669e+09 -6.803850e+03 -4.193157e+03 6.429203e+03
-3.190576e+09 -2.990588e+09 -3.150598e+09 -8.011311e+03 -3.256352e+03 6.155813e+03
-3.401792e+09 -3.201802e+09 -3.361812e+09 -8.805884e+03 -3.697372e+03 5.498605e+03
-3.055252e+09 -2.855264e+09 -3.015273e+09 -8.985838e+03 -3.725090e+03 9.099834e+03
-1.780171e+09 -1.580171e+09 -1.740163e+09 4.834440e+02 -1.833999e+04 -4.934665e+03
-2.482554e+09 -2.282527e+09 -2.442555e+09 2.551306e+03 -2.322500e+04 -4.297480e+03
-2.766958e+09 -2.566913e+09 -2.726955e+09 6.679636e+03 -2.207999e+04 -2.360077e+03
-2.585286e+09 -2.385253e+09 -2.545290e+09 5.689584e+03 -2.207220e+04 -5.035127e+03
-3.397198e+09 -3.197207e+09 -3.357214e+09 -5.481720e+03 -1.378763e+03 3.882341e+03
-2.592388e+09 -2.392395e+09 -2.552401e+09 -5.087410e+03 -2.387517e+03 4.987352e+03
-3.182443e+09 -2.982454e+09 -3.142462e+09 -6.512507e+03 -3.238043e+03 6.510995e+03
-3.393656e+09 -3.193665e+09 -3.353674e+09 -8.221591e+03 -2.082611e+03 4.278854e+03
-3.185985e+09 -2.985995e+09 -3.146002e+09 -5.370207e+03 -2.048252e+03 4.012812e+03
-1.576262e+09 -1.376263e+09 -1.536254e+09 -1.519969e+03 -4.497257e+03 1.405841e+04
-3.374481e+09 -3.174659e+09 -3.334350e+09 6.347100e+03 2.447310e+04 -9.825332e+04
-2.545345e+09 -2.345513e+09 -2.505232e+09 -2.091420e+04 1.216874e+04 -1.393022e+05
-1.962872e+09 -1.762862e+09 -1.922874e+09 -1.253087e+04 -1.828471e+04 9.602884e+03
-2.818010e+09 -2.617981e+09 -2.778013e+09 -2.664518e+04 -1.616359e+04 1.023369e+04
-2.452531e+09 -2.252511e+09 -2.412526e+09 -1.179539e+04 -1.848587e+04 1.060975e+04
-2.648524e+09 -2.448501e+09 -2.608515e+09 -1.619981e+04 -1.690799e+04 8.780748e+03
-2.783077e+09 -2.583054e+09 -2.743083e+09 -2.890436e+04 -2.065505e+04 8.659676e+03
-1.794231e+09 -1.594212e+09 -1.754232e+09 2.936412e+03 2.095730e+04 1.112905e+03
-2.405112e+09 -2.205084e+09 -2.365103e+09 4.227917e+03 2.148735e+04 2.383794e+03
-1.977037e+09 -1.777008e+09 -1.937031e+09 1.999274e+03 2.078385e+04 -1.136372e+03
-2.371176e+09 -2.171147e+09 -2.331165e+09 2.000829e+03 2.080466e+04 -1.796666e+03
-2.547866e+09 -2.347820e+09 -2.507828e+09 6.155074e+03 2.041241e+04 1.223058e+03
-3.161053e+09 -2.961039e+09 -3.121064e+09 1.695965e+04 1.064810e+04 8.290553e+03
-3.374363e+09 -3.174358e+09 -3.334379e+09 1.907645e+04 1.046743e+04 7.676664e+03
-3.181625e+09 -2.981612e+09 -3.141636e+09 1.321578e+04 1.055691e+04 5.857948e+03
-3.196637e+09 -2.996626e+09 -3.156648e+09 1.166720e+04 8.159344e+03 6.239953e+03
-1.771523e+09 -1.571526e+09 -1.731527e+09 5.596370e+03 8.217314e+03 1.060690e+04
-1.985051e+09 -1.785048e+09 -1.945059e+09 8.532225e+03 9.975326e+03 9.318776e+03
-1.964172e+09 -1.764176e+09 -1.924185e+09 1.253698e+04 1.106261e+04 1.600186e+04
-2.815187e+09 -2.615182e+09 -2.775198e+09 2.827750e+04 1.858521e+04 1.520934e+04
-2.380537e+09 -2.180535e+09 -2.340547e+09 8.859230e+03 1.157715e+04 1.135579e+04
-2.348087e+09 -2.148089e+09 -2.308098e+09 1.359574e+04 1.393837e+04 1.405614e+04
-3.171506e+09 -2.971501e+09 -3.131520e+09 2.077307e+04 8.816756e+03 1.032931e+04
-2.755113e+09 -2.555108e+09 -2.715126e+09 2.069936e+04 1.243790e+04 1.339832e+04
-2.341561e+09 -2.141544e+09 -2.301563e+09 1.430919e+04 1.243976e+04 7.235865e+03
-2.570789e+09 -2.370761e+09 -2.530757e+09 2.283996e+04 9.164498e+03 9.655582e+03
-1.797480e+09 -1.597438e+09 -1.757458e+09 7.225408e+03 2.104717e+04 1.166982e+04
-2.791061e+09 -2.591033e+09 -2.751054e+09 3.427153e+04 1.205410e+04 1.021749e+04
-3.204525e+09 -3.004521e+09 -3.164533e+09 2.861554e+04 1.122196e+04 1.236543e+04
-2.008779e+09 -1.808768e+09 -1.968772e+09 2.109367e+04 6.574783e+03 3.795849e+03
-1.756004e+09 -1.555996e+09 -1.715987e+09 -6.773694e+03 -1.617549e+04 1.473768e+04
-2.647257e+09 -2.447257e+09 -2.607271e+09 -3.434826e+04 -1.223842e+04 9.843953e+03
-1.948322e+09 -1.748318e+09 -1.908319e+09 -2.342363e+04 -7.260578e+03 9.251997e+03
-1.734759e+09 -1.534737e+09 -1.694769e+09 -1.781908e+04 -1.629821e+04 1.203339e+04
-1.957024e+09 -1.757019e+09 -1.917032e+09 -1.480473e+04 -1.231370e+04 1.583903e+04
-2.077129e+09 -1.877180e+09 -2.037148e+09 1.574245e+04 -8.678360e+02 2.065279e+04
-3.604713e+09 -3.404772e+09 -3.564740e+09 -4.809124e+04 -2.958578e+02 -4.000255e+03
-3.072154e+09 -2.872225e+09 -3.032196e+09 1.296064e+04 1.062267e+03 1.931850e+04
-3.053968e+09 -2.854075e+09 -3.014029e+09 1.567270e+04 1.866678e+03 -8.852983e+03
-3.294353e+09 -3.094466e+09 -3.254386e+09 2.539134e+04 -1.350748e+04 -7.406722e+03
-2.531715e+09 -2.331778e+09 -2.491752e+09 1.315470e+04 1.920518e+03 -3.047409e+03
-2.385038e+09 -2.185036e+09 -2.345046e+09 5.578926e+03 6.663620e+03 4.900010e+03
-2.597732e+09 -2.397733e+09 -2.557743e+09 6.239011e+03 5.375575e+03 4.046914e+03
-2.377414e+09 -2.177411e+09 -2.337422e+09 4.432259e+03 4.717515e+03 3.161761e+03
-1.775264e+09 -1.575262e+09 -1.735268e+09 3.280608e+03 6.773322e+03 4.649344e+03
-1.975225e+09 -1.775221e+09 -1.935230e+09 5.460678e+03 7.431988e+03 5.395963e+03
-2.434488e+09 -2.234484e+09 -2.394494e+09 4.418333e+03 4.710457e+03 3.256360e+03
-2.045876e+09 -1.845871e+09 -2.005882e+09 4.499066e+03 5.252141e+03 3.579516e+03
-1.803301e+09 -1.603294e+09 -1.763310e+09 -9.057787e+03 1.029814e+04 -6.851018e+03
-1.830653e+09 -1.630636e+09 -1.790641e+09 -1.960189e+03 1.502103e+04 -9.914522e+03
-2.032934e+09 -1.832931e+09 -1.992937e+09 -1.500655e+04 1.069013e+04 -2.798533e+03
-2.440497e+09 -2.240495e+09 -2.400493e+09 -1.608879e+04 1.474147e+04 -6.610582e+03
-1.992469e+09 -1.792472e+09 -1.952484e+09 -1.030427e+04 1.267334e+04 -1.293981e+04
-2.128957e+09 -1.928948e+09 -2.088963e+09 -1.260684e+04 1.049666e+04 -1.078392e+04
-3.595764e+09 -3.395801e+09 -3.555804e+09 -2.830535e+04 -9.043072e+03 1.399791e+04
-2.857438e+09 -2.657429e+09 -2.817448e+09 -3.027168e+04 1.593984e+04 -8.236574e+03
-2.558294e+09 -2.358285e+09 -2.518299e+09 -1.315596e+04 1.314298e+04 -1.335878e+04
-1.882118e+09 -1.682099e+09 -1.842117e+09 9.391420e+03 -1.904854e+04 1.849261e+03
-2.807128e+09 -2.607132e+09 -2.767148e+09 1.756034e+04 9.950035e+03 1.459627e+04
-2.808904e+09 -2.608905e+09 -2.768922e+09 1.553064e+04 8.815032e+03 9.097812e+03
-2.639329e+09 -2.439337e+09 -2.599340e+09 -2.675042e+03 -9.053455e+02 1.601081e+03
-1.587840e+09 -1.387838e+09 -1.547845e+09 2.814221e+03 6.695966e+03 6.278075e+03
-2.954778e+09 -2.754787e+09 -2.914791e+09 -2.383336e+03 -7.488828e+02 1.597771e+03
-3.049367e+09 -2.849375e+09 -3.009379e+09 -2.885184e+03 -6.805325e+02 1.835354e+03
-3.255452e+09 -3.055461e+09 -3.215465e+09 -2.550538e+03 -9.489478e+02 1.426090e+03
-2.645352e+09 -2.445360e+09 -2.605364e+09 -2.643786e+03 -8.945651e+02 2.131383e+03
-3.588639e+09 -3.388629e+09 -3.548660e+09 2.761242e+04 -1.322384e+04 -1.444551e+04
-3.301331e+09 -3.101321e+09 -3.261350e+09 2.992073e+04 -1.509058e+04 -1.272652e+04
-2.542607e+09 -2.342597e+09 -2.502617e+09 1.268665e+04 -1.291106e+04 -7.551792e+03
-2.575036e+09 -2.375033e+09 -2.535050e+09 1.952860e+04 -1.386596e+04 -8.399109e+03
-2.616094e+09 -2.416079e+09 -2.576100e+09 2.755104e+04 -1.614458e+04 -1.623700e+04
-2.035557e+09 -1.835543e+09 -1.995560e+09 7.866550e+03 -1.694058e+04 -1.210828e+04
-2.328079e+09 -2.128052e+09 -2.288078e+09 -2.167602e+03 -1.405335e+04 1.545592e+03
-3.242242e+09 -3.042254e+09 -3.202256e+09 -1.720517e+03 -9.689437e+02 1.851274e+03
-1.925722e+09 -1.725733e+09 -1.885734e+09 -1.480908e+03 -6.470861e+02 2.523921e+03
-2.115803e+09 -1.915815e+09 -2.075816e+09 -1.649733e+03 -7.718230e+02 2.978923e+03
-2.951812e+09 -2.751824e+09 -2.911826e+09 -1.694158e+03 -6.100357e+02 2.042220e+03
-2.726671e+09 -2.526683e+09 -2.686686e+09 -2.651008e+03 -1.129323e+03 2.912849e+03
-2.234749e+09 -2.034759e+09 -2.194761e+09 -2.151589e+03 -2.794165e+02 2.277556e+03
-3.428365e+09 -3.228381e+09 -3.388385e+09 -3.508260e+03 -8.972404e+02 4.262745e+03
-1.918233e+09 -1.718249e+09 -1.878251e+09 -2.301698e+03 -2.051368e+03 7.854466e+03
-2.654504e+09 -2.454522e+09 -2.614525e+09 -2.114638e+03 -1.003555e+03 5.899698e+03
-1.822630e+09 -1.622642e+09 -1.782642e+09 -1.336059e+03 -1.130790e+03 6.427109e+03
-2.441816e+09 -2.241831e+09 -2.401832e+09 -1.414390e+03 -5.689114e+02 4.731613e+03
-2.412340e+09 -2.212354e+09 -2.372357e+09 -1.927211e+03 -7.989050e+02 4.206964e+03
-2.404950e+09 -2.204964e+09 -2.364966e+09 -2.968237e+03 -9.133573e+02 4.130511e+03
-1.741960e+09 -1.541952e+09 -1.701967e+09 1.181673e+04 1.984452e+04 1.054289e+04
-1.759513e+09 -1.559508e+09 -1.719502e+09 4.033819e+03 2.385129e+04 9.002644e+03
-3.130143e+09 -2.930106e+09 -3.090138e+09 2.048983e+04 9.197743e+03 1.993196e+03
-2.751923e+09 -2.551890e+09 -2.711921e+09 1.896876e+04 2.012268e+04 1.072369e+04
-2.557298e+09 -2.357266e+09 -2.517295e+09 1.199662e+04 1.740376e+04 9.143352e+03
-2.495209e+09 -2.295212e+09 -2.455209e+09 2.417560e+04 1.943924e+04 1.459184e+04
-2.302927e+09 -2.103037e+09 -2.262978e+09 -2.224766e+04 -7.468540e+03 2.366550e+04
-1.826799e+09 -1.626873e+09 -1.786862e+09 -1.161998e+04 -9.675261e+03 8.182501e+04
-2.533208e+09 -2.333302e+09 -2.493179e+09 -3.178837e+03 9.944172e+03 3.578078e+04
-1.825396e+09 -1.625452e+09 -1.785318e+09 -2.012760e+04 -8.213495e+03 4.401017e+04
-2.172210e+09 -1.972284e+09 -2.132242e+09 -3.078172e+04 -1.427427e+04 1.965991e+04
-1.827950e+09 -1.627966e+09 -1.787871e+09 -1.944822e+04 -8.937453e+03 2.502920e+04
-2.008441e+09 -1.808423e+09 -1.968443e+09 -8.695109e+03 1.662980e+04 -1.024289e+04
-2.381557e+09 -2.181536e+09 -2.341557e+09 -7.857636e+03 2.063022e+04 -8.128162e+03
-2.395092e+09 -2.195070e+09 -2.355094e+09 -1.184682e+04 1.066726e+04 -5.499552e+03
-3.601366e+09 -3.401377e+09 -3.561381e+09 -3.900855e+03 -9.364829e+02 1.786723e+03
-1.806458e+09 -1.606444e+09 -1.766430e+09 -8.995312e+02 2.509058e+04 -9.953472e+03
-2.022962e+09 -1.822950e+09 -1.982969e+09 -1.437547e+04 1.807776e+04 -1.387130e+04
-2.499204e+09 -2.299172e+09 -2.459123e+09 -3.816402e+04 -4.616121e+03 -1.243175e+04
-1.783074e+09 -1.583061e+09 -1.743044e+09 -7.291416e+03 -9.602119e+03 1.908201e+03
-1.550656e+09 -1.350649e+09 -1.510621e+09 3.012229e+03 3.166323e+03 7.908508e+03
-2.011947e+09 -1.811898e+09 -1.971912e+09 -3.206580e+04 -8.180815e+03 7.492322e+03
-1.827910e+09 -1.627899e+09 -1.787846e+09 -8.691049e+03 3.321024e+03 7.155954e+03
-2.350209e+09 -2.150252e+09 -2.309970e+09 1.147256e+05 1.044379e+05 1.715309e+05
-2.490330e+09 -2.290450e+09 -2.450211e+09 5.735373e+04 2.820633e+04 1.566786e+05
-2.332099e+09 -2.132250e+09 -2.291940e+09 5.709456e+04 7.835051e+04 1.668227e+05
-2.498494e+09 -2.298525e+09 -2.458322e+09 8.729507e+04 1.011141e+05 1.009752e+05
-2.000377e+09 -1.800353e+09 -1.960373e+09 8.199818e+01 1.711851e+04 -9.676842e+02
-2.017492e+09 -1.817476e+09 -1.977490e+09 -6.832443e+03 -2.250829e+04 1.100358e+04
-2.209133e+09 -2.009120e+09 -2.169134e+09 -4.991047e+03 -1.052671e+04 4.703052e+03
-2.726544e+09 -2.526524e+09 -2.686550e+09 -1.030285e+04 -1.464808e+04 6.503618e+03
-1.591855e+09 -1.391850e+09 -1.551855e+09 -5.722513e+01 -1.647695e+04 6.678112e+03
-2.661334e+09 -2.461325e+09 -2.621340e+09 4.705120e+03 6.478246e+03 4.606285e+03
-2.560010e+09 -2.360003e+09 -2.520017e+09 5.053448e+03 7.135860e+03 4.231858e+03
-1.855570e+09 -1.655563e+09 -1.815575e+09 3.631972e+03 5.968747e+03 3.463028e+03
-3.277607e+09 -3.077599e+09 -3.237615e+09 6.508628e+03 4.727119e+03 3.328303e+03
-2.164593e+09 -1.964582e+09 -2.124596e+09 4.851552e+03 8.764994e+03 3.740874e+03
-2.508455e+09 -2.308446e+09 -2.468462e+09 5.169831e+03 7.508343e+03 4.511432e+03
-3.556960e+09 -3.356966e+09 -3.516971e+09 -3.001769e+03 -8.570777e+02 1.125529e+03
-2.499712e+09 -2.299690e+09 -2.459718e+09 -5.529329e+03 -2.056577e+04 8.121020e+03
-2.864986e+09 -2.665076e+09 -2.825043e+09 -1.062604e+04 1.004298e+04 1.097445e+04
-3.545215e+09 -3.345179e+09 -3.505221e+09 -8.477507e+03 -1.434171e+04 4.603102e+03
-2.729059e+09 -2.529025e+09 -2.689058e+09 -9.939187e+03 -1.664546e+04 7.033642e+03
-1.914995e+09 -1.714977e+09 -1.874998e+09 -5.481592e+02 -1.802105e+04 4.167783e+03
-2.636020e+09 -2.435985e+09 -2.596020e+09 -6.423214e+03 -2.362704e+04 6.870911e+03
-2.345949e+09 -2.145925e+09 -2.305948e+09 -3.364296e+03 -1.360208e+04 3.277380e+03
-2.109838e+09 -1.909821e+09 -2.069837e+09 -3.928262e+03 -1.776998e+04 3.763695e+03
-1.773537e+09 -1.573520e+09 -1.733538e+09 -4.550438e+03 -1.493933e+04 9.386570e+03
-1.573016e+09 -1.373011e+09 -1.533014e+09 1.759912e+03 -1.482616e+04 8.379226e+03
-2.554512e+09 -2.354500e+09 -2.514517e+09 -1.094461e+04 -1.451377e+04 9.468128e+03
-2.837391e+09 -2.637369e+09 -2.797397e+09 -2.168925e+04 -2.046850e+04 8.380273e+03
-2.607042e+09 -2.407025e+09 -2.567053e+09 -1.737097e+04 -1.468981e+04 1.170739e+04
-2.593742e+09 -2.393744e+09 -2.553752e+09 -4.841628e+04 5.945922e+02 -2.590402e+03
-1.966529e+09 -1.766513e+09 -1.926539e+09 -2.213320e+04 -2.511935e+04 5.539434e+03
-2.507619e+09 -2.307599e+09 -2.467630e+09 -3.089307e+04 -1.422858e+04 1.485767e+04
-3.352162e+09 -3.152143e+09 -3.312159e+09 -5.123613e+04 -6.011633e+03 6.226016e+03
-3.131511e+09 -2.931503e+09 -3.091501e+09 -3.850449e+04 -2.212244e+03 7.992582e+03
-2.602340e+09 -2.402431e+09 -2.562377e+09 -7.810783e+03 -2.687002e+03 -5.306541e+03
-3.586871e+09 -3.386866e+09 -3.546881e+09 5.939394e+03 3.207347e+03 2.399595e+03
-2.264270e+09 -2.064347e+09 -2.224307e+09 -6.320756e+03 -4.005277e+03 8.579490e+03
-1.579303e+09 -1.379324e+09 -1.539277e+09 -4.627611e+03 1.170719e+04 -1.125408e+04
-1.896858e+09 -1.696919e+09 -1.856899e+09 -6.097920e+03 -4.364293e+03 1.436340e+04
-2.498447e+09 -2.298450e+09 -2.458455e+09 1.997549e+03 7.298057e+02 8.740292e+02
-2.295743e+09 -2.095746e+09 -2.255750e+09 1.256365e+03 1.390578e+02 3.121018e+02
-3.201208e+09 -3.001211e+09 -3.161216e+09 1.664878e+03 2.620194e+02 4.941842e+02
-2.698741e+09 -2.498744e+09 -2.658749e+09 2.134049e+03 6.670063e+02 7.264668e+02
-3.303026e+09 -3.103030e+09 -3.263035e+09 2.058474e+03 5.097000e+02 6.330550e+02
-3.017040e+09 -2.817044e+09 -2.977049e+09 1.700152e+03 5.610454e+02 6.070014e+02
-2.896317e+09 -2.696319e+09 -2.856324e+09 1.314811e+03 3.201158e+02 4.037197e+02
-2.596839e+09 -2.396841e+09 -2.556847e+09 1.711222e+03 6.999695e+02 5.464602e+02
-3.417844e+09 -3.217875e+09 -3.377879e+09 -1.336882e+03 -6.459170e+02 8.336163e+03
-2.781499e+09 -2.581522e+09 -2.741525e+09 -2.503678e+03 -1.086210e+03 9.469220e+03
-3.429672e+09 -3.229696e+09 -3.389699e+09 -2.538820e+03 -7.987757e+02 6.027528e+03
-3.133227e+09 -2.933250e+09 -3.093253e+09 -3.912104e+03 -1.016471e+03 7.050171e+03
-2.824721e+09 -2.624753e+09 -2.784753e+09 -3.673927e+03 -1.865463e+03 1.346431e+04
-3.497337e+09 -3.297330e+09 -3.457345e+09 5.660892e+03 3.132055e+03 1.800810e+03
-2.722534e+09 -2.522561e+09 -2.682563e+09 -2.471733e+03 -2.643919e+03 1.244415e+04
-3.119412e+09 -2.919440e+09 -3.079443e+09 -4.208860e+03 -1.610932e+03 8.881467e+03
-2.282844e+09 -2.082830e+09 -2.242845e+09 2.367404e+02 8.781469e+03 -4.202589e+03
-1.832656e+09 -1.632647e+09 -1.792658e+09 -1.549032e+03 9.126525e+03 -3.469860e+03
-3.594705e+09 -3.394688e+09 -3.554714e+09 -7.985526e+03 6.513072e+03 -2.925357e+03
-2.996959e+09 -2.796945e+09 -2.956964e+09 -3.120543e+03 5.773227e+03 -2.416365e+03
-2.673492e+09 -2.473480e+09 -2.633499e+09 -6.393841e+03 1.054156e+04 -4.627366e+03
-2.462332e+09 -2.262318e+09 -2.422337e+09 -4.167705e+03 1.176309e+04 -5.377497e+03
-2.481007e+09 -2.281019e+09 -2.441024e+09 -5.321841e+03 -2.672456e+03 5.603115e+03
-1.868627e+09 -1.668637e+09 -1.828639e+09 -2.395598e+03 -2.154339e+03 4.858083e+03
-3.040374e+09 -2.840389e+09 -3.000396e+09 -6.499156e+03 -2.824087e+03 7.418189e+03
-1.892434e+09 -1.692432e+09 -1.852439e+09 2.234261e+03 2.739666e+03 2.133781e+03
-2.079542e+09 -1.879547e+09 -2.039550e+09 1.968099e+03 6.235193e+02 9.417327e+02
-2.403676e+09 -2.203687e+09 -2.363691e+09 -3.755754e+03 -2.530758e+03 5.338281e+03
-2.369287e+09 -2.169270e+09 -2.329290e+09 -4.825744e+03 1.494587e+04 -5.513550e+03
-2.436735e+09 -2.236724e+09 -2.396740e+09 -1.013086e+04 1.447756e+04 -6.747526e+03
-2.762311e+09 -2.562280e+09 -2.722315e+09 -1.297252e+04 1.571551e+04 -6.323422e+03
-1.994242e+09 -1.794224e+09 -1.954230e+09 -8.019911e+03 2.825444e+04 -1.203026e+04
-2.407996e+09 -2.207978e+09 -2.368000e+09 -8.793381e+03 1.241506e+04 -7.438694e+03
-1.998965e+09 -1.798950e+09 -1.958964e+09 -6.127102e+03 1.963704e+04 -9.174000e+03
-1.778827e+09 -1.578829e+09 -1.738822e+09 -6.299927e+03 1.801283e+04 -8.968885e+03
-3.186408e+09 -2.986414e+09 -3.146427e+09 -9.051851e+03 -4.040895e+03 5.862226e+03
-2.597111e+09 -2.397120e+09 -2.557129e+09 -8.432879e+03 -6.094791e+03 8.082121e+03
-2.546636e+09 -2.346643e+09 -2.506650e+09 -8.209263e+03 -7.190059e+03 9.022762e+03
-1.765761e+09 -1.565757e+09 -1.725768e+09 -7.584828e+03 -5.705096e+03 8.110001e+03
-1.999387e+09 -1.799401e+09 -1.959401e+09 1.717703e+03 4.944649e+02 3.582226e+03
-2.034038e+09 -1.834053e+09 -1.994053e+09 9.762005e+02 1.589215e+01 3.872056e+03
-3.184586e+09 -2.984602e+09 -3.144604e+09 1.707797e+03 3.590247e+02 3.160871e+03
-2.956958e+09 -2.756972e+09 -2.916974e+09 1.062000e+03 2.734375e+02 3.232444e+03
-2.621424e+09 -2.421439e+09 -2.581442e+09 1.603428e+03 2.994675e+02 4.490017e+03
-2.430985e+09 -2.231000e+09 -2.391002e+09 1.028740e+03 4.119302e+02 4.683045e+03
-3.457940e+09 -3.257957e+09 -3.417959e+09 6.508084e+02 1.852887e+02 2.736212e+03
-1.655973e+09 -1.455985e+09 -1.615986e+09 5.988695e+02 3.599528e+02 3.222786e+03
-3.136576e+09 -2.936813e+09 -3.096040e+09 -4.653252e+04 1.022847e+05 -3.344559e+05
-3.182872e+09 -2.982893e+09 -3.142898e+09 -8.407896e+03 -3.791440e+03 7.856391e+03
-2.734913e+09 -2.535181e+09 -2.694481e+09 -5.806290e+04 1.299129e+05 -2.795519e+05
-3.292644e+09 -3.092582e+09 -3.251983e+09 -6.749189e+04 1.753341e+05 -1.644798e+05
-3.128176e+09 -2.927996e+09 -3.087539e+09 -6.027847e+04 2.211107e+05 -1.679237e+05
-2.898940e+09 -2.698995e+09 -2.858578e+09 -1.350838e+05 1.249539e+05 -1.072252e+05
-3.402389e+09 -3.202426e+09 -3.362427e+09 -4.085981e+03 9.312650e+02 9.266129e+03
-2.476405e+09 -2.276540e+09 -2.436054e+09 -1.131832e+05 2.046609e+05 -2.772985e+05
-3.064356e+09 -2.864366e+09 -3.024371e+09 5.230244e+03 1.560446e+03 3.444415e+03
-2.740375e+09 -2.540391e+09 -2.700397e+09 8.781690e+03 4.658675e+03 9.624690e+03
-2.555103e+09 -2.355116e+09 -2.515124e+09 8.957096e+03 5.348261e+03 1.074566e+04
-2.159889e+09 -1.959901e+09 -2.119904e+09 5.378475e+03 3.947017e+03 6.841178e+03
-2.720877e+09 -2.520887e+09 -2.680896e+09 8.005360e+03 5.260271e+03 8.886168e+03
-2.844503e+09 -2.644508e+09 -2.804519e+09 7.205301e+03 5.252238e+03 6.159651e+03
-1.802195e+09 -1.602200e+09 -1.762203e+09 3.263566e+03 2.700491e+03 5.855715e+03
-2.162739e+09 -1.962754e+09 -2.122755e+09 -1.013719e+03 -3.815880e+02 5.200537e+03
-2.565515e+09 -2.365530e+09 -2.525532e+09 5.642201e+02 1.486773e+02 3.931694e+03
-1.687690e+09 -1.487703e+09 -1.647703e+09 -9.747159e+01 -2.269524e+01 2.782253e+03
-3.269283e+09 -3.069319e+09 -3.229321e+09 4.212340e+03 2.473018e+02 1.068288e+04
-2.293911e+09 -2.093927e+09 -2.253928e+09 -1.104575e+03 -6.677110e+01 4.039240e+03
-2.937173e+09 -2.737188e+09 -2.897190e+09 -3.327304e+02 2.326035e+02 2.975467e+03
-1.996743e+09 -1.796756e+09 -1.956756e+09 -1.565757e+02 5.223580e+01 2.787474e+03
-2.242647e+09 -2.042662e+09 -2.202663e+09 -7.776847e+02 1.375534e+02 3.305977e+03
-2.554074e+09 -2.354088e+09 -2.514091e+09 -6.932670e+02 1.153261e+02 3.545257e+03
-3.380706e+09 -3.180656e+09 -3.340708e+09 -1.152892e+04 -1.863043e+04 4.060594e+03
-2.422734e+09 -2.222711e+09 -2.382733e+09 -7.932678e+03 -1.541556e+04 4.718430e+03
-2.642828e+09 -2.442798e+09 -2.602826e+09 -1.194642e+04 -1.851483e+04 8.834938e+03
-2.792320e+09 -2.592278e+09 -2.752319e+09 -1.415353e+04 -2.181485e+04 1.114401e+04
-2.822170e+09 -2.622131e+09 -2.782168e+09 -1.767367e+04 -2.314303e+04 6.903076e+03
-3.130615e+09 -2.930630e+09 -3.090651e+09 3.398713e+04 -1.449473e+04 -1.100382e+04
-3.596280e+09 -3.396244e+09 -3.556287e+09 -1.894281e+04 -1.689479e+04 5.545310e+03
-2.093742e+09 -1.893749e+09 -2.053760e+09 -2.457236e+04 -9.911118e+03 8.531834e+03
-2.339129e+09 -2.139126e+09 -2.299120e+09 -2.451937e+04 -1.266848e+04 9.180567e+03
-1.880216e+09 -1.680213e+09 -1.840205e+09 -7.396646e+03 -1.544512e+04 1.729954e+04
-1.973751e+09 -1.773725e+09 -1.933752e+09 -7.771543e+03 -2.442058e+04 4.374048e+03
-3.222502e+09 -3.022569e+09 -3.182451e+09 5.839824e+04 -2.854495e+04 -4.323810e+04
-2.825843e+09 -2.625852e+09 -2.785855e+09 -1.995715e+04 1.036980e+04 -6.318344e+03
-2.008375e+09 -1.808351e+09 -1.968373e+09 -1.361573e+04 -1.834483e+04 1.145785e+04
-2.367396e+09 -2.167385e+09 -2.327401e+09 7.149355e+03 -1.320135e+04 -8.824083e+03
-1.801993e+09 -1.601984e+09 -1.761986e+09 -6.937278e+03 -2.659592e+04 1.222112e+04
-3.606837e+09 -3.406878e+09 -3.566823e+09 5.789656e+04 2.643320e+03 1.698238e+03
-3.210395e+09 -3.010182e+09 -3.170126e+09 -3.441319e+04 8.339037e+04 -5.230726e+04
-2.951207e+09 -2.751018e+09 -2.910958e+09 -4.497671e+04 1.144682e+05 -7.271573e+03
-3.091518e+09 -2.891365e+09 -3.050095e+09 -4.359805e+04 -3.398979e+05 5.072116e+04
-2.322037e+09 -2.121778e+09 -2.279787e+09 -4.597477e+04 -2.390506e+05 6.037678e+04
-1.962794e+09 -1.762875e+09 -1.921235e+09 -7.776816e+04 -2.782134e+05 5.986169e+05
-2.685993e+09 -2.486089e+09 -2.644473e+09 -7.203946e+04 -3.816189e+05 2.412533e+05
-2.672037e+09 -2.471799e+09 -2.631261e+09 7.309196e+04 -3.253302e+05 -4.459973e+04
-3.084960e+09 -2.884732e+09 -3.043961e+09 6.062582e+04 -3.596302e+05 -9.369480e+03
-2.647655e+09 -2.447677e+09 -2.607681e+09 -8.340434e+03 -3.854896e+03 1.304794e+04
-2.155235e+09 -1.955254e+09 -2.115255e+09 -9.904329e+03 -6.872423e+03 1.435793e+04
-2.246600e+09 -2.046619e+09 -2.206623e+09 -9.110408e+03 -4.535620e+03 1.203380e+04
-2.521132e+09 -2.321151e+09 -2.481153e+09 -7.013879e+03 -3.579718e+03 1.271701e+04
-2.569492e+09 -2.369513e+09 -2.529518e+09 -1.140180e+04 -6.408229e+03 1.763515e+04
-2.708123e+09 -2.508131e+09 -2.668141e+09 1.222609e+04 7.274069e+03 9.554454e+03
-3.408914e+09 -3.208929e+09 -3.368940e+09 1.292504e+04 5.130276e+03 7.692345e+03
-3.102432e+09 -2.902450e+09 -3.062457e+09 1.199278e+04 6.117538e+03 1.224727e+04
-3.319177e+09 -3.119185e+09 -3.279197e+09 1.024454e+04 4.037947e+03 6.001111e+03
-2.509004e+09 -2.309011e+09 -2.469022e+09 1.124076e+04 6.493233e+03 9.795591e+03
-3.315293e+09 -3.115310e+09 -3.275321e+09 1.525497e+04 5.764822e+03 1.043986e+04
-2.469231e+09 -2.269348e+09 -2.428577e+09 1.294756e+05 2.722674e+05 4.757764e+05
-3.044402e+09 -2.844630e+09 -3.003589e+09 -2.733504e+04 -1.693569e+05 4.127446e+05
-3.067550e+09 -2.867779e+09 -3.026960e+09 3.395116e+04 2.700711e+05 4.821506e+05
-3.251748e+09 -3.051858e+09 -3.210694e+09 -3.125345e+04 -1.790942e+05 3.455711e+05
-2.967552e+09 -2.767637e+09 -2.925965e+09 6.408259e+04 -5.437975e+03 3.931018e+05
-2.461332e+09 -2.261565e+09 -2.420812e+09 2.054510e+03 2.779416e+05 4.320566e+05
-3.090931e+09 -2.890969e+09 -3.050943e+09 3.314420e+04 1.427594e+03 1.390439e+04
-2.100920e+09 -1.900941e+09 -2.060939e+09 2.906954e+04 8.430502e+03 4.080249e+03
-1.900516e+09 -1.700538e+09 -1.860524e+09 1.505240e+04 8.217700e+03 1.401429e+04
-2.443741e+09 -2.243759e+09 -2.403775e+09 2.656540e+04 6.276575e+03 1.438882e+04
-2.695519e+09 -2.495563e+09 -2.655548e+09 2.860612e+04 2.998592e+03 2.369397e+04
-2.082748e+09 -1.882777e+09 -2.042770e+09 2.455380e+04 1.192522e+04 4.633134e+03
-2.362439e+09 -2.162451e+09 -2.322454e+09 -2.420835e+03 -1.237582e+03 4.017435e+03
-1.772307e+09 -1.572318e+09 -1.732320e+09 -1.757201e+03 -7.273368e+02 3.429879e+03
-2.507908e+09 -2.307921e+09 -2.467923e+09 -2.251112e+03 -1.257838e+03 3.030521e+03
-2.757103e+09 -2.557115e+09 -2.717118e+09 -3.203165e+03 -1.021242e+03 3.101626e+03
-2.502722e+09 -2.302733e+09 -2.462735e+09 -2.159694e+03 -1.120261e+03 2.345762e+03
-2.582100e+09 -2.382095e+09 -2.542108e+09 6.184703e+03 5.628139e+03 4.613567e+03
-1.978108e+09 -1.778105e+09 -1.938114e+09 5.665870e+03 5.651827e+03 4.754428e+03
-1.576313e+09 -1.376308e+09 -1.536312e+09 6.348749e+02 1.518219e+04 -4.615873e+03
-2.371460e+09 -2.171457e+09 -2.331468e+09 5.629586e+03 6.816166e+03 5.417256e+03
-1.803946e+09 -1.603946e+09 -1.763952e+09 3.224244e+03 4.009700e+03 3.799312e+03
-1.986233e+09 -1.786231e+09 -1.946239e+09 3.938066e+03 3.570232e+03 2.628454e+03
-1.801376e+09 -1.601376e+09 -1.761384e+09 5.435167e+03 5.668129e+03 5.139086e+03
-1.790621e+09 -1.590618e+09 -1.750625e+09 2.279784e+03 4.369527e+03 3.568936e+03
-3.355748e+09 -3.155763e+09 -3.315767e+09 -3.899232e+03 -1.149152e+03 3.243516e+03
-2.066942e+09 -1.866950e+09 -2.026953e+09 2.240830e+03 7.371435e+02 1.687273e+03
-3.155835e+09 -2.955846e+09 -3.115853e+09 -4.657701e+03 -2.021402e+03 4.023703e+03
-2.773370e+09 -2.573380e+09 -2.733383e+09 -3.588464e+03 -1.488938e+03 2.435045e+03
-2.572590e+09 -2.372600e+09 -2.532604e+09 -3.210638e+03 -1.132512e+03 2.651102e+03
-3.198028e+09 -2.998037e+09 -3.158042e+09 -3.755328e+03 -1.206692e+03 2.551122e+03
-3.496336e+09 -3.296390e+09 -3.456355e+09 -5.235388e+04 5.015902e+03 -2.568066e+03
-3.367047e+09 -3.167059e+09 -3.327064e+09 -4.899106e+03 -1.570160e+03 2.956056e+03
-2.348638e+09 -2.148676e+09 -2.308647e+09 4.885895e+04 7.002266e+03 9.951596e+03
-2.806718e+09 -2.606670e+09 -2.766683e+09 6.509022e+04 6.329744e+03 -2.487257e+03
-2.629575e+09 -2.429584e+09 -2.589543e+09 4.059252e+04 5.786264e+03 3.453938e+03
-2.691144e+09 -2.491129e+09 -2.651143e+09 5.894055e+04 4.988245e+03 4.951220e+03
-3.251973e+09 -3.052000e+09 -3.211947e+09 7.603113e+04 -2.986460e+03 2.598917e+04
-2.535415e+09 -2.335437e+09 -2.495437e+09 5.112107e+04 -7.318072e+03 1.468298e+04
-1.888960e+09 -1.688965e+09 -1.848969e+09 1.524323e+03 4.159874e+02 6.701690e+02
-2.389193e+09 -2.189196e+09 -2.349201e+09 2.161929e+03 9.433884e+02 1.218525e+03
-2.202216e+09 -2.002219e+09 -2.162224e+09 1.624096e+03 4.804071e+02 5.750558e+02
-1.785143e+09 -1.585146e+09 -1.745150e+09 1.815157e+03 5.821256e+02 8.768269e+02
-3.219743e+09 -3.019605e+09 -3.179265e+09 1.123659e+05 -2.941104e+05 -1.265306e+05
-3.607331e+09 -3.407353e+09 -3.567358e+09 7.778957e+03 1.861515e+03 6.220900e+03
-3.434254e+09 -3.234191e+09 -3.393972e+09 9.452892e+04 -1.234624e+05 -5.348242e+04
-3.084437e+09 -2.884314e+09 -3.044154e+09 5.430865e+04 -6.861379e+04 -3.102642e+04
-3.161394e+09 -2.961327e+09 -3.121284e+09 6.848409e+04 -6.684826e+04 -4.664186e+04
-3.386201e+09 -3.186167e+09 -3.346022e+09 7.879989e+04 -4.240440e+04 -5.015190e+04
-3.309260e+09 -3.109165e+09 -3.268983e+09 6.037809e+04 -7.624418e+04 -2.807336e+04
-2.664997e+09 -2.465059e+09 -2.624982e+09 -3.162323e+04 3.231897e+02 9.055428e+03
-2.565688e+09 -2.365701e+09 -2.525677e+09 -2.924885e+04 7.153059e+03 -1.115464e+03
-2.002216e+09 -1.802222e+09 -1.962237e+09 -2.776412e+04 1.714906e+04 -1.897983e+04
-3.321414e+09 -3.121463e+09 -3.281447e+09 -4.514189e+04 5.197917e+02 -4.231339e+03
-3.302857e+09 -3.102820e+09 -3.262862e+09 1.359706e+04 -1.374785e+04 -5.505097e+03
-2.914671e+09 -2.714714e+09 -2.874700e+09 -2.467687e+04 6.150473e+03 6.395439e+03
-2.517583e+09 -2.317607e+09 -2.477609e+09 -4.174779e+03 -2.889346e+03 1.356699e+04
-3.147210e+09 -2.947230e+09 -3.107234e+09 -3.537254e+03 -1.074476e+03 6.900434e+03
-3.289090e+09 -3.088997e+09 -3.249050e+09 -1.843497e+04 -1.127981e+04 6.171867e+03
-2.504110e+09 -2.304056e+09 -2.464068e+09 -1.966875e+04 -6.714807e+03 -6.081659e+02
-2.528639e+09 -2.328563e+09 -2.488598e+09 -6.552865e+03 -7.715318e+03 -1.046517e+03
-2.135423e+09 -1.935362e+09 -2.095395e+09 -7.700599e+03 -2.424799e+04 3.893679e+03
-3.106987e+09 -2.906881e+09 -3.066897e+09 -2.122899e+04 1.260437e+04 -4.822665e+03
-3.416523e+09 -3.216531e+09 -3.376537e+09 4.340988e+03 8.912034e+02 2.683783e+03
-2.518323e+09 -2.318402e+09 -2.478304e+09 1.521312e+04 -4.014768e+03 -1.609893e+04
-1.794859e+09 -1.594904e+09 -1.754772e+09 2.563415e+04 8.363691e+03 -6.882456e+04
-1.802923e+09 -1.602968e+09 -1.762936e+09 2.381773e+04 -3.325110e+04 -4.670323e+04
-2.617864e+09 -2.417956e+09 -2.577881e+09 4.426067e+04 -1.629256e+04 -2.398177e+04
-2.423463e+09 -2.223520e+09 -2.383453e+09 4.082513e+04 -9.582382e+03 -3.307039e+04
-2.542723e+09 -2.342793e+09 -2.502706e+09 1.661917e+04 2.423001e+03 -1.048767e+04
-2.242662e+09 -2.042674e+09 -2.202682e+09 2.299646e+04 -1.525404e+04 -1.622113e+04
-2.494111e+09 -2.294176e+09 -2.454080e+09 2.404772e+04 -2.671364e+03 -1.520569e+04
-2.487199e+09 -2.287182e+09 -2.447138e+09 4.028045e+04 7.170837e+03 -1.156387e+04
-2.167090e+09 -1.967074e+09 -2.127079e+09 2.644873e+04 -9.493385e+02 1.112131e+04
-2.098288e+09 -1.898262e+09 -2.058286e+09 3.762470e+04 -9.338215e+03 -1.887203e+04
-2.452278e+09 -2.252280e+09 -2.412288e+09 -3.519234e+03 -2.600810e+03 3.169027e+03
-2.551427e+09 -2.351428e+09 -2.511436e+09 -3.686916e+03 -2.677153e+03 2.882655e+03
-1.954652e+09 -1.754655e+09 -1.914660e+09 -3.604943e+03 -2.173663e+03 2.306700e+03
-1.753912e+09 -1.553913e+09 -1.713919e+09 -2.483895e+03 -2.872440e+03 3.456272e+03
-1.748426e+09 -1.548428e+09 -1.708434e+09 -3.939156e+03 -3.563005e+03 3.735612e+03
-2.545596e+09 -2.345597e+09 -2.505607e+09 -5.793495e+03 -3.657056e+03 4.829301e+03
-2.561401e+09 -2.361401e+09 -2.521410e+09 -4.384600e+03 -2.934344e+03 3.399768e+03
-3.256333e+09 -3.056442e+09 -3.216243e+09 -5.666020e+04 -2.361021e+03 -4.637153e+04
-2.518941e+09 -2.319059e+09 -2.478819e+09 -4.552962e+04 1.437895e+04 -5.138958e+04
-2.943528e+09 -2.743604e+09 -2.903434e+09 -5.348228e+04 1.442178e+04 -7.607182e+04
-3.058644e+09 -2.858710e+09 -3.018615e+09 -4.504663e+04 1.178746e+04 -2.604481e+04
-3.391500e+09 -3.191559e+09 -3.351506e+09 -5.771681e+04 1.628339e+04 -2.038577e+04
-2.411468e+09 -2.211485e+09 -2.371488e+09 4.940103e+03 3.294557e+03 1.084989e+04
-2.401501e+09 -2.201517e+09 -2.361521e+09 2.823246e+03 1.904637e+03 8.091650e+03
-2.002433e+09 -1.802448e+09 -1.962449e+09 3.791454e+03 1.889194e+03 6.744103e+03
-2.013780e+09 -1.813796e+09 -1.973798e+09 4.722221e+03 3.091987e+03 8.755892e+03
-1.812093e+09 -1.612104e+09 -1.772106e+09 3.468587e+03 2.194800e+03 7.919837e+03
-3.389454e+09 -3.189453e+09 -3.349462e+09 -3.112706e+04 -8.795248e+03 8.430650e+03
-2.508135e+09 -2.308149e+09 -2.468140e+09 -2.537187e+04 -6.276384e+03 8.030576e+03
-3.288275e+09 -3.088310e+09 -3.248316e+09 -2.787691e+04 -8.823388e+03 1.534957e+04
-3.063786e+09 -2.863793e+09 -3.023791e+09 -3.738070e+04 -3.830836e+03 -3.408891e+02
-2.478442e+09 -2.278485e+09 -2.438469e+09 -1.714994e+04 -8.540191e+03 5.654715e+03
-2.499498e+09 -2.299522e+09 -2.459503e+09 -2.870084e+04 -6.707880e+03 7.767338e+03
-1.871552e+09 -1.671564e+09 -1.831553e+09 -1.229630e+04 -1.134050e+04 1.826918e+04
-2.096782e+09 -1.896786e+09 -2.056795e+09 -1.484304e+04 -1.334126e+04 1.904033e+04
-2.538337e+09 -2.338355e+09 -2.498358e+09 -1.599883e+04 -1.076242e+04 2.381941e+04
-2.615480e+09 -2.415487e+09 -2.575504e+09 -2.293965e+04 -9.582041e+03 8.808132e+03
-1.869394e+09 -1.669418e+09 -1.829424e+09 -1.237819e+04 -1.005439e+04 1.257065e+04
-2.740248e+09 -2.540257e+09 -2.700276e+09 3.276683e+04 1.137176e+04 1.480179e+04
-2.799533e+09 -2.599584e+09 -2.759565e+09 2.699996e+04 6.687012e+03 1.874081e+04
-2.929403e+09 -2.729403e+09 -2.889418e+09 2.233051e+04 -1.095755e+04 -1.221025e+04
-2.571784e+09 -2.371820e+09 -2.531804e+09 1.982656e+04 -8.483710e+02 5.934703e+03
-3.191260e+09 -2.991302e+09 -3.151291e+09 2.389622e+04 7.071225e+03 1.781933e+04
-2.637511e+09 -2.437539e+09 -2.597540e+09 2.688311e+04 7.732782e+03 9.234094e+03
-3.006233e+09 -2.806256e+09 -2.966260e+09 2.355611e+04 1.286528e+03 1.027520e+04
-3.384699e+09 -3.184767e+09 -3.344733e+09 3.321525e+04 -6.904192e+03 1.046451e+04
-2.410392e+09 -2.210377e+09 -2.370393e+09 7.727848e+03 1.426900e+04 9.480395e+03
-3.163414e+09 -2.963381e+09 -3.123414e+09 1.814811e+04 1.703719e+04 7.074356e+03
-2.364488e+09 -2.164465e+09 -2.324482e+09 9.197956e+03 2.082570e+04 6.055810e+03
-2.514088e+09 -2.314048e+09 -2.474078e+09 1.923581e+04 2.498337e+04 1.044717e+04
-1.880590e+09 -1.680588e+09 -1.840597e+09 -4.371587e+03 -5.029408e+03 4.367196e+03
-1.987937e+09 -1.787921e+09 -1.947939e+09 8.671950e+03 1.445694e+04 5.143997e+03
-3.342980e+09 -3.142935e+09 -3.302964e+09 2.464653e+04 1.149510e+04 5.377781e+03
-2.326722e+09 -2.126708e+09 -2.286725e+09 1.030016e+04 2.192788e+04 1.228368e+04
-2.055144e+09 -1.855146e+09 -2.015153e+09 -3.989265e+03 -4.186361e+03 4.004417e+03
-1.780059e+09 -1.580063e+09 -1.740068e+09 -3.445807e+03 -2.187135e+03 2.634610e+03
-2.073954e+09 -1.873933e+09 -2.033954e+09 -1.357176e+03 1.270440e+04 -9.277947e+02
-1.792973e+09 -1.592978e+09 -1.752982e+09 -2.893373e+03 -2.455073e+03 3.054254e+03
-2.399580e+09 -2.199585e+09 -2.359593e+09 -4.793463e+03 -4.301354e+03 5.299065e+03
-1.811525e+09 -1.611532e+09 -1.771536e+09 -3.617719e+03 -4.663869e+03 5.629663e+03
-2.807800e+09 -2.607806e+09 -2.767814e+09 -7.123772e+03 -3.385602e+03 5.518114e+03
-2.598846e+09 -2.398853e+09 -2.558859e+09 -5.440374e+03 -3.554228e+03 3.976933e+03
-1.797770e+09 -1.597775e+09 -1.757780e+09 -4.106548e+03 -3.146041e+03 4.309693e+03
-2.001609e+09 -1.801526e+09 -1.961564e+09 1.075663e+05 9.571981e+04 9.059464e+04
-1.970171e+09 -1.770284e+09 -1.929948e+09 1.245247e+05 1.454496e+05 1.361331e+05
-2.357770e+09 -2.157889e+09 -2.317616e+09 1.310384e+05 1.872712e+05 2.061979e+05
-3.489679e+09 -3.289694e+09 -3.449705e+09 -3.213282e+04 1.273159e+04 -1.155885e+04
-2.106790e+09 -1.906848e+09 -2.066727e+09 6.543934e+04 4.609365e+04 8.151675e+04
-1.756686e+09 -1.556874e+09 -1.716614e+09 2.600316e+04 6.424227e+04 2.395774e+05
-2.799767e+09 -2.599771e+09 -2.759657e+09 9.772108e+04 1.003536e+05 2.601446e+04
-1.777750e+09 -1.577590e+09 -1.737742e+09 7.167430e+04 1.031302e+05 8.753406e+04
-2.832335e+09 -2.632273e+09 -2.792186e+09 -5.519636e+04 -3.206051e+03 -7.149139e+03
-2.763184e+09 -2.563053e+09 -2.723055e+09 -3.193339e+04 -3.823810e+04 1.519134e+04
-3.379983e+09 -3.179852e+09 -3.339780e+09 -4.400729e+04 -3.335864e+04 3.982322e+04
-3.383493e+09 -3.183408e+09 -3.343383e+09 -4.692145e+04 -4.848761e+03 2.188123e+04
-1.984867e+09 -1.784788e+09 -1.944632e+09 -2.685789e+04 -2.566637e+04 -2.916951e+04
-2.383237e+09 -2.183188e+09 -2.343137e+09 -2.948549e+04 -1.740256e+04 7.170611e+03
-3.178016e+09 -2.977885e+09 -3.137915e+09 -3.241051e+04 -6.659894e+04 2.658640e+04
-2.648014e+09 -2.447927e+09 -2.607823e+09 -5.104081e+04 -4.262077e+04 5.100928e+04
-2.348729e+09 -2.148655e+09 -2.308647e+09 -1.249108e+04 -6.643621e+04 3.358085e+04
-2.553417e+09 -2.353432e+09 -2.513447e+09 1.533617e+04 1.206211e+04 1.547322e+04
-2.418340e+09 -2.218349e+09 -2.378353e+09 1.232031e+04 1.342401e+04 1.932189e+04
-2.709625e+09 -2.509636e+09 -2.669647e+09 1.841449e+04 8.287235e+03 1.158483e+04
-3.397403e+09 -3.197431e+09 -3.357389e+09 5.231445e+04 -3.005817e+03 -1.321129e+04
-2.541729e+09 -2.341745e+09 -2.501739e+09 1.957701e+04 1.069261e+04 1.065530e+04
-2.586989e+09 -2.386999e+09 -2.546998e+09 2.067828e+04 7.127280e+03 2.211346e+04
-3.067120e+09 -2.867154e+09 -3.027135e+09 3.239354e+04 6.615012e+03 7.036310e+03
-3.088143e+09 -2.888300e+09 -3.047525e+09 -1.065372e+05 -2.304465e+05 2.214036e+05
-1.925176e+09 -1.725038e+09 -1.884392e+09 -8.826473e+04 -1.201077e+06 1.853867e+05
-3.616741e+09 -3.416591e+09 -3.576067e+09 -6.936166e+04 -1.600752e+05 9.000441e+04
-3.319437e+09 -3.119518e+09 -3.278995e+09 -9.501639e+04 -1.079405e+05 1.346633e+05
-1.688302e+09 -1.488302e+09 -1.648308e+09 -2.282272e+03 -2.893874e+03 2.846891e+03
-2.828247e+09 -2.628214e+09 -2.788249e+09 -1.436261e+03 1.479557e+04 -1.700877e+03
-3.217432e+09 -3.017396e+09 -3.177430e+09 -2.820600e+03 1.478886e+04 -7.316543e+01
-2.823808e+09 -2.623777e+09 -2.783810e+09 -4.569115e+03 1.189520e+04 -2.282187e+03
-2.492802e+09 -2.292781e+09 -2.452804e+09 -1.320968e+03 1.333016e+04 -1.652801e+03
-3.026273e+09 -2.826250e+09 -2.986278e+09 -2.057068e+03 8.043571e+03 -1.302329e+03
-3.318042e+09 -3.118016e+09 -3.278046e+09 -4.874779e+03 9.383042e+03 -1.525442e+02
-3.120518e+09 -2.920264e+09 -3.079839e+09 1.555405e+04 2.575612e+05 2.803781e+04
-2.619301e+09 -2.419076e+09 -2.577857e+09 1.092507e+04 5.795453e+05 8.238971e+04
-2.230388e+09 -2.030083e+09 -2.189342e+09 -1.322991e+05 5.266694e+05 -3.630234e+05
-2.589476e+09 -2.389279e+09 -2.549028e+09 -9.831045e+04 2.020646e+05 -1.731433e+05
-2.758309e+09 -2.558026e+09 -2.717929e+09 -5.782215e+04 3.181869e+05 6.032814e+03
-2.214842e+09 -2.014686e+09 -2.173605e+09 3.220249e+04 4.107937e+05 4.194234e+04
-2.659403e+09 -2.459447e+09 -2.619444e+09 -1.260767e+04 -8.896496e+03 2.090680e+04
-2.554030e+09 -2.354035e+09 -2.514039e+09 -2.033183e+04 1.599334e+04 -1.192645e+04
-3.070512e+09 -2.870545e+09 -3.030550e+09 -2.135960e+04 -5.243531e+03 8.182892e+03
-3.397540e+09 -3.197485e+09 -3.357516e+09 2.814325e+04 -9.285317e+03 -3.491181e+03
-3.089302e+09 -2.889238e+09 -3.049285e+09 2.744253e+04 -1.112032e+04 -8.104034e+03
-2.857077e+09 -2.657000e+09 -2.817005e+09 2.409677e+04 -2.308488e+04 1.111673e+03
-2.821985e+09 -2.621920e+09 -2.781992e+09 4.906962e+04 -1.384555e+04 8.467145e+03
-2.831621e+09 -2.631523e+09 -2.791570e+09 4.028129e+04 1.487570e+03 -1.671973e+04
-3.345120e+09 -3.145076e+09 -3.305029e+09 6.622330e+04 -2.890113e+04 -9.079654e+03
-3.083724e+09 -2.883695e+09 -3.043667e+09 4.308193e+04 4.986962e+03 -4.577578e+03
-3.317915e+09 -3.117897e+09 -3.277894e+09 4.423296e+04 -4.428593e+03 3.668626e+03
-3.332042e+09 -3.131970e+09 -3.291978e+09 5.282091e+04 5.810778e+03 -1.788039e+04
-3.377744e+09 -3.177839e+09 -3.337798e+09 -2.384580e+04 -4.604326e+03 7.012716e+03
-2.466503e+09 -2.266528e+09 -2.426527e+09 -2.794057e+04 1.438095e+03 9.074647e+03
-2.101805e+09 -1.901837e+09 -2.061836e+09 -1.298035e+04 -8.150200e+02 1.466235e+04
-2.518388e+09 -2.318411e+09 -2.478410e+09 -1.494023e+04 -5.822291e+03 1.402822e+04
-1.780047e+09 -1.580067e+09 -1.740067e+09 -6.600754e+03 -7.372820e+03 1.845193e+04
-3.449585e+09 -3.249666e+09 -3.409639e+09 -1.704478e+04 -2.661574e+03 1.451600e+04
-2.639171e+09 -2.439167e+09 -2.599180e+09 6.433718e+03 5.706878e+03 4.616482e+03
-2.154645e+09 -1.954639e+09 -2.114651e+09 4.172995e+03 4.944339e+03 3.128740e+03
-2.492805e+09 -2.292802e+09 -2.452812e+09 3.581122e+03 3.048445e+03 2.959386e+03
-1.797567e+09 -1.597566e+09 -1.757574e+09 3.931702e+03 3.879787e+03 3.053108e+03
-2.810012e+09 -2.610011e+09 -2.770022e+09 6.669936e+03 4.349029e+03 3.815224e+03
-2.683083e+09 -2.483005e+09 -2.642003e+09 8.492508e+04 2.748757e+05 2.804978e+05
-2.370065e+09 -2.169976e+09 -2.329403e+09 1.608279e+05 2.642143e+05 4.725975e+05
-1.813465e+09 -1.613296e+09 -1.772697e+09 1.956463e+05 6.523493e+05 6.486181e+05
-2.202441e+09 -2.002398e+09 -2.160341e+09 1.074433e+05 5.326596e+05 5.344690e+05
-2.576675e+09 -2.376600e+09 -2.535841e+09 1.683891e+05 3.290282e+05 3.969420e+05
-2.790912e+09 -2.590734e+09 -2.750012e+09 6.783717e+04 4.672754e+05 1.303080e+05
-2.540591e+09 -2.340426e+09 -2.499721e+09 3.211686e+04 5.025152e+05 1.098804e+05
-2.130429e+09 -1.930281e+09 -2.089369e+09 -4.203154e+04 4.193967e+05 1.705847e+05
-1.591311e+09 -1.391304e+09 -1.551312e+09 -2.700287e+03 -1.578327e+04 -5.704594e+03
-2.824782e+09 -2.624817e+09 -2.784751e+09 6.827927e+04 -3.090505e+04 -9.206885e+03
-2.470410e+09 -2.270414e+09 -2.430098e+09 9.226691e+04 -1.404270e+05 -1.384462e+05
-2.875155e+09 -2.675127e+09 -2.834945e+09 9.129895e+04 -7.109562e+04 -9.146038e+04
-3.404881e+09 -3.204986e+09 -3.364667e+09 8.214321e+04 -6.857628e+04 6.955910e+02
-3.213598e+09 -3.013673e+09 -3.173266e+09 9.178978e+04 -5.613671e+04 -1.796087e+05
-3.393874e+09 -3.193891e+09 -3.353743e+09 7.929627e+04 -3.601087e+04 -2.446104e+04
-3.248897e+09 -3.048869e+09 -3.208795e+09 9.490981e+04 -8.133071e+04 -1.049990e+05
-2.423386e+09 -2.223369e+09 -2.383389e+09 -7.108673e+03 -1.922523e+04 7.446667e+03
-2.651109e+09 -2.451084e+09 -2.611110e+09 -6.845701e+03 -2.026349e+04 8.828309e+03
-3.231571e+09 -3.031539e+09 -3.191572e+09 -1.378349e+04 -8.938899e+03 6.790405e+03
-3.431570e+09 -3.231540e+09 -3.391581e+09 -1.524099e+04 -1.002778e+04 6.579980e+03
-2.648800e+09 -2.448779e+09 -2.608802e+09 -9.060763e+03 -1.245528e+04 6.025285e+03
-3.190196e+09 -2.990152e+09 -3.150194e+09 -1.392230e+04 -1.442999e+04 4.184882e+03
-2.825708e+09 -2.625781e+09 -2.785317e+09 9.213847e+04 -3.147096e+04 -1.707873e+05
-3.171161e+09 -2.971322e+09 -3.131138e+09 3.984931e+04 -2.046711e+04 -1.172461e+05
-2.821759e+09 -2.621956e+09 -2.781467e+09 8.987963e+04 -1.041704e+05 -2.114852e+05
-3.209633e+09 -3.009831e+09 -3.169370e+09 9.032991e+04 -1.179454e+05 -2.276319e+05
-3.198038e+09 -2.998270e+09 -3.157856e+09 2.535934e+04 2.099353e+04 -2.669457e+05
-2.796869e+09 -2.597099e+09 -2.756492e+09 2.607220e+04 2.066209e+04 -2.426446e+05
-3.594256e+09 -3.394266e+09 -3.554270e+09 2.805379e+03 7.441276e+02 1.580036e+03
-2.386270e+09 -2.186445e+09 -2.346101e+09 3.309602e+04 -5.292481e+03 -2.735835e+05
-2.404397e+09 -2.204390e+09 -2.364202e+09 -5.205236e+04 -6.958910e+04 5.925721e+04
-1.815689e+09 -1.615721e+09 -1.775711e+09 -2.265720e+04 -1.201770e+03 2.256937e+03
-2.424600e+09 -2.224600e+09 -2.384597e+09 -3.610279e+04 -2.130028e+04 1.849473e+04
-2.019558e+09 -1.819560e+09 -1.979555e+09 -3.589620e+04 -1.255805e+04 5.826242e+01
-3.599425e+09 -3.399431e+09 -3.559436e+09 2.519346e+03 4.430299e+02 9.301286e+02
-2.453819e+09 -2.253796e+09 -2.413729e+09 -4.244491e+04 -5.918843e+03 2.796469e+04
-2.819596e+09 -2.619582e+09 -2.779508e+09 -6.191023e+04 8.142580e+03 8.299221e+03
-3.207399e+09 -3.007411e+09 -3.167413e+09 2.029325e+03 5.770058e+02 1.592440e+03
-2.589946e+09 -2.389957e+09 -2.549960e+09 1.957435e+03 8.397662e+02 2.557535e+03
-3.245958e+09 -3.046020e+09 -3.205502e+09 -1.340512e+05 1.540745e+05 -1.560859e+05
-2.643074e+09 -2.443028e+09 -2.602978e+09 -4.153674e+04 -9.708046e+03 2.910161e+04
-3.218639e+09 -3.018608e+09 -3.178614e+09 -5.371421e+04 -2.837710e+04 1.847170e+04
-2.855385e+09 -2.655331e+09 -2.815263e+09 -9.277442e+04 -2.769619e+04 4.114982e+04
-2.029942e+09 -1.829915e+09 -1.989848e+09 -4.058317e+04 1.131448e+04 2.167173e+03
-2.647067e+09 -2.447064e+09 -2.607017e+09 -6.491969e+04 -3.819772e+04 4.456583e+04
-3.200866e+09 -3.000873e+09 -3.160698e+09 -7.627937e+04 -7.377723e+04 6.102036e+04
-3.614283e+09 -3.414255e+09 -3.574156e+09 -8.316413e+04 -2.465313e+04 3.076816e+04
-2.052832e+09 -1.852909e+09 -2.012905e+09 -9.630367e+04 -1.377684e+05 1.332655e+05
-1.990120e+09 -1.790081e+09 -1.949994e+09 -2.778875e+04 3.485242e+03 -2.045497e+04
-2.008132e+09 -1.808106e+09 -1.968107e+09 -2.901753e+04 -2.038100e+04 6.693702e+03
-2.016561e+09 -1.816504e+09 -1.976466e+09 -6.070738e+04 -4.511731e+04 3.340960e+04
-1.818523e+09 -1.618527e+09 -1.778509e+09 -2.552347e+04 -1.637962e+04 4.167846e+03
-2.592490e+09 -2.392600e+09 -2.550966e+09 6.787315e+04 -4.656435e+04 3.982080e+05
-2.312235e+09 -2.112337e+09 -2.271322e+09 -8.729213e+04 -2.012125e+05 3.735651e+05
-2.715311e+09 -2.515238e+09 -2.675075e+09 -1.110035e+05 -1.263974e+05 1.048864e+05
-2.678833e+09 -2.479006e+09 -2.638372e+09 -1.100313e+05 -1.876174e+05 2.123479e+05
-3.061375e+09 -2.861465e+09 -3.020548e+09 -6.101171e+04 -2.892991e+05 2.336142e+05
-3.336834e+09 -3.136669e+09 -3.295776e+09 -6.245490e+04 -2.915925e+05 1.487780e+05
-2.538767e+09 -2.338698e+09 -2.498595e+09 -9.193859e+04 -1.253474e+05 8.420391e+04
-2.713948e+09 -2.513982e+09 -2.672050e+09 -1.164487e+04 -1.083303e+05 -1.524805e+04
-3.333204e+09 -3.133127e+09 -3.291881e+09 -3.826811e+04 -3.197532e+05 3.642168e+04
-1.604364e+09 -1.404392e+09 -1.564764e+09 1.344501e+04 -1.249018e+06 1.154461e+05
-2.599632e+09 -2.399476e+09 -2.557673e+09 -4.071279e+04 -2.885639e+05 -1.081922e+05
-2.538813e+09 -2.338900e+09 -2.498824e+09 -4.474772e+04 -9.671253e+03 6.245586e+04
-3.092018e+09 -2.892146e+09 -3.051841e+09 -5.593152e+04 -6.465886e+04 1.787182e+05
-1.983032e+09 -1.783256e+09 -1.943040e+09 -3.088533e+04 -9.156610e+04 1.890630e+05
-1.886653e+09 -1.686720e+09 -1.846598e+09 -2.746756e+04 -4.000339e+04 7.682422e+04
-2.741739e+09 -2.541863e+09 -2.701741e+09 -3.823905e+04 -2.571033e+04 5.795508e+04
-3.380763e+09 -3.180767e+09 -3.340773e+09 3.841657e+03 9.937686e+02 1.600485e+03
-2.669494e+09 -2.469608e+09 -2.629156e+09 -7.900248e+04 -1.078018e+05 1.756650e+05
-2.089906e+09 -1.889821e+09 -2.049601e+09 -9.527949e+04 -7.478632e+04 7.477025e+04
-1.760868e+09 -1.560918e+09 -1.720882e+09 -4.828803e+04 -1.058923e+05 1.454892e+05
-2.706506e+09 -2.506553e+09 -2.666073e+09 -1.265789e+05 -9.375008e+04 1.432191e+05
-2.339934e+09 -2.139914e+09 -2.299922e+09 1.861700e+04 1.063472e+04 7.059639e+03
-2.528016e+09 -2.327972e+09 -2.488006e+09 3.040860e+04 1.477915e+04 6.246319e+03
-1.760861e+09 -1.560857e+09 -1.720846e+09 6.597283e+03 9.828882e+03 1.066451e+04
-2.178000e+09 -1.977996e+09 -2.137993e+09 1.487503e+04 1.230948e+04 1.302932e+04
-2.056247e+09 -1.856226e+09 -2.016231e+09 3.835210e+04 -2.027075e+04 -2.643494e+02
-1.981019e+09 -1.781019e+09 -1.941010e+09 4.513848e+04 -5.156013e+03 -2.707538e+03
-3.163940e+09 -2.963952e+09 -3.123957e+09 -3.221879e+03 -1.196247e+03 3.093305e+03
-1.950021e+09 -1.749998e+09 -1.910014e+09 1.327160e+04 2.214340e+04 1.234058e+04
-2.719095e+09 -2.519085e+09 -2.679076e+09 3.841169e+04 -2.981736e+03 -2.220328e+03
-1.800732e+09 -1.600740e+09 -1.760728e+09 1.226763e+04 1.028165e+04 1.088042e+04
-2.007336e+09 -1.807327e+09 -1.967304e+09 -5.396997e+04 -7.442073e+04 5.292400e+04
-2.632572e+09 -2.432570e+09 -2.592547e+09 -5.289369e+04 -1.474273e+04 1.117647e+03
-2.436169e+09 -2.236119e+09 -2.395964e+09 -6.111666e+04 -5.438512e+04 4.147264e+04
-2.119139e+09 -1.919070e+09 -2.078866e+09 -6.145416e+04 -9.207380e+04 5.750188e+04
-1.781024e+09 -1.581056e+09 -1.741030e+09 -2.881555e+04 -5.185018e+04 5.840713e+04
-1.790265e+09 -1.590207e+09 -1.749972e+09 -3.092979e+04 -1.051512e+05 7.461803e+04
-2.238772e+09 -2.038778e+09 -2.198782e+09 -1.964805e+03 -9.121113e+02 9.497343e+02
-2.174974e+09 -1.974980e+09 -2.134983e+09 -1.599859e+03 -3.537818e+02 1.013499e+03
-2.371372e+09 -2.171378e+09 -2.331382e+09 -2.518721e+03 -1.445006e+03 2.220082e+03
-1.576917e+09 -1.376922e+09 -1.536926e+09 -1.797013e+03 -8.636062e+02 1.441823e+03
-2.422869e+09 -2.222877e+09 -2.382881e+09 -2.355292e+03 -1.353578e+03 1.905070e+03
-1.576916e+09 -1.376922e+09 -1.536925e+09 -1.707433e+03 -8.847079e+02 1.044560e+03
-3.419072e+09 -3.219081e+09 -3.379102e+09 3.690158e+04 -1.085520e+04 -1.228976e+04
-3.421781e+09 -3.221798e+09 -3.381802e+09 3.012984e+03 1.068719e+03 3.234510e+03
-2.864455e+09 -2.664467e+09 -2.824470e+09 1.726418e+03 5.269582e+02 2.215797e+03
-2.603234e+09 -2.403248e+09 -2.563251e+09 3.708914e+03 1.755669e+03 4.744502e+03
-3.183195e+09 -2.983208e+09 -3.143212e+09 3.301225e+03 1.083248e+03 3.229389e+03
-2.710940e+09 -2.510952e+09 -2.670954e+09 2.547945e+03 8.475871e+02 2.599908e+03
-1.993690e+09 -1.793695e+09 -1.953699e+09 -1.400741e+03 -6.985602e+02 4.506564e+02
-3.119157e+09 -2.919165e+09 -3.079178e+09 1.203847e+04 5.943996e+03 8.909238e+03
-1.578752e+09 -1.378761e+09 -1.538763e+09 2.148832e+03 1.542400e+03 5.775444e+03
-3.594118e+09 -3.394150e+09 -3.554152e+09 3.658318e+03 6.375875e+02 7.423137e+03
-2.621574e+09 -2.421574e+09 -2.581587e+09 1.022227e+04 8.265518e+03 1.035138e+04
-1.549153e+09 -1.349148e+09 -1.509130e+09 8.016952e+02 -2.437901e+04 -1.340636e+04
-2.597062e+09 -2.397064e+09 -2.557077e+09 1.094176e+04 8.009856e+03 1.019542e+04
-1.990612e+09 -1.790614e+09 -1.950622e+09 8.098752e+03 8.616105e+03 8.778116e+03
-2.401893e+09 -2.201897e+09 -2.361906e+09 9.064925e+03 6.757583e+03 9.674421e+03
-2.488590e+09 -2.288595e+09 -2.448599e+09 2.065987e+03 8.848270e+02 1.072357e+03
-2.386726e+09 -2.186728e+09 -2.346739e+09 8.245004e+03 7.127755e+03 7.121433e+03
-2.809538e+09 -2.609539e+09 -2.769551e+09 1.184274e+04 8.625095e+03 9.566482e+03
-3.197041e+09 -2.997042e+09 -3.157058e+09 1.199904e+04 7.056916e+03 7.190962e+03
-2.618048e+09 -2.418056e+09 -2.578063e+09 7.791901e+03 7.900636e+03 1.002991e+04
-2.106719e+09 -1.906722e+09 -2.066730e+09 9.790022e+03 7.110091e+03 1.048570e+04
-1.778977e+09 -1.578972e+09 -1.738984e+09 8.273176e+03 9.385583e+03 1.165939e+04
-1.815694e+09 -1.615707e+09 -1.775707e+09 4.565185e+03 6.710206e+03 7.551167e+03
-2.015121e+09 -1.815123e+09 -1.975130e+09 7.159355e+03 5.268910e+03 6.534014e+03
-2.380158e+09 -2.180159e+09 -2.340168e+09 9.904639e+03 1.146526e+04 1.091147e+04
-3.427409e+09 -3.227453e+09 -3.387453e+09 -1.038041e+04 -2.446048e+03 1.167566e+04
-3.208907e+09 -3.008957e+09 -3.168952e+09 -7.764534e+03 -2.000405e+03 1.070665e+04
-2.729329e+09 -2.529380e+09 -2.689371e+09 -1.270618e+04 -2.935182e+03 1.524700e+04
-3.421264e+09 -3.221234e+09 -3.381087e+09 -7.456016e+04 5.474156e+04 2.866232e+03
-2.741608e+09 -2.541559e+09 -2.701350e+09 -8.525917e+04 1.037896e+05 -8.474863e+04
-2.380928e+09 -2.180825e+09 -2.340719e+09 -6.664587e+04 7.710372e+04 -3.349455e+04
-2.553347e+09 -2.353093e+09 -2.512973e+09 -4.647532e+04 3.069175e+05 -3.346724e+04
-2.559016e+09 -2.358654e+09 -2.518509e+09 1.674384e+04 2.627469e+05 2.557129e+04
-3.029676e+09 -2.829540e+09 -2.988595e+09 -1.072822e+05 3.532967e+05 -1.029051e+05
-2.769972e+09 -2.569690e+09 -2.729275e+09 2.072697e+04 2.505742e+05 4.961376e+04
-2.256168e+09 -2.056159e+09 -2.215299e+09 -1.307705e+05 3.418351e+05 -1.408930e+05
-3.134868e+09 -2.934724e+09 -3.093877e+09 -3.003468e+04 4.261458e+05 -4.241185e+04
-2.516524e+09 -2.316527e+09 -2.476534e+09 -1.611898e+04 -1.222539e+04 1.332042e+04
-2.597797e+09 -2.397799e+09 -2.557816e+09 -1.392739e+04 -1.059558e+04 1.290692e+04
-3.081406e+09 -2.881377e+09 -3.041410e+09 5.342493e+03 -1.549846e+04 -4.245097e+03
-3.290086e+09 -3.090048e+09 -3.250087e+09 2.585678e+03 -1.258801e+04 -3.207355e+03
-2.382622e+09 -2.182599e+09 -2.342619e+09 3.592728e+03 -2.160248e+04 -7.263223e+03
-3.591884e+09 -3.391840e+09 -3.551884e+09 6.491715e+03 -1.590980e+04 -2.561594e+03
-2.706572e+09 -2.506542e+09 -2.666571e+09 2.008456e+03 -2.263529e+04 -1.818481e+03
-1.803559e+09 -1.603551e+09 -1.763556e+09 4.708712e+02 1.593714e+04 2.860081e+03
-2.815414e+09 -2.615380e+09 -2.775416e+09 2.603104e+03 1.504415e+04 1.540536e+03
-2.384083e+09 -2.184061e+09 -2.344082e+09 8.939755e+02 1.771850e+04 1.826050e+03
-2.620482e+09 -2.420453e+09 -2.580485e+09 4.849504e+03 1.484673e+04 2.570451e+03
-2.005636e+09 -1.805615e+09 -1.965635e+09 2.975386e+03 1.500576e+04 3.378385e+03
-2.813137e+09 -2.613101e+09 -2.773135e+09 4.506691e+03 1.517438e+04 1.238017e+03
-2.393486e+09 -2.193462e+09 -2.353483e+09 2.202640e+03 1.831876e+04 9.656495e+02
-3.155500e+09 -2.955502e+09 -3.115510e+09 3.764888e+03 1.646725e+03 1.975828e+03
-2.518945e+09 -2.318948e+09 -2.478955e+09 3.611879e+03 2.117669e+03 2.051881e+03
-2.783500e+09 -2.583504e+09 -2.743509e+09 2.901594e+03 1.043462e+03 1.346517e+03
-2.350764e+09 -2.150767e+09 -2.310773e+09 2.934890e+03 1.670998e+03 1.843656e+03
-1.876655e+09 -1.676654e+09 -1.836632e+09 -2.097297e+04 7.688988e+03 -1.160629e+04
-3.277523e+09 -3.077413e+09 -3.237421e+09 -3.583462e+04 -2.176848e+04 -1.179835e+04
-1.760027e+09 -1.560000e+09 -1.719911e+09 1.911653e+03 6.322187e+03 -5.487926e+03
-2.058535e+09 -1.858474e+09 -2.018486e+09 -2.088143e+04 -7.736708e+03 1.333176e+04
-2.452717e+09 -2.252676e+09 -2.412682e+09 -2.625719e+04 3.275143e+03 -1.911733e+03
-1.987879e+09 -1.787859e+09 -1.947835e+09 -2.387510e+04 2.827415e+04 -2.142419e+04
-1.784027e+09 -1.584040e+09 -1.744022e+09 -1.693399e+04 8.105643e+03 -1.324353e+04
-1.977603e+09 -1.777573e+09 -1.937586e+09 -1.837031e+04 8.751014e+03 -4.758855e+03
-2.364058e+09 -2.164028e+09 -2.324038e+09 -1.778341e+04 -3.164760e+02 3.153690e+03
-1.853175e+09 -1.653167e+09 -1.813180e+09 3.973478e+03 -1.232640e+04 -6.207004e+03
-2.046454e+09 -1.846440e+09 -2.006458e+09 6.215963e+03 -1.338770e+04 -8.776810e+03
-3.073598e+09 -2.873578e+09 -3.033607e+09 1.094454e+04 -9.582346e+03 -5.599630e+03
-1.963359e+09 -1.763349e+09 -1.923364e+09 7.080301e+03 -1.894997e+04 -1.055517e+04
-1.789258e+09 -1.589246e+09 -1.749265e+09 5.106211e+03 -1.744970e+04 -1.101389e+04
-3.589142e+09 -3.389102e+09 -3.549137e+09 2.584970e+04 -1.840299e+04 -7.584263e+03
-2.993078e+09 -2.793064e+09 -2.953093e+09 1.066424e+04 -9.789078e+03 -5.343628e+03
-1.892292e+09 -1.692291e+09 -1.852294e+09 1.202251e+03 -1.213060e+04 -9.727328e+03
-2.201597e+09 -2.001586e+09 -2.161604e+09 7.896561e+03 -1.224760e+04 -9.465340e+03
-1.959872e+09 -1.759894e+09 -1.919888e+09 1.476622e+04 4.831254e+03 1.391389e+04
-1.774291e+09 -1.574298e+09 -1.734272e+09 9.548357e+03 6.084252e+03 1.058906e+04
-2.357909e+09 -2.157944e+09 -2.317936e+09 1.259089e+04 1.800598e+03 1.232903e+04
-1.778459e+09 -1.578490e+09 -1.738490e+09 5.553270e+03 6.180507e+03 1.862503e+04
-1.780032e+09 -1.580059e+09 -1.740054e+09 7.200149e+03 4.506490e+03 2.347555e+04
-2.362123e+09 -2.162150e+09 -2.322145e+09 1.165913e+04 3.115475e+03 1.200555e+04
-3.200863e+09 -3.000843e+09 -3.160873e+09 -1.082756e+04 1.393627e+04 -6.643167e+03
-2.601531e+09 -2.401514e+09 -2.561540e+09 -1.039852e+04 1.434530e+04 -6.759470e+03
-3.401964e+09 -3.201947e+09 -3.361977e+09 -1.154260e+04 1.023538e+04 -5.079724e+03
-1.988616e+09 -1.788602e+09 -1.948618e+09 -4.348757e+03 1.407335e+04 -6.266869e+03
-3.404804e+09 -3.204786e+09 -3.364811e+09 -6.349231e+03 7.461623e+03 -4.068932e+03
-2.791914e+09 -2.591895e+09 -2.751919e+09 -7.650600e+03 1.129285e+04 -4.052457e+03
-3.069983e+09 -2.869965e+09 -3.029989e+09 -5.967196e+03 8.108969e+03 -4.217008e+03
-2.656110e+09 -2.456019e+09 -2.616029e+09 -6.295376e+03 1.218600e+04 1.111318e+04
-2.560744e+09 -2.360639e+09 -2.520602e+09 -1.251510e+04 -6.598833e+04 -2.209817e+04
-2.598073e+09 -2.398024e+09 -2.558008e+09 -4.644389e+04 -3.223408e+04 -7.787450e+03
-2.054691e+09 -1.854628e+09 -2.014624e+09 -1.491686e+04 -1.532219e+04 -5.709891e+03
-1.761225e+09 -1.561180e+09 -1.721053e+09 -1.375815e+04 -5.260425e+04 -2.018441e+04
-3.475186e+09 -3.275286e+09 -3.435077e+09 -6.113055e+04 2.473386e+04 -4.577471e+04
-1.764169e+09 -1.564130e+09 -1.724102e+09 7.902785e+03 -1.579008e+04 3.379258e+04
-2.220585e+09 -2.020587e+09 -2.180597e+09 -1.377565e+04 2.189548e+04 -1.331336e+04
-2.818132e+09 -2.618110e+09 -2.778143e+09 -1.841622e+04 1.729277e+04 -1.028513e+04
-2.623184e+09 -2.423168e+09 -2.583186e+09 -1.039729e+04 1.213545e+04 -6.630496e+03
-2.949990e+09 -2.749980e+09 -2.910005e+09 1.389081e+04 -1.109598e+04 -9.827744e+03
-2.036659e+09 -1.836651e+09 -1.996668e+09 -1.516395e+04 2.271153e+04 -9.264363e+03
-2.850961e+09 -2.650943e+09 -2.810977e+09 -2.671119e+04 1.279206e+04 -1.189082e+04
-2.627647e+09 -2.427625e+09 -2.587647e+09 -2.110857e+04 2.095350e+04 -1.097115e+04
-1.574201e+09 -1.374200e+09 -1.534184e+09 5.248772e+03 1.979963e+04 -1.878232e+04
-2.472227e+09 -2.272218e+09 -2.432234e+09 -8.429767e+03 1.413466e+04 -7.993197e+03
-2.557853e+09 -2.357998e+09 -2.517899e+09 1.430139e+04 -2.370369e+03 6.821806e+04
-3.362841e+09 -3.163026e+09 -3.322763e+09 -1.602799e+04 -6.975999e+03 8.391499e+04
-2.722859e+09 -2.523058e+09 -2.682609e+09 3.646891e+04 6.238896e+04 1.661905e+05
-2.291801e+09 -2.091915e+09 -2.251724e+09 5.500677e+03 -6.223369e+03 8.828847e+04
-2.286113e+09 -2.086312e+09 -2.246082e+09 4.022856e+03 -3.118628e+04 1.977542e+05
-2.354735e+09 -2.154917e+09 -2.314634e+09 8.402332e+04 7.437540e+04 2.649681e+05
-2.697237e+09 -2.497315e+09 -2.656995e+09 1.008663e+05 7.175263e+04 1.101323e+05
-3.130916e+09 -2.931018e+09 -3.090792e+09 7.193961e+04 7.225396e+04 1.273482e+05
-3.371889e+09 -3.171940e+09 -3.331590e+09 8.605434e+04 6.026895e+04 9.104913e+04
-2.363403e+09 -2.163574e+09 -2.323410e+09 1.332819e+04 -4.494368e+04 -1.350521e+05
-1.978495e+09 -1.778666e+09 -1.938461e+09 1.239572e+04 -9.313694e+03 -1.261667e+05
-3.400137e+09 -3.200295e+09 -3.359758e+09 -4.491569e+04 1.392103e+04 -1.886285e+05
-3.369189e+09 -3.169381e+09 -3.329056e+09 -5.382337e+04 8.291521e+04 -1.380058e+05
-2.751417e+09 -2.551593e+09 -2.711296e+09 -2.031568e+04 1.256190e+04 -1.273182e+05
-2.407512e+09 -2.207773e+09 -2.367318e+09 -6.937356e+04 4.157203e+04 -3.001529e+05
-2.584210e+09 -2.384440e+09 -2.543904e+09 7.133203e+03 2.084107e+04 -2.805665e+05
-2.387875e+09 -2.188028e+09 -2.347831e+09 -4.167106e+04 2.707032e+04 -1.530092e+05
-2.831528e+09 -2.631529e+09 -2.791535e+09 2.929335e+03 1.297831e+03 1.138249e+03
-3.213183e+09 -3.013188e+09 -3.173194e+09 3.855567e+03 1.277741e+03 2.010136e+03
-3.387191e+09 -3.187194e+09 -3.347200e+09 2.870680e+03 8.211234e+02 1.174000e+03
-1.761999e+09 -1.562000e+09 -1.722005e+09 2.671621e+03 1.665648e+03 2.220834e+03
-3.577109e+09 -3.377123e+09 -3.537127e+09 3.405336e+03 8.216055e+02 2.429038e+03
-2.141900e+09 -1.941900e+09 -2.101907e+09 3.683979e+03 1.868826e+03 2.449756e+03
-1.776043e+09 -1.576045e+09 -1.736050e+09 2.533991e+03 2.243820e+03 1.949005e+03
-2.741338e+09 -2.541340e+09 -2.701347e+09 3.747880e+03 1.756615e+03 1.879073e+03
-2.534536e+09 -2.334720e+09 -2.494385e+09 -1.011115e+04 -3.713115e+04 1.774750e+05
-2.772334e+09 -2.572482e+09 -2.731920e+09 7.270980e+04 4.398586e+04 2.381675e+05
-3.073684e+09 -2.873731e+09 -3.032500e+09 -7.253552e+04 -1.620242e+05 3.902928e+05
-1.935954e+09 -1.736009e+09 -1.894456e+09 -1.069329e+05 -3.783850e+05 5.315797e+05
-3.152614e+09 -2.952773e+09 -3.112068e+09 -6.842296e+04 -2.936074e+04 3.103290e+05
-3.383890e+09 -3.184046e+09 -3.343522e+09 -5.192252e+04 -2.709153e+04 1.633436e+05
-3.345933e+09 -3.146163e+09 -3.305683e+09 2.649225e+04 2.147764e+04 2.184342e+05
-2.634845e+09 -2.434871e+09 -2.594869e+09 -5.796443e+03 -3.462731e+03 1.195591e+04
-2.427829e+09 -2.227854e+09 -2.387856e+09 -4.704461e+03 -2.887173e+03 1.172932e+04
-1.806638e+09 -1.606657e+09 -1.766652e+09 1.147272e+03 -4.463924e+03 1.713107e+04
-1.804803e+09 -1.604823e+09 -1.764820e+09 2.712637e+03 -1.853570e+03 1.209882e+04
-2.381210e+09 -2.181232e+09 -2.341233e+09 -1.645137e+03 -5.114643e+02 1.460611e+04
-2.664217e+09 -2.464225e+09 -2.624231e+09 5.054763e+03 1.840375e+03 4.569049e+03
-2.070731e+09 -1.870733e+09 -2.030739e+09 5.877437e+03 5.637795e+03 5.278432e+03
-2.165781e+09 -1.965791e+09 -2.125796e+09 5.297277e+03 3.454631e+03 6.311074e+03
-3.308472e+09 -3.108478e+09 -3.268487e+09 6.794163e+03 3.027881e+03 4.613272e+03
-3.266737e+09 -3.066739e+09 -3.226753e+09 9.937720e+03 4.530267e+03 5.555426e+03
-3.069081e+09 -2.869085e+09 -3.029098e+09 8.415688e+03 4.359037e+03 4.761188e+03
-2.502514e+09 -2.302516e+09 -2.462527e+09 7.705985e+03 7.268373e+03 7.109005e+03
-2.473734e+09 -2.273735e+09 -2.433743e+09 5.834802e+03 4.306959e+03 4.556814e+03
-2.689918e+09 -2.489697e+09 -2.649576e+09 -1.279636e+04 1.296349e+05 4.818827e+03
-2.484977e+09 -2.284800e+09 -2.444660e+09 -2.849001e+04 1.197189e+05 -3.072689e+04
-3.198629e+09 -2.998484e+09 -3.158061e+09 8.359652e+04 2.314837e+05 8.483632e+04
-2.450369e+09 -2.250117e+09 -2.410159e+09 7.194712e+04 2.709078e+05 1.403478e+05
-2.848002e+09 -2.647847e+09 -2.807312e+09 8.112870e+04 2.461342e+05 5.435163e+04
-3.254181e+09 -3.053899e+09 -3.213506e+09 4.935896e+04 2.708985e+05 1.252852e+05
-2.122047e+09 -1.922119e+09 -2.082078e+09 2.287008e+04 9.964980e+03 1.510013e+03
-3.497307e+09 -3.297311e+09 -3.457315e+09 1.872239e+03 3.589938e+02 3.054745e+02
-2.701592e+09 -2.501663e+09 -2.661629e+09 2.878642e+04 2.442340e+03 1.007008e+04
-2.097664e+09 -1.897745e+09 -2.057688e+09 1.231954e+04 1.287099e+04 3.290859e+03
-2.054433e+09 -1.854528e+09 -2.014437e+09 1.286405e+04 3.432178e+01 -3.584924e+04
-2.379518e+09 -2.179615e+09 -2.339454e+09 2.616016e+04 -5.255944e+03 -7.506645e+04
-2.770339e+09 -2.570496e+09 -2.730284e+09 4.075801e+04 -5.295570e+03 -8.488094e+04
-3.395171e+09 -3.195322e+09 -3.355126e+09 1.577216e+04 -2.382905e+04 -5.087832e+04
-3.088937e+09 -2.889022e+09 -3.048945e+09 3.132212e+04 -3.580894e+03 -1.649205e+04
-1.803667e+09 -1.603637e+09 -1.763584e+09 -1.910308e+04 3.677474e+03 1.575839e+04
-2.726901e+09 -2.526929e+09 -2.686936e+09 -4.667739e+04 4.610447e+03 9.395225e+03
-2.301169e+09 -2.101197e+09 -2.261143e+09 -2.711367e+04 2.969697e+03 -7.538995e+03
-2.667244e+09 -2.467248e+09 -2.627235e+09 -2.625709e+04 9.235204e+03 2.421525e+02
-2.231836e+09 -2.031875e+09 -2.191864e+09 -2.288368e+04 1.106858e+04 -2.657860e+04
-2.602682e+09 -2.402695e+09 -2.562699e+09 -3.638739e+04 7.752511e+03 -9.825165e+03
-2.398977e+09 -2.198973e+09 -2.358951e+09 -2.621696e+04 1.263540e+04 3.628962e+02
-2.437796e+09 -2.237807e+09 -2.397811e+09 4.309457e+03 1.760055e+03 5.457394e+03
-2.859210e+09 -2.659223e+09 -2.819230e+09 5.860117e+03 2.243126e+03 6.167169e+03
-3.389191e+09 -3.189208e+09 -3.349214e+09 4.899732e+03 1.609438e+03 4.205124e+03
-2.764308e+09 -2.564320e+09 -2.724324e+09 3.689655e+03 1.289987e+03 4.354205e+03
-2.627925e+09 -2.427936e+09 -2.587940e+09 3.636947e+03 1.768870e+03 4.334994e+03
-3.055102e+09 -2.855113e+09 -3.015118e+09 4.703268e+03 1.662072e+03 3.605131e+03
-1.942443e+09 -1.742452e+09 -1.902455e+09 -3.969272e+03 -2.326272e+03 4.294876e+03
-2.610853e+09 -2.410862e+09 -2.570869e+09 -6.277745e+03 -3.849510e+03 5.239511e+03
-1.798866e+09 -1.598873e+09 -1.758877e+09 -4.424325e+03 -2.706811e+03 4.603878e+03
-2.781842e+09 -2.581852e+09 -2.741859e+09 -6.448622e+03 -3.281018e+03 5.331587e+03
-1.969603e+09 -1.769608e+09 -1.929613e+09 -6.906692e+03 -4.289994e+03 6.204910e+03
-2.017322e+09 -1.817329e+09 -1.977333e+09 -4.658838e+03 -2.914557e+03 4.353429e+03
-2.814727e+09 -2.614736e+09 -2.774744e+09 -6.555859e+03 -3.546016e+03 5.055864e+03
-2.608534e+09 -2.408538e+09 -2.568547e+09 -6.310152e+03 -4.050629e+03 6.299575e+03
-2.293771e+09 -2.093764e+09 -2.253777e+09 -1.092568e+04 -9.211543e+03 1.035531e+04
-2.119555e+09 -1.919557e+09 -2.079566e+09 -7.654599e+03 -7.386317e+03 8.621079e+03
-2.536757e+09 -2.336655e+09 -2.496081e+09 7.627217e+04 -1.732009e+05 -1.982537e+05
-2.120996e+09 -1.920845e+09 -2.080798e+09 8.308894e+04 -2.058434e+05 -1.858475e+05
-1.828102e+09 -1.628127e+09 -1.788009e+09 6.436427e+04 -7.146749e+04 -1.720775e+05
-1.823304e+09 -1.623263e+09 -1.783263e+09 2.834649e+04 -7.471595e+04 -5.506750e+04
-2.186743e+09 -1.986700e+09 -2.146419e+09 9.215914e+04 -1.454006e+05 -1.444432e+05
-2.211955e+09 -2.011857e+09 -2.171569e+09 8.916044e+04 -1.290387e+05 -1.846976e+05
-2.094203e+09 -1.894235e+09 -2.054223e+09 -3.154778e+04 7.320136e+03 -1.243983e+03
-1.592603e+09 -1.392606e+09 -1.552597e+09 2.899146e+03 2.568381e+04 -3.675879e+03
-1.579509e+09 -1.379557e+09 -1.539085e+09 -1.155075e+04 -3.511428e+04 4.660700e+05
-2.085109e+09 -1.885135e+09 -2.045114e+09 -2.168511e+04 -1.245663e+04 2.184259e+04
-3.196108e+09 -2.996131e+09 -3.156108e+09 -4.783406e+04 1.374195e+04 -3.032896e+03
-3.098191e+09 -2.898205e+09 -3.058193e+09 -4.016631e+04 -4.141126e+03 -1.357809e+03
-1.789800e+09 -1.589816e+09 -1.749815e+09 -1.347823e+04 -1.190739e+04 1.565263e+04
-2.711102e+09 -2.511121e+09 -2.671102e+09 -3.341992e+04 -1.225412e+04 1.001786e+04
-2.061096e+09 -1.861118e+09 -2.021124e+09 -2.020782e+04 -6.356824e+03 2.558619e+04
-3.304516e+09 -3.104474e+09 -3.264517e+09 -6.547918e+02 -1.406285e+04 -1.343832e+03
-2.883416e+09 -2.683489e+09 -2.843435e+09 1.169448e+04 1.033432e+03 2.469767e+03
-2.477724e+09 -2.277760e+09 -2.437749e+09 8.654480e+03 1.262127e+03 1.171826e+04
-1.837964e+09 -1.637985e+09 -1.797959e+09 4.871623e+03 -1.090240e+03 5.754098e+03
-2.113797e+09 -1.913850e+09 -2.073830e+09 7.610874e+03 2.755794e+03 2.575887e+04
-3.088667e+09 -2.888731e+09 -3.048703e+09 1.451306e+03 3.154062e+02 1.247808e+04
-3.297258e+09 -3.097286e+09 -3.257280e+09 -3.336272e+04 -4.357278e+03 5.923474e+03
-2.668576e+09 -2.468624e+09 -2.628613e+09 -2.555860e+04 -5.187035e+03 1.584041e+04
-2.041840e+09 -1.841861e+09 -2.001861e+09 -1.113103e+04 -6.494934e+03 1.734273e+04
-2.073033e+09 -1.873066e+09 -2.033056e+09 -1.730428e+04 -1.237878e+04 2.074215e+04
-1.895287e+09 -1.695291e+09 -1.855295e+09 1.636870e+03 4.704398e+02 6.478095e+02
-1.777741e+09 -1.577752e+09 -1.737748e+09 -1.187597e+04 -7.759937e+03 2.268514e+04
-2.132909e+09 -1.932926e+09 -2.092921e+09 -1.539782e+04 -1.423718e+04 2.184142e+04
-1.650209e+09 -1.450212e+09 -1.610215e+09 -4.328014e+03 -8.148947e+03 1.051532e+04
-2.415358e+09 -2.215363e+09 -2.375370e+09 -4.260849e+03 -3.097053e+03 3.899389e+03
-2.398871e+09 -2.198881e+09 -2.358887e+09 -5.754114e+03 -2.718623e+03 5.791829e+03
-3.383233e+09 -3.183247e+09 -3.343255e+09 -6.862767e+03 -2.945714e+03 4.779495e+03
-2.434999e+09 -2.235005e+09 -2.395011e+09 -3.948742e+03 -2.626936e+03 5.041592e+03
-1.885908e+09 -1.685897e+09 -1.845913e+09 3.849364e+03 -1.193229e+04 -4.731900e+03
-1.562522e+09 -1.362519e+09 -1.522521e+09 -3.874545e+03 -1.621466e+04 -6.788016e+03
-2.058862e+09 -1.858847e+09 -2.018868e+09 6.166921e+03 -1.950989e+04 -6.406434e+03
-2.250938e+09 -2.050914e+09 -2.210936e+09 -3.156719e+03 -1.991936e+04 2.820016e+03
-1.896475e+09 -1.696466e+09 -1.856480e+09 5.826636e+03 -1.476395e+04 -4.346277e+03
-2.188300e+09 -1.988286e+09 -2.148302e+09 3.532795e+03 -1.099084e+04 -4.569295e+03
-2.675503e+09 -2.475480e+09 -2.635505e+09 5.526258e+03 -1.418802e+04 -6.652605e+03
-2.718483e+09 -2.518511e+09 -2.678513e+09 -9.164824e+03 -6.501512e+03 1.525830e+04
-2.432645e+09 -2.232667e+09 -2.392666e+09 -6.987381e+03 -4.012401e+03 1.276479e+04
-3.114783e+09 -2.914810e+09 -3.074817e+09 -1.478780e+04 -3.766915e+03 9.940329e+03
-1.893448e+09 -1.693457e+09 -1.853462e+09 -8.010676e+03 -5.399207e+03 1.295849e+04
-2.110340e+09 -1.910359e+09 -2.070360e+09 -6.277184e+03 -4.497090e+03 1.112898e+04
-1.819761e+09 -1.619772e+09 -1.779774e+09 -8.621821e+03 -4.316753e+03 1.248950e+04
-1.788685e+09 -1.588704e+09 -1.748705e+09 -2.988764e+03 -4.035226e+03 1.102831e+04
-2.117313e+09 -1.917330e+09 -2.077331e+09 -5.327739e+03 -3.711244e+03 9.205658e+03
-3.389504e+09 -3.189582e+09 -3.349532e+09 -2.381019e+04 -2.327665e+03 8.512439e+03
-3.069449e+09 -2.869492e+09 -3.029464e+09 -2.768853e+04 -5.928429e+03 1.358332e+04
-2.105649e+09 -1.905685e+09 -2.065679e+09 -1.118370e+04 -5.644470e+03 1.343489e+04
-3.489581e+09 -3.289537e+09 -3.449584e+09 -5.860450e+02 -1.211076e+04 -2.265272e+01
-1.769821e+09 -1.569863e+09 -1.729832e+09 1.117128e+03 2.299514e+02 1.511585e+04
-3.194265e+09 -2.994325e+09 -3.154292e+09 -2.446345e+04 -6.252367e+03 7.594129e+03
-2.435611e+09 -2.235664e+09 -2.395628e+09 -1.078533e+04 -3.639708e+03 7.478211e+03
-1.781582e+09 -1.581607e+09 -1.741592e+09 5.781893e+02 -9.551257e+02 1.734813e+04
-2.065121e+09 -1.865159e+09 -2.025133e+09 -1.782588e+04 2.673262e+03 5.360225e+03
-3.323793e+09 -3.123787e+09 -3.283816e+09 -2.406705e+04 1.347704e+04 -9.618033e+03
-3.422067e+09 -3.222038e+09 -3.382060e+09 -2.952761e+04 1.261822e+04 -5.258317e+03
-2.759168e+09 -2.559159e+09 -2.719179e+09 -2.201836e+04 1.510408e+04 -1.215530e+04
-3.426615e+09 -3.226615e+09 -3.386636e+09 -3.354163e+04 1.135566e+04 -8.391660e+03
-2.644929e+09 -2.444937e+09 -2.604941e+09 2.900452e+03 1.331809e+03 2.270963e+03
-2.016007e+09 -1.816015e+09 -1.976018e+09 2.774879e+03 1.391240e+03 3.063264e+03
-1.775738e+09 -1.575743e+09 -1.735746e+09 2.212509e+03 7.733267e+02 1.884574e+03
-1.829713e+09 -1.629722e+09 -1.789725e+09 2.826663e+03 1.601359e+03 2.924877e+03
-2.529034e+09 -2.329155e+09 -2.488886e+09 -3.076823e+04 -5.950482e+04 9.936973e+04
-3.155527e+09 -2.955719e+09 -3.115305e+09 -8.458603e+02 1.644538e+04 2.113187e+05
-3.193445e+09 -2.993658e+09 -3.153174e+09 -4.264453e+04 -3.214514e+04 1.736873e+05
-2.118813e+09 -1.918918e+09 -2.078811e+09 -3.973846e+04 -5.614023e+04 6.552229e+04
-2.572642e+09 -2.372820e+09 -2.532516e+09 -1.434958e+04 -2.788315e+02 1.170865e+05
-3.410948e+09 -3.211119e+09 -3.370875e+09 -6.617375e+03 -5.401124e+03 7.642403e+04
-2.646650e+09 -2.446772e+09 -2.606657e+09 -2.373160e+04 -1.310376e+04 6.293408e+04
-1.716871e+09 -1.516949e+09 -1.676909e+09 1.884558e+03 -3.293355e+03 1.287455e+05
-3.400689e+09 -3.200878e+09 -3.360444e+09 -3.793977e+04 -2.438323e+04 1.615860e+05
-2.267774e+09 -2.067893e+09 -2.227689e+09 2.352625e+04 3.359802e+04 6.678297e+04
-3.411732e+09 -3.211658e+09 -3.371697e+09 4.153846e+04 -5.506850e+03 -3.877537e+03
-3.418872e+09 -3.218997e+09 -3.378787e+09 -5.467395e+04 -1.421254e+04 8.594069e+04
-2.077890e+09 -1.878029e+09 -2.038031e+09 -7.786512e+04 -1.828921e+04 1.780566e+05
-2.383776e+09 -2.183992e+09 -2.343556e+09 -3.244314e+04 -1.171823e+05 2.749425e+05
-2.031631e+09 -1.831748e+09 -1.991663e+09 -2.030973e+04 -1.313415e+04 8.523525e+04
-1.785881e+09 -1.585993e+09 -1.745888e+09 -6.385161e+04 -7.583967e+04 2.050378e+05
-2.546666e+09 -2.346767e+09 -2.506669e+09 3.785510e+04 8.392961e+03 3.350628e+04
-3.143964e+09 -2.944077e+09 -3.103919e+09 4.218893e+04 6.048929e+03 6.485539e+04
-2.709150e+09 -2.509244e+09 -2.669161e+09 5.801046e+04 1.259966e+04 1.508628e+04
-3.375588e+09 -3.175691e+09 -3.335513e+09 6.421166e+04 1.800744e+04 5.791726e+04
-2.648098e+09 -2.448162e+09 -2.608108e+09 5.042325e+04 4.498152e+03 1.748660e+04
-3.314587e+09 -3.114644e+09 -3.274621e+09 5.639668e+04 4.826149e+03 -1.050742e+03
-2.153312e+09 -1.953332e+09 -2.113331e+09 -8.312540e+02 -4.943479e+02 8.474927e+03
-3.315766e+09 -3.115795e+09 -3.275798e+09 -3.921902e+03 -1.722354e+03 8.224210e+03
-3.169530e+09 -2.969554e+09 -3.129557e+09 -1.819870e+03 -4.492109e+02 6.491517e+03
-2.150143e+09 -1.950160e+09 -2.110160e+09 -2.056723e+03 -3.704468e+02 5.691343e+03
-2.568253e+09 -2.368272e+09 -2.528273e+09 -1.601141e+03 -1.175743e+03 6.546167e+03
-2.405969e+09 -2.205973e+09 -2.365979e+09 -3.074531e+03 -2.025348e+03 2.505373e+03
-1.887816e+09 -1.687819e+09 -1.847824e+09 -1.836931e+03 -1.106379e+03 1.342017e+03
-1.789187e+09 -1.589190e+09 -1.749195e+09 -2.475295e+03 -1.363508e+03 1.667500e+03
-1.669315e+09 -1.469317e+09 -1.629322e+09 2.974181e+03 5.013144e+03 5.525847e+03
-2.657523e+09 -2.457527e+09 -2.617532e+09 -2.894807e+03 -1.309380e+03 1.731334e+03
-3.102286e+09 -2.902203e+09 -3.062204e+09 2.254562e+03 5.246053e+03 -1.114693e+03
-2.057328e+09 -1.857268e+09 -2.017289e+09 -1.126730e+04 6.501078e+02 4.151367e+03
-3.382726e+09 -3.182640e+09 -3.342674e+09 -3.527787e+03 1.114939e+04 9.215913e+03
-3.317379e+09 -3.117372e+09 -3.277396e+09 -1.817897e+04 7.697832e+03 -4.717518e+03
-2.579624e+09 -2.379548e+09 -2.539598e+09 -5.809348e+02 2.389218e+04 1.779973e+03
-2.662375e+09 -2.462186e+09 -2.622149e+09 3.224100e+03 -9.152622e+04 2.405455e+04
-3.182732e+09 -2.982583e+09 -3.142531e+09 -1.427024e+04 -6.710158e+04 -5.907564e+03
-2.591615e+09 -2.391521e+09 -2.551464e+09 2.617863e+04 -7.515116e+03 -1.563068e+04
-3.386242e+09 -3.186108e+09 -3.346087e+09 -1.669139e+03 -8.843662e+03 2.236776e+04
-2.661061e+09 -2.460926e+09 -2.620921e+09 2.710787e+04 -6.114292e+04 -1.261868e+04
-3.276509e+09 -3.076329e+09 -3.236121e+09 2.035425e+04 -1.098516e+05 -7.901753e+03
-2.434712e+09 -2.234776e+09 -2.394695e+09 -3.949778e+04 2.700020e+04 -2.370368e+04
-2.654938e+09 -2.455013e+09 -2.614935e+09 -4.955136e+04 1.515668e+04 -2.348844e+04
-3.284940e+09 -3.085011e+09 -3.244963e+09 -4.502439e+04 1.118377e+04 4.612145e+03
-2.788830e+09 -2.588912e+09 -2.748857e+09 -2.365446e+04 -6.015040e+03 1.785450e+03
-2.528137e+09 -2.328243e+09 -2.488116e+09 -1.922047e+04 6.954244e+02 -3.107787e+04
-3.231039e+09 -3.031194e+09 -3.191042e+09 -2.632476e+04 3.488485e+04 -6.150194e+04
-3.449919e+09 -3.250049e+09 -3.409912e+09 -2.966199e+04 -2.005853e+03 -6.298338e+03
-1.975335e+09 -1.775532e+09 -1.935354e+09 -2.392059e+04 7.280156e+04 2.226169e+05
-2.550100e+09 -2.350215e+09 -2.510067e+09 -4.175320e+01 -2.259516e+02 4.369245e+04
-2.722114e+09 -2.522279e+09 -2.682163e+09 9.857913e+03 -1.386463e+04 6.649281e+04
-1.923156e+09 -1.723317e+09 -1.883083e+09 6.078979e+02 1.305518e+04 1.421188e+05
-1.739624e+09 -1.539723e+09 -1.699464e+09 1.219156e+04 2.358684e+04 1.390269e+05
-2.510191e+09 -2.310354e+09 -2.470015e+09 6.161894e+04 6.877306e+04 1.826496e+05
-1.724025e+09 -1.524112e+09 -1.684096e+09 -1.034135e+04 2.980818e+03 7.807054e+04
-1.928856e+09 -1.728979e+09 -1.888895e+09 -1.904179e+02 8.482757e+03 7.808582e+04
-2.118605e+09 -1.918523e+09 -2.078553e+09 7.988779e+03 -1.524248e+04 -4.748179e+03
-1.762634e+09 -1.562591e+09 -1.722619e+09 8.998568e+03 1.458329e+04 6.169356e+03
-2.516393e+09 -2.316313e+09 -2.476273e+09 6.574739e+03 -4.150648e+03 -1.645490e+04
-3.377027e+09 -3.176916e+09 -3.336942e+09 -7.679800e+03 -2.081871e+04 -4.442991e+03
-2.772106e+09 -2.571957e+09 -2.731891e+09 -1.437103e+04 -1.979349e+04 -1.990407e+04
-2.594710e+09 -2.394670e+09 -2.554706e+09 2.350765e+04 -1.813339e+04 -1.368900e+04
-2.351499e+09 -2.151476e+09 -2.311496e+09 9.591006e+03 -1.641924e+04 -7.675102e+03
-2.820289e+09 -2.620243e+09 -2.780277e+09 3.925191e+04 -5.534922e+03 -1.419520e+04
-3.085008e+09 -2.884951e+09 -3.044996e+09 2.477446e+04 -9.609290e+03 -4.349493e+03
-2.780281e+09 -2.580263e+09 -2.740281e+09 3.505599e+04 -1.693812e+04 -1.837476e+04
-3.189778e+09 -2.989737e+09 -3.149760e+09 2.814654e+04 -1.117832e+04 -5.773826e+03
-2.806106e+09 -2.606064e+09 -2.766084e+09 2.770914e+04 -2.050822e+04 -1.278583e+04
-1.972957e+09 -1.772935e+09 -1.932942e+09 1.381861e+04 -2.915716e+04 -2.165207e+04
-1.952745e+09 -1.752722e+09 -1.912741e+09 9.543194e+03 -2.138159e+04 -6.620039e+03
-1.989724e+09 -1.789715e+09 -1.949727e+09 7.175437e+03 1.408028e+04 8.622475e+03
-2.720094e+09 -2.520080e+09 -2.680098e+09 6.748711e+03 1.013281e+04 3.930920e+03
-1.796429e+09 -1.596428e+09 -1.756431e+09 3.559220e+03 1.169522e+04 6.168095e+03
-3.416945e+09 -3.216922e+09 -3.376953e+09 1.324641e+04 9.923994e+03 5.780009e+03
-2.015483e+09 -1.815475e+09 -1.975487e+09 6.384973e+03 9.614751e+03 5.105416e+03
-2.570664e+09 -2.370653e+09 -2.530669e+09 7.708180e+03 1.109671e+04 7.962129e+03
-3.399021e+09 -3.199008e+09 -3.359033e+09 1.255272e+04 7.507703e+03 5.550327e+03
-1.941544e+09 -1.741561e+09 -1.901560e+09 1.364881e+03 -5.178477e+02 7.669359e+03
-2.544943e+09 -2.344961e+09 -2.504963e+09 -2.406907e+03 -9.577668e+02 6.435769e+03
-1.809630e+09 -1.609644e+09 -1.769645e+09 -3.558850e+03 -7.387921e+02 6.808571e+03
-2.645222e+09 -2.445238e+09 -2.605241e+09 -3.724645e+03 -1.356920e+03 5.365916e+03
-1.954140e+09 -1.754153e+09 -1.914154e+09 -1.274655e+03 -1.017419e+02 4.913911e+03
-2.636030e+09 -2.436045e+09 -2.596047e+09 -2.169499e+03 -5.327545e+02 4.576474e+03
-2.126834e+09 -1.926850e+09 -2.086852e+09 -2.296943e+03 -1.706329e+03 7.978394e+03
-3.167086e+09 -2.967092e+09 -3.127104e+09 -1.033431e+04 -6.330754e+03 7.529095e+03
-2.421399e+09 -2.221406e+09 -2.381412e+09 -4.691326e+03 -2.836251e+03 4.764284e+03
-1.792305e+09 -1.592312e+09 -1.752317e+09 -5.642821e+03 -4.282515e+03 7.152742e+03
-2.113376e+09 -1.913378e+09 -2.073386e+09 -5.009693e+03 -6.793955e+03 6.914651e+03
-1.759583e+09 -1.559584e+09 -1.719588e+09 -3.040443e+03 -5.295002e+03 6.322235e+03
-3.592471e+09 -3.392469e+09 -3.552491e+09 1.717202e+04 7.426623e+03 6.600085e+03
-1.761332e+09 -1.561095e+09 -1.719203e+09 -1.811062e+04 5.303942e+05 1.857667e+05
-2.490104e+09 -2.290040e+09 -2.448783e+09 -1.308216e+05 2.495821e+05 -5.229357e+05
-1.892383e+09 -1.692286e+09 -1.851682e+09 -4.634352e+04 4.755836e+05 -3.119632e+05
-1.718398e+09 -1.518124e+09 -1.676283e+09 -4.831430e+04 8.665814e+05 1.312492e+05
-2.606190e+09 -2.406078e+09 -2.564712e+09 7.321314e+04 5.350522e+05 9.801537e+04
-2.696619e+09 -2.496577e+09 -2.656620e+09 1.452742e+04 -1.422634e+04 -6.733465e+03
-1.781894e+09 -1.581898e+09 -1.741872e+09 2.486280e+03 -1.920623e+04 -5.166471e+03
-2.572256e+09 -2.372203e+09 -2.532254e+09 6.165563e+03 -2.673315e+04 -2.381187e+03
-2.358342e+09 -2.158318e+09 -2.318336e+09 1.689812e+03 -2.336658e+04 -9.553349e+02
-2.851838e+09 -2.651852e+09 -2.811858e+09 5.227039e+03 2.569705e+03 6.792347e+03
-1.829577e+09 -1.629584e+09 -1.789587e+09 3.595569e+03 2.408482e+03 7.018464e+03
-2.024194e+09 -1.824206e+09 -1.984209e+09 4.766073e+03 3.279592e+03 8.443066e+03
-1.846233e+09 -1.646243e+09 -1.806246e+09 3.684122e+03 2.406564e+03 5.053615e+03
-2.048243e+09 -1.848253e+09 -2.008256e+09 3.641081e+03 2.125051e+03 5.141464e+03
-3.420452e+09 -3.220463e+09 -3.380470e+09 5.545388e+03 2.192689e+03 3.514266e+03
-2.462017e+09 -2.262026e+09 -2.422031e+09 4.184005e+03 2.363739e+03 5.129439e+03
-2.408005e+09 -2.208015e+09 -2.368018e+09 2.926888e+03 1.287236e+03 3.164620e+03
-2.419888e+09 -2.219897e+09 -2.379900e+09 2.820616e+03 1.120753e+03 2.558894e+03
-1.830401e+09 -1.630407e+09 -1.790411e+09 2.977436e+03 1.832375e+03 3.511926e+03
-2.459666e+09 -2.259673e+09 -2.419677e+09 3.320937e+03 1.315089e+03 2.499645e+03
-1.834977e+09 -1.634985e+09 -1.794987e+09 2.683203e+03 1.581944e+03 4.186082e+03
-2.352445e+09 -2.152452e+09 -2.312455e+09 1.978928e+03 3.848025e+02 9.792067e+02
-2.104130e+09 -1.904154e+09 -2.064149e+09 -8.976905e+03 -6.052171e+03 2.179664e+04
-2.456101e+09 -2.256123e+09 -2.416125e+09 -9.563116e+03 -3.120080e+03 1.186688e+04
-2.236863e+09 -2.036883e+09 -2.196886e+09 -7.810438e+03 -5.098389e+03 1.184134e+04
-2.555946e+09 -2.355980e+09 -2.515985e+09 -1.162538e+04 -3.009057e+03 1.339417e+04
-1.804970e+09 -1.604981e+09 -1.764973e+09 -3.264015e+03 -4.581573e+03 1.298727e+04
-2.842462e+09 -2.642496e+09 -2.802495e+09 -1.172657e+04 -5.193615e+03 1.556655e+04
-2.593914e+09 -2.393894e+09 -2.553912e+09 1.299703e+04 1.567141e+04 6.526453e+03
-2.774266e+09 -2.574252e+09 -2.734275e+09 1.346520e+04 1.297422e+04 8.144545e+03
-3.388900e+09 -3.188854e+09 -3.348902e+09 1.854842e+04 1.469765e+04 5.908595e+03
-3.388411e+09 -3.188379e+09 -3.348419e+09 1.996502e+04 1.168062e+04 6.874979e+03
-3.589130e+09 -3.389083e+09 -3.549134e+09 3.395050e+04 -1.140645e+04 -3.940334e+03
-3.432715e+09 -3.232702e+09 -3.392732e+09 -2.441189e+04 1.136603e+04 -6.760370e+03
-3.604140e+09 -3.404160e+09 -3.564163e+09 -1.342510e+03 -4.788391e+02 3.845430e+03
-2.023077e+09 -1.823067e+09 -1.983082e+09 -9.988517e+03 1.956510e+04 -8.333781e+03
-1.699830e+09 -1.499842e+09 -1.659843e+09 -7.739096e+02 -3.658218e+02 2.443831e+03
-1.816949e+09 -1.616947e+09 -1.776943e+09 -3.464415e+03 1.722976e+04 -9.025680e+03
-2.617545e+09 -2.417499e+09 -2.577374e+09 5.905027e+04 4.617975e+04 2.879918e+04
-1.683679e+09 -1.483685e+09 -1.643688e+09 -1.397400e+03 -4.760042e+02 8.740388e+02
-2.390892e+09 -2.190907e+09 -2.350909e+09 1.921595e+03 8.651291e+02 6.474327e+03
-3.597333e+09 -3.397357e+09 -3.557360e+09 2.136971e+03 4.834854e+02 5.244118e+03
-3.590235e+09 -3.390246e+09 -3.550255e+09 -9.140216e+03 -3.075166e+03 4.492559e+03
-1.982804e+09 -1.782824e+09 -1.942823e+09 -4.642515e+02 -4.225931e+02 7.759012e+03
-3.497734e+09 -3.297750e+09 -3.457751e+09 9.326942e+02 1.443434e+02 2.049812e+03
-2.070111e+09 -1.870076e+09 -2.030053e+09 7.963987e+04 5.321536e+04 2.210191e+04
-3.179807e+09 -2.979757e+09 -3.139689e+09 6.257367e+04 2.664876e+04 7.639448e+03
-3.181179e+09 -2.981036e+09 -3.140814e+09 7.875979e+04 1.005580e+05 7.680913e+04
-3.198253e+09 -2.998161e+09 -3.158177e+09 4.042471e+04 2.024683e+04 -4.071268e+03
-3.380221e+09 -3.180159e+09 -3.340143e+09 5.817746e+04 2.875454e+04 1.083658e+04
-2.592979e+09 -2.393011e+09 -2.552731e+09 1.165979e+05 1.137243e+05 1.701355e+05
-2.766547e+09 -2.566470e+09 -2.726127e+09 1.155718e+05 2.054595e+05 1.504928e+05
-2.555851e+09 -2.355853e+09 -2.515860e+09 1.317890e+04 1.307387e+04 1.141565e+04
-3.191244e+09 -2.991191e+09 -3.150893e+09 8.523995e+04 1.092299e+05 6.833706e+04
-3.389284e+09 -3.189140e+09 -3.348911e+09 5.447311e+04 1.101501e+05 3.363805e+04
-3.386769e+09 -3.186615e+09 -3.346222e+09 9.243960e+04 2.354517e+05 2.997760e+04
-3.226944e+09 -3.026810e+09 -3.186794e+09 2.754444e+04 3.782671e+04 2.655436e+04
-3.013185e+09 -2.813026e+09 -2.972960e+09 4.571017e+04 1.148654e+05 1.666392e+04
-3.410554e+09 -3.210516e+09 -3.370558e+09 -1.914540e+04 -1.392135e+04 5.443024e+03
-2.731379e+09 -2.531315e+09 -2.691367e+09 -3.491048e+04 -1.762886e+04 1.430230e+04
-2.820113e+09 -2.620062e+09 -2.780099e+09 -2.958141e+04 -2.214321e+04 1.028161e+04
-2.431606e+09 -2.231569e+09 -2.391598e+09 -4.269507e+03 -2.966237e+04 4.434291e+03
-1.802580e+09 -1.602589e+09 -1.762588e+09 4.851118e+03 2.952033e+03 1.414768e+04
-1.579318e+09 -1.379322e+09 -1.539326e+09 -2.767871e+03 -2.880882e+03 3.796330e+03
-2.825554e+09 -2.625490e+09 -2.785538e+09 -3.442862e+04 -2.097965e+04 4.211993e+03
-2.617039e+09 -2.417010e+09 -2.577009e+09 -2.187673e+04 -7.225638e+03 1.418485e+03
-2.842514e+09 -2.642454e+09 -2.802505e+09 -2.213319e+04 -2.012387e+04 9.169367e+03
-2.376002e+09 -2.175793e+09 -2.335622e+09 -2.856038e+04 -3.026586e+05 -4.878273e+04
-1.571214e+09 -1.371214e+09 -1.531203e+09 8.560795e+02 2.616213e+04 -3.274741e+02
-2.389361e+09 -2.189337e+09 -2.349350e+09 -1.743606e+04 -2.316873e+04 1.695549e+04
-1.905328e+09 -1.705310e+09 -1.865327e+09 -1.101093e+04 -2.706037e+04 1.346520e+04
-3.169193e+09 -2.969185e+09 -3.129209e+09 1.765346e+04 8.691078e+03 6.425612e+03
-2.007859e+09 -1.807827e+09 -1.967844e+09 -1.332014e+04 -2.992308e+04 8.148726e+03
-2.401726e+09 -2.201760e+09 -2.361753e+09 -4.615398e+03 -4.305095e+03 2.007451e+04
-3.581220e+09 -3.381240e+09 -3.541174e+09 -7.435826e+04 -3.130748e+04 1.834094e+04
-1.583619e+09 -1.383617e+09 -1.543616e+09 -4.628397e+01 2.286419e+04 -3.425289e+01
-3.252291e+09 -3.052355e+09 -3.212330e+09 -1.164205e+04 4.587597e+02 8.183330e+03
-3.143388e+09 -2.943429e+09 -3.103424e+09 -1.288465e+04 -2.479755e+03 1.289808e+04
-1.783949e+09 -1.583970e+09 -1.743959e+09 2.952270e+02 -3.116293e+03 2.087208e+04
-1.796250e+09 -1.596267e+09 -1.756269e+09 -1.339546e+04 -3.496228e+03 1.770218e+04
-1.578038e+09 -1.378040e+09 -1.538045e+09 3.121324e+03 8.932194e+03 1.013814e+04
-3.154309e+09 -2.954346e+09 -3.114346e+09 -1.229058e+04 -2.032402e+03 1.139980e+04
-2.019708e+09 -1.819716e+09 -1.979717e+09 -2.188866e+04 3.059270e+03 -7.718075e+03
-3.227391e+09 -3.027398e+09 -3.187376e+09 -4.069446e+04 7.114663e+03 1.297089e+03
-3.296590e+09 -3.096595e+09 -3.256614e+09 -3.169892e+04 1.476911e+04 -1.263939e+04
-1.798774e+09 -1.598765e+09 -1.758773e+09 3.650160e+03 1.564644e+04 7.541666e+03
-3.402313e+09 -3.202299e+09 -3.362291e+09 -4.219220e+04 6.040631e+03 4.990460e+03
-2.661545e+09 -2.461562e+09 -2.621567e+09 5.647245e+03 2.782765e+03 7.049341e+03
-3.003084e+09 -2.803086e+09 -2.963092e+09 1.743394e+03 4.864500e+02 7.223471e+02
-2.789786e+09 -2.589778e+09 -2.749794e+09 -3.756151e+04 6.157589e+03 -8.668758e+03
-3.597925e+09 -3.397928e+09 -3.557946e+09 -3.166566e+04 1.174944e+04 -1.381342e+04
-3.228974e+09 -3.028964e+09 -3.188974e+09 -3.012829e+04 1.607564e+04 -6.465733e+03
-2.465204e+09 -2.265093e+09 -2.425151e+09 3.602501e+04 -4.130092e+04 -2.225658e+04
-1.777413e+09 -1.577371e+09 -1.737231e+09 8.857723e+03 -9.438968e+04 -3.777149e+04
-3.607651e+09 -3.407641e+09 -3.567661e+09 8.862620e+03 5.222541e+03 3.716577e+03
-2.200789e+09 -2.000748e+09 -2.160713e+09 1.622943e+04 5.898737e+03 6.700302e+03
-2.467566e+09 -2.267600e+09 -2.427543e+09 -6.099624e+04 4.044472e+04 -3.640987e+04
-1.570050e+09 -1.370055e+09 -1.530035e+09 -6.998717e+03 9.366200e+02 -1.145412e+04
-2.585115e+09 -2.385008e+09 -2.544949e+09 -4.484924e+04 -8.150374e+04 -1.086549e+04
-1.580365e+09 -1.380370e+09 -1.540379e+09 3.494612e+03 2.684833e+03 -2.824234e+03
-1.571219e+09 -1.371223e+09 -1.531222e+09 6.386865e+02 3.952553e+03 -1.333751e+03
-1.887313e+09 -1.687282e+09 -1.847130e+09 1.576316e+04 -2.878944e+04 3.936332e+04
-1.951226e+09 -1.751137e+09 -1.911013e+09 -5.368537e+02 -9.287886e+03 -8.211422e+03
-2.042697e+09 -1.842731e+09 -2.002722e+09 5.839659e+03 4.056473e+03 2.052898e+04
-2.537080e+09 -2.337128e+09 -2.497112e+09 9.730467e+03 -1.206231e+02 1.211791e+04
-1.694543e+09 -1.494540e+09 -1.654522e+09 1.894729e+03 -5.269192e+03 -1.033662e+04
-1.786720e+09 -1.586834e+09 -1.745857e+09 -4.504760e+04 2.190170e+05 -5.077250e+05
-1.964979e+09 -1.765013e+09 -1.925002e+09 1.206733e+04 6.476619e+03 2.038731e+04
-1.855011e+09 -1.655026e+09 -1.815011e+09 4.657827e+03 2.071675e+03 1.492989e+04
-3.189149e+09 -2.989152e+09 -3.149159e+09 2.676004e+03 9.792239e+02 9.726224e+02
-2.833184e+09 -2.633189e+09 -2.793194e+09 3.298906e+03 1.162693e+03 1.886748e+03
-2.112426e+09 -1.912379e+09 -2.072394e+09 -1.159309e+04 -3.133486e+04 1.743744e+04
-1.592256e+09 -1.392261e+09 -1.552264e+09 -3.621013e+03 -5.463143e+03 9.496263e+03
-3.118859e+09 -2.918862e+09 -3.078867e+09 2.028776e+03 5.783751e+02 7.438895e+02
-3.412587e+09 -3.212590e+09 -3.372596e+09 2.613033e+03 5.156510e+02 8.683632e+02
-3.398714e+09 -3.198717e+09 -3.358723e+09 2.556040e+03 7.488857e+02 6.421179e+02
-3.592214e+09 -3.392256e+09 -3.552176e+09 -5.947236e+04 -2.332447e+03 4.764166e+03
-2.813544e+09 -2.613548e+09 -2.773553e+09 2.479931e+03 7.803591e+02 1.020656e+03
-2.794284e+09 -2.594323e+09 -2.754320e+09 2.391158e+04 3.699444e+03 1.498856e+04
-2.011646e+09 -1.811664e+09 -1.971661e+09 1.544364e+04 -9.457945e+03 -1.428531e+04
-2.813690e+09 -2.613728e+09 -2.773729e+09 1.572775e+04 2.911251e+03 1.467541e+04
-1.630889e+09 -1.430881e+09 -1.590848e+09 -1.764980e+03 -1.045970e+04 1.158363e+04
-1.594365e+09 -1.394361e+09 -1.554363e+09 1.657308e+03 1.425096e+04 -6.551818e+03
-2.808557e+09 -2.608588e+09 -2.768590e+09 1.209781e+04 5.692960e+03 1.426234e+04
-2.578475e+09 -2.378506e+09 -2.538509e+09 1.069035e+04 6.111589e+03 1.268599e+04
-2.784997e+09 -2.584965e+09 -2.744986e+09 -2.814413e+04 2.363597e+04 -1.184462e+04
-3.393830e+09 -3.193802e+09 -3.353829e+09 -3.369678e+04 8.755908e+03 -6.295502e+03
-2.586079e+09 -2.386053e+09 -2.546047e+09 -2.885684e+04 1.223969e+04 3.736616e+03
-2.784558e+09 -2.584517e+09 -2.744546e+09 -3.388001e+04 6.061459e+02 -2.441490e+03
-3.393394e+09 -3.193345e+09 -3.353351e+09 -3.992428e+04 8.702277e+03 6.864292e+03
-3.497517e+09 -3.297488e+09 -3.457524e+09 -9.877207e+03 -9.595201e+03 4.183709e+03
-3.197777e+09 -2.997750e+09 -3.157732e+09 -4.244088e+04 4.085731e+03 1.666703e+03
-3.394857e+09 -3.194809e+09 -3.354861e+09 1.447428e+04 -1.750641e+04 -3.557386e+03
-2.800965e+09 -2.600937e+09 -2.760915e+09 -4.252588e+04 1.827496e+04 -1.157904e+04
-1.593801e+09 -1.393797e+09 -1.553800e+09 1.368583e+03 1.272950e+04 -2.563461e+03
-1.991685e+09 -1.791683e+09 -1.951692e+09 5.480090e+03 5.612381e+03 4.271760e+03
-2.453356e+09 -2.253288e+09 -2.413266e+09 -1.303290e+04 -8.796738e+03 -1.145053e+03
-2.571160e+09 -2.371110e+09 -2.531115e+09 -2.016604e+04 1.401058e+04 9.329595e+02
-1.771582e+09 -1.571548e+09 -1.731548e+09 -2.766828e+03 2.193671e+04 -4.176307e+02
-2.594475e+09 -2.394444e+09 -2.554477e+09 1.929061e+03 1.610839e+04 6.383827e+02
-1.582930e+09 -1.382932e+09 -1.542927e+09 6.671246e+02 -2.100548e+04 1.903105e+03
-3.608693e+09 -3.408612e+09 -3.568674e+09 -1.588988e+03 -1.820868e+04 1.085551e+03
-1.569930e+09 -1.369931e+09 -1.529929e+09 -4.006205e+03 -7.463529e+03 -1.070682e+03
-3.350451e+09 -3.150415e+09 -3.310455e+09 -1.204281e+04 -1.395744e+04 3.707940e+03
-1.892845e+09 -1.692809e+09 -1.852834e+09 -2.693606e+03 2.321270e+04 -6.328068e+03
-1.983679e+09 -1.783648e+09 -1.943651e+09 -8.955550e+03 3.364369e+04 -1.380352e+04
-1.773926e+09 -1.573893e+09 -1.733905e+09 9.758345e+03 2.730736e+04 -2.639893e+03
-2.348015e+09 -2.147985e+09 -2.307994e+09 7.803698e+03 2.223987e+04 1.633514e+02
-1.910557e+09 -1.710516e+09 -1.870550e+09 1.416172e+03 -7.718736e+03 -1.006996e+04
-2.787753e+09 -2.587706e+09 -2.747747e+09 1.490771e+04 1.762005e+04 5.922629e+03
-2.369455e+09 -2.169429e+09 -2.329442e+09 9.258810e+03 1.484795e+04 7.943676e+03
-2.550979e+09 -2.350997e+09 -2.510998e+09 1.195453e+02 2.970505e+02 6.323387e+03
-3.129724e+09 -2.929731e+09 -3.089701e+09 4.646823e+04 -7.543540e+03 -4.726918e+02
-3.313862e+09 -3.113864e+09 -3.273844e+09 4.453725e+04 1.320974e+02 -1.121431e+02
-2.528928e+09 -2.328897e+09 -2.488912e+09 3.085976e+04 4.797522e+03 1.080934e+04
-3.108442e+09 -2.908430e+09 -3.068433e+09 3.757163e+04 -3.854713e+03 -7.665450e+03
-2.404010e+09 -2.203999e+09 -2.363999e+09 2.134443e+04 1.173721e+04 9.145688e+03
-2.021268e+09 -1.821277e+09 -1.981279e+09 2.912155e+03 1.475931e+03 3.119879e+03
-2.945199e+09 -2.745212e+09 -2.905215e+09 1.607256e+03 6.047314e+02 2.775028e+03
-1.922392e+09 -1.722379e+09 -1.882351e+09 7.512133e+03 1.995963e+03 -4.833686e+03
-3.301696e+09 -3.101683e+09 -3.261703e+09 8.018191e+03 7.040102e+03 2.734623e+03
-1.961847e+09 -1.761834e+09 -1.921836e+09 2.045143e+04 2.303460e+04 2.266141e+04
-2.483158e+09 -2.283110e+09 -2.443081e+09 3.350720e+04 -2.262602e+03 -5.762125e+03
-2.870784e+09 -2.670801e+09 -2.830803e+09 -3.208176e+03 -1.098118e+03 5.170792e+03
-2.729195e+09 -2.529154e+09 -2.689185e+09 3.770139e+04 7.803375e+03 4.589731e+03
-3.363025e+09 -3.162983e+09 -3.323021e+09 4.232237e+04 9.836222e+03 6.925990e+03
-2.325947e+09 -2.125918e+09 -2.285926e+09 1.993165e+04 5.344998e+03 -3.308786e+03
-1.578039e+09 -1.378040e+09 -1.538045e+09 2.786299e+03 8.147377e+03 8.590307e+03
-1.601678e+09 -1.401686e+09 -1.561688e+09 2.823247e+03 2.324712e+03 6.191494e+03
-3.077409e+09 -2.877387e+09 -3.037348e+09 5.686895e+04 -3.792343e+04 -1.462672e+04
-3.289145e+09 -3.089116e+09 -3.249105e+09 5.392289e+04 -6.058459e+03 -2.185701e+03
-2.803888e+09 -2.603890e+09 -2.762062e+09 3.788241e+04 -2.816075e+05 -3.362487e+05
-3.626426e+09 -3.426445e+09 -3.586451e+09 7.057994e+03 2.110841e+03 5.319608e+03
-3.124981e+09 -2.924893e+09 -3.084921e+09 -2.427459e+04 8.368721e+03 5.342181e+03
-1.839751e+09 -1.639759e+09 -1.799761e+09 -1.144021e+04 -9.628842e+03 1.686123e+04
-3.601150e+09 -3.401184e+09 -3.561187e+09 -1.006072e+04 -2.303021e+03 1.067238e+04
-2.728812e+09 -2.528586e+09 -2.688064e+09 1.616485e+04 -2.899662e+05 -1.612963e+05
-2.095328e+09 -1.895342e+09 -2.055342e+09 -1.369108e+03 -3.921860e+02 3.082335e+03
-3.273636e+09 -3.073640e+09 -3.233659e+09 -4.125233e+04 -9.487125e+03 1.082072e+04
-3.326449e+09 -3.126353e+09 -3.285358e+09 2.973549e+04 -3.686807e+05 -1.589953e+05
-2.199356e+09 -1.999476e+09 -2.157230e+09 8.501027e+04 -1.269864e+05 2.834660e+05
-3.065032e+09 -2.864959e+09 -3.024227e+09 -5.790333e+04 -2.901824e+05 2.409462e+05
-3.482974e+09 -3.283107e+09 -3.441765e+09 1.819676e+04 8.070462e+04 2.032369e+05
-2.809505e+09 -2.609419e+09 -2.767564e+09 5.583793e+03 -2.321041e+05 -4.729650e+04
-1.602868e+09 -1.402878e+09 -1.562876e+09 -7.090802e+02 -4.357002e+03 1.358828e+04
-3.139950e+09 -2.939985e+09 -3.098887e+09 5.980656e+04 -2.227399e+05 -2.141774e+05
-3.604068e+09 -3.404026e+09 -3.563904e+09 -8.912742e+04 3.607220e+04 -2.580628e+04
-1.591206e+09 -1.391206e+09 -1.551198e+09 3.962680e+03 -2.107958e+04 3.049760e+03
-1.594556e+09 -1.394552e+09 -1.554554e+09 1.240866e+03 1.502896e+04 -7.898657e+03
-3.420926e+09 -3.220965e+09 -3.380965e+09 -7.678767e+03 -1.355967e+03 9.260470e+03
-2.644381e+09 -2.444413e+09 -2.604412e+09 -2.747676e+02 -4.970756e+02 1.323653e+04
-2.464061e+09 -2.264089e+09 -2.424088e+09 5.256398e+02 -7.318879e+02 1.114951e+04
-2.109011e+09 -1.909031e+09 -2.069031e+09 -2.033666e+03 -1.769220e+03 7.289247e+03
-2.421522e+09 -2.221540e+09 -2.381542e+09 -4.417691e+03 -3.091682e+03 7.739743e+03
-2.394545e+09 -2.194571e+09 -2.354570e+09 -4.147977e+02 -2.265205e+02 1.200916e+04
-3.394172e+09 -3.194165e+09 -3.354188e+09 1.385052e+04 7.687678e+03 5.217818e+03
-3.201468e+09 -3.001511e+09 -3.161507e+09 -1.457039e+03 -1.099922e+03 1.656193e+04
-3.385705e+09 -3.185751e+09 -3.345748e+09 -7.923286e+03 -1.226003e+03 1.193498e+04
-3.011062e+09 -2.811079e+09 -2.971080e+09 -1.874189e+03 -6.731633e+02 3.909294e+03
-2.908719e+09 -2.708734e+09 -2.868736e+09 -1.165165e+03 -3.910805e+02 3.081284e+03
-2.291759e+09 -2.091777e+09 -2.251778e+09 -7.712382e+02 -3.962218e+02 5.596958e+03
-1.580954e+09 -1.380951e+09 -1.540958e+09 -1.925534e+03 -9.899881e+03 8.011732e+03
-1.703213e+09 -1.503213e+09 -1.663220e+09 -2.455794e+03 -4.164219e+03 4.247712e+03
-2.576512e+09 -2.376527e+09 -2.536528e+09 -1.373256e+03 -5.201377e+02 4.730244e+03
-3.210193e+09 -3.010209e+09 -3.170211e+09 -7.346233e+02 -2.673613e+02 2.151695e+03
-1.905246e+09 -1.705259e+09 -1.865260e+09 -1.779024e+03 -3.009305e+02 3.025677e+03
-3.036440e+09 -2.836458e+09 -2.996464e+09 -1.068430e+04 -4.759153e+03 9.546725e+03
-1.993715e+09 -1.793719e+09 -1.953724e+09 -3.638473e+03 -1.964451e+03 2.813611e+03
-3.108002e+09 -2.908021e+09 -3.068023e+09 -9.643574e+02 -3.553371e+02 4.899668e+03
-1.593821e+09 -1.393834e+09 -1.553834e+09 -4.782437e+02 -4.493067e+02 3.598378e+03
-3.410380e+09 -3.210445e+09 -3.369715e+09 1.063581e+05 -1.680990e+05 -1.708412e+05
-1.583870e+09 -1.383852e+09 -1.543808e+09 -5.747098e+03 9.785450e+03 -2.279423e+04
-1.562694e+09 -1.362691e+09 -1.522687e+09 -3.588339e+02 -1.750283e+04 1.737884e+04
-3.414243e+09 -3.214320e+09 -3.373838e+09 8.954559e+04 -8.804682e+04 -1.565504e+05
-1.800614e+09 -1.600736e+09 -1.760136e+09 -6.043569e+03 -7.193167e+04 -4.531722e+05
-2.000513e+09 -1.800694e+09 -1.960420e+09 6.853529e+04 -1.082364e+05 -1.125882e+05
-1.978950e+09 -1.778881e+09 -1.938303e+09 5.790363e+04 -3.623794e+05 -3.455546e+05
-2.838158e+09 -2.638139e+09 -2.798165e+09 -1.370869e+04 -1.386831e+04 7.944210e+03
-3.383587e+09 -3.183566e+09 -3.343603e+09 1.737679e+04 -1.443353e+04 -6.340406e+03
-2.418930e+09 -2.218934e+09 -2.378944e+09 8.145148e+03 6.587593e+03 9.118370e+03
-3.128365e+09 -2.928298e+09 -3.088322e+09 -1.536999e+04 -7.496010e+03 -4.189890e+03
-1.891421e+09 -1.691410e+09 -1.851425e+09 -4.716210e+03 -8.248051e+03 6.744167e+03
-1.763231e+09 -1.563233e+09 -1.723243e+09 1.002024e+04 1.198411e+04 1.525100e+04
-1.589352e+09 -1.389358e+09 -1.549359e+09 3.751889e+03 1.008370e+04 1.166107e+04
-2.548187e+09 -2.348174e+09 -2.508196e+09 -1.905924e+04 -2.030613e+04 1.509915e+04
-3.586491e+09 -3.386489e+09 -3.546507e+09 1.357286e+04 5.645583e+03 6.278130e+03
-1.917097e+09 -1.717101e+09 -1.877106e+09 5.914594e+03 7.681354e+03 1.271648e+04
-1.788601e+09 -1.588571e+09 -1.748600e+09 -6.642668e+03 -1.940383e+04 1.327054e+04
-3.423256e+09 -3.223253e+09 -3.383276e+09 -2.281839e+04 -9.520518e+03 1.025506e+04
-1.755011e+09 -1.555003e+09 -1.715010e+09 -3.251997e+03 -1.727845e+04 5.727134e+03
-2.038332e+09 -1.838338e+09 -1.998344e+09 1.287420e+04 8.990269e+03 1.220596e+04
-3.586485e+09 -3.386489e+09 -3.546506e+09 1.320584e+04 5.623065e+03 6.169407e+03
-2.851313e+09 -2.651233e+09 -2.811192e+09 -6.809484e+04 -5.543674e+04 2.515684e+04
-3.594422e+09 -3.394398e+09 -3.554436e+09 2.059631e+04 -1.397245e+04 -9.272440e+03
-1.993939e+09 -1.793937e+09 -1.953912e+09 -2.412246e+04 2.135163e+04 -1.798271e+04
-2.090015e+09 -1.890022e+09 -2.050032e+09 -2.653437e+04 -7.312411e+03 1.220306e+04
-2.601950e+09 -2.401941e+09 -2.561939e+09 -3.527983e+04 1.099629e+03 -8.065220e+03
-1.573236e+09 -1.373244e+09 -1.533224e+09 1.041587e+03 -2.925344e+04 5.360618e+03
-3.594030e+09 -3.393967e+09 -3.554027e+09 1.932287e+04 -1.178241e+04 -4.511773e+03
-3.594413e+09 -3.394385e+09 -3.554429e+09 2.621093e+04 -1.002834e+04 -6.619303e+03
-1.606942e+09 -1.406949e+09 -1.566937e+09 -1.992479e+02 -2.048226e+04 1.893280e+03
-2.842646e+09 -2.642655e+09 -2.802634e+09 -4.059507e+04 1.602638e+04 -7.713979e+03
-2.387059e+09 -2.187052e+09 -2.347065e+09 -2.146238e+04 -3.249545e+03 5.861589e+03
-2.429222e+09 -2.229160e+09 -2.389097e+09 1.058736e+05 1.713749e+05 1.318890e+05
-2.427284e+09 -2.227290e+09 -2.387304e+09 -2.238116e+04 6.732050e+02 1.097078e+03
-2.774107e+09 -2.574113e+09 -2.734118e+09 -2.956643e+03 -1.210896e+03 1.834145e+03
-3.410061e+09 -3.210004e+09 -3.370057e+09 -3.512177e+03 -1.518875e+04 -9.764327e+01
-3.171522e+09 -2.971528e+09 -3.131534e+09 -2.953253e+03 -1.248662e+03 1.846540e+03
-1.573232e+09 -1.373241e+09 -1.533223e+09 -1.051365e+03 -2.942830e+04 6.154263e+03
-3.258669e+09 -3.058783e+09 -3.218655e+09 -1.444692e+04 -2.193209e+03 -1.126042e+04
-2.712962e+09 -2.513058e+09 -2.672994e+09 5.711682e+03 -1.652110e+04 -2.177348e+04
-1.960132e+09 -1.760301e+09 -1.919994e+09 8.043604e+04 3.618520e+04 2.003868e+05
-3.000558e+09 -2.800568e+09 -2.960575e+09 -3.110328e+04 -6.039929e+03 1.152018e+04
-2.794012e+09 -2.594021e+09 -2.754025e+09 -3.765266e+03 -1.095670e+03 2.380888e+03
-2.593426e+09 -2.393433e+09 -2.553439e+09 -4.110329e+03 -1.111375e+03 3.306547e+03
-3.210960e+09 -3.010969e+09 -3.170975e+09 -4.167973e+03 -1.598334e+03 2.911201e+03
-3.397393e+09 -3.197400e+09 -3.357405e+09 -2.891739e+03 -1.229546e+03 1.358146e+03
-3.388315e+09 -3.188256e+09 -3.348302e+09 -1.177855e+04 -1.013713e+04 4.601285e+03
-3.210330e+09 -3.010337e+09 -3.170345e+09 -4.182980e+03 -1.659203e+03 2.959443e+03
-1.943370e+09 -1.743390e+09 -1.903380e+09 -3.871509e+03 -8.804049e+03 1.445810e+04
-1.969404e+09 -1.769407e+09 -1.929413e+09 -5.012266e+03 -3.641042e+03 4.158444e+03
-2.650221e+09 -2.450205e+09 -2.610226e+09 -1.282310e+04 -1.227948e+04 7.392626e+03
-3.527246e+09 -3.327252e+09 -3.487265e+09 9.573327e+03 3.986119e+03 4.961557e+03
-3.278257e+09 -3.078259e+09 -3.238268e+09 -4.026411e+03 -1.900865e+03 2.360470e+03
-1.794317e+09 -1.594340e+09 -1.754343e+09 -2.041265e+03 -1.386742e+03 1.708029e+04
-3.527246e+09 -3.327255e+09 -3.487266e+09 1.050659e+04 3.605636e+03 5.263771e+03
-2.113395e+09 -1.913418e+09 -2.073418e+09 2.193882e+03 6.942528e+02 1.340677e+04
-1.857804e+09 -1.657811e+09 -1.817815e+09 -2.982541e+03 -1.704328e+03 4.955449e+03
-2.389094e+09 -2.189115e+09 -2.349116e+09 -4.583959e+02 1.001281e+02 9.973029e+03
-1.770180e+09 -1.570198e+09 -1.730197e+09 2.981353e+03 -2.052584e+02 1.099598e+04
-1.580670e+09 -1.380670e+09 -1.540674e+09 -2.200858e+03 -8.676807e+03 7.451954e+03
-3.588227e+09 -3.388086e+09 -3.548033e+09 1.633516e+03 -8.779080e+03 -7.833243e+03
-1.809372e+09 -1.609383e+09 -1.769386e+09 -3.650024e+03 -4.066320e+03 7.833579e+03
-3.607651e+09 -3.407642e+09 -3.567661e+09 6.883937e+03 5.093731e+03 2.534474e+03
-2.772980e+09 -2.572956e+09 -2.732982e+09 -6.013279e+03 1.126067e+04 -4.309030e+03
-2.674656e+09 -2.474641e+09 -2.634661e+09 -4.512373e+03 1.020022e+04 -2.640597e+03
-3.401916e+09 -3.201835e+09 -3.361876e+09 -2.101201e+04 1.465932e+04 -7.332375e+03
-1.782678e+09 -1.582670e+09 -1.742677e+09 -4.658042e+02 1.199829e+04 -5.072494e+03
-1.974845e+09 -1.774829e+09 -1.934846e+09 -2.513466e+03 1.625155e+04 -5.252524e+03
-1.593396e+09 -1.393395e+09 -1.553395e+09 -2.038017e+03 -9.956805e+03 1.245460e+04
-1.769464e+09 -1.569448e+09 -1.729466e+09 -1.260169e+03 1.564427e+04 -5.434283e+03
-2.408538e+09 -2.208553e+09 -2.368557e+09 5.774135e+03 3.362199e+03 9.597526e+03
-2.826868e+09 -2.626888e+09 -2.786891e+09 7.244289e+03 2.225545e+03 7.007606e+03
-3.431990e+09 -3.232005e+09 -3.392010e+09 6.026937e+03 1.418682e+03 4.365807e+03
-1.571888e+09 -1.371883e+09 -1.531868e+09 3.466594e+03 -2.029177e+04 1.050807e+04
-1.562694e+09 -1.362691e+09 -1.522688e+09 -4.692336e+02 -1.441060e+04 9.713359e+03
-2.042413e+09 -1.842421e+09 -2.002424e+09 -2.347846e+03 -7.047813e+02 1.944608e+03
-2.587831e+09 -2.387837e+09 -2.547842e+09 -3.075306e+03 -9.045588e+02 1.711785e+03
-1.998694e+09 -1.798701e+09 -1.958705e+09 -3.055255e+03 -1.316133e+03 2.200944e+03
-1.772248e+09 -1.572258e+09 -1.732260e+09 -2.782688e+03 -1.513468e+03 3.021355e+03
-2.549582e+09 -2.349591e+09 -2.509596e+09 -3.316654e+03 -1.749055e+03 3.389311e+03
-3.284030e+09 -3.084006e+09 -3.243969e+09 -6.820977e+04 -7.808807e+03 -1.525279e+04
-2.878847e+09 -2.678850e+09 -2.838749e+09 -5.631429e+04 4.012015e+04 -2.610517e+04
-2.507488e+09 -2.307429e+09 -2.467424e+09 -5.119186e+04 2.470489e+04 -2.361703e+04
-3.213137e+09 -3.013076e+09 -3.173047e+09 -5.029728e+04 2.089218e+04 -1.450276e+03
-2.638301e+09 -2.438228e+09 -2.598280e+09 -3.610508e+04 -1.255960e+04 6.917791e+03
-2.085550e+09 -1.885525e+09 -2.045523e+09 -3.850312e+04 -7.425311e+03 -5.175800e+03
-3.392956e+09 -3.192944e+09 -3.352971e+09 -2.455328e+04 -1.308941e+04 9.044405e+03
-3.403684e+09 -3.203626e+09 -3.363583e+09 -5.729771e+04 2.111298e+04 -8.320644e+03
-3.135232e+09 -2.935495e+09 -3.094668e+09 -2.872162e+04 -1.831589e+03 -3.412679e+05
-3.501379e+09 -3.301431e+09 -3.461419e+09 4.012954e+04 -7.655915e+03 -6.041675e+03
-2.439313e+09 -2.239411e+09 -2.399309e+09 9.670932e+03 -9.976197e+03 -2.801265e+04
-2.540160e+09 -2.340183e+09 -2.499959e+09 -8.589952e+04 7.930400e+04 -1.410635e+05
-1.694421e+09 -1.494420e+09 -1.654408e+09 -3.224069e+03 3.537107e+03 -1.588322e+04
-3.593442e+09 -3.393348e+09 -3.553409e+09 2.614796e+04 -8.480862e+03 -5.709473e+03
-3.142324e+09 -2.942438e+09 -3.102258e+09 -6.205444e+04 4.522893e+04 -7.290141e+04
-2.424415e+09 -2.224520e+09 -2.383750e+09 9.947619e+04 -1.199700e+05 -5.511484e+05
-2.818765e+09 -2.618790e+09 -2.778240e+09 -1.455071e+05 2.251051e+05 -3.330805e+05
-3.217591e+09 -3.017518e+09 -3.177560e+09 6.525135e+03 -7.253559e+03 1.593424e+03
-3.295915e+09 -3.095877e+09 -3.255919e+09 7.415510e+03 -1.434672e+04 -1.410441e+03
-3.090806e+09 -2.890879e+09 -3.050729e+09 -4.946007e+04 -4.486985e+04 6.244834e+04
-1.887692e+09 -1.687745e+09 -1.847707e+09 -2.306132e+04 -1.868693e+04 1.892206e+04
-2.951148e+09 -2.751208e+09 -2.911162e+09 -2.932686e+04 -4.364306e+03 3.862056e+03
-3.111619e+09 -2.911662e+09 -3.071596e+09 -4.697410e+04 3.950550e+03 2.391554e+04
-2.441847e+09 -2.241959e+09 -2.401715e+09 -1.563609e+04 1.992834e+03 1.230430e+05
-1.732726e+09 -1.532738e+09 -1.692715e+09 -7.241850e+03 -5.177754e+03 -8.850855e+03
-1.570587e+09 -1.370583e+09 -1.530586e+09 1.493650e+03 1.252929e+04 1.170692e+04
-2.711573e+09 -2.511629e+09 -2.671540e+09 -4.365689e+04 -4.884659e+03 1.614535e+03
-3.399479e+09 -3.199559e+09 -3.359463e+09 -5.375880e+04 -9.720694e+03 1.052054e+04
-2.282594e+09 -2.082672e+09 -2.242621e+09 -5.829002e+04 -3.342044e+04 2.982522e+04
-3.068993e+09 -2.869058e+09 -3.028850e+09 -7.800381e+04 -2.991537e+04 7.592692e+04
-2.470143e+09 -2.270165e+09 -2.429976e+09 -6.275858e+04 -2.482182e+04 8.097591e+04
-2.214299e+09 -2.014312e+09 -2.174313e+09 -7.894450e+02 -2.187225e+02 2.491480e+03
-2.712167e+09 -2.512180e+09 -2.672182e+09 2.471683e+03 8.803739e+02 3.660069e+03
-2.424020e+09 -2.223867e+09 -2.383722e+09 8.666946e+04 1.741679e+05 4.871274e+04
-3.438589e+09 -3.238403e+09 -3.398183e+09 -9.819390e+03 9.054343e+04 -3.789743e+04
-3.607328e+09 -3.407352e+09 -3.567357e+09 6.417122e+03 1.884561e+03 6.100597e+03
-2.781928e+09 -2.581873e+09 -2.741896e+09 -1.206512e+04 2.618623e+04 -4.092592e+03
-1.890988e+09 -1.690997e+09 -1.850999e+09 2.128449e+03 5.705493e+02 1.928325e+03
-2.120321e+09 -1.920323e+09 -2.080328e+09 2.068740e+03 8.759058e+02 8.963806e+02
-2.685762e+09 -2.485653e+09 -2.645593e+09 6.579366e+04 -4.202957e+04 -3.056128e+04
-3.373155e+09 -3.173050e+09 -3.332957e+09 5.912440e+04 -5.421049e+04 -1.052157e+04
-3.108632e+09 -2.908609e+09 -3.068636e+09 -3.680365e+03 1.023536e+04 -1.914056e+03
-3.005244e+09 -2.805115e+09 -2.965120e+09 2.534819e+04 -2.959911e+04 -1.170742e+04
-2.574118e+09 -2.373978e+09 -2.533940e+09 2.452509e+04 -9.279182e+04 -5.700060e+04
-3.154020e+09 -2.953866e+09 -3.113740e+09 9.126085e+04 -1.512769e+05 -1.023366e+05
-3.317646e+09 -3.117519e+09 -3.277412e+09 7.264836e+04 -1.419559e+05 -9.791155e+04
-3.304860e+09 -3.104852e+09 -3.264870e+09 7.370506e+03 5.308730e+03 1.616914e+03
-2.176920e+09 -1.976761e+09 -2.136781e+09 4.877811e+04 -3.054582e+05 1.361351e+04
-1.603842e+09 -1.403841e+09 -1.563837e+09 1.672503e+03 1.913592e+04 -1.049195e+04
-3.609237e+09 -3.409201e+09 -3.569241e+09 -4.666413e+03 1.100422e+04 -1.752291e+03
-2.823706e+09 -2.623775e+09 -2.783693e+09 4.377386e+04 -3.085277e+03 6.695477e+03
-2.081924e+09 -1.881941e+09 -2.041937e+09 2.207820e+04 4.644390e+03 2.560132e+04
-2.726366e+09 -2.526414e+09 -2.686374e+09 3.231092e+04 1.798853e+04 1.245366e+04
-2.473949e+09 -2.273966e+09 -2.433941e+09 3.007775e+04 5.560067e+03 -2.288073e+03
-3.146612e+09 -2.946607e+09 -3.106624e+09 1.527247e+04 -1.195804e+04 -8.492018e+03
-1.592605e+09 -1.392603e+09 -1.552595e+09 1.093111e+03 2.421019e+04 -2.001067e+03
-3.556855e+09 -3.356800e+09 -3.516801e+09 6.024089e+04 -2.469085e+03 -6.075618e+03
-2.464992e+09 -2.264982e+09 -2.424994e+09 1.500603e+04 -1.849007e+04 -1.113945e+04
-2.608504e+09 -2.408525e+09 -2.568526e+09 4.181908e+02 9.766998e+02 7.274818e+03
-3.178989e+09 -2.978964e+09 -3.139000e+09 2.809669e+04 -2.750273e+03 -4.233698e+03
-2.797046e+09 -2.597022e+09 -2.757054e+09 2.174525e+04 -1.838866e+04 -1.066761e+04
-3.392029e+09 -3.192015e+09 -3.352046e+09 2.650482e+04 -1.194924e+04 -9.744242e+03
-1.582225e+09 -1.382235e+09 -1.542237e+09 -1.541919e+03 -8.054594e+02 2.516317e+03
-1.589425e+09 -1.389419e+09 -1.549415e+09 -6.750738e+01 2.396747e+04 1.634996e+04
-3.367766e+09 -3.167763e+09 -3.327781e+09 4.029559e+04 -8.091899e+03 -1.236549e+04
-3.593674e+09 -3.393741e+09 -3.553729e+09 -1.545639e+04 -4.300212e+02 1.437225e+04
-1.925909e+09 -1.725910e+09 -1.885916e+09 2.068328e+03 1.000705e+03 8.342687e+02
-1.583035e+09 -1.383040e+09 -1.543043e+09 2.824282e+03 4.221058e+03 9.946660e+03
-2.407275e+09 -2.207292e+09 -2.367294e+09 9.938442e+02 2.523593e+02 6.684255e+03
-2.858739e+09 -2.658726e+09 -2.818744e+09 4.324853e+03 6.401869e+03 2.790793e+03
-1.675588e+09 -1.475582e+09 -1.635591e+09 1.885900e+03 7.192771e+03 3.683521e+03
-1.866806e+09 -1.666798e+09 -1.826809e+09 4.393919e+03 1.068184e+04 3.654533e+03
-1.960962e+09 -1.760954e+09 -1.920967e+09 5.665195e+03 7.668393e+03 3.004210e+03
-3.584536e+09 -3.384463e+09 -3.544523e+09 -2.177332e+03 1.576528e+04 -4.020228e+02
-1.658365e+09 -1.458358e+09 -1.618367e+09 1.371737e+03 9.281000e+03 3.825428e+03
-1.700217e+09 -1.500221e+09 -1.660212e+09 -2.919260e+03 6.818780e+03 4.369498e+03
-3.270218e+09 -3.070200e+09 -3.230229e+09 1.050019e+04 -1.039505e+04 -5.737560e+03
-2.181665e+09 -1.981654e+09 -2.141672e+09 7.038705e+03 -1.335862e+04 -8.563154e+03
-1.977432e+09 -1.777415e+09 -1.937434e+09 3.445672e+03 -7.863100e+03 -4.270868e+03
-1.977428e+09 -1.777426e+09 -1.937436e+09 5.232963e+03 -7.906530e+03 -4.226455e+03
-1.683091e+09 -1.483087e+09 -1.643070e+09 -3.388925e+01 1.684219e+04 -1.227780e+04
-1.988397e+09 -1.788390e+09 -1.948398e+09 8.193985e+02 -1.061704e+04 -7.035520e+03
-2.436282e+09 -2.236266e+09 -2.396288e+09 6.682236e+03 -1.528176e+04 -8.248522e+03
-3.618070e+09 -3.417954e+09 -3.577770e+09 8.239562e+04 5.923954e+04 3.475157e+04
-2.887407e+09 -2.687394e+09 -2.847416e+09 5.154544e+03 -9.586257e+03 -5.610969e+03
-1.973690e+09 -1.773677e+09 -1.933688e+09 -1.372992e+03 -1.095872e+04 -5.238882e+03
-3.125660e+09 -2.925649e+09 -3.085671e+09 -9.981333e+03 -8.383790e+03 5.088058e+03
-2.204474e+09 -2.004466e+09 -2.164479e+09 -6.085551e+03 -9.334114e+03 6.885170e+03
-3.293168e+09 -3.093163e+09 -3.253177e+09 5.867748e+03 3.543656e+03 1.902402e+03
-1.964815e+09 -1.764896e+09 -1.924878e+09 -1.039313e+04 -4.966826e+03 2.493464e+04
-3.578216e+09 -3.378170e+09 -3.538215e+09 2.017077e+04 1.485951e+04 7.015541e+03
-3.604034e+09 -3.404007e+09 -3.564048e+09 -2.417485e+04 8.483873e+03 -5.348183e+03
-1.899098e+09 -1.699087e+09 -1.859101e+09 -3.334388e+03 -1.188342e+04 6.859165e+03
-1.643341e+09 -1.443334e+09 -1.603343e+09 1.234853e+02 1.362469e+04 -5.437660e+02
-1.951468e+09 -1.751459e+09 -1.911470e+09 -7.250352e+03 -1.543972e+04 1.083140e+04
-2.212149e+09 -2.012131e+09 -2.172149e+09 -2.160826e+03 1.108338e+04 -2.593066e+03
-1.781483e+09 -1.581490e+09 -1.741489e+09 -4.492216e+03 -1.196491e+04 8.637023e+03
-1.612496e+09 -1.412495e+09 -1.572495e+09 1.407918e+03 2.165129e+04 -2.793752e+03
-1.592259e+09 -1.392261e+09 -1.552233e+09 3.598960e+03 2.442343e+04 -7.602667e+03
-2.605019e+09 -2.405014e+09 -2.565026e+09 -7.396695e+03 -1.078364e+04 7.621016e+03
-1.612495e+09 -1.412493e+09 -1.572493e+09 3.023508e+03 2.271140e+04 -1.317932e+03
-2.204157e+09 -2.004148e+09 -2.164161e+09 -6.279787e+03 -9.358048e+03 6.441407e+03
-1.574159e+09 -1.374162e+09 -1.534100e+09 -4.206204e+03 1.292615e+03 -1.568065e+04
-3.261173e+09 -3.061179e+09 -3.221130e+09 -5.167712e+04 -5.946631e+02 -6.151162e+03
-1.576889e+09 -1.376889e+09 -1.536885e+09 -4.304663e+02 -4.875253e+03 6.941343e+03
-2.481443e+09 -2.281466e+09 -2.441413e+09 -3.915271e+04 -6.233156e+02 5.985995e+03
-2.066267e+09 -1.866218e+09 -2.026209e+09 -1.413398e+04 2.890810e+04 -6.928099e+03
-3.130691e+09 -2.930596e+09 -3.090505e+09 -4.309070e+04 2.679122e+04 -2.695313e+04
-2.435646e+09 -2.235640e+09 -2.395659e+09 -4.429680e+04 2.478502e+03 -3.482602e+03
-3.272231e+09 -3.072224e+09 -3.232194e+09 -6.793013e+04 -2.514771e+02 -1.008465e+04
-1.773893e+09 -1.573755e+09 -1.733133e+09 9.027669e+04 4.343176e+05 1.167567e+04
-3.578950e+09 -3.378917e+09 -3.538957e+09 -1.230500e+04 1.384668e+04 -5.162791e+03
-3.496331e+09 -3.296388e+09 -3.456352e+09 -4.096618e+04 4.194739e+03 -1.189178e+04
-3.016012e+09 -2.816045e+09 -2.975974e+09 -8.781356e+04 5.648216e+04 -4.400225e+04
-3.004273e+09 -2.804265e+09 -2.964208e+09 -8.066039e+04 5.542014e+04 -3.288766e+04
-2.784973e+09 -2.584924e+09 -2.744964e+09 3.500545e+03 1.863926e+04 -8.222440e+02
-2.592901e+09 -2.392862e+09 -2.552901e+09 5.533058e+03 1.840306e+04 2.317053e+03
-3.199590e+09 -2.999546e+09 -3.159586e+09 6.392093e+03 1.227507e+04 2.379786e+03
-2.158179e+09 -1.958159e+09 -2.118179e+09 -1.621820e+03 1.350995e+04 -1.200573e+03
-2.199531e+09 -1.999511e+09 -2.159531e+09 1.916005e+03 1.295520e+04 1.581959e+03
-2.006214e+09 -1.806253e+09 -1.966214e+09 3.217297e+02 -5.379990e+03 -6.943927e+03
-1.601528e+09 -1.401527e+09 -1.561523e+09 2.083437e+03 1.378369e+04 -8.540021e+03
-3.594255e+09 -3.394266e+09 -3.554270e+09 3.439521e+03 7.134659e+02 1.796831e+03
-3.240918e+09 -3.040933e+09 -3.200935e+09 -1.159354e+03 -2.478651e+02 2.946778e+03
-1.569191e+09 -1.369188e+09 -1.529190e+09 1.001856e+03 1.513016e+04 6.872372e+03
-2.568424e+09 -2.368446e+09 -2.528451e+09 7.932394e+03 4.413632e+03 9.708015e+03
-3.590960e+09 -3.390951e+09 -3.550977e+09 3.490502e+04 9.385705e+03 1.057390e+04
-2.350497e+09 -2.150557e+09 -2.310516e+09 -2.539535e+04 7.630505e+02 -2.596743e+04
-3.344993e+09 -3.145135e+09 -3.305028e+09 -1.956480e+04 -2.146664e+03 2.983849e+04
-2.650921e+09 -2.450929e+09 -2.610933e+09 2.444857e+03 5.263060e+02 1.765099e+03
-3.596762e+09 -3.396766e+09 -3.556775e+09 5.127879e+03 1.728786e+03 2.154805e+03
-3.050344e+09 -2.850496e+09 -3.010331e+09 -2.828945e+04 -5.504844e+03 9.751321e+04
-2.044502e+09 -1.844529e+09 -2.004518e+09 -2.609181e+04 1.048214e+04 -1.353398e+04
-3.167298e+09 -2.967290e+09 -3.127304e+09 3.874568e+03 4.083848e+03 2.920714e+03
-1.962945e+09 -1.762952e+09 -1.922956e+09 4.015860e+03 4.245543e+03 6.505724e+03
-1.906977e+09 -1.706976e+09 -1.866984e+09 5.657926e+03 5.593573e+03 7.125789e+03
-1.923891e+09 -1.723868e+09 -1.883885e+09 1.051360e+04 1.661474e+04 7.441647e+03
-3.118518e+09 -2.918527e+09 -3.078541e+09 -2.430193e+04 -1.193989e+04 1.742045e+04
-2.168234e+09 -1.968239e+09 -2.128245e+09 4.434506e+03 3.296602e+03 4.232893e+03
-2.956184e+09 -2.756188e+09 -2.916201e+09 1.052962e+04 5.497960e+03 6.729377e+03
-2.556746e+09 -2.356755e+09 -2.516759e+09 -2.152484e+03 -1.118995e+03 1.813991e+03
-2.314012e+09 -2.114056e+09 -2.274041e+09 -2.449965e+04 1.018493e+04 -1.060057e+04
-3.570909e+09 -3.370916e+09 -3.530932e+09 -1.808378e+04 -6.213689e+03 7.899468e+03
-2.710850e+09 -2.510860e+09 -2.670863e+09 -2.417468e+03 -8.754793e+02 2.040525e+03
-3.409554e+09 -3.209565e+09 -3.369569e+09 -3.428941e+03 -9.767041e+02 2.061243e+03
-3.395281e+09 -3.195290e+09 -3.355295e+09 -3.605695e+03 -9.325442e+02 2.146216e+03
-2.591983e+09 -2.391942e+09 -2.551984e+09 -1.569865e+02 1.900236e+04 3.762217e+01
-3.601134e+09 -3.401109e+09 -3.561145e+09 -1.499448e+04 8.110390e+03 -3.239329e+03
-2.810392e+09 -2.610366e+09 -2.770396e+09 7.623600e+03 1.209124e+04 4.223515e+03
-2.366661e+09 -2.166645e+09 -2.326665e+09 -2.549971e+03 1.212919e+04 -3.462377e+03
-3.274300e+09 -3.074414e+09 -3.234370e+09 1.482547e+04 -5.444706e+02 4.076431e+03
-1.601054e+09 -1.401078e+09 -1.560529e+09 1.637522e+04 -3.852139e+05 -3.123147e+05
-3.378717e+09 -3.178684e+09 -3.338716e+09 1.431990e+04 1.221878e+04 4.015317e+03
-2.405487e+09 -2.205470e+09 -2.365489e+09 6.538990e+03 1.671169e+04 4.594280e+03
-2.830942e+09 -2.630918e+09 -2.790945e+09 9.958023e+03 1.264337e+04 3.715314e+03
-3.221843e+09 -3.021816e+09 -3.181848e+09 1.299864e+04 1.277671e+04 5.592251e+03
-3.463649e+09 -3.263692e+09 -3.423689e+09 3.251049e+03 8.531436e+02 1.122300e+04
-2.577281e+09 -2.377293e+09 -2.537296e+09 2.120940e+03 9.198757e+02 2.986718e+03
-1.812055e+09 -1.612066e+09 -1.772068e+09 -2.666660e+03 -1.186560e+03 6.200639e+03
-2.584867e+09 -2.384836e+09 -2.544873e+09 1.030812e+04 1.570182e+04 4.927866e+03
-3.299427e+09 -3.099460e+09 -3.259458e+09 -2.298873e+04 -9.309228e+03 1.334073e+04
-2.496068e+09 -2.296102e+09 -2.456052e+09 -3.436545e+04 6.878267e+01 5.624645e+03
-3.032165e+09 -2.832158e+09 -2.992134e+09 -4.248371e+04 3.507056e+03 -1.078654e+04
-3.102021e+09 -2.902048e+09 -3.062050e+09 -2.938548e+04 -6.135126e+03 6.902676e+03
-3.394893e+09 -3.194922e+09 -3.354902e+09 -4.560743e+04 -2.425416e+03 3.726910e+03
-3.382368e+09 -3.182395e+09 -3.342351e+09 -5.712276e+04 6.359276e+03 2.958106e+03
-3.591869e+09 -3.391855e+09 -3.551883e+09 -1.239538e+04 1.111617e+04 -4.949303e+03
-2.403081e+09 -2.203069e+09 -2.363084e+09 -5.547853e+03 1.098606e+04 -6.411839e+03
-2.503676e+09 -2.303688e+09 -2.463691e+09 2.075822e+03 1.135388e+03 3.625321e+03
-3.489657e+09 -3.289674e+09 -3.449675e+09 1.518279e+02 -1.723735e+01 2.113089e+03
-2.588006e+09 -2.387997e+09 -2.548015e+09 -5.585590e+03 1.240959e+04 -6.658869e+03
-3.490358e+09 -3.290368e+09 -3.450372e+09 -2.278604e+03 -4.075320e+02 1.247091e+03
-1.586433e+09 -1.386443e+09 -1.546444e+09 -1.670118e+03 -1.533663e+03 5.154597e+03
-1.578486e+09 -1.378497e+09 -1.538498e+09 -1.133766e+03 -6.432611e+02 3.011743e+03
-3.205633e+09 -3.005617e+09 -3.165640e+09 -7.433012e+03 8.402799e+03 -3.798857e+03
-3.181257e+09 -2.981276e+09 -3.141279e+09 -1.810385e+03 -3.437024e+02 4.658857e+03
-3.301699e+09 -3.101685e+09 -3.261717e+09 -1.719578e+04 1.185198e+04 -7.351888e+03
-3.055121e+09 -2.855111e+09 -3.015138e+09 -1.405611e+04 1.204755e+04 -6.676976e+03
-3.604034e+09 -3.404020e+09 -3.564052e+09 -1.647251e+04 1.117433e+04 -7.869614e+03
-1.580780e+09 -1.380780e+09 -1.540721e+09 -3.806912e+03 4.986821e+04 -3.402453e+04
-1.784731e+09 -1.584736e+09 -1.744737e+09 4.927980e+03 3.607338e+03 1.191060e+04
-3.616824e+09 -3.416840e+09 -3.576844e+09 2.868634e+03 7.669916e+02 3.306105e+03
-2.515802e+09 -2.315702e+09 -2.475738e+09 -2.065085e+04 3.834935e+04 9.873207e+03
-3.583339e+09 -3.383354e+09 -3.543356e+09 1.562741e+03 2.680071e+02 2.371806e+03
-1.600177e+09 -1.400190e+09 -1.560190e+09 6.037462e+02 2.475700e+02 8.758158e+03
-2.093987e+09 -1.893911e+09 -2.053950e+09 -1.356530e+04 -2.718311e+04 -7.857077e+03
-3.409691e+09 -3.209641e+09 -3.369680e+09 -3.616338e+04 -1.897304e+04 8.929877e+03
-3.114474e+09 -2.914486e+09 -3.074489e+09 2.663411e+03 6.654818e+02 2.481492e+03
-2.532466e+09 -2.332380e+09 -2.492371e+09 -1.293752e+04 1.240913e+03 3.541204e+03
-1.963333e+09 -1.763347e+09 -1.923347e+09 7.926704e+02 2.408593e+02 2.364520e+03
-1.580797e+09 -1.380799e+09 -1.540801e+09 4.694939e+03 -3.327802e+04 1.890270e+04
-2.710410e+09 -2.510288e+09 -2.670313e+09 -2.809395e+04 2.993343e+04 1.580068e+03
-2.440676e+09 -2.240695e+09 -2.400697e+09 9.999794e+02 9.511164e+02 8.387994e+03
-3.500536e+09 -3.300516e+09 -3.460546e+09 -1.077672e+04 -8.100362e+03 4.033077e+03
-3.197799e+09 -2.997745e+09 -3.157789e+09 -1.326496e+04 -1.120999e+04 2.370302e+03
-1.771038e+09 -1.571053e+09 -1.731052e+09 -3.580157e+03 -7.927270e+02 9.948517e+03
-2.683510e+09 -2.483535e+09 -2.643535e+09 1.568840e+03 1.646770e+02 8.447535e+03
-1.796987e+09 -1.597002e+09 -1.757001e+09 1.740228e+03 9.401558e+01 8.630941e+03
-2.559599e+09 -2.359622e+09 -2.519623e+09 -7.506028e+02 9.699361e+01 9.709251e+03
-2.041411e+09 -1.841399e+09 -2.001415e+09 -9.795770e+03 -1.760764e+04 3.782732e+03
-1.789188e+09 -1.589192e+09 -1.749196e+09 -2.485277e+03 -1.718142e+03 1.642140e+03
-2.015710e+09 -1.815715e+09 -1.975719e+09 -3.277252e+03 -1.436356e+03 2.238124e+03
-1.805305e+09 -1.605309e+09 -1.765314e+09 -3.571211e+03 -1.510744e+03 2.426314e+03
-2.397647e+09 -2.197651e+09 -2.357658e+09 -3.692488e+03 -2.810005e+03 3.871524e+03
-2.011426e+09 -1.811431e+09 -1.971436e+09 -4.225372e+03 -3.096836e+03 4.265068e+03
-1.812469e+09 -1.612474e+09 -1.772478e+09 -2.918966e+03 -2.164347e+03 3.626682e+03
-2.964162e+09 -2.764147e+09 -2.924175e+09 8.225251e+03 -1.123630e+04 -4.350361e+03
-3.174990e+09 -2.974974e+09 -3.135003e+09 1.039400e+04 -9.788943e+03 -3.677834e+03
-3.110974e+09 -2.910940e+09 -3.070982e+09 1.950552e+04 -1.044399e+04 -8.862500e+03
-3.481042e+09 -3.281025e+09 -3.441057e+09 1.075295e+04 -9.881433e+03 -5.455652e+03
-3.186725e+09 -2.986702e+09 -3.146733e+09 6.889429e+03 -9.620276e+03 -4.428885e+03
-2.090440e+09 -1.890413e+09 -2.050438e+09 4.778737e+03 -1.664905e+04 -6.391744e+03
-2.630806e+09 -2.430789e+09 -2.590812e+09 -6.437358e+03 -1.565843e+04 8.631566e+03
-3.064343e+09 -2.864319e+09 -3.024349e+09 7.498756e+03 -1.257523e+04 -4.755851e+03
-1.692956e+09 -1.492952e+09 -1.652958e+09 1.201396e+02 -1.419688e+04 2.745496e+03
-2.448691e+09 -2.248675e+09 -2.408697e+09 8.228132e+03 -1.643941e+04 -7.485025e+03
-3.492777e+09 -3.292749e+09 -3.452785e+09 1.127015e+04 -1.150559e+04 -3.790868e+03
-3.618011e+09 -3.417998e+09 -3.577783e+09 9.439697e+04 3.337940e+04 4.661378e+04
-3.603880e+09 -3.403803e+09 -3.563867e+09 -1.354463e+04 -1.871231e+04 6.183473e+03
-1.594092e+09 -1.394088e+09 -1.554093e+09 -1.769214e+03 -2.236165e+04 -5.385075e+03
-3.158322e+09 -2.958155e+09 -3.116933e+09 4.435255e+04 3.350975e+05 1.083589e+05
-3.492778e+09 -3.292746e+09 -3.452784e+09 8.944707e+03 -1.032057e+04 -3.522503e+03
-3.600477e+09 -3.400416e+09 -3.560475e+09 2.069681e+03 -1.246628e+04 -3.227570e+02
-2.043472e+09 -1.843496e+09 -2.003493e+09 -3.850112e+02 1.052573e+03 1.266994e+04
-3.442342e+09 -3.242220e+09 -3.401574e+09 9.464294e+04 1.613539e+05 1.310038e+05
-2.178045e+09 -1.978028e+09 -2.138044e+09 1.113010e+03 -1.381414e+04 -2.584843e+03
-2.628142e+09 -2.428115e+09 -2.588138e+09 -9.098142e+02 -2.218924e+04 -9.067349e+02
-3.632862e+09 -3.432720e+09 -3.591947e+09 7.491639e+04 1.795936e+05 7.898440e+04
-3.588031e+09 -3.388206e+09 -3.547661e+09 -2.407216e+04 2.638537e+04 -9.659531e+04
-2.772256e+09 -2.572299e+09 -2.731844e+09 1.457740e+05 1.641138e+05 1.579909e+05
-2.784079e+09 -2.584025e+09 -2.743514e+09 8.280731e+04 9.488516e+04 6.159636e+04
-3.179292e+09 -2.979337e+09 -3.138773e+09 1.477406e+05 1.866636e+05 1.682499e+05
-3.392432e+09 -3.192431e+09 -3.351741e+09 1.032878e+05 1.607566e+05 1.331774e+05
-3.053938e+09 -2.853830e+09 -3.013869e+09 -1.496187e+04 1.462417e+04 -2.637310e+03
-2.397512e+09 -2.197464e+09 -2.357485e+09 4.279257e+03 -2.466520e+04 -2.116178e+03
-1.874779e+09 -1.674748e+09 -1.834669e+09 -2.580626e+03 1.367670e+04 -5.743112e+03
-3.275482e+09 -3.075535e+09 -3.233636e+09 3.344052e+04 2.288539e+04 2.168513e+05
-2.726895e+09 -2.526793e+09 -2.686827e+09 7.980969e+03 1.272529e+04 1.577782e+04
-2.747258e+09 -2.547151e+09 -2.707172e+09 -4.773568e+03 1.254107e+04 -2.125059e+03
-3.419468e+09 -3.219361e+09 -3.379411e+09 1.371728e+04 -1.347755e+04 -3.476411e+03
-1.702002e+09 -1.502030e+09 -1.662019e+09 3.598283e+03 -7.040393e+03 1.373086e+04
-2.462258e+09 -2.262301e+09 -2.422273e+09 -3.052436e+04 -4.353694e+03 3.791125e+03
-2.444807e+09 -2.244850e+09 -2.404811e+09 -1.879925e+04 2.787868e+03 7.883993e+03
-1.865349e+09 -1.665360e+09 -1.825353e+09 -1.799193e+04 -1.829692e+03 1.375856e+04
-2.549651e+09 -2.349636e+09 -2.509661e+09 1.073339e+04 -1.583698e+04 -9.835741e+03
-2.062293e+09 -1.862324e+09 -2.022318e+09 -2.987401e+04 -8.080351e+03 -2.629264e+03
-1.582930e+09 -1.382925e+09 -1.542933e+09 1.667539e+02 -2.525280e+04 1.568826e+03
-2.218056e+09 -2.018036e+09 -2.178053e+09 2.653735e+03 -1.583370e+04 1.172419e+03
-2.008776e+09 -1.808803e+09 -1.968799e+09 -3.844342e+03 -1.704380e+03 1.761242e+04
-2.575729e+09 -2.375694e+09 -2.535727e+09 -4.810222e+03 -2.396770e+04 2.264711e+03
-1.806794e+09 -1.606774e+09 -1.766795e+09 2.912781e+02 -2.623351e+04 3.807860e+03
-3.256501e+09 -3.056533e+09 -3.216540e+09 2.142302e+04 7.763568e+03 1.432863e+04
-3.043648e+09 -2.843670e+09 -3.003677e+09 1.708052e+04 4.516409e+03 1.260916e+04
-2.156222e+09 -1.956239e+09 -2.116244e+09 1.185720e+04 6.197615e+03 9.491761e+03
-1.595729e+09 -1.395725e+09 -1.555728e+09 3.057107e+02 1.674852e+04 1.828156e+03
-2.369704e+09 -2.169723e+09 -2.329726e+09 7.548969e+03 5.059097e+03 1.281229e+04
-1.780234e+09 -1.580239e+09 -1.740236e+09 5.955199e+03 4.766291e+03 1.649073e+04
-2.442644e+09 -2.242662e+09 -2.402659e+09 1.125312e+04 4.765021e+03 1.800976e+04
-1.581104e+09 -1.381101e+09 -1.541103e+09 2.988123e+02 1.768008e+04 -1.308154e+02
-1.961943e+09 -1.761917e+09 -1.921938e+09 8.982846e+03 1.936109e+04 6.852291e+03
-1.983893e+09 -1.783913e+09 -1.943911e+09 8.905989e+03 6.679433e+03 1.733355e+04
-3.499280e+09 -3.299253e+09 -3.459284e+09 -3.541529e+03 7.433909e+03 -1.470793e+03
-2.376706e+09 -2.176710e+09 -2.336719e+09 1.256628e+04 7.693709e+03 1.202837e+04
-2.586547e+09 -2.386544e+09 -2.546562e+09 2.342973e+04 1.396264e+04 1.576275e+04
-3.601139e+09 -3.401119e+09 -3.561149e+09 -1.161733e+04 1.021354e+04 -4.340242e+03
-3.145604e+09 -2.945582e+09 -3.105608e+09 6.328748e+03 9.659486e+03 1.066715e+03
-2.351647e+09 -2.151644e+09 -2.311657e+09 1.169756e+04 1.194073e+04 9.869727e+03
-1.850967e+09 -1.650951e+09 -1.810968e+09 1.387903e+03 1.285893e+04 8.642245e+02
-2.353664e+09 -2.153658e+09 -2.313673e+09 1.082539e+04 1.521990e+04 1.289323e+04
-1.582765e+09 -1.382769e+09 -1.542752e+09 -1.474914e+03 1.831734e+04 4.356573e+02
-3.238544e+09 -3.038559e+09 -3.198561e+09 -4.458570e+02 -2.373945e+02 2.831444e+03
-3.394389e+09 -3.194409e+09 -3.354411e+09 6.926510e+02 1.582618e+02 3.918032e+03
-3.254230e+09 -3.054247e+09 -3.214249e+09 9.493704e+02 1.492625e+02 3.476913e+03
-2.157783e+09 -1.957798e+09 -2.117798e+09 5.411465e+02 2.917538e+02 3.602774e+03
-1.885481e+09 -1.685479e+09 -1.845487e+09 3.429268e+03 3.409039e+03 2.398720e+03
-3.363802e+09 -3.163822e+09 -3.323825e+09 -1.256469e+03 -6.040212e+02 3.911295e+03
-1.893973e+09 -1.693959e+09 -1.853975e+09 2.543797e+03 9.834968e+03 3.435557e+03
-2.589389e+09 -2.389378e+09 -2.549396e+09 5.342817e+03 1.000370e+04 5.168253e+03
-3.035851e+09 -2.835867e+09 -2.995869e+09 -2.008050e+02 -2.215499e+02 3.117180e+03
-1.596862e+09 -1.396857e+09 -1.556863e+09 9.248270e+02 1.283636e+04 4.763345e+03
-2.663174e+09 -2.463191e+09 -2.623192e+09 6.855630e+02 8.974185e+01 4.182658e+03
-1.596247e+09 -1.396242e+09 -1.556247e+09 5.605633e+02 1.574950e+04 3.518849e+03
-2.878560e+09 -2.678680e+09 -2.838358e+09 -5.910340e+04 7.937870e+04 -1.572807e+05
-3.567629e+09 -3.367543e+09 -3.527602e+09 1.734464e+04 9.072424e+03 4.536914e+03
-3.061304e+09 -2.861321e+09 -3.021323e+09 6.564428e+02 2.236840e+02 3.549522e+03
-1.630894e+09 -1.430892e+09 -1.590863e+09 -3.144677e+02 3.675615e+03 2.546816e+03
-3.394195e+09 -3.194153e+09 -3.354198e+09 1.089002e+04 1.313647e+04 3.811659e+03
-1.590931e+09 -1.390943e+09 -1.550944e+09 -8.781222e+01 9.180476e+01 5.284993e+03
-2.991379e+09 -2.791369e+09 -2.951386e+09 4.626503e+03 5.794656e+03 2.815504e+03
-2.571954e+09 -2.371923e+09 -2.531955e+09 8.389048e+03 1.610402e+04 4.527775e+03
-2.771026e+09 -2.570992e+09 -2.731028e+09 1.001902e+04 1.532369e+04 5.425076e+03
-3.488223e+09 -3.288195e+09 -3.448226e+09 2.889490e+03 7.693080e+03 1.042411e+03
-1.788416e+09 -1.588409e+09 -1.748412e+09 -2.711179e+02 1.687388e+04 1.106912e+03
-3.385084e+09 -3.185037e+09 -3.345066e+09 2.145522e+04 9.777345e+03 3.873057e+03
-2.743763e+09 -2.543718e+09 -2.703756e+09 1.916744e+04 1.729944e+04 7.693370e+03
-3.162500e+09 -2.962455e+09 -3.122486e+09 2.020551e+04 1.012387e+04 3.796382e+03
-2.345741e+09 -2.145719e+09 -2.305737e+09 7.393049e+03 1.866818e+04 6.225813e+03
-2.101622e+09 -1.901638e+09 -2.061639e+09 -3.884081e+03 -1.510553e+03 6.896966e+03
-1.888712e+09 -1.688724e+09 -1.848725e+09 -2.013141e+03 -5.351530e+02 2.620741e+03
-3.302760e+09 -3.102774e+09 -3.262777e+09 -2.114206e+03 -4.483111e+02 2.593859e+03
-3.191149e+09 -2.991101e+09 -3.151136e+09 1.531556e+04 1.200013e+04 3.756295e+03
-3.587522e+09 -3.387528e+09 -3.547540e+09 -9.772395e+03 -3.665121e+03 4.263888e+03
-3.567961e+09 -3.367893e+09 -3.527837e+09 7.357945e+04 2.244063e+03 1.378449e+04
-3.211368e+09 -3.011383e+09 -3.171385e+09 -1.347337e+03 -4.245958e+02 2.069191e+03
-2.188070e+09 -1.988126e+09 -2.148014e+09 5.898296e+04 1.109049e+04 7.030622e+04
-3.198053e+09 -2.998069e+09 -3.158071e+09 -2.209814e+01 -2.269601e+01 2.240803e+03
-3.376489e+09 -3.176508e+09 -3.336514e+09 -7.059742e+03 -2.602892e+03 5.793649e+03
-2.630451e+09 -2.430463e+09 -2.590466e+09 -3.458044e+03 -1.188507e+03 3.597762e+03
-3.593663e+09 -3.393732e+09 -3.553724e+09 -8.362854e+03 -2.518579e+03 1.347870e+04
-1.615048e+09 -1.415054e+09 -1.575057e+09 -3.138552e+03 -5.525828e+03 1.134546e+04
-2.466764e+09 -2.266744e+09 -2.426737e+09 3.173809e+04 -5.567236e+02 2.778160e+03
-2.817642e+09 -2.617587e+09 -2.777524e+09 7.576082e+04 4.360987e+04 3.417582e+04
-1.980924e+09 -1.780921e+09 -1.940931e+09 4.464569e+03 5.657425e+03 4.005447e+03
-1.574905e+09 -1.374906e+09 -1.534911e+09 2.265446e+03 1.821830e+03 2.047758e+03
-3.190616e+09 -2.990612e+09 -3.150627e+09 6.512140e+03 4.341910e+03 3.479440e+03
-3.404433e+09 -3.204432e+09 -3.364445e+09 7.147537e+03 3.660112e+03 2.791297e+03
-1.998705e+09 -1.798705e+09 -1.958712e+09 3.797199e+03 3.887778e+03 3.118814e+03
-2.603671e+09 -2.403668e+09 -2.563678e+09 3.513321e+03 2.931748e+03 2.502823e+03
-3.408616e+09 -3.208614e+09 -3.368626e+09 5.635991e+03 2.220634e+03 2.559746e+03
-1.639688e+09 -1.439690e+09 -1.599696e+09 2.910106e+03 3.149005e+03 3.819313e+03
-2.276055e+09 -2.076045e+09 -2.236058e+09 4.253595e+03 5.259438e+03 2.426134e+03
-2.600985e+09 -2.400992e+09 -2.560996e+09 3.287344e+03 8.497295e+02 2.260087e+03
-1.687943e+09 -1.487941e+09 -1.647948e+09 2.131033e+03 1.844288e+03 1.491935e+03
-2.929182e+09 -2.729184e+09 -2.889190e+09 2.161812e+03 9.763557e+02 9.035937e+02
-3.008712e+09 -2.808709e+09 -2.968720e+09 3.789702e+03 2.213152e+03 1.793233e+03
-1.575503e+09 -1.375505e+09 -1.535510e+09 2.576285e+03 2.184296e+03 2.333736e+03
-3.601710e+09 -3.401718e+09 -3.561724e+09 3.360667e+03 8.253204e+02 1.758284e+03
-2.081098e+09 -1.881095e+09 -2.041103e+09 3.396839e+03 3.399210e+03 2.599639e+03
-3.280569e+09 -3.080537e+09 -3.240576e+09 9.836650e+03 -1.313336e+04 -3.226300e+03
-2.975848e+09 -2.775824e+09 -2.935854e+09 1.087088e+04 -1.405253e+04 -9.565771e+03
-2.659865e+09 -2.459843e+09 -2.619874e+09 1.309763e+04 -1.536258e+04 -6.439360e+03
-3.556235e+09 -3.356238e+09 -3.516247e+09 5.469250e+03 2.052268e+03 2.116516e+03
-1.585154e+09 -1.385161e+09 -1.545163e+09 1.880479e+03 9.600474e+02 1.652593e+03
-2.578127e+09 -2.378108e+09 -2.538131e+09 4.859324e+03 -1.481255e+04 -7.852148e+03
-1.759286e+09 -1.559260e+09 -1.719290e+09 3.510477e+02 -2.090182e+04 -8.492739e+03
-3.502556e+09 -3.302582e+09 -3.462592e+09 3.655802e+04 -1.091156e+04 -1.106053e+04
-3.200736e+09 -3.000755e+09 -3.160758e+09 1.604378e+03 4.539887e+02 4.659408e+03
-3.580214e+09 -3.380180e+09 -3.540223e+09 1.472928e+04 -1.171246e+04 -6.899233e+03
-2.355292e+09 -2.155263e+09 -2.315279e+09 3.631893e+03 -2.468626e+04 6.792642e+02
-3.610050e+09 -3.410005e+09 -3.570056e+09 2.115643e+04 -1.561777e+04 -6.600185e+03
-3.385351e+09 -3.185314e+09 -3.345353e+09 1.000679e+04 -1.177842e+04 -3.858317e+03
-3.281947e+09 -3.081921e+09 -3.241955e+09 1.016866e+04 -1.227717e+04 -4.791245e+03
-2.587317e+09 -2.387297e+09 -2.547321e+09 3.727896e+03 -1.792024e+04 -6.724526e+03
-3.582371e+09 -3.382333e+09 -3.542373e+09 9.361108e+03 -1.457717e+04 -3.968881e+03
-2.503985e+09 -2.303965e+09 -2.463984e+09 6.397640e+03 -2.015091e+04 -8.831731e+03
-2.099367e+09 -1.899345e+09 -2.059367e+09 2.692030e+03 -1.824246e+04 -5.910807e+03
-3.610054e+09 -3.409999e+09 -3.570054e+09 2.454797e+04 -1.256842e+04 -3.444513e+03
-2.566397e+09 -2.366382e+09 -2.526405e+09 5.766204e+03 -1.655125e+04 -7.332135e+03
-2.056066e+09 -1.856053e+09 -2.016069e+09 4.031921e+03 -1.176332e+04 -5.604107e+03
-2.127854e+09 -1.927856e+09 -2.087862e+09 3.352972e+03 2.275110e+03 2.447127e+03
-2.423036e+09 -2.223038e+09 -2.383043e+09 2.340014e+03 8.977206e+02 1.219750e+03
-1.785166e+09 -1.585165e+09 -1.745172e+09 2.518761e+03 2.876063e+03 2.361134e+03
-2.405892e+09 -2.205891e+09 -2.365900e+09 3.837522e+03 3.327749e+03 2.760541e+03
-2.408086e+09 -2.208086e+09 -2.368095e+09 4.361462e+03 4.205909e+03 4.295002e+03
-1.579318e+09 -1.379321e+09 -1.539326e+09 -2.396885e+03 -2.909381e+03 3.738067e+03
-3.587522e+09 -3.387525e+09 -3.547539e+09 -8.421710e+03 -4.066545e+03 3.890186e+03
-3.129671e+09 -2.929673e+09 -3.089687e+09 -1.121702e+04 -6.468863e+03 7.329057e+03
-3.610114e+09 -3.410113e+09 -3.570133e+09 -2.439906e+04 -9.904601e+03 1.146576e+04
-2.005082e+09 -1.805082e+09 -1.965089e+09 4.378121e+03 3.443018e+03 3.312616e+03
-3.597124e+09 -3.397054e+09 -3.557116e+09 7.831726e+03 1.453823e+04 2.114511e+03
-1.588465e+09 -1.388471e+09 -1.548474e+09 -2.707235e+03 -3.656000e+03 5.924624e+03
-3.599218e+09 -3.399230e+09 -3.559234e+09 -3.352372e+03 -6.876567e+02 1.889149e+03
-1.791686e+09 -1.591691e+09 -1.751695e+09 -2.285836e+03 -1.204213e+03 1.457199e+03
-2.721913e+09 -2.521926e+09 -2.681931e+09 -5.389686e+03 -1.637756e+03 5.779400e+03
-2.134442e+09 -1.934449e+09 -2.094452e+09 -2.168350e+03 -5.201563e+02 8.070247e+02
-3.214335e+09 -3.014352e+09 -3.174355e+09 -3.931334e+03 -1.095030e+03 3.936414e+03
-2.811705e+09 -2.611721e+09 -2.771723e+09 -3.703534e+03 -1.340951e+03 5.140907e+03
-2.062444e+09 -1.862457e+09 -2.022458e+09 -2.766672e+03 -2.013747e+03 3.849226e+03
-2.751404e+09 -2.551422e+09 -2.711424e+09 -3.696010e+03 -1.310153e+03 5.505353e+03
-1.995441e+09 -1.795455e+09 -1.955456e+09 -3.096133e+03 -1.844122e+03 7.123189e+03
-3.593150e+09 -3.393156e+09 -3.553163e+09 -4.315329e+03 -1.318862e+03 1.774760e+03
-2.392779e+09 -2.192793e+09 -2.352796e+09 -3.156756e+03 -2.033588e+03 6.595851e+03
-3.329754e+09 -3.129778e+09 -3.289781e+09 -2.959376e+03 -1.853294e+03 7.737519e+03
-2.260393e+09 -2.060397e+09 -2.220401e+09 -2.110776e+03 -6.216492e+02 1.483515e+03
-2.650700e+09 -2.450717e+09 -2.610720e+09 -3.047785e+03 -1.516014e+03 5.114649e+03
-3.593503e+09 -3.393508e+09 -3.553515e+09 -4.661907e+03 -1.388867e+03 1.635156e+03
-2.449348e+09 -2.249361e+09 -2.409366e+09 -4.189560e+03 -2.226929e+03 6.710154e+03
-3.422883e+09 -3.222902e+09 -3.382908e+09 -5.152096e+03 -1.544058e+03 5.647389e+03
-2.479891e+09 -2.279852e+09 -2.439845e+09 2.990067e+04 1.109617e+03 -6.521997e+03
-3.599445e+09 -3.399365e+09 -3.559417e+09 3.537814e+04 -1.685355e+04 -4.913294e+02
-3.061359e+09 -2.861360e+09 -3.021368e+09 3.647125e+03 1.971947e+03 1.632431e+03
-2.598813e+09 -2.398810e+09 -2.558821e+09 5.243778e+03 4.549301e+03 3.006195e+03
-3.589146e+09 -3.389087e+09 -3.549140e+09 3.211169e+04 -1.182760e+04 -8.345525e+03
-2.613279e+09 -2.413276e+09 -2.573287e+09 5.308003e+03 2.960230e+03 3.499947e+03
-2.951405e+09 -2.751404e+09 -2.911413e+09 3.563213e+03 1.849213e+03 1.708099e+03
-2.441151e+09 -2.241152e+09 -2.401159e+09 2.904618e+03 1.980885e+03 1.884672e+03
-1.776380e+09 -1.576376e+09 -1.736372e+09 -8.397956e+02 -1.694289e+04 -2.885302e+02
-2.546365e+09 -2.346363e+09 -2.506372e+09 3.185782e+03 2.175070e+03 2.316277e+03
-2.191964e+09 -1.991962e+09 -2.151969e+09 3.100321e+03 2.296547e+03 1.473679e+03
-2.909744e+09 -2.709755e+09 -2.869765e+09 3.053658e+04 -5.698193e+03 -6.053055e+03
-1.845170e+09 -1.645169e+09 -1.805176e+09 2.741671e+03 2.083294e+03 1.827122e+03
-3.593383e+09 -3.393383e+09 -3.553396e+09 7.086591e+03 2.918122e+03 3.145450e+03
-3.118304e+09 -2.918292e+09 -3.078312e+09 7.425501e+03 6.602373e+03 3.326828e+03
-2.847177e+09 -2.647176e+09 -2.807184e+09 2.784535e+03 1.532323e+03 1.431721e+03
-1.791192e+09 -1.591197e+09 -1.751198e+09 3.950572e+03 9.308883e+03 9.912926e+03
-1.949113e+09 -1.749103e+09 -1.909116e+09 4.600369e+03 9.939134e+03 1.294194e+03
-3.493337e+09 -3.293337e+09 -3.453345e+09 3.105363e+03 1.089237e+03 8.374104e+02
-1.883557e+09 -1.683556e+09 -1.843563e+09 2.981225e+03 2.206558e+03 1.804408e+03
-3.590115e+09 -3.390080e+09 -3.550120e+09 6.460531e+03 1.051529e+04 2.184296e+03
-3.492988e+09 -3.292973e+09 -3.452995e+09 6.323666e+03 5.276265e+03 2.281681e+03
-1.807700e+09 -1.607692e+09 -1.767693e+09 9.001116e+02 2.225406e+04 -2.312391e+03
-3.032600e+09 -2.832605e+09 -2.992619e+09 1.193543e+04 5.230177e+03 6.676306e+03
-2.157396e+09 -1.957396e+09 -2.117404e+09 4.012389e+03 2.378087e+03 2.992809e+03
-1.783998e+09 -1.583978e+09 -1.743995e+09 9.396076e+03 1.835367e+04 1.515941e+04
-2.864705e+09 -2.664687e+09 -2.824711e+09 1.037488e+04 1.253155e+04 5.827029e+03
-2.824527e+09 -2.624501e+09 -2.784534e+09 1.446535e+04 1.601679e+04 6.120047e+03
-1.612697e+09 -1.412693e+09 -1.572699e+09 2.174622e+03 1.232830e+04 7.064258e+03
-2.358433e+09 -2.158440e+09 -2.318446e+09 6.076256e+03 3.436551e+03 4.953230e+03
-3.390616e+09 -3.190584e+09 -3.350618e+09 8.201989e+03 1.139367e+04 2.579971e+03
-2.026341e+09 -1.826345e+09 -1.986353e+09 8.595116e+03 8.218087e+03 1.072888e+04
-2.560398e+09 -2.360401e+09 -2.520409e+09 4.585159e+03 3.850537e+03 3.350792e+03
-2.012502e+09 -1.812504e+09 -1.972510e+09 2.521450e+03 1.026416e+03 1.268046e+03
-2.590975e+09 -2.390978e+09 -2.550985e+09 3.721208e+03 1.679190e+03 2.706744e+03
-1.780494e+09 -1.580497e+09 -1.740502e+09 2.215000e+03 9.532759e+02 1.158397e+03
-2.989156e+09 -2.789039e+09 -2.948935e+09 -7.573684e+04 9.361180e+04 -5.422690e+04
-2.817183e+09 -2.617199e+09 -2.777202e+09 -3.087683e+03 -1.250389e+03 5.105056e+03
-2.916652e+09 -2.716543e+09 -2.876499e+09 -8.939004e+03 7.264124e+04 -3.050311e+04
-1.585529e+09 -1.385538e+09 -1.545540e+09 1.841357e+03 8.853909e+02 2.725199e+03
-3.604189e+09 -3.404232e+09 -3.564232e+09 1.404229e+04 2.847948e+03 1.152538e+04
-3.612213e+09 -3.412245e+09 -3.572247e+09 -2.666482e+03 -9.434688e+02 7.828406e+03
-3.371575e+09 -3.171565e+09 -3.331593e+09 2.297655e+04 9.601564e+03 9.228401e+03
-1.601033e+09 -1.401045e+09 -1.561045e+09 -1.008184e+03 -1.055946e+03 8.882340e+03
-3.343807e+09 -3.143616e+09 -3.303502e+09 -7.370901e+04 1.328150e+05 -3.511286e+04
-1.585360e+09 -1.385357e+09 -1.545330e+09 -9.427600e+03 3.807477e+03 1.285576e+04
-2.106693e+09 -1.906598e+09 -2.066564e+09 -4.014698e+04 1.236131e+04 -6.064904e+03
-2.595112e+09 -2.394982e+09 -2.554863e+09 -4.321418e+04 1.036187e+05 1.918584e+04
-1.698886e+09 -1.498882e+09 -1.658889e+09 -1.620314e+03 -6.161415e+03 4.224425e+03
-2.508364e+09 -2.308229e+09 -2.468232e+09 -1.981689e+04 5.695297e+04 -2.815838e+04
-3.593742e+09 -3.393730e+09 -3.553758e+09 -1.710455e+04 -7.465180e+03 5.741956e+03
-1.784547e+09 -1.584550e+09 -1.744532e+09 -3.360253e+03 2.315827e+04 -3.734816e+03
-2.689254e+09 -2.489183e+09 -2.649204e+09 -1.758788e+04 -5.168858e+02 -7.009560e+03
-2.593992e+09 -2.393967e+09 -2.553992e+09 -2.361178e+04 2.006392e+04 -8.440034e+03
-1.560175e+09 -1.360176e+09 -1.520171e+09 7.216893e+02 -2.274068e+04 5.240443e+03
-3.034294e+09 -2.834262e+09 -2.994296e+09 -1.747762e+03 -1.749117e+04 1.237091e+03
-2.670911e+09 -2.470846e+09 -2.630873e+09 -2.385177e+04 1.466494e+03 4.845303e+02
-3.622114e+09 -3.421991e+09 -3.582037e+09 1.798153e+04 -7.642802e+03 6.374493e+03
-3.503437e+09 -3.303424e+09 -3.463448e+09 -1.027189e+04 -6.254680e+03 3.858597e+03
-3.198893e+09 -2.998898e+09 -3.158906e+09 -4.212793e+03 -1.847588e+03 2.557405e+03
-2.615879e+09 -2.415878e+09 -2.575890e+09 -7.592214e+03 -6.508048e+03 5.463495e+03
-1.800502e+09 -1.600495e+09 -1.760498e+09 -1.325747e+02 1.469041e+04 -8.120319e+03
-2.134891e+09 -1.934762e+09 -2.094808e+09 -3.422896e+04 6.229754e+04 -2.685552e+04
-3.141015e+09 -2.940994e+09 -3.101018e+09 -3.841520e+04 1.393038e+03 9.233973e+03
-3.610110e+09 -3.410115e+09 -3.570136e+09 -3.442963e+04 -1.011004e+04 9.251838e+03
-3.589144e+09 -3.389125e+09 -3.549160e+09 -3.701437e+04 -1.066280e+04 6.555289e+03
-3.605311e+09 -3.405280e+09 -3.565316e+09 -3.450027e+04 -1.162076e+04 7.432475e+03
-2.079577e+09 -1.879593e+09 -2.039577e+09 -3.729461e+04 -1.088660e+04 1.467407e+04
-3.570366e+09 -3.370355e+09 -3.530374e+09 -4.482987e+04 -8.715230e+03 1.223788e+04
-2.791800e+09 -2.591766e+09 -2.751799e+09 -1.797655e+04 1.714901e+04 -1.210178e+04
-2.966586e+09 -2.766504e+09 -2.926375e+09 -5.677472e+04 7.516562e+04 -2.148702e+04
-1.994637e+09 -1.794734e+09 -1.954606e+09 2.806274e+04 1.451669e+04 -5.356778e+04
-3.612058e+09 -3.412029e+09 -3.572069e+09 -1.683843e+04 -1.113221e+04 6.088157e+03
-2.668265e+09 -2.468378e+09 -2.628302e+09 1.784595e+04 -1.216602e+04 -3.571096e+04
-3.577730e+09 -3.377650e+09 -3.537716e+09 8.246188e+03 -1.306598e+04 -1.230612e+03
-3.610555e+09 -3.410539e+09 -3.570568e+09 -1.224463e+04 -9.662389e+03 4.710226e+03
-1.839671e+09 -1.639751e+09 -1.799724e+09 -3.117110e+03 -7.878931e+03 -3.113816e+04
-3.604011e+09 -3.403973e+09 -3.564015e+09 3.304605e+03 1.136202e+04 9.682921e+02
-1.996319e+09 -1.796292e+09 -1.956315e+09 3.016710e+03 1.912312e+04 3.693415e+03
-3.576751e+09 -3.376730e+09 -3.536765e+09 2.897477e+04 9.574391e+03 8.985038e+03
-1.778689e+09 -1.578786e+09 -1.738730e+09 2.825549e+03 -1.812887e+04 -8.412500e+04
-2.615875e+09 -2.415918e+09 -2.575913e+09 -2.863390e+03 -8.889549e+02 1.881847e+04
-3.241907e+09 -3.041975e+09 -3.201954e+09 -5.084607e+03 -2.926863e+03 5.692428e+03
-2.863278e+09 -2.663291e+09 -2.823293e+09 6.818452e+02 4.249466e+01 2.623424e+03
-2.637623e+09 -2.437697e+09 -2.597632e+09 -5.679412e+03 2.125178e+03 6.936079e+03
-3.567934e+09 -3.367849e+09 -3.527819e+09 5.632468e+04 7.711939e+03 1.033268e+04
-1.637778e+09 -1.437799e+09 -1.596262e+09 -2.588489e+04 -7.775484e+04 -1.108823e+06
-2.710930e+09 -2.510994e+09 -2.670982e+09 -1.458421e+04 -3.116001e+02 1.502979e+04
-2.019609e+09 -1.819660e+09 -1.979619e+09 4.355795e+02 -6.200051e+03 7.936561e+03
-1.569592e+09 -1.369585e+09 -1.529412e+09 1.834380e+03 -1.518688e+04 1.374442e+05
-1.579098e+09 -1.379124e+09 -1.539068e+09 -4.706213e+03 3.958784e+03 3.743395e+04
-2.716406e+09 -2.516454e+09 -2.676444e+09 5.474789e+03 1.640861e+03 1.341638e+04
-3.118657e+09 -2.918693e+09 -3.078495e+09 8.257072e+04 7.042581e+04 1.209703e+05
-2.913713e+09 -2.713768e+09 -2.873752e+09 3.665943e+03 2.977712e+03 1.821028e+04
-1.897242e+09 -1.697281e+09 -1.857244e+09 -1.163103e+04 3.382955e+03 5.847152e+03
-3.601730e+09 -3.401691e+09 -3.561733e+09 2.399770e+04 1.201111e+04 5.608529e+03
-2.417735e+09 -2.217714e+09 -2.377733e+09 -5.114965e+03 1.228952e+04 -6.223961e+03
-2.661960e+09 -2.462003e+09 -2.621997e+09 5.834480e+03 1.668739e+03 1.276121e+04
-3.601802e+09 -3.401911e+09 -3.561043e+09 3.177979e+04 -1.213999e+05 -2.052792e+05
-3.015371e+09 -2.815329e+09 -2.975365e+09 -5.502837e+03 1.909284e+04 -1.915480e+03
-2.501778e+09 -2.301844e+09 -2.461808e+09 5.032058e+02 -5.958619e+02 7.826498e+03
-3.606311e+09 -3.406183e+09 -3.565823e+09 4.828828e+04 -1.157528e+05 -7.403366e+04
-1.581923e+09 -1.381893e+09 -1.541857e+09 4.293449e+04 1.056417e+05 9.777978e+04
-3.577337e+09 -3.377220e+09 -3.536964e+09 6.977465e+04 1.216375e+05 7.657562e+04
-2.932903e+09 -2.732974e+09 -2.892927e+09 1.174337e+04 4.331989e+02 -2.957120e+02
-1.753958e+09 -1.554046e+09 -1.713971e+09 2.584273e+04 4.225064e+04 1.219870e+05
-1.650438e+09 -1.450430e+09 -1.610385e+09 1.292046e+04 2.423583e+03 1.914311e+04
-3.104157e+09 -2.904202e+09 -3.064169e+09 -2.874805e+04 -2.422361e+03 1.491766e+04
-2.361922e+09 -2.161970e+09 -2.321928e+09 -1.633511e+04 -3.397485e+03 8.866387e+03
-2.851954e+09 -2.652029e+09 -2.811996e+09 -1.924288e+04 -4.938574e+02 1.476035e+04
-1.767000e+09 -1.567031e+09 -1.726966e+09 -1.106488e+04 1.117031e+03 6.334301e+02
-2.489239e+09 -2.289342e+09 -2.449177e+09 -2.148390e+04 7.653878e+03 -3.936884e+04
-2.594782e+09 -2.394823e+09 -2.554808e+09 1.098220e+04 3.866917e+03 1.024640e+04
-1.601978e+09 -1.401975e+09 -1.561953e+09 -1.424474e+03 -1.632797e+04 3.981206e+03
-3.095622e+09 -2.895574e+09 -3.055607e+09 1.809521e+04 -2.054820e+04 -4.312246e+03
-3.279941e+09 -3.079889e+09 -3.238140e+09 2.294792e+04 3.658237e+05 2.235310e+04
-1.572447e+09 -1.372442e+09 -1.532371e+09 -2.204734e+03 3.084051e+04 -2.475707e+04
-1.593183e+09 -1.393206e+09 -1.553121e+09 3.947337e+02 -1.176936e+03 4.976110e+04
-3.603055e+09 -3.402871e+09 -3.562584e+09 5.236006e+04 1.038596e+05 1.887965e+04
-3.632754e+09 -3.432591e+09 -3.591881e+09 6.619650e+03 2.272856e+05 5.066565e+04
-2.670962e+09 -2.471024e+09 -2.631009e+09 1.538069e+04 5.352111e+03 1.752168e+04
-2.464127e+09 -2.264186e+09 -2.424149e+09 -6.908959e+03 2.435198e+03 1.244740e+04
-2.034771e+09 -1.834831e+09 -1.994767e+09 -2.982082e+04 1.071899e+04 7.366927e+03
-3.616591e+09 -3.416441e+09 -3.575937e+09 -5.380097e+04 -1.440124e+05 1.924121e+04
-2.567622e+09 -2.367633e+09 -2.527636e+09 -2.599945e+03 -1.117629e+03 2.591341e+03
-1.643147e+09 -1.443154e+09 -1.603157e+09 -1.741746e+03 -8.440672e+02 1.501280e+03
-1.578011e+09 -1.378015e+09 -1.537984e+09 1.174014e+03 2.308618e+04 -9.251281e+03
-2.238345e+09 -2.038356e+09 -2.198359e+09 -3.431781e+03 -1.661020e+03 3.542967e+03
-3.225703e+09 -3.025618e+09 -3.185603e+09 -6.825189e+04 -7.529276e+04 4.281828e+04
-2.042128e+09 -1.842140e+09 -2.002141e+09 -9.611565e+02 -8.917682e+02 2.127934e+03
-1.583619e+09 -1.383616e+09 -1.543616e+09 1.942332e+02 2.283423e+04 1.177619e+03
-1.581984e+09 -1.381988e+09 -1.541971e+09 2.680926e+03 2.883745e+04 -9.195861e+03
-2.643594e+09 -2.443605e+09 -2.603608e+09 -2.061565e+03 -8.764681e+02 2.253823e+03
-1.600431e+09 -1.400436e+09 -1.560423e+09 3.086738e+03 1.446550e+04 -5.429738e+03
-1.893811e+09 -1.693795e+09 -1.853812e+09 -1.194163e+03 1.113801e+04 -2.946729e+03
-3.325319e+09 -3.125332e+09 -3.285336e+09 -2.722152e+03 -5.383270e+02 2.625662e+03
-2.716903e+09 -2.516917e+09 -2.676919e+09 -2.589597e+03 -8.237180e+02 3.436912e+03
-3.108883e+09 -2.908893e+09 -3.068896e+09 -2.452105e+03 -8.334896e+02 1.970452e+03
-3.407455e+09 -3.207560e+09 -3.367506e+09 -1.979329e+04 2.350053e+03 -5.392835e+01
-3.204196e+09 -3.004203e+09 -3.164209e+09 4.759202e+03 1.732324e+03 2.957266e+03
-2.608885e+09 -2.408895e+09 -2.568898e+09 -1.910321e+03 -7.853316e+02 2.301671e+03
-2.455453e+09 -2.255480e+09 -2.415478e+09 3.414779e+03 2.609527e+03 1.618668e+04
-2.283981e+09 -2.083851e+09 -2.242151e+09 7.178807e+04 -6.351139e+05 -2.225659e+05
-2.390220e+09 -2.190244e+09 -2.350243e+09 5.258453e+03 2.356975e+03 1.702820e+04
-2.614081e+09 -2.414111e+09 -2.574113e+09 6.509855e+03 3.823782e+03 1.144760e+04
-2.424462e+09 -2.224484e+09 -2.384486e+09 5.824214e+03 4.949376e+03 1.330167e+04
-1.772578e+09 -1.572581e+09 -1.732586e+09 2.256755e+03 1.295372e+03 1.492394e+03
-3.583263e+09 -3.383318e+09 -3.543314e+09 1.806282e+04 5.991459e+03 1.554737e+04
-3.171595e+09 -2.971596e+09 -3.131605e+09 4.319795e+03 2.468150e+03 2.353253e+03
-3.596586e+09 -3.396602e+09 -3.556607e+09 5.640148e+03 1.631225e+03 3.619245e+03
-1.592091e+09 -1.392096e+09 -1.552097e+09 3.596848e+03 9.652981e+03 2.128391e+04
-2.772076e+09 -2.572077e+09 -2.732085e+09 4.301453e+03 2.413899e+03 2.252793e+03
-3.365065e+09 -3.165067e+09 -3.325076e+09 4.397125e+03 2.353658e+03 1.792856e+03
-3.556767e+09 -3.356775e+09 -3.516779e+09 2.847622e+03 5.560802e+02 1.126662e+03
-3.414748e+09 -3.214809e+09 -3.374774e+09 3.027009e+04 2.152951e+03 -5.488630e+02
-3.400867e+09 -3.201104e+09 -3.360567e+09 4.550753e+04 -3.628320e+04 -2.684914e+05
-3.592189e+09 -3.392252e+09 -3.552192e+09 -6.774762e+04 1.709613e+04 -2.625376e+04
-3.152400e+09 -2.952402e+09 -3.112410e+09 4.065333e+03 1.456496e+03 2.025659e+03
-3.390301e+09 -3.190303e+09 -3.350311e+09 3.615603e+03 1.187252e+03 1.521540e+03
-2.070450e+09 -1.870451e+09 -2.030457e+09 2.704389e+03 1.555832e+03 1.307795e+03
-2.851468e+09 -2.651394e+09 -2.811388e+09 1.521151e+04 1.376862e+04 1.592957e+03
-3.185441e+09 -2.985373e+09 -3.145402e+09 2.168540e+04 3.907381e+03 6.862507e+02
-3.605628e+09 -3.405723e+09 -3.565491e+09 9.250790e+04 -1.168573e+04 -9.062114e+04
-3.626771e+09 -3.426564e+09 -3.586302e+09 -4.352879e+04 1.055736e+05 -1.807478e+04
-2.779137e+09 -2.579072e+09 -2.739120e+09 2.227095e+04 1.157124e+04 9.483401e+03
-3.588269e+09 -3.388116e+09 -3.548055e+09 2.356939e+04 -1.631997e+04 1.858053e+03
-2.612403e+09 -2.412328e+09 -2.572377e+09 2.814165e+04 -6.322016e+03 2.121054e+03
-1.824959e+09 -1.624938e+09 -1.784900e+09 4.971307e+03 -1.040317e+04 -4.729109e+03
-1.582470e+09 -1.382465e+09 -1.542466e+09 3.263346e+03 -1.146557e+04 -8.625521e+03
-2.813814e+09 -2.613872e+09 -2.773857e+09 1.241233e+04 6.662456e+03 1.827219e+04
-2.399280e+09 -2.199263e+09 -2.359282e+09 8.678696e+03 1.498358e+04 5.399446e+03
-2.682485e+09 -2.482543e+09 -2.642464e+09 -3.733033e+04 -8.070118e+03 6.692873e+03
-3.601613e+09 -3.401799e+09 -3.560906e+09 5.257339e+03 -3.618170e+03 -2.195199e+05
-2.323870e+09 -2.123888e+09 -2.283879e+09 3.013315e+04 2.076248e+04 1.476598e+04
-1.785648e+09 -1.585642e+09 -1.745652e+09 -5.961605e+03 -1.105957e+04 1.188758e+04
-2.684092e+09 -2.484055e+09 -2.644079e+09 4.370377e+04 1.254843e+04 1.603858e+03
-2.325195e+09 -2.125170e+09 -2.285189e+09 1.097470e+04 1.145556e+04 4.445986e+03
-2.624288e+09 -2.424273e+09 -2.584302e+09 3.137316e+04 1.535711e+04 8.441201e+03
-2.753694e+09 -2.553680e+09 -2.713704e+09 1.701874e+04 1.196479e+04 8.607778e+03
-1.598494e+09 -1.398496e+09 -1.558495e+09 -2.668264e+03 -1.035823e+04 1.358224e+04
-1.988548e+09 -1.788537e+09 -1.948546e+09 1.701406e+04 2.021614e+04 1.249875e+04
-3.352926e+09 -3.153029e+09 -3.312939e+09 -3.970204e+04 -2.771961e+03 2.110264e+04
-2.823909e+09 -2.623925e+09 -2.783937e+09 -1.395379e+04 -8.679235e+03 1.125335e+04
-3.598903e+09 -3.398919e+09 -3.558931e+09 -1.842764e+04 -5.809202e+03 1.129937e+04
-2.963064e+09 -2.763144e+09 -2.923116e+09 -2.077208e+04 2.373569e+03 1.862162e+04
-3.414802e+09 -3.214821e+09 -3.374830e+09 -1.797069e+04 -5.712783e+03 1.005583e+04
-3.386725e+09 -3.186732e+09 -3.346743e+09 -9.224468e+03 -3.544366e+03 4.998616e+03
-1.579316e+09 -1.379325e+09 -1.539296e+09 -2.197699e+03 -7.292014e+03 -7.082766e+03
-1.856792e+09 -1.656800e+09 -1.816802e+09 -3.575423e+03 -4.342334e+03 8.416350e+03
-1.975015e+09 -1.775023e+09 -1.935030e+09 -8.918783e+03 -7.221178e+03 1.116745e+04
-2.793155e+09 -2.593162e+09 -2.753177e+09 -1.346344e+04 -8.929107e+03 1.055779e+04
-1.880158e+09 -1.680167e+09 -1.840169e+09 1.592990e+03 6.291133e+02 1.761354e+03
-1.786652e+09 -1.586638e+09 -1.746624e+09 -5.835378e+03 2.430779e+04 -4.012031e+03
-1.706343e+09 -1.506355e+09 -1.666341e+09 -5.615018e+03 3.884994e+03 1.694398e+04
-3.402287e+09 -3.202192e+09 -3.362240e+09 1.026104e+04 1.021019e+04 7.762873e+03
-3.172832e+09 -2.972775e+09 -3.132810e+09 -1.236969e+04 1.513337e+04 -4.464622e+03
-3.197761e+09 -2.997697e+09 -3.157737e+09 -1.662877e+04 2.675796e+03 -3.597029e+03
-1.985158e+09 -1.785125e+09 -1.945139e+09 -2.932144e+03 2.652558e+04 -3.295922e+03
-2.248136e+09 -2.048124e+09 -2.208139e+09 4.612472e+03 8.161493e+03 3.824631e+03
-3.171571e+09 -2.971782e+09 -3.131342e+09 6.722437e+03 -2.053475e+04 -1.449329e+05
-2.400429e+09 -2.200616e+09 -2.360226e+09 6.400639e+04 -8.914572e+04 -1.971537e+05
-1.803915e+09 -1.603947e+09 -1.763806e+09 3.098180e+04 -1.062354e+04 -9.806296e+04
-2.027881e+09 -1.827976e+09 -1.987862e+09 7.600138e+04 -8.745100e+04 -1.615469e+05
-3.201557e+09 -3.001700e+09 -3.161469e+09 5.905900e+04 -7.166026e+04 -1.029764e+05
-3.386942e+09 -3.187084e+09 -3.346825e+09 6.488683e+04 -6.349059e+04 -1.051131e+05
-1.594365e+09 -1.394361e+09 -1.554363e+09 1.455529e+03 1.417906e+04 -5.559931e+03
-3.153415e+09 -2.953592e+09 -3.113357e+09 -2.059102e+04 1.150805e+04 -1.461400e+05
-1.967960e+09 -1.767931e+09 -1.927951e+09 3.554064e+03 -2.784174e+04 -2.743896e+03
-2.475776e+09 -2.275732e+09 -2.435786e+09 8.735489e+03 -2.007112e+04 -7.549465e+03
-2.682051e+09 -2.481996e+09 -2.642051e+09 1.262441e+04 -2.440127e+04 -6.882097e+03
-2.791745e+09 -2.591681e+09 -2.751728e+09 4.228846e+03 -2.889427e+04 -3.212639e+03
-3.083889e+09 -2.883835e+09 -3.043871e+09 1.909754e+04 -1.760007e+04 -7.093632e+03
-3.399678e+09 -3.199731e+09 -3.359729e+09 5.768475e+03 9.427516e+02 1.430549e+04
-2.186520e+09 -1.986510e+09 -2.146524e+09 -5.051619e+03 1.042250e+04 -5.418405e+03
-1.693162e+09 -1.493163e+09 -1.653164e+09 -5.937078e+02 1.344300e+04 -9.803390e+03
-2.661068e+09 -2.461056e+09 -2.621074e+09 -1.817022e+04 1.355177e+04 -9.453202e+03
-2.830135e+09 -2.630186e+09 -2.790180e+09 -5.054597e+02 4.943807e+02 1.284341e+04
-3.422717e+09 -3.222788e+09 -3.382776e+09 4.295775e+03 -2.456144e+02 1.715000e+04
-2.826775e+09 -2.626818e+09 -2.786813e+09 -1.378255e+03 6.516049e+02 1.670545e+04
-3.085145e+09 -2.885185e+09 -3.045186e+09 1.623180e+03 6.434939e+02 1.018780e+04
-2.659392e+09 -2.459427e+09 -2.619419e+09 3.415677e+03 1.621410e+03 1.684445e+04
-2.239212e+09 -2.039204e+09 -2.199218e+09 -8.141338e+03 1.252759e+04 -8.848909e+03
-2.710462e+09 -2.510496e+09 -2.670495e+09 -1.592678e+03 9.715974e+02 1.692920e+04
-2.835555e+09 -2.635586e+09 -2.795587e+09 -1.393497e+03 -9.653827e+02 8.294106e+03
-1.686252e+09 -1.486245e+09 -1.646254e+09 4.694088e+02 9.074097e+03 1.020570e+03
-2.494342e+09 -2.294381e+09 -2.454380e+09 5.076359e+03 7.854013e+01 1.253703e+04
-2.860290e+09 -2.660353e+09 -2.820337e+09 -4.957691e+03 -1.455987e+03 1.875690e+04
-2.406296e+09 -2.206335e+09 -2.366327e+09 -4.919661e+03 -6.711530e+02 1.424120e+04
-3.386078e+09 -3.186076e+09 -3.346091e+09 8.855853e+03 4.120948e+03 4.223578e+03
-1.643661e+09 -1.443654e+09 -1.603663e+09 2.118473e+02 1.318027e+04 6.866369e+02
-1.596247e+09 -1.396242e+09 -1.556247e+09 4.645705e+02 1.586660e+04 3.292255e+03
-3.219813e+09 -3.019830e+09 -3.179834e+09 -3.163161e+03 -1.268945e+03 3.800721e+03
-3.060694e+09 -2.860707e+09 -3.020713e+09 -5.452943e+03 -1.582241e+03 3.851568e+03
-2.368578e+09 -2.168574e+09 -2.328586e+09 5.485716e+03 6.752252e+03 5.149849e+03
-2.122580e+09 -1.922583e+09 -2.082590e+09 5.569384e+03 3.775882e+03 4.212554e+03
-1.780250e+09 -1.580262e+09 -1.740264e+09 -2.525783e+03 -1.413998e+03 4.142037e+03
-1.769817e+09 -1.569831e+09 -1.729832e+09 -2.539243e+03 -2.485290e+03 6.802914e+03
-3.615182e+09 -3.415159e+09 -3.575190e+09 9.877194e+03 8.779758e+03 3.901927e+03
-1.988192e+09 -1.788185e+09 -1.948193e+09 1.669252e+03 8.568260e+03 1.752509e+03
-3.590118e+09 -3.390091e+09 -3.550122e+09 4.596068e+03 9.745645e+03 1.370725e+03
-2.571434e+09 -2.371447e+09 -2.531450e+09 -2.578207e+03 -9.404628e+02 4.302075e+03
-2.736366e+09 -2.536468e+09 -2.696407e+09 4.159536e+04 -8.386794e+03 2.838302e+04
-2.330840e+09 -2.130932e+09 -2.290863e+09 3.398937e+04 -1.592900e+03 2.649169e+04
-2.385853e+09 -2.185948e+09 -2.345823e+09 1.138763e+03 1.542976e+03 3.882788e+04
-1.904835e+09 -1.704950e+09 -1.864839e+09 2.735263e+04 2.051065e+04 6.685327e+04
-1.897640e+09 -1.697796e+09 -1.857670e+09 3.447162e+04 2.626245e+04 1.448418e+05
-1.961764e+09 -1.761827e+09 -1.921796e+09 2.413319e+04 5.211364e+03 3.260630e+04
-2.989259e+09 -2.789354e+09 -2.949272e+09 1.783631e+04 -5.102776e+02 2.354781e+04
-1.691367e+09 -1.491367e+09 -1.651373e+09 1.972673e+03 1.321713e+03 1.077165e+03
-3.339121e+09 -3.139232e+09 -3.299157e+09 3.801449e+04 9.693929e+03 1.605331e+04
-3.364216e+09 -3.164374e+09 -3.324172e+09 3.524679e+04 1.368064e+04 6.598399e+04
-3.126507e+09 -2.926667e+09 -3.086410e+09 3.633058e+04 3.501641e+04 7.878915e+04
-2.427649e+09 -2.227634e+09 -2.387654e+09 -8.596961e+03 -1.276813e+04 1.027150e+04
-3.032447e+09 -2.832432e+09 -2.992456e+09 -7.896348e+03 -7.835443e+03 4.845110e+03
-3.217067e+09 -3.017053e+09 -3.177079e+09 -1.342776e+04 -9.509965e+03 7.624769e+03
-3.414364e+09 -3.214350e+09 -3.374375e+09 -1.764172e+04 -1.168058e+04 6.618974e+03
-2.624328e+09 -2.424316e+09 -2.584335e+09 -6.826883e+03 -1.217364e+04 7.867040e+03
-3.322954e+09 -3.122940e+09 -3.282963e+09 -9.063520e+03 -7.108226e+03 5.082760e+03
-3.402779e+09 -3.202849e+09 -3.362839e+09 -6.500661e+03 -2.600042e+03 1.410019e+04
-3.413159e+09 -3.213224e+09 -3.373203e+09 -1.351391e+04 -1.051132e+03 7.890069e+03
-2.755748e+09 -2.555785e+09 -2.715784e+09 -1.312915e+04 -3.709736e+03 1.227100e+04
-3.138678e+09 -2.938731e+09 -3.098718e+09 -1.950400e+04 -1.284821e+03 1.041725e+04
-2.020280e+09 -1.820310e+09 -1.980306e+09 -1.343062e+03 -1.404494e+03 1.485875e+04
-3.597566e+09 -3.397566e+09 -3.557576e+09 4.783352e+03 1.776763e+03 1.723068e+03
-3.599866e+09 -3.399868e+09 -3.559876e+09 3.731191e+03 1.253619e+03 1.318722e+03
-1.589549e+09 -1.389549e+09 -1.549555e+09 2.460223e+03 2.839238e+03 2.629255e+03
-3.400395e+09 -3.200435e+09 -3.360438e+09 -4.388507e+03 -1.448769e+03 1.174749e+04
-1.577078e+09 -1.377075e+09 -1.537083e+09 2.083560e+03 4.108450e+03 3.223024e+03
-1.589152e+09 -1.389155e+09 -1.549160e+09 -2.446662e+03 -1.859260e+03 2.202237e+03
-3.583732e+09 -3.383726e+09 -3.543745e+09 1.145771e+04 4.969995e+03 3.702643e+03
-1.867357e+09 -1.667282e+09 -1.827037e+09 -1.377061e+04 -1.788217e+05 -5.484686e+04
-3.145233e+09 -2.945176e+09 -3.105170e+09 3.502605e+04 -2.423776e+03 5.029864e+03
-2.592699e+09 -2.392585e+09 -2.552125e+09 4.055375e+04 -2.802652e+05 4.342834e+03
-2.963939e+09 -2.763851e+09 -2.923870e+09 1.643924e+04 1.071483e+04 4.016378e+03
-2.795732e+09 -2.595741e+09 -2.755746e+09 -5.352300e+03 -2.146448e+03 3.679693e+03
-3.019030e+09 -2.818929e+09 -2.978942e+09 2.572613e+04 -7.846514e+03 3.922027e+03
-3.074661e+09 -2.874541e+09 -3.034421e+09 3.283645e+04 -8.162471e+04 -4.087134e+03
-2.393265e+09 -2.193272e+09 -2.353276e+09 -3.046007e+03 -1.549949e+03 2.657476e+03
-1.872189e+09 -1.672194e+09 -1.832198e+09 -1.864676e+03 -6.155637e+02 9.576477e+02
-3.379431e+09 -3.179366e+09 -3.339388e+09 3.743997e+04 2.369198e+03 -1.900801e+03
-1.941862e+09 -1.741840e+09 -1.901832e+09 2.051320e+04 -1.728164e+04 2.567458e+03
-2.124591e+09 -1.924535e+09 -2.084523e+09 2.740582e+04 -3.723331e+04 -2.663807e+03
-3.601368e+09 -3.401377e+09 -3.561382e+09 -2.714391e+03 -5.791231e+02 1.486172e+03
-3.147246e+09 -2.947254e+09 -3.107258e+09 -1.881104e+03 -8.305788e+02 1.226611e+03
-3.369405e+09 -3.169411e+09 -3.329416e+09 -3.048270e+03 -8.590982e+02 1.165539e+03
-1.683679e+09 -1.483685e+09 -1.643688e+09 -1.639237e+03 -4.892477e+02 6.843874e+02
-3.500969e+09 -3.300959e+09 -3.460986e+09 2.007493e+04 -1.217518e+04 -8.813177e+03
-3.064022e+09 -2.864028e+09 -3.024032e+09 -2.330414e+03 -5.760455e+02 1.013181e+03
-3.417718e+09 -3.217728e+09 -3.377735e+09 -5.221521e+03 -3.100992e+03 2.838687e+03
-3.603479e+09 -3.403486e+09 -3.563490e+09 -2.436684e+03 -4.258648e+02 9.726882e+02
-3.613583e+09 -3.413674e+09 -3.573648e+09 1.027980e+04 1.537973e+03 3.937487e+03
-3.549328e+09 -3.349233e+09 -3.508044e+09 2.913474e+03 -2.099681e+05 -7.647910e+04
-2.651875e+09 -2.451881e+09 -2.611885e+09 -2.201092e+03 -7.046810e+02 1.281181e+03
-2.203210e+09 -2.003220e+09 -2.163221e+09 1.757706e+03 3.396660e+02 1.845675e+03
-1.877690e+09 -1.677715e+09 -1.837666e+09 1.697479e+04 -5.125029e+03 -8.286303e+03
-3.305607e+09 -3.105614e+09 -3.265618e+09 -2.423943e+03 -3.420256e+02 1.121801e+03
-1.602064e+09 -1.402069e+09 -1.562072e+09 -2.596316e+03 -1.860038e+03 2.705020e+03
-2.784793e+09 -2.584804e+09 -2.744807e+09 -3.078218e+03 -9.855413e+02 2.456385e+03
-2.745993e+09 -2.546005e+09 -2.706014e+09 1.189254e+04 5.511977e+03 8.555739e+03
-2.375271e+09 -2.175284e+09 -2.335289e+09 7.142430e+03 5.287198e+03 1.040192e+04
-2.396044e+09 -2.196063e+09 -2.356065e+09 5.059186e+03 2.444731e+03 1.058690e+04
-3.170453e+09 -2.970475e+09 -3.130481e+09 8.942934e+03 3.898671e+03 9.690968e+03
-1.798146e+09 -1.598168e+09 -1.758169e+09 3.885847e+03 3.908428e+03 1.380714e+04
-2.611603e+09 -2.411618e+09 -2.571621e+09 6.642964e+03 3.167002e+03 1.043432e+04
-3.603479e+09 -3.403486e+09 -3.563490e+09 -2.963180e+03 -5.849937e+02 1.041445e+03
-3.556961e+09 -3.356966e+09 -3.516972e+09 -3.268405e+03 -8.226034e+02 1.250116e+03
-2.005341e+09 -1.805346e+09 -1.965351e+09 -2.812136e+03 -1.760182e+03 2.679349e+03
-1.831658e+09 -1.631664e+09 -1.791667e+09 -1.896554e+03 -6.695924e+02 1.230783e+03
-1.782814e+09 -1.582820e+09 -1.742825e+09 5.836709e+03 5.827376e+03 1.261085e+04
-2.626750e+09 -2.426772e+09 -2.586776e+09 1.852434e+04 4.357441e+03 1.052163e+04
-3.523334e+09 -3.323305e+09 -3.483309e+09 5.709240e+04 1.415180e+03 1.249145e+04
-1.775887e+09 -1.575886e+09 -1.735908e+09 2.007575e+04 7.662252e+03 1.658171e+04
-3.243692e+09 -3.043712e+09 -3.203717e+09 -7.223324e+03 -3.359790e+03 8.053330e+03
-1.756892e+09 -1.556904e+09 -1.716879e+09 3.387556e+03 3.766072e+03 1.054071e+04
-2.373042e+09 -2.173044e+09 -2.333050e+09 1.742550e+04 9.673982e+03 1.590821e+04
-2.312958e+09 -2.112961e+09 -2.272963e+09 4.254122e+04 7.068851e+03 1.264261e+04
-2.133697e+09 -1.933680e+09 -2.093694e+09 2.406319e+04 1.602032e+04 2.413943e+04
-1.740342e+09 -1.540347e+09 -1.700351e+09 -3.022566e+03 -4.649980e+03 5.249431e+03
-2.571551e+09 -2.371561e+09 -2.531583e+09 3.023060e+04 1.081613e+04 1.561257e+04
-3.374481e+09 -3.174492e+09 -3.334490e+09 3.927623e+04 3.258942e+03 -6.256658e+01
-3.103602e+09 -2.903637e+09 -3.063604e+09 4.596237e+04 -6.471417e+03 -6.678133e+03
-2.809825e+09 -2.609815e+09 -2.769842e+09 3.372806e+04 1.176501e+04 9.044048e+03
-2.453584e+09 -2.253555e+09 -2.413569e+09 1.714052e+04 -2.107312e+04 -8.615441e+03
-3.173848e+09 -2.973852e+09 -3.133863e+09 -5.961557e+03 -3.160498e+03 3.861020e+03
-2.011621e+09 -1.811614e+09 -1.971624e+09 -3.848553e+03 -8.766140e+03 4.493801e+03
-1.686592e+09 -1.486587e+09 -1.646593e+09 9.988062e+01 -1.370905e+04 4.039022e+03
-3.610052e+09 -3.410011e+09 -3.570057e+09 1.643293e+04 -1.795536e+04 -5.745106e+03
-2.052749e+09 -1.852724e+09 -2.012750e+09 2.084221e+03 -2.075959e+04 -8.245844e+03
-1.698570e+09 -1.498565e+09 -1.658572e+09 -3.656388e+02 -9.908103e+03 4.447989e+03
-2.047787e+09 -1.847774e+09 -2.007785e+09 2.744032e+03 -1.610092e+04 3.693269e+03
-2.188556e+09 -1.988543e+09 -2.148557e+09 -4.915677e+03 -1.201298e+04 4.021289e+03
-3.178748e+09 -2.978739e+09 -3.138757e+09 5.105262e+03 -7.879101e+03 -3.474159e+03
-2.473475e+09 -2.273454e+09 -2.433478e+09 1.177808e+04 -2.338810e+04 -1.498049e+04
-1.989689e+09 -1.789667e+09 -1.949687e+09 4.822519e+03 -2.347621e+04 -8.271253e+03
-1.595994e+09 -1.395989e+09 -1.555988e+09 -4.469607e+03 -1.510734e+04 -9.109580e+03
-2.195339e+09 -1.995322e+09 -2.155339e+09 2.864650e+03 -1.258515e+04 -3.986377e+03
-2.062781e+09 -1.862760e+09 -2.022780e+09 5.801109e+03 -2.057730e+04 -8.421408e+03
-2.603783e+09 -2.403774e+09 -2.563796e+09 2.862235e+04 -1.275569e+04 -9.257905e+03
-2.702253e+09 -2.502232e+09 -2.662266e+09 1.840013e+04 -1.698987e+04 -1.040421e+04
-3.380897e+09 -3.180864e+09 -3.340891e+09 3.448644e+04 -1.128333e+04 -5.772045e+03
-2.859298e+09 -2.659293e+09 -2.819310e+09 1.469822e+04 -1.157656e+04 -8.789861e+03
-1.687281e+09 -1.487278e+09 -1.647283e+09 -1.152086e+03 -1.312538e+04 -3.355572e+03
-1.583053e+09 -1.383064e+09 -1.543044e+09 3.855793e+02 -2.255934e+04 -6.053457e+03
-1.782031e+09 -1.582033e+09 -1.742033e+09 8.089672e+03 -2.176381e+04 -1.235718e+04
-2.383601e+09 -2.183581e+09 -2.343597e+09 1.246232e+04 -1.546126e+04 -1.255394e+04
-3.223588e+09 -3.023618e+09 -3.183622e+09 -1.416410e+03 -6.054280e+02 8.826236e+03
-1.679080e+09 -1.479072e+09 -1.639082e+09 6.427419e+02 -1.176725e+04 -6.681698e+03
-2.666224e+09 -2.466204e+09 -2.626227e+09 7.087673e+03 -1.666869e+04 -1.174504e+04
-1.574494e+09 -1.374497e+09 -1.534492e+09 -7.703873e+02 -1.822059e+04 -1.705253e+03
-3.348334e+09 -3.148358e+09 -3.308361e+09 -1.788324e+03 -5.274345e+02 5.938174e+03
-3.337987e+09 -3.138011e+09 -3.298014e+09 -2.393000e+01 5.689102e+01 6.034779e+03
-1.996093e+09 -1.796061e+09 -1.956086e+09 9.172084e+02 -2.622648e+04 -2.031042e+03
-3.466910e+09 -3.266755e+09 -3.426103e+09 -2.890421e+04 2.064624e+05 -6.873831e+04
-2.633052e+09 -2.433076e+09 -2.593077e+09 -6.312213e+03 -4.305297e+02 1.030853e+04
-1.622433e+09 -1.422432e+09 -1.582415e+09 -4.101480e+03 -2.780830e+04 -2.472076e+04
-2.478649e+09 -2.278781e+09 -2.438437e+09 -4.470097e+04 -3.595327e+04 2.023612e+05
-3.143620e+09 -2.943644e+09 -3.103648e+09 -9.840882e+01 -1.780524e+01 6.754156e+03
-3.242732e+09 -3.042707e+09 -3.202737e+09 -6.446181e+03 -1.056151e+04 3.002533e+03
-2.063727e+09 -1.863718e+09 -2.023691e+09 -2.537192e+04 -1.637145e+04 1.635042e+04
-1.593395e+09 -1.393395e+09 -1.553395e+09 -1.826993e+03 -1.029569e+04 1.164330e+04
-2.583715e+09 -2.383743e+09 -2.543743e+09 2.056824e+03 -1.052129e+03 1.289007e+04
-3.598897e+09 -3.398923e+09 -3.558930e+09 -1.515320e+04 -6.169621e+03 1.137744e+04
-1.588198e+09 -1.388201e+09 -1.548196e+09 -4.114886e+03 -5.888471e+03 2.586148e+04
-3.145585e+09 -2.945480e+09 -3.105280e+09 8.459196e+04 -1.233673e+05 -3.322043e+04
-1.831011e+09 -1.631028e+09 -1.790922e+09 3.352749e+04 -5.633579e+04 -4.849557e+04
-2.763549e+09 -2.563574e+09 -2.722028e+09 6.741523e+04 1.083002e+05 -4.534080e+05
-1.572531e+09 -1.372529e+09 -1.532516e+09 -1.411701e+03 -1.243971e+04 1.770950e+04
-3.594655e+09 -3.394690e+09 -3.554695e+09 -6.910196e+03 -2.510897e+03 1.055467e+04
-2.466698e+09 -2.266696e+09 -2.426690e+09 -2.051008e+04 -1.723004e+04 1.259323e+04
-2.435360e+09 -2.235344e+09 -2.395361e+09 -4.335317e+04 7.199316e+02 5.433960e+03
-2.263897e+09 -2.063957e+09 -2.223316e+09 -1.138697e+05 -4.881345e+05 1.068072e+05
-3.141657e+09 -2.941437e+09 -3.100493e+09 1.437508e+04 -2.757329e+05 -1.682211e+05
-3.383548e+09 -3.183355e+09 -3.342889e+09 3.831622e+04 -2.256674e+05 -2.906131e+04
-3.073273e+09 -2.873250e+09 -3.033278e+09 6.139274e+03 -1.413041e+04 -5.153042e+03
-3.378794e+09 -3.178976e+09 -3.338062e+09 7.808761e+04 -6.763061e+04 -1.551829e+05
-3.187422e+09 -2.987581e+09 -3.146809e+09 1.656344e+05 -1.255518e+05 -2.948264e+05
-3.169482e+09 -2.969496e+09 -3.129500e+09 4.047482e+03 1.198510e+03 4.005642e+03
-1.691077e+09 -1.491070e+09 -1.651078e+09 9.220143e+02 8.739762e+03 1.970604e+03
-1.776706e+09 -1.576716e+09 -1.736718e+09 2.720723e+03 1.346554e+03 3.254694e+03
-1.944292e+09 -1.744278e+09 -1.904291e+09 -3.156244e+03 1.086812e+04 2.094343e+03
-3.493048e+09 -3.293024e+09 -3.453052e+09 6.344609e+03 7.722683e+03 1.598738e+03
-2.454459e+09 -2.254469e+09 -2.414473e+09 3.664639e+03 1.773785e+03 5.332723e+03
-3.104116e+09 -2.904095e+09 -3.064120e+09 4.938416e+03 9.473053e+03 2.016685e+03
-3.420448e+09 -3.220462e+09 -3.380470e+09 6.686970e+03 2.222335e+03 3.547811e+03
-3.195111e+09 -2.995116e+09 -3.155124e+09 4.645665e+03 1.773729e+03 2.928952e+03
-3.361962e+09 -3.161965e+09 -3.321974e+09 5.160972e+03 1.838505e+03 2.599755e+03
-1.578736e+09 -1.378734e+09 -1.538734e+09 6.485347e+02 1.885083e+04 6.331503e+03
-1.685532e+09 -1.485525e+09 -1.645533e+09 1.328285e+03 7.822883e+03 2.073259e+03
-3.377984e+09 -3.177990e+09 -3.337997e+09 5.067868e+03 2.117451e+03 2.711151e+03
-2.139179e+09 -1.939177e+09 -2.099184e+09 2.954471e+03 2.203449e+03 1.864331e+03
-1.581701e+09 -1.381695e+09 -1.541700e+09 -2.501177e+03 -1.376784e+04 -8.666576e+03
-3.399911e+09 -3.199913e+09 -3.359924e+09 5.490033e+03 3.434078e+03 2.444249e+03
-3.296813e+09 -3.096815e+09 -3.256821e+09 1.877941e+03 4.896757e+02 6.090559e+02
-3.406395e+09 -3.206395e+09 -3.366404e+09 4.641424e+03 1.447453e+03 2.064036e+03
-1.791541e+09 -1.591540e+09 -1.751547e+09 3.776334e+03 2.776442e+03 3.206628e+03
-2.661841e+09 -2.461842e+09 -2.621850e+09 3.351299e+03 2.655357e+03 1.892336e+03
-2.842010e+09 -2.641975e+09 -2.802008e+09 -2.930510e+03 1.567380e+04 -7.631418e+02
-3.609270e+09 -3.409346e+09 -3.569258e+09 -5.486293e+04 -1.022804e+04 1.335873e+03
-3.396948e+09 -3.196895e+09 -3.356936e+09 5.208625e+03 1.273172e+04 7.634917e+02
-1.584239e+09 -1.384227e+09 -1.544162e+09 2.318386e+04 5.807560e+04 7.112800e+04
-1.581885e+09 -1.381825e+09 -1.541530e+09 1.911231e+04 2.843029e+05 4.924253e+05
-3.399236e+09 -3.199183e+09 -3.359236e+09 -4.311782e+03 1.514451e+04 -7.801416e+02
-3.388260e+09 -3.188193e+09 -3.348243e+09 -6.603422e+03 1.857396e+04 -3.559548e+03
-2.004156e+09 -1.804172e+09 -1.964095e+09 3.978926e+04 -4.101085e+03 4.180822e+02
-3.394909e+09 -3.194821e+09 -3.354758e+09 8.969689e+04 7.600819e+04 5.609206e+04
-2.573925e+09 -2.373877e+09 -2.533915e+09 -2.152318e+03 2.116043e+04 -1.377397e+03
-2.595119e+09 -2.395083e+09 -2.555102e+09 1.177078e+03 2.001717e+04 1.170427e+03
-1.864922e+09 -1.664784e+09 -1.824717e+09 1.369854e+04 -2.775417e+05 -4.167349e+04
-3.527662e+09 -3.327775e+09 -3.486770e+09 -2.600190e+04 6.382759e+04 -2.387118e+05
-2.454590e+09 -2.254391e+09 -2.414263e+09 -1.595453e+04 -1.930612e+05 -5.544085e+04
-2.613815e+09 -2.413768e+09 -2.573676e+09 6.936401e+04 -5.051778e+04 -2.728139e+04
-2.502018e+09 -2.301978e+09 -2.461900e+09 4.767691e+04 3.191696e+04 2.857166e+04
-2.089330e+09 -1.889250e+09 -2.049120e+09 1.806977e+04 -6.178047e+04 -3.284685e+04
-3.245788e+09 -3.045873e+09 -3.205823e+09 -2.785672e+04 -1.416898e+04 6.564191e+03
-3.507892e+09 -3.308011e+09 -3.467964e+09 1.625083e+04 -6.625062e+02 4.966144e+03
-3.294641e+09 -3.094424e+09 -3.254249e+09 2.329118e+04 -1.554443e+05 2.150140e+04
-2.030819e+09 -1.830863e+09 -1.990611e+09 4.762604e+04 -6.875605e+03 -3.752977e+04
-3.402274e+09 -3.202365e+09 -3.362131e+09 5.205161e+04 -5.132822e+03 -3.306284e+04
-1.896893e+09 -1.696940e+09 -1.856909e+09 1.020041e+04 5.534358e+01 1.214722e+04
-2.616134e+09 -2.416286e+09 -2.575966e+09 6.996560e+04 -5.396781e+04 -1.920388e+05
-3.559371e+09 -3.359524e+09 -3.519381e+09 3.049527e+04 9.993485e+03 2.605604e+04
-1.993833e+09 -1.793814e+09 -1.953744e+09 5.234258e+04 -4.119970e+04 3.205359e+03
-2.786274e+09 -2.586148e+09 -2.745874e+09 7.470439e+04 -1.614977e+05 -7.206513e+04
-3.441951e+09 -3.241968e+09 -3.401726e+09 9.596569e+04 -4.366737e+04 -9.197971e+04
-3.395128e+09 -3.195156e+09 -3.355065e+09 6.464210e+04 -1.551105e+04 -2.604233e+04
-1.595750e+09 -1.395762e+09 -1.555714e+09 -3.127279e+03 -2.837315e+04 1.614877e+04
-2.653271e+09 -2.453245e+09 -2.613186e+09 4.928014e+04 -1.387869e+04 1.169226e+04
-1.599797e+09 -1.399799e+09 -1.559740e+09 -5.879273e+03 1.498368e+04 1.803939e+04
-2.522271e+09 -2.322245e+09 -2.482190e+09 5.234747e+04 -2.208716e+04 -2.290715e+04
-2.766485e+09 -2.566560e+09 -2.726094e+09 9.758055e+04 1.303811e+05 2.287433e+05
-1.766870e+09 -1.566827e+09 -1.726795e+09 2.318011e+04 -3.581102e+04 -2.208176e+04
-1.564897e+09 -1.364897e+09 -1.524820e+09 7.986364e+03 -3.679183e+04 -4.229660e+04
-2.150754e+09 -1.950748e+09 -2.110761e+09 -8.673175e+03 1.593642e+04 -1.020144e+04
-2.080758e+09 -1.880753e+09 -2.040713e+09 2.342619e+04 1.066835e+04 8.135432e+03
-3.604044e+09 -3.404022e+09 -3.564054e+09 -1.794098e+04 1.191164e+04 -7.360638e+03
-2.369932e+09 -2.169931e+09 -2.329868e+09 4.656809e+04 -5.944194e+03 -1.296646e+04
-2.839874e+09 -2.639865e+09 -2.799885e+09 -7.680376e+03 1.087703e+04 -5.180002e+03
-3.404475e+09 -3.204444e+09 -3.364478e+09 -1.937724e+04 1.272366e+04 -4.779416e+03
-2.420566e+09 -2.220545e+09 -2.380566e+09 -8.436876e+02 1.834414e+04 -3.834762e+02
-2.564669e+09 -2.364686e+09 -2.524687e+09 7.693170e+02 1.140605e+03 5.502498e+03
-2.036916e+09 -1.836935e+09 -1.996934e+09 1.084988e+03 6.755697e+02 8.898439e+03
-1.940691e+09 -1.740706e+09 -1.900706e+09 -1.470611e+03 -2.138663e+02 7.476091e+03
-2.449763e+09 -2.249786e+09 -2.409786e+09 -1.490041e+03 4.877650e+02 1.004612e+04
-2.773469e+09 -2.573487e+09 -2.733488e+09 1.964732e+03 5.043163e+02 4.794277e+03
-2.360227e+09 -2.160243e+09 -2.320244e+09 1.115695e+03 4.425996e+02 5.423163e+03
-1.578989e+09 -1.378994e+09 -1.538998e+09 2.098210e+03 9.750409e+02 1.653936e+03
-1.787739e+09 -1.587754e+09 -1.747755e+09 6.426801e+02 3.572442e+02 6.271195e+03
-2.791885e+09 -2.591891e+09 -2.751897e+09 4.721554e+03 2.436875e+03 3.262330e+03
-2.912043e+09 -2.712117e+09 -2.872092e+09 -1.351200e+04 -1.344532e+03 1.372656e+04
-3.599425e+09 -3.399430e+09 -3.559436e+09 3.199991e+03 7.668147e+02 1.142207e+03
-3.419958e+09 -3.220004e+09 -3.379997e+09 -1.126542e+04 -1.780660e+03 1.038508e+04
-3.012585e+09 -2.812588e+09 -2.972597e+09 4.591200e+03 2.415660e+03 3.098117e+03
-2.678200e+09 -2.478300e+09 -2.638257e+09 -1.086745e+04 -3.009792e+03 -2.722332e+04
-2.589487e+09 -2.389490e+09 -2.549495e+09 2.186931e+03 8.852633e+02 1.076981e+03
-2.588421e+09 -2.388427e+09 -2.548431e+09 1.864809e+03 6.160175e+02 1.062673e+03
-2.668781e+09 -2.468886e+09 -2.628817e+09 -2.071725e+04 1.512497e+04 -1.105181e+04
-2.058958e+09 -1.858975e+09 -2.018978e+09 -1.801957e+04 -1.131982e+04 1.409679e+04
-3.054829e+09 -2.854837e+09 -3.014841e+09 2.431593e+03 5.837534e+02 1.459394e+03
-3.246604e+09 -3.046692e+09 -3.206635e+09 -1.142675e+04 5.495892e+03 7.748713e+03
-1.581698e+09 -1.381694e+09 -1.541699e+09 -4.441043e+02 -1.368229e+04 -8.755448e+03
-1.689984e+09 -1.489980e+09 -1.649986e+09 8.694962e+02 1.072879e+04 -6.270129e+03
-1.891085e+09 -1.691079e+09 -1.851086e+09 -3.855091e+02 1.096134e+04 -5.851381e+03
-3.292773e+09 -3.092760e+09 -3.252787e+09 -1.076330e+04 8.985197e+03 -5.996504e+03
-2.525262e+09 -2.325038e+09 -2.484099e+09 5.675921e+04 -4.535488e+05 -1.114948e+05
-3.398791e+09 -3.198999e+09 -3.358382e+09 -4.091536e+04 7.824458e+04 -2.193363e+05
-1.786957e+09 -1.586952e+09 -1.746957e+09 -1.788356e+02 1.294297e+04 -3.661141e+03
-1.997327e+09 -1.797318e+09 -1.957326e+09 -3.009344e+02 8.593626e+03 -1.909020e+03
-3.338294e+09 -3.138398e+09 -3.297460e+09 1.623434e+04 -2.524355e+04 -2.909910e+05
-3.192359e+09 -2.992378e+09 -3.151266e+09 3.298647e+04 -1.790536e+05 -2.891577e+05
-3.415198e+09 -3.215211e+09 -3.373946e+09 3.137235e+04 -1.191260e+05 -3.064846e+05
-3.186180e+09 -2.986141e+09 -3.146184e+09 8.015399e+03 -1.281144e+04 -4.453360e+03
-2.720524e+09 -2.520527e+09 -2.680532e+09 2.012933e+03 5.822936e+02 7.899765e+02
-2.186911e+09 -1.986911e+09 -2.146918e+09 2.599014e+03 1.459006e+03 1.279323e+03
-2.819114e+09 -2.619121e+09 -2.779125e+09 3.028088e+03 1.400694e+03 2.249126e+03
-3.105348e+09 -2.905314e+09 -3.065349e+09 2.276821e+03 -1.682085e+04 -1.863903e+03
-2.599028e+09 -2.398993e+09 -2.559017e+09 -1.388821e+03 -1.949490e+04 1.340902e+03
-3.214551e+09 -3.014556e+09 -3.174561e+09 2.517971e+03 7.339237e+02 1.108269e+03
-2.604267e+09 -2.404242e+09 -2.564271e+09 8.066202e+02 -2.259816e+04 -1.272751e+03
-1.606404e+09 -1.406408e+09 -1.566412e+09 2.502946e+03 1.597488e+03 2.102178e+03
-1.581620e+09 -1.381616e+09 -1.541617e+09 -1.716393e+00 1.580178e+04 1.033169e+04
-3.565553e+09 -3.365511e+09 -3.525554e+09 3.007897e+04 1.200832e+04 8.584053e+03
-1.918865e+09 -1.718856e+09 -1.878867e+09 -3.043396e+03 -1.990168e+04 1.442389e+03
-1.777223e+09 -1.577206e+09 -1.737227e+09 1.028373e+04 2.372848e+04 1.244096e+04
-3.335913e+09 -3.135864e+09 -3.295910e+09 -3.958351e+03 -1.313314e+04 1.775970e+03
-3.577721e+09 -3.377700e+09 -3.537735e+09 2.365197e+04 1.147676e+04 6.102101e+03
-2.494084e+09 -2.294059e+09 -2.454085e+09 -1.031408e+03 -2.178313e+04 7.068643e+02
-2.083998e+09 -1.883974e+09 -2.043995e+09 -1.606521e+03 -2.096628e+04 3.191280e+03
-1.978077e+09 -1.778052e+09 -1.938075e+09 5.143699e+03 1.750217e+04 6.259015e+03
-1.570337e+09 -1.370336e+09 -1.530335e+09 6.521428e+02 2.363370e+04 9.500210e+03
-1.581620e+09 -1.381617e+09 -1.541617e+09 5.915132e+02 1.691663e+04 8.348939e+03
-2.946970e+09 -2.746960e+09 -2.906990e+09 2.268207e+04 -1.266009e+04 -8.371373e+03
-3.526335e+09 -3.326288e+09 -3.486332e+09 -3.391592e+03 -1.728094e+04 1.802537e+03
-1.579134e+09 -1.379141e+09 -1.539136e+09 2.650234e+03 5.606004e+03 1.870440e+04
-2.356272e+09 -2.156287e+09 -2.316291e+09 6.651044e+03 6.131661e+03 1.376485e+04
-3.299012e+09 -3.098971e+09 -3.259014e+09 4.021613e+03 -1.433581e+04 4.486621e+02
-2.329544e+09 -2.129554e+09 -2.289557e+09 1.669946e+04 8.492879e+03 8.795018e+03
-2.595301e+09 -2.395317e+09 -2.555319e+09 3.730954e+03 1.849043e+03 7.959971e+03
-1.590301e+09 -1.390299e+09 -1.550300e+09 -6.885188e+02 -2.255738e+04 -2.567727e+02
-2.781257e+09 -2.581199e+09 -2.741257e+09 9.731996e+03 -2.497645e+04 -5.047662e+03
-3.592015e+09 -3.392116e+09 -3.552009e+09 4.621883e+04 1.367755e+03 -1.337759e+03
-2.480511e+09 -2.280486e+09 -2.440513e+09 1.639618e+03 -2.339273e+04 -3.792891e+03
-3.204945e+09 -3.004883e+09 -3.164937e+09 7.687851e+02 -1.109258e+04 -3.113607e+02
-3.611662e+09 -3.411648e+09 -3.571677e+09 4.119247e+04 1.056734e+04 4.920227e+03
-1.789155e+09 -1.589156e+09 -1.749164e+09 5.957489e+03 8.299481e+03 7.270713e+03
-1.754848e+09 -1.554852e+09 -1.714849e+09 4.846969e+03 1.517047e+04 1.341239e+04
-1.894992e+09 -1.694979e+09 -1.854992e+09 7.720002e+03 -1.810173e+04 -1.920512e+03
-1.604324e+09 -1.404323e+09 -1.564314e+09 -2.572142e+03 -8.528928e+03 8.614815e+03
-2.654060e+09 -2.454042e+09 -2.614068e+09 1.006686e+04 1.240935e+04 4.910382e+03
-3.284473e+09 -3.084454e+09 -3.244479e+09 8.600150e+03 8.334518e+03 2.794214e+03
-1.877426e+09 -1.677419e+09 -1.837427e+09 1.306003e+03 9.358946e+03 3.888189e+03
-3.202609e+09 -3.002583e+09 -3.162614e+09 7.552466e+03 1.072661e+04 3.619705e+03
-2.609287e+09 -2.409272e+09 -2.569291e+09 3.528018e+03 1.200002e+04 4.258133e+03
-2.711901e+09 -2.511882e+09 -2.671903e+09 4.526461e+03 1.259800e+04 3.647441e+03
-2.576575e+09 -2.376561e+09 -2.536580e+09 4.389841e+03 1.222313e+04 4.204916e+03
-3.599860e+09 -3.399881e+09 -3.559884e+09 5.166381e+03 1.128035e+03 4.851443e+03
-2.408946e+09 -2.208925e+09 -2.368946e+09 2.990495e+03 1.647021e+04 3.849186e+03
-3.205732e+09 -3.005701e+09 -3.165735e+09 5.417985e+03 1.189079e+04 2.668634e+03
-1.941493e+09 -1.741481e+09 -1.901494e+09 4.217157e+03 1.071213e+04 4.866705e+02
-3.501798e+09 -3.301813e+09 -3.461815e+09 -1.413331e+03 -2.196571e+02 2.118790e+03
-2.232209e+09 -2.032222e+09 -2.192222e+09 -1.593201e+03 -9.949338e+02 2.573568e+03
-2.849188e+09 -2.649170e+09 -2.809192e+09 1.177661e+03 8.298035e+03 7.840323e+02
-2.667634e+09 -2.467613e+09 -2.627634e+09 3.762491e+03 1.323952e+04 2.184319e+03
-3.315528e+09 -3.115446e+09 -3.275486e+09 -2.073184e+04 -1.157106e+04 -1.339629e+03
-2.142978e+09 -1.942918e+09 -2.102918e+09 -1.036836e+04 9.399207e+03 9.395230e+03
-3.582477e+09 -3.382492e+09 -3.542496e+09 -3.238001e+03 -9.699904e+02 2.978333e+03
-1.890335e+09 -1.690317e+09 -1.850227e+09 -2.490874e+04 2.000951e+04 -2.754120e+04
-2.628668e+09 -2.428609e+09 -2.588569e+09 -3.764129e+04 7.203334e+03 -9.672186e+02
-3.045600e+09 -2.845613e+09 -3.005616e+09 -2.360958e+03 -7.445359e+02 2.645276e+03
-2.873789e+09 -2.673759e+09 -2.833748e+09 -3.780422e+04 3.633717e+03 5.782789e+02
-3.601367e+09 -3.401377e+09 -3.561381e+09 -3.379236e+03 -8.855652e+02 1.799752e+03
-2.386059e+09 -2.186068e+09 -2.346072e+09 -3.542553e+03 -1.989311e+03 3.610738e+03
-2.338171e+09 -2.138156e+09 -2.298157e+09 -2.766055e+04 -5.975709e+03 -1.448481e+02
-3.564298e+09 -3.364313e+09 -3.524318e+09 -5.027116e+03 -1.375627e+03 3.303720e+03
-2.427595e+09 -2.227551e+09 -2.387550e+09 -7.741495e+04 6.512449e+04 -8.136908e+04
-1.804864e+09 -1.604818e+09 -1.764869e+09 -1.709586e+04 -1.265759e+04 -2.473849e+03
-2.614448e+09 -2.414282e+09 -2.573990e+09 -3.848382e+04 -3.226963e+05 2.346518e+04
-3.442688e+09 -3.242580e+09 -3.402213e+09 6.745855e+04 -6.694844e+04 -1.010828e+05
-1.765408e+09 -1.565395e+09 -1.725409e+09 -5.425314e+02 -1.548989e+04 -6.130622e+03
-3.627461e+09 -3.427347e+09 -3.587009e+09 9.261023e+04 -9.945896e+04 -6.857753e+04
-1.562521e+09 -1.362517e+09 -1.522518e+09 -3.270235e+03 -1.784775e+04 -8.820993e+03
-3.284106e+09 -3.084074e+09 -3.244108e+09 3.877016e+03 -1.192104e+04 -4.052041e+03
-3.077018e+09 -2.876915e+09 -3.036940e+09 1.192758e+03 -1.366268e+04 -1.170816e+03
-3.594027e+09 -3.393981e+09 -3.554031e+09 1.311995e+04 -1.657022e+04 -7.459411e+03
-2.176338e+09 -1.976249e+09 -2.136216e+09 3.064477e+04 -2.355819e+04 -5.411325e+04
-1.784024e+09 -1.584027e+09 -1.744012e+09 7.759038e+01 -2.189176e+04 -1.030527e+04
-1.766050e+09 -1.565966e+09 -1.725567e+09 3.683988e+04 -3.651255e+05 -6.242537e+04
-2.602638e+09 -2.402480e+09 -2.562046e+09 1.177850e+05 -2.763078e+05 -1.418774e+05
-3.057015e+09 -2.857118e+09 -3.017020e+09 -1.757588e+04 1.218824e+04 -1.422629e+04
-1.982231e+09 -1.782281e+09 -1.942238e+09 -1.497155e+04 -6.605371e+03 2.423016e+04
-2.596475e+09 -2.396478e+09 -2.556485e+09 -2.773832e+03 -1.679681e+03 2.148371e+03
-3.369316e+09 -3.169398e+09 -3.329331e+09 -3.798073e+04 -7.119022e+03 -1.226030e+04
-1.554919e+09 -1.354920e+09 -1.514925e+09 -2.585003e+03 -5.564241e+03 5.704442e+03
-3.415233e+09 -3.215299e+09 -3.375288e+09 -2.739419e+04 -4.556136e+03 1.188208e+04
-2.599862e+09 -2.399859e+09 -2.559872e+09 -1.579076e+04 -1.310985e+04 1.277348e+04
-2.086696e+09 -1.886699e+09 -2.046696e+09 -1.768698e+04 -1.756757e+04 1.871901e+04
-3.297673e+09 -3.097676e+09 -3.257684e+09 -4.075543e+03 -1.580947e+03 1.673331e+03
-2.361904e+09 -2.161902e+09 -2.321913e+09 -9.125076e+03 -9.590644e+03 9.435183e+03
-1.983597e+09 -1.783602e+09 -1.943606e+09 -1.405695e+03 -2.525856e+02 7.677052e+02
-1.893809e+09 -1.693813e+09 -1.853817e+09 -1.880090e+03 -9.206732e+02 1.174253e+03
-2.977492e+09 -2.777492e+09 -2.937501e+09 -3.793606e+03 -2.126666e+03 2.450997e+03
-2.319412e+09 -2.119402e+09 -2.279416e+09 -1.189746e+04 -1.092640e+04 8.503975e+03
-2.551669e+09 -2.351656e+09 -2.511684e+09 -2.362098e+04 -1.290385e+04 1.088769e+04
-3.292219e+09 -3.092222e+09 -3.252229e+09 -3.078552e+03 -1.229984e+03 1.562669e+03
-2.497227e+09 -2.297223e+09 -2.457205e+09 -2.912649e+04 -9.570699e+03 1.161833e+04
-3.489750e+09 -3.289754e+09 -3.449760e+09 -3.136881e+03 -9.495321e+02 1.019220e+03
-3.544171e+09 -3.344172e+09 -3.504189e+09 -1.103751e+04 -5.325427e+03 5.341942e+03
-2.722845e+09 -2.522854e+09 -2.682861e+09 -1.926030e+04 -9.200630e+03 1.016777e+04
-3.499368e+09 -3.299364e+09 -3.459378e+09 -6.943504e+03 -3.264986e+03 2.722191e+03
-2.011939e+09 -1.811938e+09 -1.971944e+09 -2.896410e+03 -7.103140e+03 4.284937e+03
-3.308042e+09 -3.108058e+09 -3.268065e+09 -4.153748e+04 -9.084067e+03 1.082183e+04
-3.296303e+09 -3.096080e+09 -3.256021e+09 2.897215e+04 1.166058e+05 7.044506e+04
-1.811143e+09 -1.611160e+09 -1.771133e+09 2.855584e+04 7.742716e+03 -1.254006e+04
-2.082397e+09 -1.882442e+09 -2.042416e+09 2.056541e+04 3.904383e+03 -8.964367e+03
-2.356128e+09 -2.156159e+09 -2.316164e+09 2.902515e+04 -2.136567e+04 -1.593047e+04
-2.605633e+09 -2.405623e+09 -2.565643e+09 9.781624e+03 -1.646688e+04 -9.882850e+03
-3.380229e+09 -3.180178e+09 -3.340149e+09 6.362019e+04 1.389913e+04 1.606806e+04
-3.409504e+09 -3.209549e+09 -3.369541e+09 -3.659243e+04 -4.717881e+03 1.008092e+04
-3.603298e+09 -3.403253e+09 -3.563256e+09 5.099697e+04 -7.213816e+03 -5.162287e+03
-2.424874e+09 -2.224892e+09 -2.384887e+09 3.635191e+04 -8.714805e+03 -1.991034e+04
-1.974880e+09 -1.774906e+09 -1.934903e+09 6.957476e+03 4.408570e+03 2.049966e+04
-3.246402e+09 -3.046419e+09 -3.206404e+09 3.924032e+04 -5.540437e+03 -1.605962e+03
-3.222300e+09 -3.022350e+09 -3.182343e+09 7.078356e+03 -9.309777e+01 1.016028e+04
-3.603295e+09 -3.403266e+09 -3.563241e+09 6.850393e+04 1.525518e+04 1.357358e+04
-3.605639e+09 -3.405651e+09 -3.565659e+09 5.853135e+03 1.758601e+03 3.695638e+03
-3.599425e+09 -3.399431e+09 -3.559436e+09 3.015219e+03 6.168749e+02 1.084112e+03
-3.608160e+09 -3.408168e+09 -3.568174e+09 4.405284e+03 1.237508e+03 2.208418e+03
-3.590327e+09 -3.390332e+09 -3.550338e+09 3.803929e+03 8.621502e+02 1.430812e+03
-2.671830e+09 -2.471875e+09 -2.631869e+09 8.410850e+03 3.348566e+03 2.042167e+04
-3.192499e+09 -2.992502e+09 -3.152507e+09 1.265357e+03 3.749703e+02 1.936064e+02
-2.077221e+09 -1.877232e+09 -2.037234e+09 2.253457e+03 7.001803e+02 2.812183e+03
-2.671842e+09 -2.471857e+09 -2.631862e+09 5.000036e+03 2.801032e+03 6.544818e+03
-3.030313e+09 -2.830438e+09 -2.990250e+09 -1.721723e+04 -1.951294e+04 -6.666115e+04
-1.584197e+09 -1.384206e+09 -1.544207e+09 2.212999e+03 1.890854e+03 9.363709e+03
-3.078694e+09 -2.878806e+09 -3.038682e+09 3.418403e+02 -1.321133e+04 -9.329236e+03
-3.586284e+09 -3.386306e+09 -3.546314e+09 1.233608e+04 3.097323e+03 7.349459e+03
-3.356285e+09 -3.156455e+09 -3.316222e+09 -1.195904e+04 5.918008e+03 -2.281411e+04
-3.155018e+09 -2.955030e+09 -3.115033e+09 1.470452e+03 8.185792e+02 2.226276e+03
-3.038554e+09 -2.838645e+09 -2.998506e+09 -4.368575e+04 5.183293e+04 -8.966331e+02
-3.054156e+09 -2.854289e+09 -3.014169e+09 5.584450e+03 -1.403396e+04 -5.809366e+04
-2.504697e+09 -2.304786e+09 -2.464771e+09 -4.587080e+03 1.224164e+03 -2.893873e+04
-1.931291e+09 -1.731291e+09 -1.891297e+09 1.965573e+03 1.218699e+03 1.091580e+03
-2.425724e+09 -2.225838e+09 -2.385640e+09 -2.393046e+04 -4.201771e+03 -6.829285e+04
-1.690560e+09 -1.490566e+09 -1.650569e+09 1.645682e+03 4.988136e+02 1.058347e+03
-3.602580e+09 -3.402593e+09 -3.562606e+09 -1.165955e+04 -4.524695e+03 6.869351e+03
-1.554921e+09 -1.354921e+09 -1.514926e+09 -3.006488e+03 -5.539939e+03 6.195935e+03
-1.573011e+09 -1.373006e+09 -1.533007e+09 -1.458015e+02 -1.745609e+04 1.286316e+04
-1.782747e+09 -1.582752e+09 -1.742762e+09 -1.348236e+04 -1.510287e+04 1.574526e+04
-1.746800e+09 -1.546789e+09 -1.706802e+09 -9.285834e+03 -1.499696e+04 1.415618e+04
-2.167718e+09 -1.967720e+09 -2.127726e+09 -3.226615e+03 -2.368656e+03 2.035255e+03
-1.734111e+09 -1.534106e+09 -1.694117e+09 -1.138331e+04 -1.472501e+04 1.255690e+04
-3.361660e+09 -3.161632e+09 -3.321664e+09 -4.822828e+04 -8.191002e+03 1.493230e+04
-2.429785e+09 -2.229738e+09 -2.389734e+09 -1.888331e+04 5.030738e+03 4.636012e+03
-2.702316e+09 -2.502321e+09 -2.662334e+09 -2.797445e+04 -1.063160e+04 9.416755e+03
-1.554921e+09 -1.354921e+09 -1.514925e+09 -2.253186e+03 -5.656141e+03 5.977705e+03
-3.062397e+09 -2.862400e+09 -3.022352e+09 -5.199711e+04 5.893078e+02 -5.937508e+03
-1.942903e+09 -1.742895e+09 -1.902908e+09 -1.167451e+04 -1.387785e+04 1.264757e+04
-3.168138e+09 -2.968116e+09 -3.128133e+09 -2.936713e+04 -1.346407e+04 1.020730e+04
-2.361646e+09 -2.161636e+09 -2.321650e+09 -1.290343e+04 -1.622408e+04 9.551563e+03
-2.744533e+09 -2.544527e+09 -2.704549e+09 -1.510804e+04 -1.333591e+04 1.135908e+04
-3.173407e+09 -2.973396e+09 -3.133418e+09 -1.518618e+04 -1.029560e+04 7.294727e+03
-3.370694e+09 -3.170683e+09 -3.330710e+09 -1.988755e+04 -1.007106e+04 8.915508e+03
-3.207246e+09 -3.007224e+09 -3.167250e+09 -2.206166e+04 -1.346086e+04 9.847886e+03
-2.354833e+09 -2.154825e+09 -2.314839e+09 -7.297350e+03 -9.861846e+03 7.672264e+03
-1.588952e+09 -1.388948e+09 -1.548952e+09 7.319846e+02 -1.333730e+04 7.201591e+03
-1.750939e+09 -1.550929e+09 -1.710942e+09 -4.200468e+03 -1.216315e+04 9.791060e+03
-2.350104e+09 -2.150104e+09 -2.310118e+09 -1.325809e+04 -1.088455e+04 8.044960e+03
-3.399355e+09 -3.199350e+09 -3.359374e+09 -1.522608e+04 -8.154118e+03 6.574602e+03
-3.500851e+09 -3.300844e+09 -3.460862e+09 -8.603166e+03 -4.476891e+03 3.560167e+03
-2.091633e+09 -1.891623e+09 -2.051637e+09 -6.447383e+03 -8.995666e+03 6.093604e+03
-1.697400e+09 -1.497398e+09 -1.657405e+09 -2.439849e+03 -4.218832e+03 3.654742e+03
-2.346552e+09 -2.146549e+09 -2.306562e+09 -7.298689e+03 -9.921280e+03 7.748774e+03
-1.773210e+09 -1.573207e+09 -1.733213e+09 -2.744624e+03 -9.460114e+03 8.071489e+03
-1.750650e+09 -1.550650e+09 -1.710659e+09 -6.846396e+03 -1.075564e+04 9.691431e+03
-3.329649e+09 -3.129611e+09 -3.289649e+09 -9.447805e+03 -1.197334e+04 3.661095e+03
-2.637710e+09 -2.437715e+09 -2.597721e+09 4.206051e+03 1.615363e+03 3.169464e+03
-2.440236e+09 -2.240242e+09 -2.400248e+09 3.257909e+03 1.641822e+03 2.728699e+03
-3.584947e+09 -3.384955e+09 -3.544960e+09 -3.810463e+03 -9.995385e+02 1.802316e+03
-3.485650e+09 -3.285656e+09 -3.445660e+09 -1.787928e+03 -3.191735e+02 6.564347e+02
-2.820708e+09 -2.620716e+09 -2.780721e+09 -4.173927e+03 -1.656400e+03 3.202281e+03
-1.585048e+09 -1.385055e+09 -1.545058e+09 -1.920565e+03 -1.115486e+03 2.441448e+03
-1.990929e+09 -1.790934e+09 -1.950938e+09 3.535415e+03 1.873256e+03 2.771715e+03
-2.678386e+09 -2.478394e+09 -2.638399e+09 3.835965e+03 1.773306e+03 2.809813e+03
-1.786354e+09 -1.586360e+09 -1.746364e+09 4.172170e+03 2.762429e+03 4.983673e+03
-3.533870e+09 -3.333883e+09 -3.493886e+09 -2.519271e+03 -5.780239e+02 2.101899e+03
-2.030913e+09 -1.830920e+09 -1.990924e+09 4.099736e+03 2.446002e+03 4.534504e+03
-3.494937e+09 -3.294941e+09 -3.454945e+09 1.627549e+03 1.791278e+02 4.371263e+02
-2.145753e+09 -1.945763e+09 -2.105765e+09 -1.995583e+03 -7.507464e+02 1.731997e+03
-3.307590e+09 -3.107601e+09 -3.267604e+09 -2.707976e+03 -2.452782e+02 1.971772e+03
-3.298547e+09 -3.098557e+09 -3.258560e+09 -2.168853e+03 -9.121737e+02 1.479735e+03
-3.146409e+09 -2.946425e+09 -3.106434e+09 9.003551e+03 4.344619e+03 7.788824e+03
-1.632968e+09 -1.432975e+09 -1.592978e+09 2.687429e+03 1.814944e+03 3.962434e+03
-3.150001e+09 -2.950010e+09 -3.110019e+09 6.341032e+03 3.078096e+03 3.985246e+03
-3.183388e+09 -2.983400e+09 -3.143408e+09 6.261590e+03 2.906224e+03 5.731364e+03
-3.300694e+09 -3.100704e+09 -3.260708e+09 -2.742645e+03 -1.266865e+02 1.748369e+03
-1.952515e+09 -1.752521e+09 -1.912528e+09 5.185100e+03 3.673434e+03 7.232036e+03
-1.882079e+09 -1.682075e+09 -1.842083e+09 -2.087433e+03 -5.982868e+03 4.520609e+03
-2.049016e+09 -1.849023e+09 -2.009026e+09 3.608242e+03 1.276213e+03 2.704484e+03
-2.257752e+09 -2.057749e+09 -2.217761e+09 -5.583061e+03 -6.439831e+03 5.274946e+03
-1.593394e+09 -1.393394e+09 -1.553398e+09 -2.606210e+03 -1.167484e+04 1.380481e+04
-3.179829e+09 -2.979833e+09 -3.139841e+09 -4.668471e+03 -1.851078e+03 2.513640e+03
-2.802635e+09 -2.602656e+09 -2.762660e+09 5.265018e+03 2.208413e+03 8.310857e+03
-3.201155e+09 -3.001186e+09 -3.161188e+09 1.232675e+04 4.693311e+03 1.239706e+04
-3.593746e+09 -3.393736e+09 -3.553761e+09 -1.367694e+04 -7.874097e+03 6.315365e+03
-2.010622e+09 -1.810644e+09 -1.970643e+09 5.776893e+03 3.929788e+03 1.503344e+04
-3.206289e+09 -3.006326e+09 -3.166327e+09 1.552509e+04 2.024909e+03 1.216844e+04
-3.505180e+09 -3.305179e+09 -3.465193e+09 -7.139592e+03 -3.607475e+03 3.475560e+03
-1.580671e+09 -1.380669e+09 -1.540675e+09 -1.964989e+03 -8.846938e+03 8.532849e+03
-1.578988e+09 -1.378994e+09 -1.538997e+09 1.788191e+03 7.927356e+02 1.043557e+03
-2.573676e+09 -2.373714e+09 -2.533705e+09 4.988992e+03 4.066570e+03 1.849073e+04
-2.368463e+09 -2.168490e+09 -2.328489e+09 6.336915e+03 2.069521e+03 1.232817e+04
-1.628333e+09 -1.428334e+09 -1.588340e+09 1.888907e+03 1.206615e+03 1.221001e+03
-1.784183e+09 -1.584192e+09 -1.744185e+09 3.974171e+03 3.285539e+03 1.619134e+04
-1.787163e+09 -1.587193e+09 -1.747193e+09 3.010845e+03 4.223168e+03 1.875779e+04
-3.150382e+09 -2.950388e+09 -3.110393e+09 2.751431e+03 8.703474e+02 1.635776e+03
-1.775828e+09 -1.575850e+09 -1.735853e+09 5.960808e+03 6.614984e+03 1.578695e+04
-1.595479e+09 -1.395478e+09 -1.555440e+09 -1.021188e+03 4.747852e+03 8.993312e+03
-2.498697e+09 -2.298688e+09 -2.458704e+09 -5.500545e+03 1.128601e+04 -6.079712e+03
-2.998496e+09 -2.798502e+09 -2.958506e+09 1.903578e+03 5.072385e+02 8.802815e+02
-2.464612e+09 -2.264602e+09 -2.424617e+09 -3.126671e+03 8.264890e+03 -3.265711e+03
-1.590303e+09 -1.390305e+09 -1.550301e+09 -6.592289e+02 -1.570139e+04 -1.847276e+02
-1.594094e+09 -1.394095e+09 -1.554093e+09 -3.419176e+03 -1.765712e+04 -3.517970e+03
-1.583059e+09 -1.383069e+09 -1.543047e+09 -2.379037e+03 -2.099115e+04 -2.605822e+03
-1.563752e+09 -1.363746e+09 -1.523752e+09 3.281324e+02 7.996788e+03 -3.698888e+03
-3.577737e+09 -3.377671e+09 -3.537725e+09 6.431634e+03 -2.017411e+04 -1.461998e+03
-1.587245e+09 -1.387250e+09 -1.547236e+09 -6.170901e+03 -1.985406e+04 3.833634e+02
-3.400045e+09 -3.200012e+09 -3.360046e+09 -7.200991e+03 1.175944e+04 -5.326072e+03
-3.401731e+09 -3.201712e+09 -3.361742e+09 -1.030220e+04 1.058440e+04 -3.481838e+03
-1.795458e+09 -1.595448e+09 -1.755461e+09 -3.863353e+03 1.464091e+04 -6.589219e+03
-2.402681e+09 -2.202650e+09 -2.362676e+09 -5.153305e+03 -1.600303e+04 6.777861e+03
-2.803365e+09 -2.603384e+09 -2.763386e+09 6.952082e+02 8.127501e+01 4.677502e+03
-2.746935e+09 -2.546955e+09 -2.706955e+09 -2.374634e+02 3.425945e+02 4.769947e+03
-2.291021e+09 -2.091037e+09 -2.251037e+09 -9.422900e+01 -2.599292e+02 3.937363e+03
-1.583035e+09 -1.383041e+09 -1.543043e+09 2.769391e+03 4.330379e+03 9.974932e+03
-3.192499e+09 -2.992502e+09 -3.152507e+09 1.211331e+03 1.465939e+02 4.189066e+02
-1.590416e+09 -1.390425e+09 -1.550427e+09 2.288877e+03 1.367808e+03 4.340941e+03
-3.191789e+09 -2.991782e+09 -3.151803e+09 1.248948e+04 8.337773e+03 5.531642e+03
-3.198586e+09 -2.998604e+09 -3.158608e+09 1.954582e+03 5.147131e+02 4.540294e+03
-3.393629e+09 -3.193648e+09 -3.353651e+09 1.724522e+03 2.492521e+02 4.600363e+03
-3.502596e+09 -3.302608e+09 -3.462611e+09 2.713547e+03 4.765197e+02 1.872467e+03
-3.599858e+09 -3.399880e+09 -3.559884e+09 3.695787e+03 1.019115e+03 4.850202e+03
-2.178700e+09 -1.978574e+09 -2.137831e+09 -1.091832e+05 6.231030e+04 -3.994690e+05
-3.350551e+09 -3.150585e+09 -3.310591e+09 3.055892e+04 7.191114e+03 1.312020e+04
-1.771823e+09 -1.571831e+09 -1.731833e+09 1.926846e+03 8.116812e+02 2.548764e+03
-2.848719e+09 -2.648738e+09 -2.808740e+09 -2.272251e+03 -1.075998e+03 5.757433e+03
-3.173781e+09 -2.973801e+09 -3.133807e+09 1.489312e+04 6.624208e+03 1.097865e+04
-3.597335e+09 -3.397359e+09 -3.557361e+09 3.243034e+03 5.755779e+02 5.136587e+03
-2.262620e+09 -2.062634e+09 -2.222634e+09 6.778368e+02 9.868647e+01 2.357827e+03
-1.581077e+09 -1.381080e+09 -1.541080e+09 3.253248e+03 1.056317e+04 1.548373e+04
-1.837403e+09 -1.637412e+09 -1.797404e+09 4.076375e+03 8.103097e+03 1.368228e+04
-3.595984e+09 -3.396002e+09 -3.556005e+09 2.962493e+03 6.174528e+02 3.253310e+03
-3.610660e+09 -3.410632e+09 -3.570669e+09 1.684816e+04 1.192759e+04 4.699166e+03
-3.189402e+09 -2.989369e+09 -3.149405e+09 1.303883e+04 1.125298e+04 3.136567e+03
-1.826119e+09 -1.626127e+09 -1.786136e+09 1.422122e+04 1.110701e+04 1.839959e+04
-1.998383e+09 -1.798355e+09 -1.958377e+09 4.278711e+03 2.050881e+04 2.038094e+03
-3.597907e+09 -3.397843e+09 -3.557889e+09 2.661027e+04 1.245081e+04 6.103740e+03
-2.960918e+09 -2.760934e+09 -2.920942e+09 1.275589e+04 5.130013e+03 1.076456e+04
-1.828487e+09 -1.628501e+09 -1.788502e+09 5.835573e+03 7.823379e+03 1.641084e+04
-3.570355e+09 -3.370384e+09 -3.530398e+09 3.331855e+04 8.568505e+03 1.176585e+04
-1.972483e+09 -1.772477e+09 -1.932489e+09 1.276082e+04 8.257289e+03 1.358955e+04
-2.574558e+09 -2.374553e+09 -2.534563e+09 1.816792e+04 1.064361e+04 1.163547e+04
-1.848421e+09 -1.648426e+09 -1.808421e+09 7.762264e+03 8.425712e+03 1.983425e+04
-2.391219e+09 -2.191216e+09 -2.351229e+09 6.921098e+03 9.370334e+03 8.625275e+03
-1.766781e+09 -1.566797e+09 -1.726799e+09 4.415116e+03 4.626658e+03 1.075284e+04
-3.104849e+09 -2.904913e+09 -3.064830e+09 -5.336915e+04 -1.485493e+04 2.413404e+04
-2.642658e+09 -2.442691e+09 -2.602695e+09 -9.292093e+03 -3.884964e+03 1.590560e+04
-2.779711e+09 -2.579701e+09 -2.739720e+09 1.165456e+04 9.956027e+03 7.093781e+03
-3.231058e+09 -3.031095e+09 -3.191099e+09 -9.731271e+03 -1.080334e+03 9.700703e+03
-2.023526e+09 -1.823550e+09 -1.983548e+09 -4.597479e+03 -3.196128e+03 8.918956e+03
-1.581717e+09 -1.381715e+09 -1.541717e+09 1.562108e+03 1.287093e+04 1.028758e+04
-3.241022e+09 -3.041055e+09 -3.201056e+09 -1.183972e+04 -3.575095e+03 1.487530e+04
-3.597600e+09 -3.397474e+09 -3.557534e+09 -3.162949e+03 -1.489308e+04 -1.356942e+03
-3.220045e+09 -3.020005e+09 -3.180042e+09 -1.758910e+04 -1.201819e+04 2.366711e+03
-2.483570e+09 -2.283619e+09 -2.443574e+09 -8.089638e+03 -5.284873e+03 9.945876e+03
-2.023183e+09 -1.823169e+09 -1.983186e+09 -8.221099e+03 -1.891416e+04 1.031096e+04
-1.778290e+09 -1.578290e+09 -1.738280e+09 -4.486333e+03 -1.635262e+04 1.046858e+04
-1.604018e+09 -1.404011e+09 -1.564013e+09 5.708020e+02 -1.597366e+04 1.579871e+04
-3.590683e+09 -3.390640e+09 -3.550675e+09 -3.897358e+04 -1.775609e+04 7.773144e+03
-1.862796e+09 -1.662819e+09 -1.822796e+09 9.775501e+02 -5.908280e+03 2.258394e+04
-2.494918e+09 -2.294884e+09 -2.454920e+09 -4.416472e+03 -2.350392e+04 6.529885e+03
-1.560174e+09 -1.360173e+09 -1.520168e+09 2.445838e+03 -2.434066e+04 3.841505e+03
-3.145067e+09 -2.945087e+09 -3.105089e+09 -9.505954e+01 1.688213e+02 5.253947e+03
-1.951250e+09 -1.751263e+09 -1.911264e+09 -2.141664e+02 -3.690670e+02 5.137782e+03
-1.601032e+09 -1.401045e+09 -1.561045e+09 -1.084338e+03 -9.703716e+02 9.544125e+03
-1.597006e+09 -1.397018e+09 -1.557019e+09 -1.213074e+03 -1.047023e+03 6.379850e+03
-1.972591e+09 -1.772557e+09 -1.932582e+09 6.145661e+03 1.985409e+04 7.884639e+03
-3.591054e+09 -3.390991e+09 -3.550981e+09 -4.555004e+04 1.172142e+04 -8.160965e+03
-2.063311e+09 -1.863246e+09 -2.023241e+09 9.805540e+03 1.391006e+04 -4.660414e+03
-1.999510e+09 -1.799527e+09 -1.959527e+09 9.976063e+02 -8.260244e+01 6.708032e+03
-2.800437e+09 -2.600406e+09 -2.760438e+09 7.387347e+03 1.453851e+04 2.813578e+03
-3.405207e+09 -3.205228e+09 -3.365230e+09 4.089409e+02 1.570779e+01 4.829785e+03
-3.597136e+09 -3.397063e+09 -3.557120e+09 1.394308e+04 1.471413e+04 1.211754e+03
-2.405003e+09 -2.205016e+09 -2.365018e+09 1.921952e+03 6.663675e+02 4.580377e+03
-2.606832e+09 -2.406849e+09 -2.566851e+09 2.322613e+03 6.847090e+02 5.042204e+03
-2.603960e+09 -2.403974e+09 -2.563976e+09 1.221235e+03 3.502040e+02 2.934981e+03
-2.646993e+09 -2.446910e+09 -2.606947e+09 -1.308456e+03 9.670885e+03 5.380911e+03
-1.677254e+09 -1.477230e+09 -1.636989e+09 -3.912487e+03 -1.747106e+05 -9.305461e+04
-2.441716e+09 -2.241731e+09 -2.401733e+09 2.726744e+03 1.345783e+03 6.130323e+03
-2.430920e+09 -2.230875e+09 -2.390883e+09 1.730354e+04 1.016483e+04 -4.661259e+02
-3.622120e+09 -3.422017e+09 -3.582049e+09 1.229506e+04 1.479463e+04 3.483936e+03
-2.620122e+09 -2.420135e+09 -2.580138e+09 3.181369e+03 1.304986e+03 5.900260e+03
-2.672432e+09 -2.472447e+09 -2.632450e+09 2.381477e+03 1.170629e+03 4.987023e+03
-2.047673e+09 -1.847686e+09 -2.007686e+09 2.426739e+03 1.033824e+03 4.510348e+03
-1.572536e+09 -1.372530e+09 -1.532523e+09 -2.229415e+03 -1.973718e+04 1.042456e+04
-2.601031e+09 -2.400965e+09 -2.561013e+09 -5.183268e+03 -2.142251e+04 1.979963e+03
-3.415354e+09 -3.215255e+09 -3.375292e+09 1.604467e+04 1.446282e+03 9.979517e+03
-3.590701e+09 -3.390633e+09 -3.550662e+09 -5.285990e+04 2.871799e+03 -2.697570e+03
-2.576241e+09 -2.376210e+09 -2.536207e+09 -3.276370e+04 2.545999e+03 -3.075658e+03
-2.176049e+09 -1.975945e+09 -2.135974e+09 3.231113e+04 2.946813e+03 -8.854372e+02
-1.550664e+09 -1.350659e+09 -1.510650e+09 -1.367733e+03 -1.293330e+04 1.386416e+04
-3.599706e+09 -3.399810e+09 -3.559731e+09 1.923669e+02 -3.529868e+03 1.203069e+04
-3.306269e+09 -3.106149e+09 -3.266157e+09 1.577002e+04 7.015413e+03 1.223325e+04
-2.051749e+09 -1.851704e+09 -2.011695e+09 -1.137304e+03 -3.727071e+04 8.862938e+03
-2.553726e+09 -2.353643e+09 -2.513658e+09 1.111052e+04 9.122396e+03 6.856126e+03
-2.747384e+09 -2.547436e+09 -2.707414e+09 3.138306e+03 7.164468e+02 7.374881e+03
-3.596650e+09 -3.396683e+09 -3.556685e+09 5.500132e+02 -1.878530e+02 8.087538e+03
-3.594656e+09 -3.394696e+09 -3.554696e+09 -6.497560e+03 -1.823576e+03 1.061105e+04
-3.285350e+09 -3.085213e+09 -3.245221e+09 -1.690072e+03 -2.091663e+03 -6.383518e+03
-3.596738e+09 -3.396792e+09 -3.556790e+09 -1.993724e+03 -5.740241e+02 7.296202e+03
-2.963645e+09 -2.763660e+09 -2.923663e+09 9.223271e+02 1.488321e+02 3.063539e+03
-3.389871e+09 -3.189754e+09 -3.349770e+09 3.915104e+04 1.070762e+04 -2.108365e+03
-1.778499e+09 -1.578499e+09 -1.738505e+09 -4.237444e+03 -4.415152e+03 5.190734e+03
-2.002433e+09 -1.802438e+09 -1.962443e+09 -4.869706e+03 -3.437259e+03 4.480893e+03
-2.342152e+09 -2.142154e+09 -2.302162e+09 -4.980058e+03 -4.742187e+03 5.635489e+03
-1.939335e+09 -1.739337e+09 -1.899344e+09 -4.001066e+03 -3.444581e+03 3.855624e+03
-2.100970e+09 -1.900971e+09 -2.060979e+09 -5.398195e+03 -6.592731e+03 7.330204e+03
-3.583926e+09 -3.383980e+09 -3.543975e+09 8.767295e+03 2.623985e+03 1.278852e+04
-3.596753e+09 -3.396796e+09 -3.556796e+09 -1.511743e+03 -7.728964e+02 1.103774e+04
-1.974808e+09 -1.774831e+09 -1.934828e+09 -1.438946e+03 -1.711821e+03 1.288459e+04
-2.036593e+09 -1.836614e+09 -1.996614e+09 3.144370e+03 2.542401e+03 1.148846e+04
-3.084721e+09 -2.884722e+09 -3.044733e+09 -6.002480e+03 -3.398976e+03 3.766603e+03
-2.406706e+09 -2.206706e+09 -2.366717e+09 -7.173077e+03 -6.356581e+03 6.259298e+03
-3.613602e+09 -3.413670e+09 -3.573660e+09 1.068045e+04 3.051769e+03 1.600047e+04
-3.606757e+09 -3.406815e+09 -3.566806e+09 8.879603e+02 1.640565e+03 1.320728e+04
-2.510517e+09 -2.310519e+09 -2.470530e+09 -7.996096e+03 -5.932711e+03 6.230526e+03
-2.620657e+09 -2.420659e+09 -2.580670e+09 -7.660657e+03 -5.957480e+03 6.341937e+03
-3.606751e+09 -3.406805e+09 -3.566803e+09 4.342527e+03 1.543121e+03 1.314602e+04
-1.601571e+09 -1.401570e+09 -1.561574e+09 2.873880e+03 9.936552e+03 1.039645e+04
-1.599736e+09 -1.399733e+09 -1.559733e+09 2.062300e+03 2.044088e+04 2.050510e+04
-1.599738e+09 -1.399730e+09 -1.559728e+09 1.674545e+03 5.253037e+03 3.812169e+03
-2.572452e+09 -2.372454e+09 -2.532464e+09 -9.939522e+03 -9.493908e+03 9.198099e+03
-3.301666e+09 -3.101669e+09 -3.261682e+09 -8.630182e+03 -4.198148e+03 3.492943e+03
-3.339179e+09 -3.139184e+09 -3.299163e+09 5.910865e+04 1.078668e+03 -5.217897e+02
-3.209651e+09 -3.009571e+09 -3.169598e+09 1.775098e+04 2.565669e+03 1.288772e+03
-2.331277e+09 -2.131233e+09 -2.291247e+09 2.556716e+03 1.552429e+04 -8.169696e+02
-1.782006e+09 -1.582002e+09 -1.742017e+09 1.309829e+04 1.304831e+04 1.492302e+04
-2.727203e+09 -2.527207e+09 -2.687165e+09 5.300998e+04 -2.012272e+04 -1.781223e+04
-3.585853e+09 -3.385853e+09 -3.545877e+09 2.453266e+04 8.172516e+03 7.598642e+03
-2.659807e+09 -2.459753e+09 -2.619751e+09 -3.266576e+04 1.869160e+04 -1.028943e+04
-1.931592e+09 -1.731560e+09 -1.891520e+09 -1.202735e+03 3.196828e+03 -6.680265e+03
-2.016003e+09 -1.815961e+09 -1.975989e+09 9.293102e+03 2.036957e+04 4.997861e+03
-2.601909e+09 -2.401633e+09 -2.561197e+09 -8.139545e+03 -3.030341e+05 -6.694849e+04
-2.953127e+09 -2.753153e+09 -2.913156e+09 1.399129e+04 7.776056e+03 8.048696e+03
-2.393235e+09 -2.193185e+09 -2.353227e+09 1.082138e+04 1.059627e+03 -1.819834e+03
-2.063742e+09 -1.863759e+09 -2.023743e+09 1.553753e+04 7.970053e+03 2.063828e+04
-3.581536e+09 -3.381554e+09 -3.541548e+09 4.565037e+04 8.514313e+03 9.666339e+03
-3.377207e+09 -3.177103e+09 -3.337077e+09 3.936691e+04 -1.965097e+04 -3.654321e+03
-2.050266e+09 -1.850210e+09 -2.010099e+09 6.723021e+04 -9.711396e+04 -9.179042e+04
-1.575494e+09 -1.375491e+09 -1.535483e+09 3.164258e+03 6.123666e+03 1.340813e+04
-2.068307e+09 -1.868252e+09 -2.028272e+09 2.234216e+03 1.500221e+04 5.353603e+03
-2.611624e+09 -2.411619e+09 -2.571562e+09 -4.668141e+04 -3.161686e+03 2.071952e+04
-2.451622e+09 -2.251560e+09 -2.411537e+09 -2.139904e+04 2.269827e+02 1.569865e+04
-3.599688e+09 -3.399809e+09 -3.559248e+09 4.100119e+04 -7.952094e+04 -1.405067e+05
-1.821638e+09 -1.621607e+09 -1.781637e+09 1.279677e+04 2.102923e+04 5.928966e+03
-3.178752e+09 -2.978731e+09 -3.138757e+09 4.110230e+03 -6.648258e+03 -4.732862e+03
-2.872696e+09 -2.672683e+09 -2.832705e+09 4.487170e+03 -8.828583e+03 -4.474241e+03
-3.322124e+09 -3.122014e+09 -3.282035e+09 8.141476e+03 9.650729e+02 5.067966e+03
-1.776296e+09 -1.576277e+09 -1.736298e+09 5.652161e+02 1.685150e+04 9.579913e+01
-1.785707e+09 -1.585698e+09 -1.745699e+09 2.481702e+02 2.095080e+04 2.595066e+03
-1.796306e+09 -1.596300e+09 -1.756289e+09 2.224186e+03 2.261027e+04 1.380072e+03
-2.801015e+09 -2.600971e+09 -2.761013e+09 6.418245e+03 1.729972e+04 3.630386e+03
-1.955630e+09 -1.755628e+09 -1.915637e+09 -9.105174e+03 -1.102612e+04 1.213546e+04
-2.356693e+09 -2.156696e+09 -2.316705e+09 -9.629878e+03 -7.651766e+03 9.542597e+03
-3.234283e+09 -3.034268e+09 -3.194302e+09 2.380671e+04 -1.182031e+04 -8.318517e+03
-1.763856e+09 -1.563857e+09 -1.723865e+09 -5.301868e+03 -7.620644e+03 6.855012e+03
-2.579067e+09 -2.379056e+09 -2.539066e+09 1.475380e+04 -2.169862e+04 -1.250911e+04
-3.349790e+09 -3.149791e+09 -3.309807e+09 -1.213371e+04 -5.628421e+03 6.243391e+03
-2.721268e+09 -2.521271e+09 -2.681282e+09 -1.049819e+04 -9.682495e+03 9.238953e+03
-1.700622e+09 -1.500624e+09 -1.660621e+09 3.376734e+03 -9.665840e+03 -6.418448e+03
-2.716408e+09 -2.516407e+09 -2.676422e+09 -9.880698e+03 -9.408044e+03 9.128696e+03
-3.120542e+09 -2.920545e+09 -3.080560e+09 -9.748844e+03 -5.994668e+03 7.648219e+03
-2.451470e+09 -2.251546e+09 -2.411489e+09 2.991591e+04 2.605310e+03 -1.574055e+04
-1.747173e+09 -1.547173e+09 -1.707181e+09 -5.221007e+03 -7.691811e+03 7.147447e+03
-1.950697e+09 -1.750684e+09 -1.910697e+09 -3.960478e+03 1.132586e+04 8.578315e+02
-2.358338e+09 -2.158437e+09 -2.318280e+09 3.810691e+04 9.622138e+03 8.228842e+04
-2.765982e+09 -2.565976e+09 -2.725992e+09 -1.052566e+04 -9.302171e+03 9.640611e+03
-1.604078e+09 -1.404086e+09 -1.564008e+09 3.947824e+03 -2.749634e+03 -2.366805e+04
-1.649345e+09 -1.449340e+09 -1.609344e+09 1.160061e+03 1.717088e+04 -4.602110e+03
-3.090318e+09 -2.890305e+09 -3.050328e+09 -6.781049e+03 7.046470e+03 -3.996275e+03
-1.586892e+09 -1.386890e+09 -1.546890e+09 2.108734e+03 1.546735e+04 -5.004679e+03
-1.685533e+09 -1.485525e+09 -1.645533e+09 9.024281e+02 7.950974e+03 2.041152e+03
-3.180628e+09 -2.980626e+09 -3.140643e+09 1.062361e+04 6.570326e+03 5.258063e+03
-3.493046e+09 -3.293022e+09 -3.453051e+09 5.141777e+03 7.202055e+03 1.812547e+03
-3.210963e+09 -3.010962e+09 -3.170974e+09 5.305705e+03 3.424047e+03 2.930954e+03
-2.404411e+09 -2.204408e+09 -2.364420e+09 7.800991e+03 9.685229e+03 8.547497e+03
-3.181535e+09 -2.981533e+09 -3.141548e+09 8.543022e+03 4.722061e+03 4.507736e+03
-3.317473e+09 -3.117446e+09 -3.277475e+09 -1.669950e+03 8.320209e+03 -2.212194e+03
-3.273626e+09 -3.073628e+09 -3.233641e+09 8.354461e+03 4.414936e+03 4.180927e+03
-3.387932e+09 -3.187931e+09 -3.347949e+09 1.295770e+04 6.159144e+03 6.662561e+03
-3.609240e+09 -3.409210e+09 -3.569243e+09 -3.332707e+03 1.041532e+04 -1.259252e+03
-2.617863e+09 -2.417835e+09 -2.577855e+09 -1.613728e+04 -1.612611e+04 7.000163e+03
-3.499281e+09 -3.299256e+09 -3.459285e+09 -5.048392e+03 8.242624e+03 -1.086785e+03
-1.792781e+09 -1.592759e+09 -1.752776e+09 -2.951024e+03 -2.739000e+04 9.311951e+03
-2.713354e+09 -2.513333e+09 -2.673355e+09 -3.021245e+03 1.351518e+04 -2.536077e+03
-3.405774e+09 -3.205730e+09 -3.365767e+09 -1.743068e+04 -1.060598e+04 5.654942e+03
-3.414807e+09 -3.214763e+09 -3.374806e+09 -2.395479e+04 -1.451684e+04 7.918741e+03
-1.957793e+09 -1.757770e+09 -1.917795e+09 -6.315246e+03 -2.188814e+04 1.121514e+04
-2.815376e+09 -2.615337e+09 -2.775367e+09 -2.491424e+04 -2.345858e+04 1.566373e+04
-3.214453e+09 -3.014415e+09 -3.174445e+09 -2.430206e+04 -7.965615e+03 7.457003e+03
-3.101921e+09 -2.901857e+09 -3.061888e+09 -1.376056e+04 -5.142549e+03 8.199201e+03
-2.005868e+09 -1.805843e+09 -1.965865e+09 -2.192844e+04 -1.600468e+04 1.012385e+04
-2.698712e+09 -2.498631e+09 -2.658606e+09 -2.017397e+04 -9.691439e+03 -2.238358e+02
-2.637370e+09 -2.437291e+09 -2.597328e+09 -2.973899e+03 -9.274486e+03 5.996537e+03
-2.964442e+09 -2.764428e+09 -2.924447e+09 -3.531084e+03 8.074905e+03 -4.111154e+03
-1.788814e+09 -1.588747e+09 -1.748777e+09 -1.194456e+04 3.696279e+02 5.128900e+03
-2.952889e+09 -2.752787e+09 -2.912823e+09 -6.823713e+03 1.535886e+04 1.539514e+03
-1.592185e+09 -1.392196e+09 -1.552196e+09 -1.325604e+03 -1.980477e+03 1.486561e+04
-2.377483e+09 -2.177445e+09 -2.337467e+09 -3.505226e+03 -2.173428e+04 -7.934719e+02
-2.414997e+09 -2.214936e+09 -2.374980e+09 -2.144240e+03 -4.206190e+03 6.627528e+03
-3.463647e+09 -3.263685e+09 -3.423687e+09 4.518858e+03 1.514074e+03 1.117885e+04
-1.836962e+09 -1.636944e+09 -1.796938e+09 3.577539e+03 -2.534042e+04 -2.473097e+03
-3.596639e+09 -3.396680e+09 -3.556681e+09 4.338367e+02 -1.441883e+02 5.836264e+03
-1.983922e+09 -1.783937e+09 -1.943937e+09 1.948836e+03 5.765650e+02 5.879549e+03
-2.486979e+09 -2.286931e+09 -2.446723e+09 -1.314486e+05 -1.274421e+05 1.027247e+05
-2.571656e+09 -2.371821e+09 -2.531580e+09 4.118410e+04 -2.427736e+04 -9.970227e+04
-3.583924e+09 -3.383971e+09 -3.543972e+09 9.790529e+03 3.315092e+03 1.271532e+04
-2.517153e+09 -2.317177e+09 -2.477179e+09 2.016173e+03 5.583269e+02 8.926459e+03
-2.446114e+09 -2.246165e+09 -2.405968e+09 4.667392e+04 -3.990093e+04 -7.401229e+04
-3.608286e+09 -3.408308e+09 -3.567986e+09 -8.287546e+04 6.509646e+04 -1.057135e+05
-3.064249e+09 -2.864246e+09 -3.024239e+09 7.073072e+04 1.647538e+04 1.603350e+04
-3.163814e+09 -2.963720e+09 -3.123312e+09 -9.852819e+04 -1.837021e+05 1.024819e+05
-1.962689e+09 -1.762727e+09 -1.922613e+09 1.169161e+05 6.577893e+04 1.146984e+05
-2.386239e+09 -2.186096e+09 -2.346077e+09 -3.165235e+04 -2.167053e+05 9.806968e+04
-2.852011e+09 -2.651859e+09 -2.811742e+09 -6.033549e+04 -1.365227e+05 5.514218e+04
-1.717266e+09 -1.517174e+09 -1.676636e+09 -3.185131e+04 -3.545772e+05 2.203505e+05
-1.747794e+09 -1.547809e+09 -1.707787e+09 1.377282e+04 -7.234608e+03 2.861787e+03
-1.795895e+09 -1.595901e+09 -1.755897e+09 -3.175305e+04 -6.021654e+04 5.459229e+04
-2.783829e+09 -2.583672e+09 -2.743539e+09 -8.941660e+04 -1.299807e+05 6.537093e+04
-2.073002e+09 -1.873040e+09 -2.032898e+09 -5.080918e+04 -2.953025e+04 4.353544e+04
-3.066672e+09 -2.866604e+09 -3.026412e+09 -7.803863e+04 6.435135e+04 -5.378646e+04
-3.592053e+09 -3.391913e+09 -3.551943e+09 -3.773487e+03 -4.943543e+03 2.965915e+03
-2.105711e+09 -1.905645e+09 -2.065688e+09 -2.075700e+04 -1.769216e+03 1.851372e+04
-1.580922e+09 -1.380937e+09 -1.540912e+09 -4.704607e+02 -1.094985e+04 1.051405e+04
-3.612964e+09 -3.412850e+09 -3.572872e+09 2.109684e+04 -1.397251e+04 -5.794595e+02
-1.976156e+09 -1.776158e+09 -1.936162e+09 -8.761757e+03 -1.081038e+04 1.390707e+04
-3.258321e+09 -3.058320e+09 -3.218334e+09 -7.856851e+03 -4.431910e+03 5.064174e+03
-1.869721e+09 -1.669719e+09 -1.829727e+09 -3.804585e+03 -4.749762e+03 4.188146e+03
-1.738116e+09 -1.538115e+09 -1.698120e+09 -2.738933e+03 -5.950272e+03 5.134800e+03
-1.902873e+09 -1.702886e+09 -1.862887e+09 9.811322e+01 -3.991713e+02 2.862143e+03
-3.226040e+09 -3.026060e+09 -3.186070e+09 2.320575e+04 7.055325e+03 1.323425e+04
-3.612212e+09 -3.412242e+09 -3.572245e+09 -3.325607e+03 -1.543463e+03 7.974197e+03
-2.628527e+09 -2.428532e+09 -2.588538e+09 -4.653332e+03 -2.775491e+03 4.172582e+03
-3.157710e+09 -2.957736e+09 -3.117737e+09 -1.052946e+03 -4.299080e+02 6.523003e+03
-2.622393e+09 -2.422434e+09 -2.582387e+09 4.288123e+04 -7.389664e+03 -2.340362e+03
-1.585349e+09 -1.385353e+09 -1.545323e+09 -1.088287e+04 8.146319e+03 -2.740501e+04
-3.581543e+09 -3.381580e+09 -3.541554e+09 4.975400e+04 9.936345e+03 8.345524e+03
-3.169061e+09 -2.969060e+09 -3.129069e+09 3.675373e+04 1.004260e+03 5.170347e+03
-3.175178e+09 -2.975194e+09 -3.135201e+09 2.502130e+04 1.155402e+04 7.792467e+03
-2.993427e+09 -2.793398e+09 -2.953389e+09 -3.376094e+04 7.579153e+02 6.010580e+02
-3.572101e+09 -3.372239e+09 -3.532006e+09 -5.315993e+04 2.754302e+03 -5.003163e+04
-3.601747e+09 -3.401841e+09 -3.560957e+09 8.716912e+03 -3.366133e+03 -2.681984e+05
-2.787760e+09 -2.587762e+09 -2.747783e+09 2.670818e+04 1.096988e+04 1.674592e+04
-1.646458e+09 -1.446451e+09 -1.606460e+09 4.065475e+02 1.250020e+04 1.814800e+03
-1.590002e+09 -1.390002e+09 -1.549986e+09 3.161589e+03 -1.468445e+04 5.334514e+03
-2.807976e+09 -2.607968e+09 -2.767985e+09 2.388953e+04 2.036231e+04 1.255245e+04
-3.411598e+09 -3.211591e+09 -3.371608e+09 3.321911e+04 9.406431e+03 7.968483e+03
-3.471008e+09 -3.271003e+09 -3.430971e+09 -6.684758e+04 -1.284998e+03 -9.905687e+03
-1.614029e+09 -1.414041e+09 -1.574041e+09 -1.724258e+03 -1.417744e+03 6.455434e+03
-2.564296e+09 -2.364264e+09 -2.524287e+09 5.889523e+03 -2.309766e+04 -3.183403e+03
-3.401233e+09 -3.201261e+09 -3.361263e+09 1.045837e+04 2.414689e+03 9.646620e+03
-3.593445e+09 -3.393364e+09 -3.553411e+09 1.725592e+04 -2.055394e+04 -4.438125e+03
-3.383310e+09 -3.183337e+09 -3.343344e+09 9.468915e+03 3.394532e+03 8.057894e+03
-1.801591e+09 -1.601587e+09 -1.761575e+09 1.312454e+03 -2.259161e+04 1.584123e+03
-1.690811e+09 -1.490807e+09 -1.650812e+09 -1.571803e+03 -1.203724e+04 -4.386418e+03
-1.574494e+09 -1.374490e+09 -1.534494e+09 -1.130413e+03 -2.346216e+04 -3.612070e+03
-1.971011e+09 -1.770987e+09 -1.931012e+09 1.392589e+03 -2.757485e+04 -1.922316e+02
-1.785884e+09 -1.585899e+09 -1.745900e+09 3.251268e+03 2.908540e+03 1.055277e+04
-3.199628e+09 -2.999648e+09 -3.159654e+09 7.248662e+03 2.347229e+03 7.354064e+03
-3.204587e+09 -3.004616e+09 -3.164620e+09 7.451294e+03 2.391017e+03 1.084839e+04
-1.587244e+09 -1.387247e+09 -1.547237e+09 -4.347976e+03 -2.519269e+04 -8.682364e+03
-2.419400e+09 -2.219415e+09 -2.379419e+09 3.917965e+03 2.144778e+03 8.282636e+03
-2.769854e+09 -2.569846e+09 -2.729867e+09 1.768336e+04 8.623833e+03 7.584752e+03
-3.413034e+09 -3.212990e+09 -3.373038e+09 1.517982e+04 -1.836968e+04 -6.904625e+03
-3.600483e+09 -3.400435e+09 -3.560481e+09 1.435099e+03 -1.662610e+04 -3.214490e+02
-3.610554e+09 -3.410535e+09 -3.570567e+09 -1.603940e+04 -9.327559e+03 5.536701e+03
-1.958329e+09 -1.758330e+09 -1.918339e+09 -8.629055e+03 -6.536411e+03 7.993204e+03
-2.320028e+09 -2.120018e+09 -2.280036e+09 -9.240943e+03 -1.233602e+04 1.079718e+04
-1.982995e+09 -1.782991e+09 -1.943002e+09 8.658965e+03 1.138609e+04 7.321974e+03
-2.600461e+09 -2.400459e+09 -2.560478e+09 1.336956e+04 1.051769e+04 9.800683e+03
-2.599200e+09 -2.399203e+09 -2.559213e+09 9.246685e+03 7.641049e+03 6.915157e+03
-1.571887e+09 -1.371884e+09 -1.531867e+09 3.812035e+03 -1.832474e+04 1.151966e+04
-1.956160e+09 -1.756158e+09 -1.916168e+09 1.154279e+04 1.009011e+04 7.761068e+03
-1.558409e+09 -1.358404e+09 -1.518410e+09 -7.431231e+02 -1.083375e+04 7.327805e+03
-2.600540e+09 -2.400572e+09 -2.560573e+09 -7.775497e+03 -1.036348e+03 1.335053e+04
-1.995003e+09 -1.794985e+09 -1.955003e+09 5.065289e+03 1.358878e+04 5.180996e+03
-3.034625e+09 -2.834638e+09 -2.994643e+09 -4.884685e+03 -1.595341e+03 5.168349e+03
-3.056774e+09 -2.856797e+09 -3.016788e+09 2.745842e+04 9.345848e+03 4.686893e+03
-2.590065e+09 -2.390064e+09 -2.550076e+09 1.024933e+04 1.104547e+04 7.751279e+03
-1.783032e+09 -1.583029e+09 -1.743037e+09 6.332834e+03 1.086955e+04 8.792916e+03
-1.989119e+09 -1.789117e+09 -1.949126e+09 6.939058e+03 7.287200e+03 6.588368e+03
-1.615048e+09 -1.415055e+09 -1.575056e+09 -3.290637e+03 -6.064828e+03 1.095867e+04
-3.392390e+09 -3.192450e+09 -3.352428e+09 1.897835e+04 2.137686e+03 4.951878e+03
-1.762193e+09 -1.562207e+09 -1.722203e+09 -8.034676e+02 -1.422338e+03 1.211814e+04
-3.152889e+09 -2.952902e+09 -3.112905e+09 2.263481e+03 2.030942e+02 2.247879e+03
-2.868576e+09 -2.668592e+09 -2.828595e+09 2.987120e+03 1.027730e+03 4.059901e+03
-2.468078e+09 -2.268091e+09 -2.428093e+09 2.030037e+03 8.241028e+02 4.602549e+03
-1.824144e+09 -1.624154e+09 -1.784156e+09 2.675721e+03 7.556452e+02 3.022925e+03
-1.963279e+09 -1.763295e+09 -1.923295e+09 1.077491e+03 3.608287e+02 5.929379e+03
-3.602581e+09 -3.402599e+09 -3.562607e+09 -1.213434e+04 -4.754401e+03 6.950212e+03
-1.590403e+09 -1.390404e+09 -1.550410e+09 3.039809e+03 3.686200e+03 3.740787e+03
-3.156791e+09 -2.956775e+09 -3.116798e+09 7.593031e+03 7.276948e+03 2.263618e+03
-2.968787e+09 -2.768773e+09 -2.928796e+09 7.426326e+03 7.946120e+03 2.966159e+03
-1.780759e+09 -1.580769e+09 -1.740771e+09 2.805090e+03 1.353313e+03 4.906069e+03
-2.263848e+09 -2.063841e+09 -2.223852e+09 4.051306e+03 4.159245e+03 2.337757e+03
-1.955482e+09 -1.755471e+09 -1.915482e+09 4.862263e+02 8.271578e+03 3.193909e+03
-1.812469e+09 -1.612474e+09 -1.772477e+09 -2.791653e+03 -1.896512e+03 2.892052e+03
-1.652946e+09 -1.452954e+09 -1.612957e+09 -2.951083e+03 -4.140807e+03 8.351666e+03
-1.982655e+09 -1.782663e+09 -1.942666e+09 -3.477739e+03 -1.666584e+03 2.680780e+03
-1.786016e+09 -1.586022e+09 -1.746025e+09 -3.019509e+03 -2.055194e+03 3.741058e+03
-1.572150e+09 -1.372146e+09 -1.532152e+09 2.357848e+03 1.083474e+04 6.827408e+03
-2.793247e+09 -2.593300e+09 -2.753288e+09 -4.279591e+03 -3.264448e+02 1.959480e+04
-1.777463e+09 -1.577462e+09 -1.737469e+09 5.052982e+03 7.733047e+03 8.622336e+03
-3.209884e+09 -3.009925e+09 -3.169922e+09 -6.553535e+03 -1.864600e+03 1.008433e+04
-3.409376e+09 -3.209413e+09 -3.369413e+09 -2.216107e+04 -2.096495e+03 9.120929e+03
-3.437863e+09 -3.237949e+09 -3.397901e+09 -1.175505e+04 1.213022e+03 9.622302e+03
-1.946987e+09 -1.746987e+09 -1.906994e+09 2.679703e+03 1.515240e+03 1.211204e+03
-1.767382e+09 -1.567380e+09 -1.727389e+09 4.473747e+03 5.619016e+03 3.707329e+03
-3.597565e+09 -3.397565e+09 -3.557576e+09 5.934786e+03 1.983119e+03 2.052012e+03
-1.696818e+09 -1.496816e+09 -1.656823e+09 2.128297e+03 2.900514e+03 1.981182e+03
-2.822708e+09 -2.622757e+09 -2.782755e+09 -8.050206e+03 -3.233984e+03 1.283187e+04
-3.305046e+09 -3.105024e+09 -3.265051e+09 6.105698e+03 8.794718e+03 1.802626e+03
-3.438837e+09 -3.238930e+09 -3.398875e+09 -3.377532e+03 3.603523e+03 5.115469e+03
-2.043654e+09 -1.843635e+09 -2.003652e+09 5.187734e+02 1.276871e+04 -9.256653e+01
-3.068438e+09 -2.868407e+09 -3.028439e+09 -5.918378e+02 1.211860e+04 -4.476963e+02
-2.248529e+09 -2.048511e+09 -2.208528e+09 1.140289e+03 8.841651e+03 5.498289e+02
-2.390531e+09 -2.190507e+09 -2.350528e+09 -6.565275e+00 1.782739e+04 -2.610350e+02
-1.957913e+09 -1.757892e+09 -1.917911e+09 7.400127e+03 1.805233e+04 5.032705e+03
-2.348841e+09 -2.148822e+09 -2.308843e+09 3.019225e+03 1.158398e+04 3.361132e+03
-3.591546e+09 -3.391506e+09 -3.551548e+09 1.515293e+04 1.275539e+04 3.358048e+03
-2.635444e+09 -2.435426e+09 -2.595447e+09 8.692468e+03 1.507693e+04 4.953392e+03
-3.590118e+09 -3.390084e+09 -3.550121e+09 8.825149e+03 1.056049e+04 2.063132e+03
-1.604076e+09 -1.404101e+09 -1.564055e+09 1.266709e+04 -8.098588e+04 -7.255724e+04
-3.206486e+09 -3.006450e+09 -3.166485e+09 4.467866e+03 1.258952e+04 9.483230e+02
-1.987053e+09 -1.787020e+09 -1.947047e+09 5.179928e+03 1.921144e+04 1.574488e+03
-2.235289e+09 -2.035361e+09 -2.195305e+09 -1.345675e+04 4.818539e+03 -1.542197e+04
-2.777326e+09 -2.577290e+09 -2.737324e+09 2.303180e+02 1.627726e+04 2.570666e+02
-2.246038e+09 -2.046110e+09 -2.206073e+09 -2.781978e+04 -4.386837e+03 1.497068e+04
-3.528393e+09 -3.328519e+09 -3.488416e+09 -1.355279e+04 -2.201894e+03 -5.386069e+03
-1.590353e+09 -1.390335e+09 -1.550261e+09 6.558938e+03 -5.533050e+04 -6.492665e+04
-2.566935e+09 -2.366908e+09 -2.526929e+09 -3.536477e+02 1.756613e+04 6.070688e+02
-2.657231e+09 -2.457200e+09 -2.617231e+09 -1.007617e+03 1.476014e+04 -2.704303e+03
-2.860495e+09 -2.660477e+09 -2.820500e+09 -3.279836e+01 8.004185e+03 -2.936870e+02
-2.693018e+09 -2.492994e+09 -2.653017e+09 -7.790255e+02 1.364947e+04 -9.008536e+02
-3.581471e+09 -3.381475e+09 -3.541482e+09 4.039249e+03 1.180589e+03 1.286431e+03
-3.154117e+09 -2.954092e+09 -3.114119e+09 2.991305e+03 9.776152e+03 -8.142988e+02
-2.383784e+09 -2.183809e+09 -2.343804e+09 9.711756e+03 4.733282e+03 2.126619e+04
-2.340724e+09 -2.140747e+09 -2.300742e+09 1.498778e+04 6.875946e+03 1.983808e+04
-2.788886e+09 -2.588935e+09 -2.748922e+09 9.874903e+03 3.449133e+03 2.052849e+04
-1.582821e+09 -1.382823e+09 -1.542828e+09 1.843616e+03 7.681191e+02 8.871697e+02
-1.990459e+09 -1.790461e+09 -1.950466e+09 1.565817e+03 5.985706e+02 4.362454e+02
-1.969190e+09 -1.769218e+09 -1.929212e+09 1.234828e+04 7.250268e+03 2.085987e+04
-1.586083e+09 -1.386086e+09 -1.546090e+09 2.368309e+03 1.259836e+03 1.563242e+03
-3.581471e+09 -3.381474e+09 -3.541481e+09 3.549033e+03 1.117782e+03 1.297144e+03
-3.411058e+09 -3.211112e+09 -3.371093e+09 2.127050e+04 5.317229e+03 1.325253e+04
-3.405876e+09 -3.205942e+09 -3.365936e+09 1.079778e+04 1.455543e+03 1.744248e+04
-1.695336e+09 -1.495339e+09 -1.655343e+09 1.063085e+03 3.271998e+02 4.000245e+02
-1.965406e+09 -1.765400e+09 -1.925413e+09 8.122166e+03 1.029725e+04 7.755115e+03
-3.215004e+09 -3.015061e+09 -3.175046e+09 1.360014e+04 5.726545e+02 7.997751e+03
-3.602088e+09 -3.402086e+09 -3.562098e+09 6.073174e+03 2.793699e+03 2.127295e+03
-2.054444e+09 -1.854484e+09 -2.014469e+09 5.252542e+03 4.046208e+03 2.481109e+04
-2.389279e+09 -2.189315e+09 -2.349300e+09 1.621659e+04 3.256001e+03 9.722614e+03
-1.782816e+09 -1.582824e+09 -1.742811e+09 6.249731e+03 5.277885e+03 1.722008e+04
-2.502146e+09 -2.302184e+09 -2.462175e+09 8.937354e+02 -7.380861e+02 2.051364e+04
-3.336514e+09 -3.136539e+09 -3.296542e+09 -6.641129e+02 -3.895440e+02 6.549012e+03
-1.575502e+09 -1.375506e+09 -1.535509e+09 2.669643e+03 2.338779e+03 3.119727e+03
-3.235345e+09 -3.035362e+09 -3.195367e+09 5.371296e+03 1.698719e+03 4.964554e+03
-2.754735e+09 -2.554758e+09 -2.714760e+09 5.301645e+02 5.599495e+01 9.061447e+03
-3.374671e+09 -3.174682e+09 -3.334693e+09 1.082352e+04 3.614635e+03 7.334465e+03
-3.120311e+09 -2.920264e+09 -3.080199e+09 5.668145e+04 -2.588559e+04 -1.579832e+04
-3.170607e+09 -2.970625e+09 -3.130632e+09 1.081458e+04 2.733100e+03 9.344027e+03
-1.583035e+09 -1.383042e+09 -1.543043e+09 2.756241e+03 3.587570e+03 9.515778e+03
-1.669314e+09 -1.469317e+09 -1.629322e+09 2.840932e+03 4.955597e+03 5.563951e+03
-3.393089e+09 -3.193139e+09 -3.353140e+09 1.925617e+04 5.019365e+03 1.755785e+04
-1.616306e+09 -1.416315e+09 -1.576317e+09 2.569911e+03 2.525379e+03 7.400594e+03
-2.143214e+09 -1.943232e+09 -2.103231e+09 4.652256e+01 -4.771943e+02 6.411763e+03
-1.589356e+09 -1.389358e+09 -1.549362e+09 3.820533e+03 1.012729e+04 1.368828e+04
-1.587881e+09 -1.387886e+09 -1.547871e+09 3.744571e+03 6.291413e+03 1.263998e+04
-2.164951e+09 -1.964966e+09 -2.124969e+09 -6.550988e+03 -3.397190e+03 8.987524e+03
-3.588648e+09 -3.388637e+09 -3.548665e+09 2.050799e+04 9.164196e+03 6.521722e+03
-1.777774e+09 -1.577772e+09 -1.737761e+09 9.278524e+01 -1.403171e+04 -7.638515e+03
-3.190133e+09 -2.990110e+09 -3.150137e+09 2.171479e+04 -1.606796e+04 -9.715183e+03
-2.309099e+09 -2.109122e+09 -2.269110e+09 1.938394e+04 -1.634930e+04 -1.835451e+04
-3.604492e+09 -3.404585e+09 -3.564522e+09 3.576342e+04 -1.053339e+03 3.260351e+03
-3.194552e+09 -2.994577e+09 -3.154581e+09 5.778048e+03 1.576306e+03 8.087718e+03
-1.572172e+09 -1.372176e+09 -1.532176e+09 2.104894e+03 5.398718e+03 1.638190e+04
-3.602904e+09 -3.402909e+09 -3.562929e+09 2.806266e+04 8.659636e+03 1.163725e+04
-1.997577e+09 -1.797566e+09 -1.957555e+09 3.277721e+04 -2.729978e+04 -1.856016e+04
-3.160023e+09 -2.960005e+09 -3.120016e+09 3.456927e+04 -1.287069e+04 -8.787776e+03
-1.968477e+09 -1.768492e+09 -1.928493e+09 6.593458e+03 4.659868e+03 1.330645e+04
-3.600824e+09 -3.400869e+09 -3.560870e+09 2.428684e+04 5.857573e+03 1.399269e+04
-3.391326e+09 -3.191361e+09 -3.351366e+09 1.303787e+04 4.615483e+03 1.202027e+04
-1.770073e+09 -1.570038e+09 -1.730030e+09 1.070497e+04 -1.339322e+04 -8.788883e+03
-3.402869e+09 -3.202845e+09 -3.362775e+09 6.568430e+04 2.778988e+04 4.428551e+02
-3.043801e+09 -2.843799e+09 -3.003754e+09 5.022847e+04 1.708905e+04 3.971232e+03
-2.377359e+09 -2.177365e+09 -2.337350e+09 3.081162e+04 -2.105426e+03 4.524912e+03
-3.249137e+09 -3.049234e+09 -3.209192e+09 5.002798e+03 -8.446546e+03 9.533385e+03
-3.597323e+09 -3.397307e+09 -3.557337e+09 1.624543e+04 9.112088e+03 5.019400e+03
-3.602893e+09 -3.402907e+09 -3.562926e+09 2.639459e+04 9.242142e+03 1.059999e+04
-3.422719e+09 -3.222796e+09 -3.382772e+09 1.983065e+04 1.665573e+03 1.023785e+04
-1.996638e+09 -1.796662e+09 -1.956659e+09 5.052503e+03 2.728853e+03 1.388539e+04
-2.491776e+09 -2.291806e+09 -2.451805e+09 2.950605e+03 1.423833e+03 1.803155e+04
-2.436275e+09 -2.236310e+09 -2.396305e+09 8.471939e+03 1.864023e+03 1.392091e+04
-3.406547e+09 -3.206600e+09 -3.366590e+09 9.828175e+03 2.169092e+03 8.328049e+03
-2.288963e+09 -2.088968e+09 -2.248972e+09 -1.477711e+03 -3.468472e+02 5.174070e+02
-1.780159e+09 -1.580165e+09 -1.740168e+09 -2.047899e+03 -1.308026e+03 1.666963e+03
-1.767602e+09 -1.567601e+09 -1.727589e+09 3.936518e+03 2.365925e+04 5.957970e+03
-1.990488e+09 -1.790462e+09 -1.950487e+09 -5.468805e+02 1.878663e+04 -2.506594e+03
-3.490297e+09 -3.290301e+09 -3.450305e+09 -1.425201e+03 -2.482292e+02 3.950808e+02
-2.768387e+09 -2.568342e+09 -2.728384e+09 4.767386e+02 1.785948e+04 4.913563e+02
-2.647239e+09 -2.447214e+09 -2.607234e+09 -2.976115e+03 1.658426e+04 -1.650610e+03
-1.780823e+09 -1.580814e+09 -1.740817e+09 1.764593e+03 1.909283e+04 4.500635e+03
-2.403046e+09 -2.203020e+09 -2.363038e+09 2.974536e+03 1.987147e+04 4.863927e+03
-2.391955e+09 -2.191935e+09 -2.351955e+09 4.352553e+03 1.716597e+04 2.817783e+03
-1.697456e+09 -1.497468e+09 -1.657469e+09 -2.715869e+02 -4.446240e+01 2.829824e+03
-1.600177e+09 -1.400190e+09 -1.560190e+09 5.637485e+02 2.471239e+02 9.362750e+03
-2.670186e+09 -2.470164e+09 -2.630185e+09 1.900045e+03 1.459537e+04 1.231456e+03
-3.267004e+09 -3.067042e+09 -3.227045e+09 4.220769e+03 1.344079e+03 1.103053e+04
-2.246947e+09 -2.046930e+09 -2.206947e+09 2.397239e+03 8.232948e+03 1.387583e+03
-3.266764e+09 -3.066791e+09 -3.226792e+09 3.316523e+03 9.010574e+02 9.248590e+03
-2.816404e+09 -2.616432e+09 -2.776435e+09 7.337682e+03 3.837477e+03 1.258911e+04
-3.397523e+09 -3.197547e+09 -3.357550e+09 6.505268e+03 1.670103e+03 8.720589e+03
-3.200622e+09 -3.000647e+09 -3.160651e+09 4.474615e+03 1.600875e+03 9.343425e+03
-2.589611e+09 -2.389572e+09 -2.549597e+09 -1.296624e+04 1.577504e+04 -6.846370e+03
-1.879187e+09 -1.679173e+09 -1.839185e+09 -7.394420e+03 -1.769311e+04 -2.215418e+03
-3.376991e+09 -3.176927e+09 -3.336974e+09 -1.038224e+04 1.436263e+04 -2.026988e+03
-2.583702e+09 -2.383709e+09 -2.543715e+09 4.478966e+03 2.651166e+03 3.719009e+03
-3.387977e+09 -3.188004e+09 -3.348007e+09 1.600709e+04 3.974045e+03 1.067182e+04
-3.396464e+09 -3.196505e+09 -3.356501e+09 1.406971e+04 2.792854e+03 1.018678e+04
-2.599786e+09 -2.399805e+09 -2.559806e+09 8.600180e+03 4.285546e+03 1.344742e+04
-3.397107e+09 -3.197153e+09 -3.357154e+09 1.023025e+04 3.021519e+03 1.315724e+04
-1.688324e+09 -1.488329e+09 -1.648333e+09 -1.328273e+03 -5.390035e+02 7.001183e+02
-1.572172e+09 -1.372177e+09 -1.532179e+09 3.568046e+03 4.940441e+03 1.434403e+04
-1.589152e+09 -1.389155e+09 -1.549160e+09 -2.027062e+03 -1.686464e+03 2.259072e+03
-2.193350e+09 -1.993352e+09 -2.153357e+09 -2.504824e+03 -1.553744e+03 1.375507e+03
-3.301188e+09 -3.101163e+09 -3.261192e+09 3.746361e+02 9.245948e+03 1.960251e+03
-2.829524e+09 -2.629524e+09 -2.789531e+09 2.202502e+03 1.031616e+03 1.052547e+03
-2.788374e+09 -2.588426e+09 -2.748407e+09 1.953455e+04 3.201051e+03 1.899671e+04
-1.756218e+09 -1.556224e+09 -1.716204e+09 6.884662e+03 8.343096e+03 1.896158e+04
-3.592996e+09 -3.392998e+09 -3.553004e+09 2.418482e+03 7.198271e+02 7.789661e+02
-3.599866e+09 -3.399867e+09 -3.559876e+09 3.092810e+03 1.311953e+03 1.053010e+03
-1.814829e+09 -1.614830e+09 -1.774835e+09 2.440502e+03 1.309475e+03 1.276823e+03
-2.551386e+09 -2.351386e+09 -2.511394e+09 3.899423e+03 1.714226e+03 2.280013e+03
-2.767180e+09 -2.567195e+09 -2.727204e+09 2.570068e+04 1.668474e+04 1.315573e+04
-3.289915e+09 -3.089916e+09 -3.249923e+09 2.216848e+03 7.560039e+02 5.512360e+02
-1.990854e+09 -1.790879e+09 -1.950874e+09 9.432825e+03 4.455657e+03 1.611548e+04
-2.342284e+09 -2.142313e+09 -2.302308e+09 1.773281e+04 2.029306e+03 4.682820e+03
-2.616343e+09 -2.416374e+09 -2.576373e+09 7.806529e+03 3.629542e+03 1.438516e+04
-1.950377e+09 -1.750365e+09 -1.910377e+09 3.824142e+03 1.092165e+04 -6.153309e+02
-3.387296e+09 -3.187332e+09 -3.347331e+09 7.607239e+03 1.547687e+03 9.586933e+03
-2.518115e+09 -2.318139e+09 -2.478138e+09 3.862356e+03 1.764064e+03 1.119559e+04
-3.279403e+09 -3.079448e+09 -3.239444e+09 3.473531e+03 7.937041e+02 9.436317e+03
-2.363680e+09 -2.163673e+09 -2.323688e+09 8.123566e+03 1.154045e+04 8.888552e+03
-3.387301e+09 -3.187302e+09 -3.347320e+09 1.645890e+04 8.272996e+03 7.058150e+03
-1.574198e+09 -1.374199e+09 -1.534190e+09 4.168003e+03 2.356097e+03 -2.608309e+03
-3.488700e+09 -3.288691e+09 -3.448719e+09 -1.764967e+04 1.079119e+04 -6.756933e+03
-2.607751e+09 -2.407756e+09 -2.567768e+09 1.284669e+04 9.137794e+03 9.880777e+03
-2.874965e+09 -2.674966e+09 -2.834976e+09 5.867108e+03 4.301996e+03 5.143975e+03
-3.186872e+09 -2.986866e+09 -3.146884e+09 1.028591e+04 6.536311e+03 5.219213e+03
-1.580356e+09 -1.380355e+09 -1.540351e+09 5.197211e+02 2.343004e+04 -8.967691e+03
-1.985929e+09 -1.785902e+09 -1.945918e+09 -1.007887e+04 1.388718e+04 -3.756496e+03
-2.438077e+09 -2.238066e+09 -2.398081e+09 -3.414812e+03 8.120644e+03 -3.589405e+03
-2.786177e+09 -2.586172e+09 -2.746188e+09 1.018198e+04 8.964849e+03 6.995077e+03
-3.000683e+09 -2.800695e+09 -2.960708e+09 -2.187478e+04 9.819205e+03 -6.554007e+03
-3.058144e+09 -2.858148e+09 -3.018155e+09 -2.948617e+03 -1.322763e+03 1.684958e+03
-3.184911e+09 -2.984917e+09 -3.144921e+09 -1.633528e+03 -4.606127e+02 6.013508e+02
-3.298095e+09 -3.098102e+09 -3.258106e+09 -2.001750e+03 -5.986138e+02 7.169461e+02
-2.351154e+09 -2.151166e+09 -2.311168e+09 -1.716512e+03 -4.796623e+02 1.699086e+03
-3.390668e+09 -3.190681e+09 -3.350684e+09 -2.996015e+03 -1.248909e+03 2.149744e+03
-1.784850e+09 -1.584860e+09 -1.744862e+09 -2.301368e+03 -6.358497e+02 2.874925e+03
-2.146742e+09 -1.946747e+09 -2.106752e+09 -2.301367e+03 -1.054182e+03 1.400744e+03
-2.453406e+09 -2.253414e+09 -2.413418e+09 -2.467854e+03 -9.260648e+02 2.236822e+03
-2.496857e+09 -2.296838e+09 -2.456858e+09 6.535294e+02 1.590752e+04 1.018947e+02
-2.371007e+09 -2.171002e+09 -2.331015e+09 6.169632e+03 9.893342e+03 6.580285e+03
-2.797925e+09 -2.597916e+09 -2.757934e+09 9.450927e+03 7.123267e+03 4.611504e+03
-3.379568e+09 -3.179563e+09 -3.339578e+09 6.449628e+03 4.102412e+03 3.573397e+03
-3.490296e+09 -3.290301e+09 -3.450305e+09 -1.877828e+03 -3.273937e+02 2.937755e+02
-3.194459e+09 -2.994463e+09 -3.154468e+09 -2.117417e+03 -7.887745e+02 1.133692e+03
-3.385431e+09 -3.185423e+09 -3.345443e+09 1.051762e+04 5.693449e+03 4.825555e+03
-3.379186e+09 -3.179184e+09 -3.339201e+09 1.130132e+04 6.041328e+03 4.720953e+03
-2.004332e+09 -1.804315e+09 -1.964332e+09 6.296367e+03 1.433851e+04 4.083390e+03
-3.495744e+09 -3.295748e+09 -3.455753e+09 -2.333510e+03 -5.621879e+02 5.629681e+02
-2.547544e+09 -2.347551e+09 -2.507555e+09 -2.144950e+03 -8.413170e+02 1.343789e+03
-1.591650e+09 -1.391655e+09 -1.551658e+09 -2.047453e+03 -1.400783e+03 1.737462e+03
-2.355627e+09 -2.155632e+09 -2.315637e+09 -1.990354e+03 -7.089405e+02 9.368944e+02
-2.780302e+09 -2.580301e+09 -2.740314e+09 8.600975e+03 6.471250e+03 6.566593e+03
-3.321556e+09 -3.121534e+09 -3.281563e+09 -9.218207e+03 -8.859589e+03 5.086240e+03
-1.875370e+09 -1.675354e+09 -1.835367e+09 -2.673066e+03 -2.541398e+04 -6.278915e+03
-2.752743e+09 -2.552728e+09 -2.712756e+09 -1.920211e+04 -1.480725e+04 1.134769e+04
-1.588950e+09 -1.388946e+09 -1.548951e+09 -5.305435e+02 -1.449111e+04 9.254110e+03
-3.203070e+09 -3.003042e+09 -3.163064e+09 -2.697202e+04 -8.855847e+03 1.184920e+04
-2.383425e+09 -2.183392e+09 -2.343415e+09 1.277163e+03 -2.370760e+04 -1.121869e+03
-3.028027e+09 -2.828006e+09 -2.988035e+09 -7.736043e+03 -9.570811e+03 4.825555e+03
-1.979448e+09 -1.779423e+09 -1.939445e+09 1.059689e+03 -2.788561e+04 -3.237844e+03
-2.579532e+09 -2.379508e+09 -2.539534e+09 1.588030e+03 -2.294040e+04 -4.568501e+03
-3.418279e+09 -3.218212e+09 -3.378263e+09 -3.104713e+03 -1.065313e+04 2.375991e+03
-2.493182e+09 -2.293140e+09 -2.453155e+09 7.247519e+03 -1.927683e+04 -9.097775e+01
-1.775556e+09 -1.575539e+09 -1.735556e+09 1.908847e+03 -2.987752e+04 1.418623e+02
-2.959691e+09 -2.759699e+09 -2.919703e+09 -2.187360e+03 -7.590850e+02 1.428882e+03
-1.994085e+09 -1.794044e+09 -1.954077e+09 3.680518e+02 -2.833530e+04 3.823695e+03
-2.822810e+09 -2.622751e+09 -2.782802e+09 -2.613411e+02 -2.569666e+04 8.492707e+02
-2.943036e+09 -2.743029e+09 -2.903048e+09 -7.432442e+03 9.871248e+03 -6.587993e+03
-2.709397e+09 -2.509424e+09 -2.669423e+09 2.716696e+03 1.173316e+03 8.784401e+03
-3.070121e+09 -2.870148e+09 -3.030150e+09 2.743581e+03 7.001860e+02 8.763220e+03
-3.400439e+09 -3.200461e+09 -3.360464e+09 3.048534e+03 7.205076e+02 6.282051e+03
-2.623636e+09 -2.423624e+09 -2.583642e+09 7.681135e+03 7.419985e+03 5.309329e+03
-2.548512e+09 -2.348502e+09 -2.508518e+09 -8.258233e+03 1.254142e+04 -7.922427e+03
-1.581575e+09 -1.381569e+09 -1.541576e+09 3.075368e+02 1.227537e+04 -4.393772e+03
-3.397260e+09 -3.197288e+09 -3.357292e+09 4.525789e+03 1.524230e+03 7.787952e+03
-3.206865e+09 -3.006890e+09 -3.166892e+09 1.443004e+03 3.863061e+02 6.402682e+03
-1.594446e+09 -1.394448e+09 -1.554446e+09 4.196954e+03 -2.953661e+03 4.520761e+03
-3.401233e+09 -3.201257e+09 -3.361260e+09 1.439566e+03 2.891842e+02 6.499927e+03
-3.207544e+09 -3.007567e+09 -3.167571e+09 1.930122e+03 7.056511e+02 6.450946e+03
-1.910335e+09 -1.710352e+09 -1.870308e+09 -9.457706e+03 -1.354292e+04 1.188704e+04
-3.190003e+09 -2.990008e+09 -3.150017e+09 -7.107635e+03 -2.744638e+03 4.117840e+03
-3.037659e+09 -2.837649e+09 -2.997682e+09 2.287679e+04 -1.054678e+04 -8.243436e+03
-2.491346e+09 -2.291324e+09 -2.451350e+09 2.646487e+03 -1.801402e+04 -6.231254e+03
-2.609861e+09 -2.409866e+09 -2.569872e+09 -4.329887e+03 -2.335572e+03 2.713653e+03
-3.417573e+09 -3.217579e+09 -3.377588e+09 -6.233540e+03 -1.911007e+03 3.132282e+03
-3.377358e+09 -3.177362e+09 -3.337372e+09 -6.377363e+03 -2.474113e+03 2.962599e+03
-2.833993e+09 -2.633999e+09 -2.794005e+09 -5.140488e+03 -2.498841e+03 3.276677e+03
-1.606865e+09 -1.406869e+09 -1.566873e+09 -2.780962e+03 -3.538720e+03 4.991626e+03
-2.764380e+09 -2.564354e+09 -2.724385e+09 2.831057e+04 -1.172989e+04 -8.068509e+03
-3.570739e+09 -3.370815e+09 -3.530750e+09 5.944711e+04 -1.345734e+03 8.326564e+03
-2.995821e+09 -2.795825e+09 -2.955852e+09 3.354724e+04 -4.938373e+03 -7.448936e+03
-3.570145e+09 -3.370141e+09 -3.530143e+09 4.245346e+04 -1.467820e+04 -1.037931e+04
-3.583286e+09 -3.383247e+09 -3.543270e+09 4.296265e+04 -1.429807e+04 -1.039167e+04
-2.764099e+09 -2.564103e+09 -2.724111e+09 -5.964626e+03 -3.022393e+03 3.809892e+03
-2.149805e+09 -1.949819e+09 -2.109806e+09 2.019535e+04 -6.504704e+02 4.147706e+03
-2.284163e+09 -2.084161e+09 -2.244172e+09 -5.613532e+03 -6.854719e+03 7.032733e+03
-2.206555e+09 -2.006597e+09 -2.166531e+09 -2.884831e+04 9.576824e+03 9.970742e+03
-2.371715e+09 -2.171685e+09 -2.331713e+09 1.376995e+04 -8.120788e+03 -1.132535e+04
-2.665855e+09 -2.465813e+09 -2.625849e+09 2.545607e+04 -2.059847e+04 -1.122934e+04
-2.050643e+09 -1.850705e+09 -2.010656e+09 5.255879e+03 -1.334369e+04 1.526026e+03
-2.009327e+09 -1.809322e+09 -1.969326e+09 -1.671390e+04 1.613241e+04 -9.646817e+03
-3.100498e+09 -2.900455e+09 -3.060490e+09 1.487418e+04 -1.752794e+04 -7.874164e+03
-1.569590e+09 -1.369589e+09 -1.529387e+09 -2.506227e+03 -1.200920e+05 7.111172e+04
-2.003100e+09 -1.803100e+09 -1.963108e+09 -4.227572e+03 -3.409853e+03 3.242626e+03
-2.614172e+09 -2.414143e+09 -2.574164e+09 6.871869e+03 -2.050643e+04 -8.088070e+03
-2.292614e+09 -2.092642e+09 -2.252586e+09 -4.909565e+04 8.824412e+03 -1.352363e+04
-1.620569e+09 -1.420582e+09 -1.580520e+09 -2.628581e+03 9.292519e+02 2.801597e+04
-3.042443e+09 -2.842587e+09 -3.002418e+09 -3.541213e+04 -3.078456e+04 9.097212e+04
-2.429969e+09 -2.229933e+09 -2.389934e+09 1.736405e+04 -4.585564e+03 3.292218e+03
-3.610062e+09 -3.409984e+09 -3.569756e+09 -6.588138e+04 -1.123216e+05 5.152267e+04
-3.482298e+09 -3.282398e+09 -3.442194e+09 -7.114167e+04 -3.752876e+04 4.516288e+04
-1.755972e+09 -1.555981e+09 -1.715961e+09 6.859024e+03 -2.270394e+04 -1.442372e+04
-2.528385e+09 -2.328339e+09 -2.488371e+09 1.283800e+04 -4.106085e+03 -7.661691e+03
-2.042613e+09 -1.842591e+09 -2.002612e+09 -3.784363e+03 1.536684e+04 -4.345308e+03
-1.644737e+09 -1.444745e+09 -1.604742e+09 2.053126e+03 8.060058e+03 1.701569e+04
-1.644738e+09 -1.444744e+09 -1.604747e+09 2.959448e+03 1.090661e+04 2.002637e+04
-3.021428e+09 -2.821393e+09 -2.981427e+09 -8.105078e+03 1.325094e+04 -4.335024e+03
-3.598100e+09 -3.398120e+09 -3.558122e+09 3.441764e+02 5.061041e+01 3.887311e+03
-2.980507e+09 -2.780441e+09 -2.940498e+09 -4.069907e+03 1.750301e+04 1.239822e+02
-1.585842e+09 -1.385846e+09 -1.545850e+09 2.888518e+03 2.215502e+03 3.666320e+03
-2.389542e+09 -2.189509e+09 -2.349526e+09 -2.329451e+03 1.950413e+04 -4.043463e+03
-3.604190e+09 -3.404227e+09 -3.564230e+09 1.324996e+04 4.160517e+03 1.182018e+04
-3.588199e+09 -3.388224e+09 -3.548233e+09 1.498236e+04 4.783959e+03 9.074323e+03
-3.596587e+09 -3.396601e+09 -3.556607e+09 4.990114e+03 1.482284e+03 3.641222e+03
-2.098656e+09 -1.898633e+09 -2.058652e+09 -1.716903e+03 1.591947e+04 -2.088699e+03
-3.349222e+09 -3.149241e+09 -3.309249e+09 9.829085e+03 3.713961e+03 5.874236e+03
-3.518105e+09 -3.318125e+09 -3.478137e+09 1.976162e+04 6.683694e+03 1.004139e+04
-3.329988e+09 -3.129999e+09 -3.290015e+09 2.046216e+04 7.395270e+03 1.086005e+04
-2.739383e+09 -2.539389e+09 -2.699404e+09 1.618762e+04 1.086869e+04 1.328852e+04
-1.837726e+09 -1.637708e+09 -1.797728e+09 2.214422e+02 1.693181e+04 -1.880172e+03
-3.446679e+09 -3.246705e+09 -3.406716e+09 2.295272e+04 6.673491e+03 1.419090e+04
-2.554696e+09 -2.354662e+09 -2.514697e+09 -6.784401e+03 1.883148e+04 -6.961357e+03
-3.593382e+09 -3.393342e+09 -3.553373e+09 -4.551905e+04 3.958958e+03 -1.723038e+03
-1.775411e+09 -1.575406e+09 -1.735390e+09 -4.914738e+03 2.486960e+04 -2.417546e+03
-3.177037e+09 -2.977003e+09 -3.137035e+09 -1.784445e+04 1.461279e+04 -7.845239e+03
-2.384628e+09 -2.184601e+09 -2.344620e+09 -5.169685e+02 2.054138e+04 -5.223620e+02
-3.591048e+09 -3.390974e+09 -3.550986e+09 -5.215437e+04 -8.604140e+03 4.526630e+03
-3.581216e+09 -3.381270e+09 -3.541187e+09 -7.116375e+04 -3.542883e+03 3.235229e+04
-3.581225e+09 -3.381234e+09 -3.541152e+09 -6.675794e+04 -1.928237e+03 4.393598e+03
-3.596648e+09 -3.396679e+09 -3.556683e+09 -9.327265e+02 -6.391876e+02 8.294380e+03
-3.587487e+09 -3.387492e+09 -3.547261e+09 -8.058202e+04 -8.322567e+04 5.646879e+04
-3.404441e+09 -3.204464e+09 -3.364468e+09 1.802545e+03 8.123897e+02 5.532225e+03
-2.424388e+09 -2.224403e+09 -2.384405e+09 2.494557e+03 5.855626e+02 6.336603e+03
-1.604328e+09 -1.404326e+09 -1.564301e+09 3.003456e+03 2.431357e+04 -9.833571e+03
-3.046539e+09 -2.846555e+09 -3.006558e+09 1.014289e+03 2.079436e+02 3.489187e+03
-2.796890e+09 -2.596910e+09 -2.756911e+09 1.602463e+03 5.803961e+02 6.306265e+03
-2.622332e+09 -2.422179e+09 -2.581919e+09 -5.172130e+04 -1.318571e+05 1.284280e+05
-1.590931e+09 -1.390944e+09 -1.550944e+09 3.070688e+02 1.595549e+02 5.265783e+03
-2.791094e+09 -2.591087e+09 -2.751106e+09 1.248556e+04 7.817281e+03 5.925616e+03
-1.594439e+09 -1.394442e+09 -1.554420e+09 4.557754e+03 2.604115e+04 -1.263469e+04
-3.596280e+09 -3.396238e+09 -3.556285e+09 -1.546586e+04 -1.575746e+04 6.449108e+03
-3.120341e+09 -2.920293e+09 -3.080338e+09 -5.493382e+03 -1.409966e+04 9.326071e+02
-2.785584e+09 -2.585579e+09 -2.745597e+09 1.499769e+04 1.094743e+04 9.193647e+03
-1.754686e+09 -1.554685e+09 -1.714678e+09 -6.243652e+01 -2.149882e+04 2.670502e+03
-3.196409e+09 -2.996409e+09 -3.156429e+09 1.542189e+04 7.145242e+03 6.558791e+03
-1.978984e+09 -1.778962e+09 -1.938980e+09 4.120449e+03 -2.898189e+04 -7.934078e+03
-1.984672e+09 -1.784673e+09 -1.944681e+09 9.863810e+03 1.085222e+04 1.174100e+04
-3.597567e+09 -3.397458e+09 -3.557522e+09 7.256563e+03 -1.351397e+04 1.527180e+03
-3.197666e+09 -2.997669e+09 -3.157683e+09 2.089886e+04 1.056291e+04 8.287901e+03
-2.739186e+09 -2.539145e+09 -2.699185e+09 -8.739668e+02 -2.317326e+04 5.925925e+02
-1.787858e+09 -1.587811e+09 -1.747827e+09 -4.009215e+03 -4.921310e+03 -1.020246e+03
-1.572457e+09 -1.372443e+09 -1.532369e+09 -3.259233e+03 2.923204e+04 -1.281663e+04
-1.967293e+09 -1.767287e+09 -1.927301e+09 1.045814e+04 8.972655e+03 9.523768e+03
-1.984263e+09 -1.784222e+09 -1.944253e+09 -2.136861e+03 -3.017455e+04 -4.429382e+03
-3.394966e+09 -3.194967e+09 -3.354988e+09 1.853432e+04 7.547561e+03 8.797130e+03
-1.582928e+09 -1.382931e+09 -1.542926e+09 1.286734e+02 -2.086721e+04 1.653156e+03
-2.789206e+09 -2.589162e+09 -2.749206e+09 3.184116e+03 -1.866097e+04 -1.725159e+03
-1.836722e+09 -1.636724e+09 -1.796729e+09 5.369299e+03 6.009114e+03 9.717868e+03
-2.579529e+09 -2.379535e+09 -2.539547e+09 1.494174e+04 1.094494e+04 1.306194e+04
-1.802891e+09 -1.602891e+09 -1.762895e+09 4.241763e+03 1.032014e+04 9.940003e+03
-3.602975e+09 -3.402781e+09 -3.562536e+09 8.093623e+03 1.238736e+05 4.446759e+02
-3.583631e+09 -3.383541e+09 -3.543594e+09 -7.884492e+03 -2.260943e+04 2.599431e+03
-2.018778e+09 -1.818792e+09 -1.978794e+09 1.516510e+04 1.138211e+04 2.028620e+04
-1.769125e+09 -1.569105e+09 -1.729130e+09 -4.402048e+02 -2.720493e+04 -1.838872e+03
-2.021785e+09 -1.821735e+09 -1.981783e+09 -1.965409e+03 -2.241369e+04 1.132143e+04
-1.795702e+09 -1.595686e+09 -1.755678e+09 3.741371e+03 -2.210520e+04 8.831363e+02
-2.377237e+09 -2.177238e+09 -2.337247e+09 1.508075e+04 1.220840e+04 1.039598e+04
-3.195754e+09 -2.995756e+09 -3.155767e+09 2.606113e+04 2.476945e+03 9.144425e+03
-1.992128e+09 -1.792131e+09 -1.952138e+09 8.796719e+03 1.067996e+04 1.347487e+04
-3.363288e+09 -3.163308e+09 -3.323323e+09 3.393974e+04 1.026721e+04 1.091589e+04
-1.979461e+09 -1.779461e+09 -1.939468e+09 1.762676e+04 1.256852e+04 2.035838e+04
-3.576743e+09 -3.376731e+09 -3.536762e+09 2.954841e+04 1.048235e+04 6.637737e+03
-1.792391e+09 -1.592397e+09 -1.752391e+09 7.706698e+03 1.530277e+04 1.762309e+04
-1.581083e+09 -1.381077e+09 -1.541078e+09 2.520150e+03 1.022229e+04 1.309253e+04
-1.946744e+09 -1.746735e+09 -1.906748e+09 9.926626e+03 1.520973e+04 9.304274e+03
-3.617984e+09 -3.417929e+09 -3.577748e+09 7.950207e+04 5.847349e+04 3.559198e+04
-1.949534e+09 -1.749544e+09 -1.909546e+09 1.686051e+04 1.027755e+04 1.384546e+04
-3.417614e+09 -3.217626e+09 -3.377516e+09 9.631636e+04 3.099513e+04 6.985838e+04
-1.574201e+09 -1.374200e+09 -1.534189e+09 6.065445e+03 2.498663e+04 -1.590886e+04
-3.126587e+09 -2.926624e+09 -3.086590e+09 4.394209e+04 -5.407878e+03 -5.501606e+03
-1.768140e+09 -1.568139e+09 -1.728155e+09 1.415884e+04 1.390943e+04 1.783094e+04
-2.072140e+09 -1.872111e+09 -2.032136e+09 4.921527e+03 -3.101837e+04 -1.378917e+04
-2.356241e+09 -2.156218e+09 -2.316236e+09 5.559487e+03 -1.845774e+04 -9.283436e+03
-3.095344e+09 -2.895312e+09 -3.055355e+09 1.862260e+04 -1.165760e+04 -6.449460e+03
-3.600524e+09 -3.400417e+09 -3.560431e+09 -4.783961e+04 4.841997e+03 -5.183952e+03
-3.273022e+09 -3.072989e+09 -3.233027e+09 1.078283e+04 -1.370152e+04 -6.871254e+03
-1.979500e+09 -1.779534e+09 -1.939503e+09 1.469444e+04 1.116855e+04 2.635506e+04
-2.585843e+09 -2.385701e+09 -2.545560e+09 2.276283e+04 8.995983e+04 8.290793e+04
-1.579133e+09 -1.379142e+09 -1.539136e+09 3.107242e+03 1.617182e+03 1.589909e+04
-2.693540e+09 -2.493615e+09 -2.653575e+09 3.055277e+04 6.690319e+02 -9.470605e+03
-3.616774e+09 -3.416739e+09 -3.576283e+09 -8.919278e+04 1.274953e+05 -7.971200e+04
-3.283470e+09 -3.083564e+09 -3.243496e+09 1.566955e+04 3.849443e+03 6.328268e+03
-1.784042e+09 -1.584041e+09 -1.744018e+09 -1.375193e+03 -3.052466e+04 5.535772e+03
-3.604061e+09 -3.403977e+09 -3.563925e+09 -7.467482e+04 1.707484e+04 -1.939239e+04
-2.607210e+09 -2.407159e+09 -2.567204e+09 1.496373e+03 -2.820805e+04 -5.688940e+02
-3.263021e+09 -3.063104e+09 -3.223073e+09 1.667989e+03 1.214621e+03 1.544371e+04
-2.121958e+09 -1.922007e+09 -2.081980e+09 6.970813e+03 2.127809e+03 2.137907e+04
-3.413525e+09 -3.213432e+09 -3.373410e+09 -4.981552e+04 1.976963e+04 -6.224225e+03
-3.608223e+09 -3.408221e+09 -3.568001e+09 -8.538356e+04 3.659218e+04 -4.966147e+04
-3.409438e+09 -3.209471e+09 -3.369303e+09 -8.512988e+04 6.008947e+04 -5.364904e+04
-3.608246e+09 -3.408307e+09 -3.568014e+09 -9.020887e+04 3.380471e+04 -4.793163e+04
-1.669063e+09 -1.469052e+09 -1.629039e+09 -1.246298e+04 2.585413e+04 -1.105171e+04
-2.709546e+09 -2.509635e+09 -2.669502e+09 2.447485e+04 -3.807879e+03 -1.198259e+04
-3.630106e+09 -3.430200e+09 -3.590164e+09 -1.372751e+04 4.340267e+03 1.324230e+04
-3.570370e+09 -3.370393e+09 -3.530400e+09 2.671505e+04 1.041780e+04 1.455519e+04
-2.928602e+09 -2.728704e+09 -2.888665e+09 1.480151e+04 8.285364e+02 -9.754608e+03
-3.383470e+09 -3.183490e+09 -3.343498e+09 1.178225e+04 3.545856e+03 8.660236e+03
-1.581808e+09 -1.381819e+09 -1.541817e+09 -6.607860e+02 -4.306963e+03 2.507204e+04
-3.189385e+09 -2.989427e+09 -3.149426e+09 1.085945e+04 3.532205e+03 1.164839e+04
-2.597932e+09 -2.397976e+09 -2.557973e+09 -4.073592e+03 -2.324068e+03 1.808750e+04
-3.604727e+09 -3.404763e+09 -3.564760e+09 -4.102769e+04 -8.739988e+03 1.410424e+04
-3.599696e+09 -3.399827e+09 -3.559756e+09 -1.584501e+04 8.503827e+03 2.762737e+03
-3.299365e+09 -3.099424e+09 -3.259396e+09 -4.166680e+04 -1.933379e+03 5.841166e+03
-3.066430e+09 -2.866520e+09 -3.026416e+09 -1.393233e+04 -5.960582e+03 -1.967840e+04
-3.610451e+09 -3.410534e+09 -3.570511e+09 -2.008206e+04 -3.875281e+03 1.351038e+04
-3.595744e+09 -3.395807e+09 -3.555799e+09 -3.381503e+04 -2.635668e+03 6.069269e+03
-3.257345e+09 -3.057418e+09 -3.217380e+09 -1.424857e+04 -3.936748e+03 9.644034e+03
-3.419714e+09 -3.219836e+09 -3.379744e+09 7.012663e+03 8.430216e+02 -3.064600e+03
-3.502543e+09 -3.302578e+09 -3.462580e+09 4.278646e+04 -2.413297e+03 -3.447358e+03
-2.424347e+09 -2.224394e+09 -2.384364e+09 3.670042e+04 -1.617633e+03 -2.244492e+04
-2.086600e+09 -1.886639e+09 -2.046619e+09 3.203087e+04 1.707017e+04 1.468036e+04
-2.529740e+09 -2.329791e+09 -2.489788e+09 5.451130e+04 1.864588e+04 -3.446746e+03
-2.141155e+09 -1.941242e+09 -2.101151e+09 2.807416e+04 1.474151e+04 4.332602e+04
-3.313961e+09 -3.113989e+09 -3.273991e+09 5.064902e+04 -3.993896e+03 -1.318645e+04
-2.670686e+09 -2.470665e+09 -2.630667e+09 5.228102e+04 2.390586e+03 -2.514460e+03
-1.697310e+09 -1.497301e+09 -1.657310e+09 3.749690e+02 8.814693e+03 -1.758134e+03
-1.697881e+09 -1.497873e+09 -1.657881e+09 1.360578e+03 1.024009e+04 -9.480995e+02
-3.588727e+09 -3.388698e+09 -3.548733e+09 -9.895830e+03 1.084163e+04 -3.379319e+03
-3.210687e+09 -3.010705e+09 -3.170683e+09 -5.165179e+04 -1.709162e+04 9.970876e+03
-3.380362e+09 -3.180310e+09 -3.340361e+09 1.666861e+03 1.472729e+04 9.606027e+00
-2.602080e+09 -2.402050e+09 -2.562083e+09 -4.888579e+02 1.620137e+04 -2.358954e+02
-3.400904e+09 -3.200871e+09 -3.360904e+09 -7.056562e+03 1.280969e+04 -3.054486e+03
-2.029171e+09 -1.829147e+09 -1.989169e+09 -2.530907e+03 1.999577e+04 -6.577749e+03
-2.061260e+09 -1.861241e+09 -2.021259e+09 1.043668e+03 1.374179e+04 -1.458664e+03
-3.061170e+09 -2.861145e+09 -3.021171e+09 -8.167755e+03 1.425815e+04 -4.506340e+03
-3.609741e+09 -3.409697e+09 -3.569743e+09 -8.672070e+03 1.317157e+04 -3.641994e+03
-3.319194e+09 -3.119193e+09 -3.279211e+09 -1.089066e+04 -5.744773e+03 5.400591e+03
-2.571070e+09 -2.371069e+09 -2.531080e+09 -5.915630e+03 -6.282386e+03 5.618578e+03
-3.213509e+09 -3.013509e+09 -3.173522e+09 -7.159315e+03 -3.773649e+03 3.109595e+03
-2.669489e+09 -2.469491e+09 -2.629500e+09 -5.952434e+03 -3.753367e+03 4.748214e+03
-3.370576e+09 -3.170579e+09 -3.330589e+09 -6.129303e+03 -2.959290e+03 3.519756e+03
-2.691741e+09 -2.491694e+09 -2.651735e+09 1.762476e+04 -1.805388e+04 -3.140943e+03
-3.204360e+09 -3.004321e+09 -3.164360e+09 1.123119e+04 -1.201921e+04 -2.953948e+03
-1.695368e+09 -1.495364e+09 -1.655372e+09 2.193298e+03 4.044296e+03 2.535995e+03
-1.691019e+09 -1.491013e+09 -1.651022e+09 1.764479e+03 6.264803e+03 2.706774e+03
-3.408142e+09 -3.208103e+09 -3.368145e+09 2.250017e+04 -1.604812e+04 -9.734869e+03
-3.408149e+09 -3.208101e+09 -3.368144e+09 2.434104e+04 -1.327180e+04 -4.604137e+03
-3.499850e+09 -3.299821e+09 -3.459854e+09 -1.838075e+03 7.584884e+03 -8.049918e+02
-3.396426e+09 -3.196358e+09 -3.356406e+09 1.261337e+04 -1.091825e+04 -2.709555e+03
-3.387154e+09 -3.187101e+09 -3.347152e+09 8.203878e+03 -1.764135e+04 -1.560620e+03
-3.261670e+09 -3.061675e+09 -3.221680e+09 -2.255357e+03 -9.827167e+02 1.011944e+03
-1.697881e+09 -1.497875e+09 -1.657881e+09 3.993520e+02 9.649080e+03 -1.038383e+03
-3.497426e+09 -3.297397e+09 -3.457429e+09 8.146960e+02 7.919460e+03 5.419456e+01
-1.786873e+09 -1.586956e+09 -1.746638e+09 4.491225e+04 -1.587817e+04 -1.946934e+05
-3.255675e+09 -3.055680e+09 -3.215686e+09 -3.029714e+03 -9.782203e+02 1.176680e+03
-3.400394e+09 -3.200360e+09 -3.360399e+09 -5.253113e+03 1.180266e+04 -2.219508e+03
-2.760925e+09 -2.560930e+09 -2.720935e+09 -3.338504e+03 -1.496145e+03 1.649272e+03
-1.605308e+09 -1.405318e+09 -1.565319e+09 -2.407418e+03 -3.134631e+03 1.071661e+04
-3.494572e+09 -3.294601e+09 -3.454603e+09 -5.301693e+03 -1.457410e+03 7.950259e+03
-2.769681e+09 -2.569705e+09 -2.729706e+09 -1.086447e+03 -1.018004e+03 9.384442e+03
-1.773558e+09 -1.573564e+09 -1.733567e+09 -2.370016e+03 -9.301053e+02 1.862001e+03
-3.416418e+09 -3.216424e+09 -3.376432e+09 -4.734366e+03 -1.722494e+03 2.615200e+03
-1.558416e+09 -1.358427e+09 -1.518425e+09 -3.790589e+02 -4.983814e+02 1.155664e+04
-2.832690e+09 -2.632697e+09 -2.792702e+09 -4.706633e+03 -2.034945e+03 3.078111e+03
-1.558415e+09 -1.358427e+09 -1.518427e+09 -5.070214e+02 -5.586397e+02 1.390496e+04
-3.219692e+09 -3.019698e+09 -3.179705e+09 -4.761626e+03 -1.674081e+03 2.620469e+03
-3.298218e+09 -3.098245e+09 -3.258248e+09 -5.573706e+03 -1.363523e+03 8.339847e+03
-1.891252e+09 -1.691262e+09 -1.851264e+09 -2.121684e+03 -6.472002e+02 2.264823e+03
-3.359078e+09 -3.159083e+09 -3.319090e+09 -3.261666e+03 -1.166354e+03 1.720495e+03
-3.394938e+09 -3.194923e+09 -3.354951e+09 1.536379e+04 9.131768e+03 5.636959e+03
-3.202040e+09 -3.002032e+09 -3.162052e+09 9.474754e+03 6.201883e+03 4.373031e+03
-3.409346e+09 -3.209337e+09 -3.369358e+09 1.081485e+04 6.806040e+03 3.790224e+03
-2.439229e+09 -2.239223e+09 -2.399235e+09 5.151571e+03 6.097992e+03 5.323059e+03
-2.200139e+09 -2.000151e+09 -2.160152e+09 -1.285842e+03 -3.228406e+02 2.235534e+03
-2.580622e+09 -2.380618e+09 -2.540633e+09 8.383335e+03 9.236779e+03 5.870883e+03
-3.397732e+09 -3.197737e+09 -3.357756e+09 2.299516e+04 9.523160e+03 8.588022e+03
-2.381268e+09 -2.181264e+09 -2.341277e+09 8.681341e+03 1.256413e+04 8.484444e+03
-2.779395e+09 -2.579393e+09 -2.739408e+09 1.060758e+04 6.284414e+03 6.362526e+03
-3.407896e+09 -3.207976e+09 -3.367890e+09 4.884818e+04 -8.789765e+03 1.312117e+04
-3.198206e+09 -2.998207e+09 -3.158222e+09 3.663454e+04 -1.092143e+04 -2.002954e+03
-2.661408e+09 -2.461365e+09 -2.621371e+09 3.018079e+04 -2.301850e+03 -5.273787e+03
-3.612958e+09 -3.412832e+09 -3.572875e+09 2.944858e+04 9.936930e+03 2.128169e+03
-1.580791e+09 -1.380793e+09 -1.540763e+09 1.612557e+03 4.458429e+04 6.268999e+03
-2.729474e+09 -2.529494e+09 -2.689469e+09 4.487607e+04 4.717493e+03 1.915566e+04
-3.523314e+09 -3.323306e+09 -3.483301e+09 5.785317e+04 7.531285e+03 -7.483570e+01
-1.588827e+09 -1.388823e+09 -1.548780e+09 2.877268e+03 -5.490467e+03 6.836284e+03
-3.496543e+09 -3.296436e+09 -3.456482e+09 -2.254462e+04 -1.590115e+04 1.516041e+03
-1.785255e+09 -1.585314e+09 -1.744573e+09 6.469527e+04 1.939980e+05 4.744331e+05
-3.293218e+09 -3.093028e+09 -3.252067e+09 -5.138739e+04 4.170903e+05 -2.021470e+05
-2.470347e+09 -2.270328e+09 -2.430219e+09 7.237695e+04 7.756515e+04 3.323793e+04
-2.609933e+09 -2.409962e+09 -2.569885e+09 5.486910e+04 -2.868348e+04 -2.266159e+04
-3.209733e+09 -3.009763e+09 -3.169658e+09 6.964347e+04 -4.527763e+04 -3.417512e+04
-2.568915e+09 -2.368889e+09 -2.528928e+09 2.531893e+04 -1.217958e+04 -9.601162e+03
-3.165738e+09 -2.965732e+09 -3.124736e+09 -1.083406e+05 2.400268e+05 -3.360475e+05
-2.914695e+09 -2.714816e+09 -2.874478e+09 -7.433037e+04 8.256311e+04 -1.541146e+05
-1.930366e+09 -1.730365e+09 -1.890373e+09 -5.539405e+03 -7.706235e+03 7.052101e+03
-3.127443e+09 -2.927448e+09 -3.087395e+09 5.849321e+04 -2.029401e+04 -3.750909e+04
-3.566885e+09 -3.366873e+09 -3.526902e+09 -2.085009e+04 -1.035251e+04 9.894439e+03
-2.625225e+09 -2.425283e+09 -2.585204e+09 4.969205e+04 -1.688349e+04 -3.941143e+04
-1.794073e+09 -1.594083e+09 -1.754047e+09 1.172297e+04 2.538308e+03 8.370045e+03
-2.577017e+09 -2.376992e+09 -2.537013e+09 -1.076371e+04 -1.585048e+04 7.401260e+03
-1.695550e+09 -1.495546e+09 -1.655552e+09 -4.380588e+02 -1.092734e+04 4.561883e+03
-3.277411e+09 -3.077440e+09 -3.237433e+09 3.939826e+04 8.185617e+03 9.597726e+03
-1.583259e+09 -1.383257e+09 -1.543259e+09 5.838422e+02 -1.542620e+04 6.291295e+03
-3.141068e+09 -2.941051e+09 -3.101078e+09 -1.064224e+04 -1.071175e+04 5.023259e+03
-3.198989e+09 -2.998855e+09 -3.158742e+09 -5.814549e+04 -7.864377e+04 1.663143e+04
-1.994295e+09 -1.794265e+09 -1.954287e+09 -4.949374e+03 2.384269e+04 -4.427368e+03
-2.791194e+09 -2.591155e+09 -2.751197e+09 7.765207e+03 -1.975069e+04 -6.750452e+03
-1.574495e+09 -1.374497e+09 -1.534490e+09 -1.530331e+03 -1.915891e+04 -3.837279e+03
-1.594093e+09 -1.394093e+09 -1.554091e+09 -2.238862e+03 -1.900921e+04 -5.535452e+03
-3.179198e+09 -2.979155e+09 -3.139196e+09 -3.402578e+04 -6.084395e+03 5.674719e+03
-3.181543e+09 -2.981498e+09 -3.141540e+09 6.660504e+03 -2.099510e+04 -3.950853e+03
-3.594034e+09 -3.393979e+09 -3.554032e+09 1.436589e+04 -1.851259e+04 -5.024981e+03
-1.887561e+09 -1.687555e+09 -1.847554e+09 -1.367896e+03 -1.927764e+04 -8.028351e+03
-1.693114e+09 -1.493112e+09 -1.653116e+09 -5.036786e+02 -1.378759e+04 -1.706520e+03
-3.070874e+09 -2.870810e+09 -3.030809e+09 -2.821780e+04 4.097214e+03 3.008922e+03
-1.873349e+09 -1.673339e+09 -1.833351e+09 5.530131e+03 -1.619746e+04 -3.375427e+03
-2.081065e+09 -1.881040e+09 -2.041061e+09 1.817148e+03 -2.183264e+04 -2.533914e+03
-3.600641e+09 -3.400573e+09 -3.560629e+09 -1.569452e+03 -1.958979e+04 2.724534e+03
-2.000010e+09 -1.799984e+09 -1.959980e+09 -1.422186e+04 3.384675e+04 -1.414692e+04
-3.378123e+09 -3.178080e+09 -3.338127e+09 -2.877488e+04 1.117644e+04 -4.960818e+03
-1.588194e+09 -1.388200e+09 -1.548196e+09 -4.731711e+03 -3.306812e+03 1.591514e+03
-3.569991e+09 -3.370084e+09 -3.530039e+09 -3.212021e+04 7.265778e+02 3.494359e+03
-3.199105e+09 -2.999105e+09 -3.159129e+09 -2.096892e+04 -7.729509e+03 8.826775e+03
-1.772925e+09 -1.572924e+09 -1.732915e+09 -3.640263e+03 -1.583971e+04 1.732399e+04
-2.671749e+09 -2.471783e+09 -2.631785e+09 6.256736e+03 2.840394e+03 1.358213e+04
-1.763382e+09 -1.563385e+09 -1.723383e+09 -3.575428e+03 -1.153219e+04 1.162037e+04
-1.563945e+09 -1.363957e+09 -1.523958e+09 6.810227e+02 6.717609e+02 4.673571e+03
-3.426481e+09 -3.226391e+09 -3.384848e+09 1.241935e+04 -3.995976e+04 -1.462302e+04
-2.592448e+09 -2.392466e+09 -2.552468e+09 1.834460e+03 -9.013406e+01 6.260406e+03
-2.127960e+09 -1.927854e+09 -2.087642e+09 -7.981975e+04 -1.018443e+05 7.763334e+04
-3.288050e+09 -3.088149e+09 -3.247363e+09 -9.698150e+04 -2.344295e+05 2.251931e+05
-1.722086e+09 -1.521949e+09 -1.679033e+09 -1.325143e+05 -5.417202e+05 -5.924136e+05
-1.980997e+09 -1.780882e+09 -1.939525e+09 -6.798573e+04 5.313693e+05 -2.452293e+05
-3.413611e+09 -3.213695e+09 -3.373653e+09 3.241750e+04 -2.184401e+03 1.189329e+03
-3.583633e+09 -3.383650e+09 -3.543655e+09 4.593072e+03 1.341249e+03 4.181860e+03
-3.616825e+09 -3.416841e+09 -3.576844e+09 3.746651e+03 8.870962e+02 2.957203e+03
-3.600098e+09 -3.400169e+09 -3.560140e+09 2.175313e+04 4.834903e+03 1.385936e+04
-2.413016e+09 -2.213071e+09 -2.372990e+09 2.695034e+04 -1.425725e+04 -1.721769e+03
-3.604490e+09 -3.404466e+09 -3.562963e+09 -1.718423e+04 5.918801e+04 -1.306965e+05
-1.791712e+09 -1.591751e+09 -1.751714e+09 1.633957e+04 -2.555375e+02 4.048009e+03
-3.015295e+09 -2.815462e+09 -2.975295e+09 -1.227480e+04 6.118611e+03 -4.913147e+04
-1.582468e+09 -1.382466e+09 -1.542424e+09 -5.217036e+03 1.836378e+04 -4.654493e+03
-2.515097e+09 -2.315128e+09 -2.475107e+09 2.602793e+04 1.177782e+03 7.478798e+03
-1.996956e+09 -1.796998e+09 -1.956973e+09 3.070340e+04 -7.598350e+03 1.046132e+04
-1.926794e+09 -1.726803e+09 -1.886810e+09 7.417411e+03 7.768161e+03 1.206551e+04
-1.917100e+09 -1.717111e+09 -1.877109e+09 4.146130e+03 6.029686e+03 1.184929e+04
-2.630996e+09 -2.430977e+09 -2.591000e+09 -1.893479e+03 1.413867e+04 -1.745024e+03
-2.299515e+09 -2.099524e+09 -2.259530e+09 7.292382e+03 4.585546e+03 8.183489e+03
-2.789404e+09 -2.589431e+09 -2.749433e+09 1.021820e+04 3.355377e+03 1.073001e+04
-3.375337e+09 -3.175362e+09 -3.335368e+09 1.321244e+04 4.658749e+03 1.009776e+04
-1.793681e+09 -1.593687e+09 -1.753690e+09 4.568750e+03 5.021525e+03 9.836365e+03
-2.006772e+09 -1.806761e+09 -1.966771e+09 -5.600607e+02 9.272426e+03 -1.277054e+03
-2.685532e+09 -2.485550e+09 -2.645555e+09 1.189139e+04 5.787819e+03 1.336352e+04
-3.110885e+09 -2.910896e+09 -3.070907e+09 8.874752e+03 4.267531e+03 6.237689e+03
-2.611209e+09 -2.411187e+09 -2.571212e+09 6.472164e+02 1.482082e+04 1.161474e+02
-3.290180e+09 -3.090190e+09 -3.250201e+09 9.649864e+03 3.627717e+03 5.615799e+03
-2.826090e+09 -2.626112e+09 -2.786113e+09 3.547152e+03 1.415419e+03 6.173799e+03
-2.989797e+09 -2.789776e+09 -2.949801e+09 -1.907637e+03 7.567284e+03 -2.815550e+03
-2.796787e+09 -2.596829e+09 -2.756829e+09 1.109255e+04 5.668193e+03 1.371001e+04
-3.392273e+09 -3.192292e+09 -3.352295e+09 1.857758e+03 6.236264e+02 3.691673e+03
-2.758046e+09 -2.558118e+09 -2.718067e+09 7.062620e+03 2.332593e+03 1.259308e+03
-3.610973e+09 -3.411101e+09 -3.570963e+09 1.650243e+04 -5.566392e+03 6.894345e+02
-3.599679e+09 -3.399805e+09 -3.559738e+09 -3.231893e+03 -5.134568e+03 -4.591606e+03
-3.208707e+09 -3.008815e+09 -3.168638e+09 3.840088e+04 -3.073583e+04 -4.494513e+04
-2.092384e+09 -1.892456e+09 -2.052415e+09 1.584590e+04 -1.576044e+03 2.120509e+03
-3.571180e+09 -3.371230e+09 -3.531219e+09 4.193790e+04 1.780187e+03 4.086389e+03
-1.984049e+09 -1.784040e+09 -1.944046e+09 -2.101047e+04 4.142766e+03 -5.710926e+03
-3.204666e+09 -3.004658e+09 -3.164673e+09 -3.747712e+04 -4.825535e+03 2.098599e+03
-1.581397e+09 -1.381417e+09 -1.541377e+09 6.427870e+03 1.246926e+04 2.901454e+04
-3.208836e+09 -3.008828e+09 -3.168743e+09 -6.359505e+04 -1.557974e+04 2.610364e+04
-1.803831e+09 -1.603830e+09 -1.763819e+09 -2.518866e+03 1.612937e+04 -1.659434e+04
-1.581398e+09 -1.381418e+09 -1.541378e+09 6.264986e+03 -1.131099e+04 1.582753e+04
-2.291666e+09 -2.091765e+09 -2.251784e+09 7.802297e+04 1.031010e+05 1.451448e+05
-3.534833e+09 -3.334864e+09 -3.494845e+09 5.333736e+04 -1.020282e+04 -9.614143e+03
-2.678902e+09 -2.478702e+09 -2.638549e+09 5.908739e+04 1.059079e+05 6.480693e+04
-1.778016e+09 -1.578037e+09 -1.738026e+09 -1.445785e+04 8.875667e+03 -8.941584e+03
-2.856227e+09 -2.656243e+09 -2.816245e+09 3.661909e+03 9.707454e+02 4.059501e+03
-1.804296e+09 -1.604255e+09 -1.764216e+09 -4.742262e+03 -3.577421e+03 2.368346e+04
-3.278771e+09 -3.078864e+09 -3.238643e+09 -8.303340e+04 -4.076968e+04 7.608889e+04
-2.988534e+09 -2.788533e+09 -2.948546e+09 -6.363739e+03 -4.565184e+03 4.478640e+03
-2.670459e+09 -2.470457e+09 -2.630471e+09 -7.918797e+03 -1.072707e+04 8.442256e+03
-2.148884e+09 -1.948881e+09 -2.108891e+09 -5.730391e+03 -7.498096e+03 6.125585e+03
-3.568108e+09 -3.368132e+09 -3.527294e+09 7.538799e+04 -1.304100e+05 -1.569012e+05
-3.078578e+09 -2.878575e+09 -3.038592e+09 -8.837743e+03 -6.085902e+03 4.656856e+03
-1.800933e+09 -1.600984e+09 -1.760913e+09 4.427994e+04 -8.326825e+04 -1.455466e+05
-3.344858e+09 -3.144819e+09 -3.304324e+09 -6.355987e+04 -1.636033e+05 8.118179e+04
-3.588284e+09 -3.388112e+09 -3.548025e+09 4.512351e+03 -6.972185e+04 -1.883471e+04
-1.587815e+09 -1.387812e+09 -1.547252e+09 -7.174826e+03 1.160598e+05 -6.184500e+05
-3.583746e+09 -3.383952e+09 -3.543318e+09 -2.163517e+04 -1.926767e+04 1.547548e+05
-1.573141e+09 -1.373153e+09 -1.532969e+09 5.057746e+04 1.162435e+05 2.100789e+05
-1.603128e+09 -1.403125e+09 -1.563060e+09 1.153080e+04 -4.682651e+04 -4.514254e+04
-3.387202e+09 -3.187211e+09 -3.347223e+09 -1.057203e+04 -5.484681e+03 5.938985e+03
-1.598176e+09 -1.398177e+09 -1.558156e+09 1.904135e+03 1.513435e+04 -6.578096e+03
-2.912747e+09 -2.712746e+09 -2.872756e+09 -4.428081e+03 -3.262321e+03 3.216767e+03
-2.139538e+09 -1.939537e+09 -2.099547e+09 -5.178302e+03 -7.342444e+03 5.349863e+03
-1.980722e+09 -1.780705e+09 -1.940721e+09 -5.143743e+03 1.969099e+04 -7.840934e+03
-2.373832e+09 -2.173789e+09 -2.333817e+09 -1.980221e+03 8.889081e+03 2.180792e+03
-1.579172e+09 -1.379175e+09 -1.539156e+09 6.968627e+02 1.844474e+04 4.442184e+03
-3.174384e+09 -2.974379e+09 -3.134397e+09 -1.111653e+04 -6.026495e+03 5.061697e+03
-2.445932e+09 -2.245866e+09 -2.405879e+09 -5.404019e+03 -1.434816e+04 1.197893e+04
-3.408877e+09 -3.208802e+09 -3.368818e+09 2.908681e+04 -9.618376e+02 -2.196560e+02
-3.412011e+09 -3.212022e+09 -3.372035e+09 1.689104e+04 7.093165e+03 8.504828e+03
-1.871874e+09 -1.671913e+09 -1.831898e+09 6.475588e+03 2.118240e+03 2.366391e+04
-2.639716e+09 -2.439749e+09 -2.599750e+09 1.714369e+04 5.252811e+03 1.340207e+04
-2.409844e+09 -2.209832e+09 -2.369844e+09 1.782321e+04 1.673545e+04 7.625216e+03
-3.383870e+09 -3.183880e+09 -3.343890e+09 3.212113e+04 9.422666e+03 1.151413e+04
-1.570586e+09 -1.370581e+09 -1.530585e+09 4.243409e+03 1.073474e+04 1.199709e+04
-1.589358e+09 -1.389358e+09 -1.549364e+09 4.294763e+03 8.470222e+03 8.866575e+03
-1.872188e+09 -1.672195e+09 -1.832198e+09 -1.675458e+03 -6.157467e+02 1.053227e+03
-2.630602e+09 -2.430539e+09 -2.590559e+09 1.261706e+04 6.424854e+03 1.247912e+04
-3.375318e+09 -3.175265e+09 -3.335310e+09 2.756231e+04 1.590578e+04 7.610287e+03
-2.979553e+09 -2.779571e+09 -2.939578e+09 -7.159952e+03 -3.337181e+03 7.366741e+03
-2.892445e+09 -2.692458e+09 -2.852465e+09 -8.359302e+03 -3.959213e+03 9.238288e+03
-2.830212e+09 -2.630220e+09 -2.790226e+09 -4.897716e+03 -2.138256e+03 3.913934e+03
-3.493161e+09 -3.293169e+09 -3.453173e+09 -2.195537e+03 -3.427730e+02 9.121013e+02
-1.643147e+09 -1.443154e+09 -1.603157e+09 -1.575563e+03 -6.100405e+02 1.449369e+03
-1.578487e+09 -1.378498e+09 -1.538499e+09 -1.163456e+03 -6.240163e+02 3.758667e+03
-3.220465e+09 -3.020473e+09 -3.180480e+09 -4.859582e+03 -2.046627e+03 3.570593e+03
-3.196930e+09 -2.996938e+09 -3.156947e+09 -6.538392e+03 -2.834665e+03 3.772381e+03
-3.353089e+09 -3.153101e+09 -3.313107e+09 -5.666661e+03 -1.607533e+03 4.646928e+03
-3.269243e+09 -3.069259e+09 -3.229264e+09 -4.951124e+03 -2.450493e+03 4.667118e+03
-3.600628e+09 -3.400568e+09 -3.560625e+09 -5.202423e+03 -1.962411e+04 3.116286e+03
-2.014232e+09 -1.814242e+09 -1.974245e+09 -3.820870e+03 -1.977084e+03 5.299416e+03
-1.795452e+09 -1.595459e+09 -1.755462e+09 -2.760821e+03 -1.512472e+03 2.596945e+03
-3.489250e+09 -3.289211e+09 -3.449255e+09 6.815592e+03 -1.127454e+04 -2.815649e+03
-3.594452e+09 -3.394461e+09 -3.554469e+09 -6.168037e+03 -1.998104e+03 3.435817e+03
-2.578857e+09 -2.378868e+09 -2.538873e+09 -4.781151e+03 -2.235258e+03 4.072553e+03
-1.780238e+09 -1.580227e+09 -1.740208e+09 -9.941851e+02 2.202168e+04 -2.032773e+04
-3.130703e+09 -2.930700e+09 -3.090723e+09 -2.391722e+04 8.023560e+03 -6.433311e+03
-3.376857e+09 -3.176800e+09 -3.336826e+09 -3.957255e+04 -2.863459e+03 -9.300061e+03
-1.591650e+09 -1.391654e+09 -1.551658e+09 -2.268092e+03 -1.668876e+03 2.176824e+03
-2.391477e+09 -2.191446e+09 -2.351473e+09 -4.805682e+03 1.877221e+04 -2.877969e+03
-3.423007e+09 -3.223024e+09 -3.383029e+09 -4.324765e+04 5.660129e+03 -8.579857e+03
-2.742834e+09 -2.542820e+09 -2.702844e+09 -1.427466e+04 1.510932e+04 -1.113004e+04
-1.618050e+09 -1.418051e+09 -1.578038e+09 3.000741e+03 1.491305e+04 -2.271961e+04
-1.815838e+09 -1.615823e+09 -1.775844e+09 -8.187145e+03 2.177839e+04 -1.103936e+04
-2.422963e+09 -2.222945e+09 -2.382956e+09 -1.387231e+04 1.168012e+04 -9.084891e+03
-2.382426e+09 -2.182398e+09 -2.342407e+09 -1.004833e+04 1.324601e+04 9.312069e+02
-3.495743e+09 -3.295748e+09 -3.455753e+09 -2.357856e+03 -6.442184e+02 7.766677e+02
-2.960385e+09 -2.760389e+09 -2.920395e+09 -2.044098e+03 -9.617664e+02 1.194678e+03
-2.889621e+09 -2.689625e+09 -2.849630e+09 -1.480563e+03 -5.946787e+02 1.065130e+03
-1.688325e+09 -1.488330e+09 -1.648333e+09 -1.141099e+03 -3.035827e+02 4.682696e+02
-2.388550e+09 -2.188528e+09 -2.348510e+09 -2.295314e+04 1.360690e+04 -2.874847e+03
-1.693773e+09 -1.493777e+09 -1.653781e+09 -1.474651e+03 -6.235732e+02 8.370907e+02
-2.818911e+09 -2.618785e+09 -2.778629e+09 -5.761953e+04 -4.144980e+04 -5.178439e+03
-2.406372e+09 -2.206372e+09 -2.366382e+09 5.172731e+03 4.383816e+03 4.448134e+03
-3.490404e+09 -3.290381e+09 -3.450408e+09 -4.684279e+03 6.204788e+03 -1.671792e+03
-1.581577e+09 -1.381571e+09 -1.541577e+09 1.339184e+03 1.192900e+04 -3.835036e+03
-2.251732e+09 -2.051722e+09 -2.211735e+09 -2.176564e+03 9.405671e+03 -2.802970e+03
-1.613657e+09 -1.413653e+09 -1.573658e+09 1.540641e+03 1.801433e+04 -1.549825e+03
-2.192635e+09 -1.992638e+09 -2.152645e+09 4.076100e+03 2.709312e+03 2.756612e+03
-2.003368e+09 -1.803368e+09 -1.963376e+09 5.193800e+03 5.724026e+03 5.251638e+03
-3.358582e+09 -3.158582e+09 -3.318593e+09 6.887216e+03 2.256567e+03 3.332334e+03
-2.398521e+09 -2.198507e+09 -2.358525e+09 -5.989417e+03 1.585557e+04 -7.203839e+03
-2.086969e+09 -1.886953e+09 -2.046969e+09 -2.081900e+03 1.092020e+04 -2.951746e+03
-3.556232e+09 -3.356236e+09 -3.516246e+09 6.960651e+03 2.126593e+03 2.285321e+03
-2.808192e+09 -2.608194e+09 -2.768204e+09 5.423577e+03 3.278726e+03 3.912191e+03
-1.787804e+09 -1.587803e+09 -1.747808e+09 3.685355e+03 7.746924e+03 6.520784e+03
-3.605637e+09 -3.405650e+09 -3.565658e+09 7.205370e+03 1.940023e+03 4.150274e+03
-3.165110e+09 -2.965111e+09 -3.125121e+09 5.288290e+03 2.728329e+03 2.764644e+03
-2.803499e+09 -2.603495e+09 -2.763508e+09 6.550467e+03 4.982836e+03 3.986158e+03
-3.107491e+09 -2.907490e+09 -3.067500e+09 4.001827e+03 2.309203e+03 1.992518e+03
-1.589736e+09 -1.389736e+09 -1.549739e+09 2.295507e+03 1.099801e+04 9.228076e+03
-3.498788e+09 -3.298784e+09 -3.458796e+09 4.768112e+03 2.124752e+03 1.483859e+03
-2.397941e+09 -2.197939e+09 -2.357949e+09 3.914192e+03 3.742036e+03 2.878250e+03
-3.597945e+09 -3.397883e+09 -3.557721e+09 7.685551e+04 -3.062792e+04 -4.327753e+04
-1.791687e+09 -1.591691e+09 -1.751695e+09 -2.293229e+03 -1.469909e+03 1.962794e+03
-1.589549e+09 -1.389549e+09 -1.549555e+09 2.404423e+03 2.558255e+03 2.104649e+03
-2.693678e+09 -2.493676e+09 -2.653686e+09 4.687777e+03 4.036470e+03 2.994591e+03
-3.586871e+09 -3.386866e+09 -3.546881e+09 7.406512e+03 3.359546e+03 2.479338e+03
-3.609256e+09 -3.409357e+09 -3.569249e+09 -4.802270e+04 5.049866e+03 1.299751e+04
-1.784082e+09 -1.584139e+09 -1.744135e+09 -6.229628e+03 -6.199247e+03 1.640881e+04
-2.088559e+09 -1.888562e+09 -2.048567e+09 -2.383238e+03 -1.406793e+03 1.808402e+03
-3.082456e+09 -2.882565e+09 -3.042469e+09 -6.469445e+03 -2.495640e+03 2.882081e+04
-2.338361e+09 -2.138364e+09 -2.298371e+09 -3.684377e+03 -3.224716e+03 3.180232e+03
-1.769993e+09 -1.570053e+09 -1.730038e+09 7.430094e+03 8.044015e+03 2.284470e+04
-2.811891e+09 -2.611896e+09 -2.771903e+09 -4.210412e+03 -2.399575e+03 2.931447e+03
-3.609257e+09 -3.409395e+09 -3.569243e+09 -4.372101e+04 -9.178083e+03 2.507666e+04
-1.579097e+09 -1.379133e+09 -1.539072e+09 -4.255398e+03 -2.634010e+03 3.401319e+04
-1.893980e+09 -1.693982e+09 -1.853987e+09 -2.193127e+03 -1.718637e+03 1.968442e+03
-3.338785e+09 -3.138912e+09 -3.298789e+09 -1.404302e+04 -2.311729e+03 3.912312e+04
-1.891806e+09 -1.691809e+09 -1.851676e+09 -3.393172e+04 -3.810989e+04 5.858983e+04
-2.680810e+09 -2.480813e+09 -2.640820e+09 -3.898195e+03 -2.105168e+03 2.574548e+03
-2.937375e+09 -2.737396e+09 -2.897304e+09 6.432066e+04 4.883735e+04 1.621706e+04
-3.116786e+09 -2.916870e+09 -3.076747e+09 6.369194e+04 2.835892e+04 3.674751e+04
-2.454551e+09 -2.254564e+09 -2.414566e+09 -2.804999e+03 -1.519875e+03 3.836339e+03
-3.502119e+09 -3.302198e+09 -3.462170e+09 -3.282446e+04 3.258191e+03 -3.306655e+03
-3.179630e+09 -2.979597e+09 -3.139614e+09 -2.769020e+04 1.430213e+04 -2.834887e+03
-3.557353e+09 -3.357483e+09 -3.517415e+09 -1.258797e+03 -2.444785e+03 4.888597e+03
-2.158778e+09 -1.958788e+09 -2.118791e+09 -2.644589e+03 -1.244971e+03 3.077938e+03
-1.839788e+09 -1.639796e+09 -1.799799e+09 -2.130240e+03 -9.084653e+02 1.771089e+03
-2.588076e+09 -2.388083e+09 -2.548087e+09 -1.698009e+03 -6.515676e+02 1.236493e+03
-1.576917e+09 -1.376923e+09 -1.536926e+09 -1.881431e+03 -8.236409e+02 1.483570e+03
-1.586433e+09 -1.386442e+09 -1.546444e+09 -2.392587e+03 -1.472989e+03 4.794606e+03
-2.498959e+09 -2.298975e+09 -2.458979e+09 -3.943421e+03 -1.930002e+03 6.925564e+03
-3.000223e+09 -2.800230e+09 -2.960233e+09 -1.737579e+03 -5.604461e+02 9.072259e+02
-3.589148e+09 -3.389136e+09 -3.549162e+09 -3.026285e+04 -1.287568e+04 1.101223e+04
-3.566879e+09 -3.366874e+09 -3.526900e+09 -2.126311e+04 -1.101150e+04 9.282643e+03
-3.177385e+09 -2.977396e+09 -3.137400e+09 -3.593955e+03 -1.117188e+03 2.547291e+03
-1.742994e+09 -1.542998e+09 -1.702993e+09 -4.143914e+03 -1.656625e+04 1.203107e+04
-3.579808e+09 -3.379828e+09 -3.539836e+09 -1.034099e+04 -1.517049e+03 3.674791e+03
-3.198638e+09 -2.998617e+09 -3.158643e+09 -2.856323e+03 7.250313e+03 -2.013400e+03
-3.290441e+09 -3.090418e+09 -3.250445e+09 -4.489554e+03 9.948071e+03 -1.566469e+03
-3.582203e+09 -3.382171e+09 -3.542209e+09 -7.305482e+03 1.171779e+04 -3.076681e+03
-2.369942e+09 -2.169948e+09 -2.329957e+09 -7.300854e+03 -6.871018e+03 9.259985e+03
-2.418484e+09 -2.218490e+09 -2.378495e+09 -3.270217e+03 -1.612872e+03 2.573005e+03
-3.598127e+09 -3.398152e+09 -3.558156e+09 3.384827e+02 -3.593219e+01 5.822049e+03
-1.881593e+09 -1.681579e+09 -1.841592e+09 2.842819e+03 9.853863e+03 -3.041560e+03
-1.764846e+09 -1.564839e+09 -1.724851e+09 -3.646497e+03 1.070765e+04 -4.726306e+03
-2.542185e+09 -2.342172e+09 -2.502189e+09 -3.021197e+03 7.600881e+03 -3.702921e+03
-3.186483e+09 -2.986487e+09 -3.146493e+09 2.895044e+03 9.309694e+02 1.256042e+03
-3.406669e+09 -3.206633e+09 -3.366668e+09 5.002662e+03 1.218664e+04 1.296938e+03
-2.577027e+09 -2.377007e+09 -2.537029e+09 -1.733834e+03 1.387801e+04 -1.750640e+03
-3.584553e+09 -3.384471e+09 -3.544529e+09 3.124688e+03 1.647218e+04 -1.797056e+03
-1.580356e+09 -1.380359e+09 -1.540349e+09 3.009169e+03 2.064954e+04 -4.050337e+03
-3.593394e+09 -3.393358e+09 -3.553376e+09 -3.723651e+04 1.567537e+04 -8.572859e+03
-3.187946e+09 -2.987922e+09 -3.147952e+09 -1.027192e+04 9.756325e+03 -4.661330e+03
-2.982302e+09 -2.782276e+09 -2.942310e+09 4.784353e+03 -1.087028e+04 -3.724184e+03
-3.591879e+09 -3.391822e+09 -3.551879e+09 9.653117e+03 -1.303381e+04 -2.747392e+03
-3.104986e+09 -2.904988e+09 -3.064994e+09 2.183816e+03 5.572217e+02 6.831692e+02
-2.686420e+09 -2.486394e+09 -2.646421e+09 5.102988e+03 -1.900088e+04 -4.956911e+03
-2.994115e+09 -2.794083e+09 -2.954121e+09 2.687217e+03 -1.193166e+04 -2.294491e+03
-2.193518e+09 -1.993523e+09 -2.153527e+09 1.570616e+03 2.470595e+02 6.441531e+02
-3.304441e+09 -3.104446e+09 -3.264451e+09 2.093981e+03 2.862607e+02 7.357391e+02
-3.605319e+09 -3.405276e+09 -3.565322e+09 -2.509661e+04 -1.624753e+04 1.108987e+04
-3.134881e+09 -2.934845e+09 -3.094883e+09 -1.020509e+04 -1.278594e+04 2.613435e+03
-1.583259e+09 -1.383255e+09 -1.543261e+09 3.181428e+01 -1.903685e+04 6.139275e+03
-2.565191e+09 -2.365152e+09 -2.525195e+09 3.790695e+03 -2.106195e+04 -3.142408e+03
-2.358833e+09 -2.158805e+09 -2.318831e+09 -7.692758e+03 -1.565640e+04 3.016104e+03
-3.233155e+09 -3.033139e+09 -3.193162e+09 -2.071289e+04 1.440901e+04 -6.241714e+03
-3.415258e+09 -3.215263e+09 -3.375268e+09 2.489658e+03 7.588170e+02 8.406817e+02
-3.008343e+09 -2.808347e+09 -2.968352e+09 1.634890e+03 4.133282e+02 6.084546e+02
-1.617542e+09 -1.417537e+09 -1.577542e+09 1.789396e+03 2.090442e+04 -1.328635e+04
-1.598177e+09 -1.398177e+09 -1.558158e+09 2.251890e+03 1.987599e+04 1.920475e+03
-3.619719e+09 -3.419702e+09 -3.579731e+09 -2.727873e+04 1.275527e+04 -9.433711e+03
-2.437747e+09 -2.237738e+09 -2.397740e+09 -1.497611e+04 1.554914e+04 -3.246452e+03
-3.402266e+09 -3.202276e+09 -3.362290e+09 -1.212155e+04 -4.680608e+03 8.425640e+03
-3.614298e+09 -3.414305e+09 -3.574314e+09 -6.312493e+03 -1.715076e+03 2.567042e+03
-1.602064e+09 -1.402069e+09 -1.562073e+09 -2.646325e+03 -2.224575e+03 3.404323e+03
-3.497308e+09 -3.297311e+09 -3.457316e+09 1.215423e+03 1.500433e+02 1.520806e+02
-1.983609e+09 -1.783586e+09 -1.943607e+09 7.989840e+02 1.608416e+04 1.433814e+03
-2.802095e+09 -2.602102e+09 -2.762106e+09 -3.188455e+03 -1.300272e+03 1.801195e+03
-3.398586e+09 -3.198601e+09 -3.358613e+09 -1.488757e+04 -5.794501e+03 7.865183e+03
-1.598811e+09 -1.398818e+09 -1.558821e+09 -2.500521e+03 -2.362556e+03 3.268430e+03
-3.626197e+09 -3.426223e+09 -3.586227e+09 -5.586466e+03 -1.066602e+03 4.287797e+03
-3.395807e+09 -3.195768e+09 -3.355804e+09 1.182277e+03 1.251552e+04 8.967098e+01
-3.384636e+09 -3.184652e+09 -3.344655e+09 -3.217148e+03 -1.110274e+03 2.986399e+03
-3.403079e+09 -3.203045e+09 -3.363084e+09 5.893743e+03 1.111643e+04 2.293548e+03
-3.597926e+09 -3.397842e+09 -3.557891e+09 2.708492e+04 8.674236e+03 1.199538e+03
-3.397391e+09 -3.197369e+09 -3.357392e+09 2.628709e+04 8.801982e+03 6.090688e+03
-3.611674e+09 -3.411647e+09 -3.571676e+09 4.127874e+04 7.007811e+03 8.452663e+03
-3.399779e+09 -3.199734e+09 -3.359771e+09 1.014975e+04 1.219190e+04 2.082784e+03
-1.776426e+09 -1.576396e+09 -1.736427e+09 4.015617e+02 1.846927e+04 3.488884e+03
-1.787756e+09 -1.587736e+09 -1.747756e+09 3.078262e+03 2.007820e+04 3.657937e+03
-3.393518e+09 -3.193470e+09 -3.353518e+09 6.814079e+03 1.361255e+04 2.004903e+03
-1.552809e+09 -1.352805e+09 -1.512795e+09 -3.400817e+03 2.416965e+04 7.093521e+03
-2.009524e+09 -1.809538e+09 -1.969539e+09 -1.847094e+03 -9.782911e+02 5.179374e+03
-2.498144e+09 -2.298158e+09 -2.458160e+09 -1.503677e+03 -8.788413e+02 3.513216e+03
-2.602954e+09 -2.402967e+09 -2.562970e+09 -1.412036e+03 -6.912201e+02 3.530313e+03
-3.570348e+09 -3.370353e+09 -3.530374e+09 -4.217116e+04 -1.211007e+04 1.001943e+04
-3.245818e+09 -3.045836e+09 -3.205839e+09 -3.170300e+03 -8.799357e+02 4.307755e+03
-2.635025e+09 -2.435038e+09 -2.595040e+09 -2.257466e+03 -8.888540e+02 3.436111e+03
-2.621171e+09 -2.421183e+09 -2.581186e+09 -4.250835e+03 -2.213084e+03 4.097648e+03
-3.127478e+09 -2.927492e+09 -3.087495e+09 -2.657587e+03 -8.023046e+02 2.650083e+03
-3.483523e+09 -3.283551e+09 -3.443554e+09 -3.299984e+04 -9.488590e+03 1.411093e+04
-3.387693e+09 -3.187702e+09 -3.347707e+09 -4.062471e+03 -1.516618e+03 2.318838e+03
-1.998356e+09 -1.798375e+09 -1.958375e+09 5.065369e+03 1.940372e+03 1.095442e+04
-1.590103e+09 -1.390113e+09 -1.550114e+09 2.559638e+03 2.872053e+03 1.208819e+04
-2.820077e+09 -2.620084e+09 -2.780091e+09 -4.117747e+03 -2.124817e+03 3.158191e+03
-2.639163e+09 -2.439170e+09 -2.599176e+09 -4.314583e+03 -2.094625e+03 3.177756e+03
-3.188369e+09 -2.988395e+09 -3.148399e+09 1.031744e+04 2.914477e+03 9.864633e+03
-1.572174e+09 -1.372177e+09 -1.532178e+09 2.678315e+03 7.041047e+03 1.558963e+04
-2.030922e+09 -1.830928e+09 -1.990933e+09 -3.941331e+03 -2.766165e+03 4.190987e+03
-1.744896e+09 -1.544903e+09 -1.704906e+09 -2.984518e+03 -3.422845e+03 6.042935e+03
-2.614914e+09 -2.414933e+09 -2.574935e+09 3.345058e+03 1.667758e+03 8.016202e+03
-3.059932e+09 -2.859968e+09 -3.019969e+09 5.182322e+03 1.441604e+03 1.075631e+04
-3.391398e+09 -3.191432e+09 -3.351437e+09 7.301029e+03 2.465613e+03 9.411371e+03
-3.071408e+09 -2.871414e+09 -3.031423e+09 7.079405e+03 2.840047e+03 4.737193e+03
-3.586288e+09 -3.386306e+09 -3.546315e+09 1.033876e+04 3.368167e+03 6.811455e+03
-3.139098e+09 -2.939108e+09 -3.099124e+09 1.595952e+04 6.510093e+03 8.276211e+03
-3.433994e+09 -3.234046e+09 -3.393701e+09 -9.284315e+04 6.984919e+04 -1.170518e+05
-2.409894e+09 -2.209924e+09 -2.369919e+09 -1.447118e+03 -3.442825e+03 1.486406e+04
-2.897520e+09 -2.697569e+09 -2.857562e+09 6.221408e+03 2.735832e+03 1.785792e+04
-1.988148e+09 -1.788171e+09 -1.948167e+09 -1.054080e+03 4.198427e+02 1.678067e+04
-3.072394e+09 -2.872421e+09 -3.032424e+09 1.813777e+03 1.256562e+03 9.292103e+03
-1.846261e+09 -1.646243e+09 -1.806292e+09 5.075738e+04 2.872188e+04 4.006037e+04
-2.789683e+09 -2.589708e+09 -2.749709e+09 5.778758e+03 1.719066e+03 8.127473e+03
-3.384744e+09 -3.184596e+09 -3.344529e+09 1.185820e+03 -6.792076e+04 -3.440833e+03
-1.723304e+09 -1.523297e+09 -1.683256e+09 1.137818e+04 -1.815073e+04 -1.565636e+04
-2.152820e+09 -1.952384e+09 -2.111817e+09 -6.543673e+04 2.933591e+05 -5.390697e+05
-1.740860e+09 -1.540831e+09 -1.700834e+09 1.247559e+04 2.612776e+03 -8.206617e+03
-3.530881e+09 -3.330907e+09 -3.490909e+09 -6.760990e+02 -3.853288e+02 5.800629e+03
-1.587161e+09 -1.387079e+09 -1.546428e+09 5.786410e+03 2.654821e+05 -4.258645e+05
-1.808968e+09 -1.608868e+09 -1.768766e+09 4.024936e+04 -2.315334e+05 -1.306030e+05
-2.135305e+09 -1.935203e+09 -2.095077e+09 5.806400e+04 -9.223557e+04 -1.464610e+04
-2.291730e+09 -2.091694e+09 -2.251696e+09 3.918891e+04 -2.962608e+04 -3.890420e+04
-3.601574e+09 -3.401714e+09 -3.560909e+09 3.760730e+04 -3.563049e+04 -2.399175e+05
-1.578276e+09 -1.378327e+09 -1.537993e+09 7.994817e+03 -4.031995e+05 -7.065003e+04
-3.604490e+09 -3.404451e+09 -3.562970e+09 4.610744e+04 -1.130307e+05 -1.179361e+05
-2.191404e+09 -1.991281e+09 -2.150763e+09 1.740997e+05 -3.437856e+05 -2.972445e+05
-2.798464e+09 -2.598482e+09 -2.758485e+09 4.259625e+03 1.462103e+03 6.044334e+03
-2.845101e+09 -2.645027e+09 -2.804018e+09 1.115634e+05 4.001780e+05 4.448940e+05
-2.420116e+09 -2.220128e+09 -2.380133e+09 4.719297e+03 3.897265e+03 9.872517e+03
-2.440608e+09 -2.240629e+09 -2.400630e+09 3.284631e+03 2.562022e+03 1.052318e+04
-3.590258e+09 -3.390371e+09 -3.550273e+09 -4.681949e+04 1.337357e+04 -1.688326e+04
-3.593379e+09 -3.393380e+09 -3.553394e+09 9.158326e+03 3.461417e+03 3.494395e+03
-3.598715e+09 -3.398818e+09 -3.558771e+09 -2.032875e+04 -2.225610e+03 5.156028e+03
-1.974858e+09 -1.774988e+09 -1.934867e+09 -2.323089e+04 6.294199e+04 -5.760044e+04
-2.486892e+09 -2.286949e+09 -2.446927e+09 2.331638e+04 -6.107045e+03 1.847087e+03
-3.409433e+09 -3.209448e+09 -3.369453e+09 3.813966e+03 8.368935e+02 3.784428e+03
-2.457165e+09 -2.257179e+09 -2.417182e+09 2.459423e+03 1.232582e+03 6.136200e+03
-3.314635e+09 -3.114703e+09 -3.274644e+09 -5.207400e+04 -1.759950e+04 1.173472e+04
-1.973829e+09 -1.773839e+09 -1.933842e+09 2.471018e+03 1.225299e+03 3.260913e+03
-3.595832e+09 -3.395924e+09 -3.555735e+09 7.630927e+04 1.392945e+04 4.359392e+04
-3.224596e+09 -3.024611e+09 -3.184617e+09 5.326069e+03 1.364020e+03 5.209352e+03
-1.579313e+09 -1.379328e+09 -1.539295e+09 -1.264535e+03 3.520020e+02 -2.367377e+03
-2.008654e+09 -1.808668e+09 -1.968669e+09 3.446778e+03 2.156393e+03 5.700506e+03
-2.101788e+09 -1.901758e+09 -2.061725e+09 4.931299e+04 -5.907676e+03 2.006624e+04
-2.547029e+09 -2.347178e+09 -2.506704e+09 -6.665173e+04 -1.115099e+05 2.428924e+05
-1.686741e+09 -1.486739e+09 -1.646742e+09 1.520819e+03 1.181296e+04 -9.158714e+03
-1.877985e+09 -1.677978e+09 -1.837918e+09 2.241715e+04 1.340238e+04 1.691582e+04
-2.185234e+09 -1.985280e+09 -2.145205e+09 4.073621e+04 9.114476e+03 1.246968e+04
-3.495113e+09 -3.295113e+09 -3.455136e+09 -2.496401e+04 1.232704e+04 -9.171062e+03
-3.105671e+09 -2.905668e+09 -3.065680e+09 4.820989e+03 3.320019e+03 2.559628e+03
-3.194489e+09 -2.994425e+09 -3.154409e+09 8.449153e+04 7.913337e+04 5.929813e+04
-2.091085e+09 -1.891072e+09 -2.051087e+09 5.650584e+03 1.218992e+04 5.735708e+03
-2.766309e+09 -2.566269e+09 -2.726296e+09 -4.496952e+03 -2.512648e+04 1.491593e+03
-2.803698e+09 -2.603720e+09 -2.763722e+09 1.929143e+03 7.155091e+02 6.751975e+03
-1.687690e+09 -1.487702e+09 -1.647703e+09 1.628878e+02 6.966631e+01 2.813961e+03
-1.764225e+09 -1.564231e+09 -1.724191e+09 -7.601965e+03 -6.683842e+03 1.206760e+04
-2.851998e+09 -2.651936e+09 -2.811984e+09 -6.293440e+03 -1.846982e+04 1.733782e+03
-3.581173e+09 -3.381174e+09 -3.541166e+09 -5.990412e+04 -4.568571e+03 1.081790e+04
-2.737818e+09 -2.537862e+09 -2.697841e+09 -1.745824e+04 -3.272691e+03 1.985817e+04
-3.197887e+09 -2.997832e+09 -3.157879e+09 -8.484251e+03 -1.373548e+04 1.716438e+03
-3.590684e+09 -3.390641e+09 -3.550675e+09 -5.139448e+04 -8.012222e+03 7.740033e+03
-2.236254e+09 -2.036234e+09 -2.196254e+09 -4.820784e+03 -1.887607e+04 4.295161e+03
-1.550662e+09 -1.350655e+09 -1.510634e+09 1.444722e+03 -1.183561e+04 -3.618404e+03
-1.918227e+09 -1.718217e+09 -1.878235e+09 -2.175274e+04 -1.162548e+04 1.741384e+04
-3.385056e+09 -3.184995e+09 -3.345052e+09 -6.088490e+03 -2.032264e+04 2.173546e+03
-2.539857e+09 -2.339929e+09 -2.499832e+09 -5.795898e+04 2.201844e+04 -6.541487e+04
-3.604031e+09 -3.403981e+09 -3.563904e+09 -6.903643e+04 1.098987e+04 2.189175e+03
-1.902606e+09 -1.702586e+09 -1.862588e+09 -6.704504e+03 -1.684723e+04 1.720647e+04
-1.585196e+09 -1.385195e+09 -1.545192e+09 -4.729482e+03 -2.228018e+04 -1.010893e+04
-1.569929e+09 -1.369929e+09 -1.529915e+09 -5.691557e+03 -2.677021e+04 -1.939524e+04
-3.123768e+09 -2.923745e+09 -3.083775e+09 -1.064903e+04 -1.158822e+04 3.146378e+03
-2.393325e+09 -2.193303e+09 -2.353321e+09 4.753819e+03 -2.276436e+04 -5.613943e+03
-2.861717e+09 -2.661686e+09 -2.821721e+09 -1.444969e+04 -1.943944e+04 1.196923e+04
-2.984379e+09 -2.784352e+09 -2.944382e+09 -3.144192e+03 -1.750746e+04 2.717041e+03
-2.582226e+09 -2.382187e+09 -2.542227e+09 -8.190765e+02 -1.941843e+04 -1.174336e+03
-1.558404e+09 -1.358401e+09 -1.518402e+09 -1.719451e+03 -1.313213e+04 1.185888e+04
-2.090618e+09 -1.890600e+09 -2.050617e+09 -2.681276e+03 -1.991313e+04 2.287452e+03
-2.342877e+09 -2.142854e+09 -2.302878e+09 -6.420371e+03 -2.174324e+04 7.503662e+03
-1.580957e+09 -1.380954e+09 -1.540960e+09 -5.462959e+02 -9.050896e+03 6.580226e+03
-1.558402e+09 -1.358401e+09 -1.518402e+09 -2.039873e+03 -1.368879e+04 1.045590e+04
-1.771178e+09 -1.571178e+09 -1.731184e+09 -7.051267e+03 -9.943912e+03 1.310857e+04
-1.893704e+09 -1.693691e+09 -1.853701e+09 -4.333140e+03 -1.409205e+04 -5.224667e+03
-2.028888e+09 -1.828873e+09 -1.988891e+09 -1.011296e+04 -1.848016e+04 1.869606e+03
-1.855984e+09 -1.655984e+09 -1.815984e+09 -1.024994e+03 -2.115909e+04 -6.737560e+03
-2.482419e+09 -2.282394e+09 -2.442421e+09 4.441711e+03 -1.850008e+04 -6.919807e+03
-3.303078e+09 -3.103062e+09 -3.263090e+09 1.233936e+04 -9.695754e+03 -6.110632e+03
-1.771254e+09 -1.571242e+09 -1.731241e+09 -2.814136e+03 -2.528626e+04 -1.198541e+04
-1.892955e+09 -1.692938e+09 -1.852951e+09 -7.683917e+03 -1.735311e+04 -3.882885e+03
-3.033343e+09 -2.833342e+09 -2.993356e+09 -7.956903e+03 -4.690780e+03 4.639416e+03
-1.764945e+09 -1.564951e+09 -1.724953e+09 -4.074752e+03 -6.295621e+03 9.027458e+03
-2.048079e+09 -1.848049e+09 -2.008073e+09 -1.887910e+03 -2.540297e+04 2.221838e+03
-1.976800e+09 -1.776807e+09 -1.936810e+09 -2.530784e+03 -1.214645e+03 1.763540e+03
-2.452290e+09 -2.252291e+09 -2.412301e+09 -5.144021e+03 -4.223086e+03 5.520853e+03
-2.657026e+09 -2.456970e+09 -2.617022e+09 -1.888975e+03 -2.302637e+04 1.656647e+03
-3.606340e+09 -3.406176e+09 -3.565772e+09 3.806139e+04 -1.252762e+05 -1.980447e+04
-3.612890e+09 -3.412882e+09 -3.571228e+09 2.865055e+03 -4.642155e+04 9.353845e+04
-1.901731e+09 -1.701754e+09 -1.861746e+09 -2.876806e+04 6.004423e+03 5.399804e+03
-2.585160e+09 -2.385281e+09 -2.545049e+09 3.876656e+04 -4.501313e+03 -8.385982e+04
-3.245062e+09 -3.045081e+09 -3.205093e+09 -3.843825e+04 3.243902e+03 -9.272405e+03
-1.575716e+09 -1.375837e+09 -1.535247e+09 4.322120e+03 -3.758167e+05 1.109832e+05
-1.575933e+09 -1.375879e+09 -1.535202e+09 -1.086421e+03 -2.714020e+05 -2.515394e+05
-1.587804e+09 -1.387812e+09 -1.547251e+09 -1.352267e+04 -1.404808e+05 -4.616307e+05
-2.925578e+09 -2.725596e+09 -2.885592e+09 -1.900450e+04 6.283918e+03 -1.032254e+04
-1.798295e+09 -1.598261e+09 -1.758254e+09 -2.546845e+03 2.026948e+04 -4.109659e+03
-3.101397e+09 -2.901150e+09 -3.060957e+09 -1.743304e+04 -1.875126e+05 -3.246193e+04
-3.616653e+09 -3.416493e+09 -3.575987e+09 -2.104799e+04 -2.015158e+05 5.623326e+04
-3.406299e+09 -3.206319e+09 -3.366249e+09 -5.857411e+04 -4.840954e+03 1.833520e+04
-3.568225e+09 -3.368096e+09 -3.527352e+09 6.944812e+04 -1.905265e+05 -6.150951e+04
-3.110224e+09 -2.910331e+09 -3.070147e+09 -5.096998e+04 -2.470161e+04 6.461676e+04
-1.578440e+09 -1.378459e+09 -1.538485e+09 -3.173475e+03 -2.035053e+05 8.391682e+04
-2.825945e+09 -2.625964e+09 -2.785960e+09 -5.310844e+04 -8.541983e+03 -1.798055e+03
-1.584028e+09 -1.384026e+09 -1.544033e+09 2.122225e+03 2.686772e+03 2.458871e+03
-2.629153e+09 -2.429158e+09 -2.589172e+09 -1.793154e+04 2.277809e+04 -1.734453e+04
-1.819036e+09 -1.619026e+09 -1.779035e+09 -1.979112e+03 1.659744e+04 -2.158088e+03
-2.957131e+09 -2.757132e+09 -2.917139e+09 2.994982e+03 1.685477e+03 1.394435e+03
-2.030412e+09 -1.830392e+09 -1.990411e+09 -7.460092e+02 1.760205e+04 -1.329901e+03
-3.414171e+09 -3.214131e+09 -3.374174e+09 -5.127929e+02 1.184278e+04 -8.049957e+02
-2.434427e+09 -2.234406e+09 -2.394431e+09 -5.022600e+03 1.312429e+04 -2.836522e+03
-2.657139e+09 -2.456834e+09 -2.615313e+09 -2.817643e+04 6.030625e+05 -1.978870e+05
-3.296441e+09 -3.096440e+09 -3.256450e+09 4.054081e+03 2.102810e+03 8.002680e+02
-1.609962e+09 -1.409795e+09 -1.569348e+09 1.073603e+05 7.685941e+05 3.004200e+05
-1.688434e+09 -1.488427e+09 -1.648435e+09 -1.785023e+02 8.240409e+03 -1.980303e+03
-3.401961e+09 -3.201939e+09 -3.361975e+09 -1.417618e+04 9.347897e+03 -4.678617e+03
-3.617402e+09 -3.417343e+09 -3.575957e+09 -1.475559e+04 2.274439e+05 8.217703e+04
-2.455111e+09 -2.255271e+09 -2.414849e+09 2.502064e+03 -3.567395e+04 4.395265e+05
-1.593800e+09 -1.393795e+09 -1.553801e+09 2.148976e+02 1.294180e+04 -3.499009e+03
-1.966716e+09 -1.766697e+09 -1.926714e+09 -5.625571e+03 1.881317e+04 -5.536018e+03
-3.274867e+09 -3.074971e+09 -3.233890e+09 7.767935e+04 2.728013e+05 3.031324e+05
-1.585680e+09 -1.385680e+09 -1.545672e+09 -4.549644e+02 2.254497e+04 3.289092e+03
-3.593707e+09 -3.393657e+09 -3.553704e+09 1.061187e+04 1.355887e+04 1.694867e+03
-3.617326e+09 -3.417296e+09 -3.575833e+09 -2.349630e+03 2.199491e+05 -6.230629e+04
-2.777165e+09 -2.577104e+09 -2.737148e+09 1.417414e+04 1.279621e+04 3.018482e+03
-2.838340e+09 -2.638313e+09 -2.798346e+09 1.321161e+04 1.539880e+04 6.764779e+03
-2.952233e+09 -2.752250e+09 -2.912270e+09 -3.560026e+04 1.057021e+04 -7.000969e+03
-3.028617e+09 -2.828656e+09 -2.988632e+09 -3.081000e+04 -2.845287e+03 -1.582086e+03
-1.581859e+09 -1.381768e+09 -1.541212e+09 4.897649e+04 5.036928e+05 4.277749e+04
-3.595398e+09 -3.395387e+09 -3.555372e+09 -6.009261e+04 -9.725355e+03 4.450073e+03
-2.903646e+09 -2.703480e+09 -2.863473e+09 -1.859925e+04 9.995558e+04 -2.642187e+04
-3.222501e+09 -3.022481e+09 -3.182511e+09 -2.607941e+04 5.894788e+03 -3.730594e+03
-3.595409e+09 -3.395387e+09 -3.555367e+09 -5.228545e+04 1.046515e+04 -5.918951e+03
-2.225173e+09 -2.025191e+09 -2.185191e+09 -2.091564e+04 1.407376e+04 -1.841757e+04
-2.657310e+09 -2.457118e+09 -2.616438e+09 4.281891e+04 4.650858e+05 4.283026e+04
-3.091666e+09 -2.891578e+09 -3.050582e+09 8.999213e+04 2.580168e+05 2.809047e+05
-2.121806e+09 -1.921633e+09 -2.081675e+09 1.041738e+04 5.910577e+04 -3.467525e+04
-3.588653e+09 -3.388636e+09 -3.548666e+09 1.973132e+04 8.996711e+03 7.557283e+03
-1.976661e+09 -1.776640e+09 -1.936658e+09 8.799676e+03 1.444070e+04 5.380367e+03
-3.583729e+09 -3.383726e+09 -3.543744e+09 1.165279e+04 5.186616e+03 4.359741e+03
-2.903567e+09 -2.703285e+09 -2.862832e+09 4.886216e+04 2.735921e+05 1.269113e+05
-2.600498e+09 -2.400490e+09 -2.560507e+09 9.056002e+03 1.059535e+04 6.882452e+03
-3.467003e+09 -3.266854e+09 -3.426155e+09 -8.303992e+04 1.801598e+05 -8.807007e+04
-3.592476e+09 -3.392468e+09 -3.552492e+09 1.702806e+04 7.505712e+03 7.116244e+03
-1.581717e+09 -1.381715e+09 -1.541715e+09 1.570070e+03 1.392193e+04 8.433819e+03
-3.141391e+09 -2.941278e+09 -3.100126e+09 9.217382e+04 3.536919e+05 1.515961e+05
-3.093536e+09 -2.893434e+09 -3.051706e+09 -3.975618e+04 2.225179e+05 -2.786442e+05
-1.585680e+09 -1.385679e+09 -1.545672e+09 1.311367e+01 2.428631e+04 6.351751e+03
-3.215632e+09 -3.015622e+09 -3.175643e+09 1.027531e+04 7.356687e+03 4.094794e+03
-3.601726e+09 -3.401695e+09 -3.561733e+09 2.134297e+04 1.285678e+04 7.777735e+03
-3.597326e+09 -3.397304e+09 -3.557337e+09 1.448621e+04 9.252152e+03 5.448331e+03
-3.610035e+09 -3.409946e+09 -3.569708e+09 -7.574475e+04 -5.560985e+04 1.840797e+04
-3.397765e+09 -3.197748e+09 -3.357754e+09 -4.788561e+04 -1.017005e+03 -7.215740e+03
-2.675633e+09 -2.475597e+09 -2.635632e+09 -3.391252e+03 1.649450e+04 -3.365901e+03
-1.766408e+09 -1.566387e+09 -1.726410e+09 -3.224145e+02 2.000837e+04 9.789862e+02
-2.821829e+09 -2.621799e+09 -2.781800e+09 -5.230282e+04 -1.439643e+04 5.345300e+03
-3.591159e+09 -3.391264e+09 -3.550785e+09 -6.391227e+04 -8.815042e+04 1.080329e+05
-3.587502e+09 -3.387543e+09 -3.547303e+09 -8.437532e+04 -3.995389e+04 7.698902e+04
-1.578022e+09 -1.378026e+09 -1.538008e+09 3.605702e+03 -3.942215e+04 2.907429e+04
-3.208764e+09 -3.008730e+09 -3.168765e+09 2.524743e+03 1.238502e+04 1.339518e+03
-1.993011e+09 -1.792987e+09 -1.953007e+09 2.153872e+03 1.666673e+04 6.223241e+02
-1.574170e+09 -1.374175e+09 -1.534147e+09 -5.865246e+03 -6.069684e+04 2.056995e+04
-2.504109e+09 -2.304071e+09 -2.462272e+09 -3.978769e+04 -1.419073e+05 -1.088294e+05
-2.021721e+09 -1.821776e+09 -1.981668e+09 3.779700e+04 1.820324e+04 4.182092e+03
-2.798970e+09 -2.598896e+09 -2.758940e+09 -1.445784e+04 1.433906e+04 -4.095481e+03
-3.405575e+09 -3.205656e+09 -3.365569e+09 4.053587e+04 -2.280761e+03 -2.323191e+04
-2.173406e+09 -1.973419e+09 -2.133426e+09 1.425275e+04 9.800472e+03 1.680325e+04
-3.238076e+09 -3.038062e+09 -3.198086e+09 9.518260e+03 7.529560e+03 4.653135e+03
-2.333115e+09 -2.133106e+09 -2.293118e+09 9.951499e+03 1.483104e+04 1.024873e+04
-3.221453e+09 -3.021522e+09 -3.181466e+09 4.260584e+04 -1.811678e+04 -9.158711e+03
-2.800750e+09 -2.600887e+09 -2.760654e+09 6.119659e+04 -6.237872e+04 -5.183567e+04
-3.412034e+09 -3.212161e+09 -3.372071e+09 3.107505e+04 -5.550530e+03 -1.818105e+04
-2.336516e+09 -2.136530e+09 -2.296532e+09 -3.121017e+02 -3.600463e+01 3.255269e+03
-3.610947e+09 -3.411100e+09 -3.570973e+09 2.469393e+04 3.457931e+02 -3.097808e+04
-2.619101e+09 -2.419123e+09 -2.579125e+09 2.065615e+03 1.002297e+03 6.890230e+03
-3.501798e+09 -3.301814e+09 -3.461816e+09 -1.046121e+03 -3.474285e+02 2.152392e+03
-1.580089e+09 -1.380117e+09 -1.540031e+09 8.562378e+03 -1.052946e+04 -4.954422e+04
-3.600097e+09 -3.400185e+09 -3.560143e+09 2.171877e+04 2.806356e+03 1.369709e+04
-1.687611e+09 -1.487608e+09 -1.647613e+09 -1.145990e+03 -1.411499e+04 1.771355e+02
-3.202630e+09 -3.002683e+09 -3.162671e+09 1.968828e+04 -1.601923e+03 8.729173e+03
-3.495084e+09 -3.295040e+09 -3.455087e+09 3.546324e+03 -1.250550e+04 -1.018475e+03
-1.889490e+09 -1.689480e+09 -1.849489e+09 -6.181220e+03 -1.744990e+04 1.074501e+03
-2.194183e+09 -1.994164e+09 -2.154181e+09 3.853650e+02 -1.467490e+04 -6.461620e+02
-1.623306e+09 -1.423335e+09 -1.583295e+09 6.432160e+03 -8.644025e+03 -1.288182e+04
-1.806970e+09 -1.607013e+09 -1.766948e+09 2.414433e+04 -1.342560e+04 1.680437e+03
-3.397920e+09 -3.197915e+09 -3.357930e+09 7.051893e+03 3.062202e+03 2.840238e+03
-3.309836e+09 -3.109834e+09 -3.269846e+09 5.292513e+03 2.835778e+03 1.274589e+03
-3.597566e+09 -3.397566e+09 -3.557576e+09 3.908802e+03 1.777096e+03 1.332042e+03
-1.970332e+09 -1.770344e+09 -1.930346e+09 -2.423038e+03 -1.257055e+03 4.231685e+03
-2.588927e+09 -2.388922e+09 -2.548933e+09 3.888538e+03 4.274257e+03 2.908153e+03
-1.584028e+09 -1.384027e+09 -1.544033e+09 2.473760e+03 3.058291e+03 2.469341e+03
-1.776512e+09 -1.576524e+09 -1.736525e+09 -1.927264e+03 -1.423908e+03 4.416737e+03
-2.702450e+09 -2.502449e+09 -2.662458e+09 3.790552e+03 2.718372e+03 2.499221e+03
-1.889912e+09 -1.689924e+09 -1.849925e+09 -7.509261e+02 -4.697103e+02 2.442312e+03
-3.406301e+09 -3.206319e+09 -3.366322e+09 -2.269740e+03 -1.207013e+03 3.443444e+03
-3.223754e+09 -3.023772e+09 -3.183775e+09 -2.347459e+03 -1.081666e+03 3.908476e+03
-1.783904e+09 -1.583916e+09 -1.743917e+09 -1.301195e+03 -4.275260e+02 3.978016e+03
-2.666191e+09 -2.466185e+09 -2.626198e+09 5.764462e+03 6.886438e+03 4.269951e+03
-2.864506e+09 -2.664500e+09 -2.824513e+09 4.090892e+03 3.964775e+03 2.580948e+03
-2.386533e+09 -2.186521e+09 -2.346538e+09 8.459811e+03 1.479822e+04 7.482321e+03
-3.481049e+09 -3.281027e+09 -3.441059e+09 1.090993e+04 -9.901886e+03 -6.178142e+03
-2.091187e+09 -1.891179e+09 -2.051191e+09 5.037859e+03 6.815467e+03 3.755770e+03
-1.978193e+09 -1.778184e+09 -1.938194e+09 1.204396e+03 6.569139e+03 3.418759e+03
-1.562522e+09 -1.362517e+09 -1.522517e+09 -3.221706e+03 -1.868949e+04 -7.192272e+03
-1.755804e+09 -1.555804e+09 -1.715802e+09 -1.127388e+03 -1.445033e+04 -8.558208e+03
-3.588656e+09 -3.388634e+09 -3.548662e+09 3.098132e+04 -1.505564e+04 -1.269280e+04
-2.975896e+09 -2.775875e+09 -2.935904e+09 5.679502e+03 -1.082486e+04 -5.377908e+03
-1.679081e+09 -1.479075e+09 -1.639083e+09 -1.438525e+02 -1.092335e+04 -6.373455e+03
-1.659029e+09 -1.459024e+09 -1.619033e+09 2.321646e+03 5.549734e+03 3.387420e+03
-3.444650e+09 -3.244405e+09 -3.403955e+09 4.356462e+04 2.763735e+05 7.923217e+04
-3.404919e+09 -3.204908e+09 -3.364603e+09 8.829210e+04 1.107475e+05 8.904971e+04
-2.434169e+09 -2.234004e+09 -2.393489e+09 1.060843e+05 5.411445e+05 1.650924e+05
-1.580310e+09 -1.380191e+09 -1.539573e+09 8.161720e+04 5.071087e+05 2.061779e+05
-3.594413e+09 -3.394395e+09 -3.554434e+09 1.816448e+04 -1.296282e+04 -9.944678e+03
-1.808069e+09 -1.608059e+09 -1.767899e+09 5.377833e+04 8.731214e+04 6.691903e+04
-2.713898e+09 -2.513920e+09 -2.673793e+09 8.013182e+04 5.000663e+04 1.013176e+05
-2.063413e+09 -1.863157e+09 -2.022984e+09 4.776251e+04 2.064492e+05 9.892291e+04
-2.635944e+09 -2.435886e+09 -2.595812e+09 8.320002e+04 5.969598e+04 3.503553e+04
-2.163921e+09 -1.963907e+09 -2.123922e+09 3.829078e+03 9.629198e+03 3.126504e+03
-3.223158e+09 -3.023134e+09 -3.183163e+09 9.826503e+03 1.079665e+04 3.152876e+03
-2.549677e+09 -2.349690e+09 -2.509692e+09 1.617150e+03 3.855274e+02 2.740423e+03
-1.999191e+09 -1.799179e+09 -1.959195e+09 8.382941e+03 1.296426e+04 6.506641e+03
-1.829849e+09 -1.629842e+09 -1.789852e+09 5.978540e+03 1.236275e+04 6.060955e+03
-3.201497e+09 -3.001516e+09 -3.161519e+09 6.832230e+02 2.541162e+02 4.914762e+03
-3.499424e+09 -3.299441e+09 -3.459442e+09 -3.931931e+02 -2.833238e+02 2.106438e+03
-3.595983e+09 -3.396001e+09 -3.556005e+09 2.052415e+03 4.081490e+02 3.556354e+03
-2.870417e+09 -2.670397e+09 -2.830423e+09 9.468988e+03 1.278143e+04 5.991395e+03
-2.068570e+09 -1.868573e+09 -2.028578e+09 -2.954522e+03 -1.989753e+03 2.334232e+03
-1.563003e+09 -1.363005e+09 -1.523010e+09 -2.547068e+03 -2.795548e+03 3.188114e+03
-3.495206e+09 -3.295208e+09 -3.455216e+09 -4.143625e+03 -1.512967e+03 1.531222e+03
-2.970987e+09 -2.770971e+09 -2.930994e+09 6.387236e+03 7.779506e+03 3.367069e+03
-3.054808e+09 -2.854810e+09 -3.014823e+09 -7.736175e+03 -5.081459e+03 5.173837e+03
-3.431790e+09 -3.231774e+09 -3.391799e+09 9.245615e+03 6.405827e+03 4.817884e+03
-1.582226e+09 -1.382236e+09 -1.542238e+09 -1.587954e+03 -7.800034e+02 3.179714e+03
-2.390103e+09 -2.190096e+09 -2.350109e+09 5.714079e+03 9.159161e+03 6.851403e+03
-2.101699e+09 -1.901688e+09 -2.061703e+09 5.405181e+03 1.195729e+04 5.790701e+03
-3.421467e+09 -3.221449e+09 -3.381476e+09 1.151884e+04 8.354712e+03 3.631572e+03
-2.331888e+09 -2.131896e+09 -2.291902e+09 -4.168622e+03 -2.805339e+03 5.466775e+03
-1.804018e+09 -1.604017e+09 -1.764021e+09 3.070374e+03 9.218248e+03 5.116019e+03
-3.289809e+09 -3.089825e+09 -3.249827e+09 -6.615017e+02 -2.362382e+02 3.530704e+03
-3.608475e+09 -3.408498e+09 -3.568502e+09 -3.179130e+03 -9.757897e+02 5.555374e+03
-1.817044e+09 -1.616966e+09 -1.777009e+09 -1.799710e+04 3.063653e+04 -2.614214e+04
-1.590931e+09 -1.390944e+09 -1.550944e+09 -1.401375e+02 -1.186047e+02 5.284123e+03
-3.417957e+09 -3.217989e+09 -3.377990e+09 -2.834050e+03 -8.642848e+02 8.441194e+03
-3.387065e+09 -3.187073e+09 -3.347082e+09 6.504865e+03 2.239457e+03 3.679063e+03
-3.571229e+09 -3.371132e+09 -3.531193e+09 3.688265e+03 1.251960e+04 1.976155e+02
-2.613881e+09 -2.413882e+09 -2.573871e+09 -2.270069e+04 1.581398e+04 -1.022278e+04
-3.594847e+09 -3.394822e+09 -3.554859e+09 -2.398119e+04 -1.126908e+04 8.209976e+03
-2.858120e+09 -2.658123e+09 -2.818133e+09 6.188135e+03 3.752266e+03 4.897355e+03
-1.599215e+09 -1.399219e+09 -1.559202e+09 4.720442e+03 -2.891532e+04 6.957388e+03
-1.591204e+09 -1.391206e+09 -1.551197e+09 3.029850e+03 -1.712412e+04 1.159996e+04
-3.422973e+09 -3.222981e+09 -3.382987e+09 4.390067e+03 1.876355e+03 2.497794e+03
-3.611730e+09 -3.411745e+09 -3.571756e+09 1.360505e+04 4.772561e+03 7.203584e+03
-1.585840e+09 -1.385845e+09 -1.545849e+09 2.807182e+03 2.257716e+03 3.339322e+03
-2.024213e+09 -1.824217e+09 -1.984223e+09 3.831869e+03 3.192980e+03 3.789715e+03
-3.588047e+09 -3.388074e+09 -3.548080e+09 9.833491e+03 3.291437e+03 8.494606e+03
-2.412891e+09 -2.212902e+09 -2.372904e+09 2.700965e+03 9.706642e+02 3.525317e+03
-2.610008e+09 -2.410013e+09 -2.570017e+09 1.631245e+03 4.241529e+02 7.568273e+02
-1.626075e+09 -1.426078e+09 -1.586082e+09 3.392614e+03 5.988412e+03 7.834438e+03
-3.028607e+09 -2.828611e+09 -2.988619e+09 5.114757e+03 2.442014e+03 3.128799e+03
-2.382264e+09 -2.182268e+09 -2.342274e+09 2.859874e+03 1.460168e+03 1.879576e+03
-2.609877e+09 -2.409886e+09 -2.569889e+09 3.300739e+03 7.695705e+02 2.740914e+03
-2.795753e+09 -2.595778e+09 -2.755780e+09 4.474039e+03 2.047737e+03 8.248073e+03
-3.246598e+09 -3.046611e+09 -3.206619e+09 5.996725e+03 1.829662e+03 4.414807e+03
-3.395594e+09 -3.195600e+09 -3.355615e+09 1.296411e+04 6.750952e+03 6.289919e+03
-3.060426e+09 -2.860435e+09 -3.020440e+09 4.058307e+03 1.180542e+03 3.034930e+03
-1.574699e+09 -1.374708e+09 -1.534709e+09 2.187175e+03 9.403253e+02 2.627287e+03
-3.553964e+09 -3.353975e+09 -3.513985e+09 9.739289e+03 3.257058e+03 5.423064e+03
-3.605844e+09 -3.405853e+09 -3.565861e+09 6.420398e+03 1.523648e+03 3.436989e+03
-1.601677e+09 -1.401684e+09 -1.561687e+09 2.853466e+03 2.751520e+03 6.273568e+03
-2.631888e+09 -2.431913e+09 -2.591915e+09 3.896251e+03 2.000055e+03 9.084811e+03
-2.247532e+09 -2.047538e+09 -2.207542e+09 2.313781e+03 4.339030e+02 1.082082e+03
-1.585155e+09 -1.385161e+09 -1.545164e+09 1.986817e+03 9.140835e+02 2.191329e+03
-3.594369e+09 -3.394403e+09 -3.554406e+09 8.216064e+03 2.614536e+03 1.014862e+04
-1.578736e+09 -1.378734e+09 -1.538733e+09 7.987714e+02 1.962218e+04 4.933938e+03
-3.416169e+09 -3.216189e+09 -3.376194e+09 5.116236e+03 1.167241e+03 5.462061e+03
-3.568093e+09 -3.368044e+09 -3.527260e+09 7.006217e+04 -1.905731e+05 -1.286485e+05
-2.614104e+09 -2.414043e+09 -2.574061e+09 1.542749e+04 6.193357e+03 -2.694455e+03
-1.742138e+09 -1.542143e+09 -1.702082e+09 1.935693e+04 7.412539e+03 1.496780e+04
-1.702004e+09 -1.502028e+09 -1.662006e+09 7.620455e+03 1.462157e+04 2.534755e+03
-2.816589e+09 -2.616602e+09 -2.776608e+09 6.736675e+03 2.289660e+03 6.201296e+03
-3.207504e+09 -3.007526e+09 -3.167532e+09 5.250847e+03 2.175799e+03 7.961082e+03
-3.209316e+09 -3.009335e+09 -3.169339e+09 3.347012e+03 1.234508e+03 6.439943e+03
-3.534824e+09 -3.334871e+09 -3.494852e+09 6.020407e+04 7.621569e+03 -1.304584e+03
-1.569132e+09 -1.369138e+09 -1.529056e+09 2.699498e+04 3.263381e+04 6.964298e+04
-2.451049e+09 -2.251067e+09 -2.411069e+09 3.263552e+03 1.241155e+03 8.224421e+03
-1.997701e+09 -1.797717e+09 -1.957717e+09 2.962060e+03 1.677427e+03 7.173864e+03
-2.958568e+09 -2.758547e+09 -2.918573e+09 5.423358e+03 1.030404e+04 1.886009e+03
-2.598365e+09 -2.398385e+09 -2.558386e+09 5.350622e+03 2.176668e+03 1.057916e+04
-1.803477e+09 -1.603479e+09 -1.763477e+09 -3.075451e+03 -8.650324e+03 1.215524e+04
-2.959917e+09 -2.759919e+09 -2.919928e+09 6.168326e+03 2.884192e+03 3.915915e+03
-2.204415e+09 -2.004401e+09 -2.164417e+09 3.810767e+03 1.280847e+04 2.819822e+03
-2.812901e+09 -2.612870e+09 -2.772904e+09 5.311545e+03 1.430444e+04 3.270132e+03
-1.797807e+09 -1.597790e+09 -1.757807e+09 2.052538e+03 1.632311e+04 2.186403e+03
-3.579959e+09 -3.380013e+09 -3.540006e+09 -5.954458e+03 -1.397250e+03 1.335726e+04
-2.605566e+09 -2.405541e+09 -2.565569e+09 6.206322e+03 1.366699e+04 4.493440e+03
-1.590558e+09 -1.390566e+09 -1.550562e+09 -1.458802e+03 -9.328399e+02 1.795074e+04
-2.365904e+09 -2.165879e+09 -2.325897e+09 5.232739e+03 1.566687e+04 7.481859e+03
-3.181367e+09 -2.981333e+09 -3.141367e+09 9.980822e+03 1.352877e+04 4.435534e+03
-2.788373e+09 -2.588330e+09 -2.748369e+09 9.765349e+03 1.817469e+04 2.483684e+03
-3.626632e+09 -3.426528e+09 -3.586257e+09 -6.076488e+04 1.060866e+05 -4.297952e+04
-3.114308e+09 -2.914090e+09 -3.073679e+09 -2.502981e+04 2.989579e+05 -3.396918e+04
-1.580922e+09 -1.380936e+09 -1.540905e+09 -1.475084e+03 -1.044842e+04 -8.389367e+03
-3.206854e+09 -3.006859e+09 -3.166868e+09 5.856762e+03 2.895675e+03 3.197111e+03
-1.826779e+09 -1.626782e+09 -1.786788e+09 3.951983e+03 2.606949e+03 2.920571e+03
-2.228866e+09 -2.028867e+09 -2.188873e+09 2.123654e+03 9.967815e+02 7.321495e+02
-1.920588e+09 -1.720592e+09 -1.880598e+09 5.019279e+03 4.018362e+03 4.408538e+03
-3.075032e+09 -2.875065e+09 -3.035067e+09 -3.345353e+02 1.342525e+03 1.353055e+04
-3.630096e+09 -3.430186e+09 -3.590156e+09 -7.626154e+03 -3.137645e+03 9.339088e+03
-2.723239e+09 -2.523241e+09 -2.683251e+09 5.440632e+03 4.429646e+03 4.605224e+03
-1.793498e+09 -1.593502e+09 -1.753506e+09 2.785024e+03 1.787344e+03 2.060502e+03
-3.373708e+09 -3.173644e+09 -3.333678e+09 1.286939e+04 9.316769e+03 2.393895e+03
-2.544910e+09 -2.344859e+09 -2.504875e+09 -2.793667e+03 1.171683e+04 -1.228608e+03
-1.915836e+09 -1.715851e+09 -1.875859e+09 -1.105435e+04 1.666884e+04 -1.433673e+04
-3.153878e+09 -2.953815e+09 -3.113848e+09 8.398854e+03 1.220471e+04 1.861018e+03
-2.353418e+09 -2.153382e+09 -2.313398e+09 5.634374e+03 2.105693e+04 1.752907e+03
-1.773531e+09 -1.573529e+09 -1.733499e+09 4.419199e+03 1.709682e+04 4.293196e+03
-3.616098e+09 -3.416114e+09 -3.576103e+09 -4.777419e+04 1.048403e+04 -8.320657e+03
-3.398689e+09 -3.198601e+09 -3.358647e+09 1.132778e+04 4.904510e+03 -4.244944e+03
-2.738637e+09 -2.538578e+09 -2.698597e+09 3.250052e+04 1.554407e+04 8.244544e+03
-3.302363e+09 -3.102336e+09 -3.262365e+09 -1.998205e+03 9.526274e+03 7.820766e+02
-1.952799e+09 -1.752787e+09 -1.912801e+09 -5.066605e+03 1.159995e+04 -4.983123e+01
-1.950443e+09 -1.750400e+09 -1.910400e+09 2.777835e+03 3.414601e+04 4.034416e+02
-3.604014e+09 -3.403984e+09 -3.564017e+09 2.423577e+03 1.026582e+04 5.137753e+02
-2.205617e+09 -2.005596e+09 -2.165616e+09 6.422964e+02 1.373498e+04 1.141913e+02
-1.581104e+09 -1.381100e+09 -1.541103e+09 -1.370530e+02 1.756819e+04 -1.411007e+02
-1.877561e+09 -1.677543e+09 -1.837502e+09 -1.087811e+04 2.811560e+03 -7.978704e+03
-1.792827e+09 -1.592814e+09 -1.752829e+09 -4.357813e+03 2.015225e+04 -8.376353e+03
-3.192261e+09 -2.992263e+09 -3.152269e+09 2.938888e+03 9.721570e+02 1.091732e+03
-2.631684e+09 -2.431661e+09 -2.591696e+09 -1.785505e+04 1.805276e+04 -9.910408e+03
-1.686742e+09 -1.486741e+09 -1.646749e+09 2.998212e+02 6.868877e+03 -6.902659e+03
-2.845605e+09 -2.645590e+09 -2.805616e+09 -2.073626e+04 1.671406e+04 -9.554302e+03
-3.203771e+09 -3.003751e+09 -3.163779e+09 -1.316063e+04 1.397388e+04 -6.131711e+03
-1.582820e+09 -1.382823e+09 -1.542828e+09 1.691234e+03 7.898107e+02 7.868786e+02
-1.639336e+09 -1.439333e+09 -1.599336e+09 1.500332e+03 1.265160e+04 -8.413476e+03
-3.606868e+09 -3.406872e+09 -3.566877e+09 2.474694e+03 4.171442e+02 7.452260e+02
-1.940888e+09 -1.740879e+09 -1.900896e+09 -6.283346e+03 1.314945e+04 -8.393342e+03
-2.299244e+09 -2.099226e+09 -2.259246e+09 5.532476e+03 1.145375e+04 2.378318e+03
-1.982816e+09 -1.782819e+09 -1.942824e+09 2.165087e+03 8.730894e+02 1.065730e+03
-1.999811e+09 -1.799813e+09 -1.959818e+09 1.405239e+03 4.015335e+02 4.691629e+02
-2.591029e+09 -2.391005e+09 -2.551028e+09 5.740705e+03 1.623083e+04 4.036518e+03
-3.422661e+09 -3.222637e+09 -3.382667e+09 1.077081e+04 1.023038e+04 3.179401e+03
-3.497307e+09 -3.297310e+09 -3.457315e+09 1.574390e+03 3.159732e+02 3.317869e+02
-3.402111e+09 -3.202082e+09 -3.362117e+09 8.292225e+03 9.948820e+03 3.154833e+03
-2.587488e+09 -2.387489e+09 -2.547495e+09 1.828170e+03 7.994133e+02 7.841024e+02
-1.804689e+09 -1.604681e+09 -1.764689e+09 2.762087e+03 1.360432e+04 4.061041e+03
-3.201125e+09 -3.001127e+09 -3.161133e+09 1.611243e+03 3.407078e+02 3.697424e+02
-3.592995e+09 -3.392997e+09 -3.553004e+09 2.310775e+03 6.568522e+02 6.892229e+02
-1.795893e+09 -1.595886e+09 -1.755890e+09 2.941159e+03 1.707612e+04 6.956579e+03
-2.365632e+09 -2.165614e+09 -2.325631e+09 7.860283e+03 1.875701e+04 7.096049e+03
-1.655973e+09 -1.455984e+09 -1.615985e+09 8.140730e+02 2.237320e+02 3.153249e+03
-3.471280e+09 -3.271283e+09 -3.431296e+09 1.001925e+04 4.116002e+03 4.693631e+03
-1.977805e+09 -1.777787e+09 -1.937805e+09 7.207640e+03 1.262652e+04 6.902875e+03
-1.866025e+09 -1.666035e+09 -1.825966e+09 -2.433419e+04 1.134385e+04 -2.605740e+04
-2.661420e+09 -2.461415e+09 -2.621291e+09 -8.908209e+04 6.403068e+04 -7.793439e+04
-2.948021e+09 -2.748038e+09 -2.908040e+09 -1.572059e+03 -5.101051e+02 3.885657e+03
-3.604142e+09 -3.404161e+09 -3.564164e+09 -2.460778e+03 -6.888873e+02 3.654126e+03
-3.093678e+09 -2.893763e+09 -3.053570e+09 -7.866931e+04 2.762342e+04 -6.378875e+04
-1.767947e+09 -1.567928e+09 -1.727814e+09 -2.492812e+04 1.754959e+04 -2.426551e+04
-2.462257e+09 -2.262223e+09 -2.422179e+09 -4.990740e+04 2.047512e+04 -1.548533e+04
-3.602957e+09 -3.402759e+09 -3.562476e+09 -1.219681e+03 8.477697e+04 3.324619e+03
-2.867049e+09 -2.667053e+09 -2.826948e+09 -5.033759e+04 2.994165e+04 -3.860259e+04
-2.106400e+09 -1.906402e+09 -2.066410e+09 7.099518e+03 5.659780e+03 6.877785e+03
-2.830522e+09 -2.630527e+09 -2.790532e+09 3.849779e+03 1.129724e+03 2.096024e+03
-1.991171e+09 -1.791175e+09 -1.951180e+09 2.858502e+03 1.463533e+03 2.009944e+03
-3.592091e+09 -3.391937e+09 -3.551950e+09 -2.053202e+04 -5.567880e+03 1.398700e+03
-3.600517e+09 -3.400397e+09 -3.560440e+09 -3.253954e+04 2.130847e+03 4.138838e+03
-3.600498e+09 -3.400419e+09 -3.560422e+09 -4.664908e+04 3.534975e+03 2.524258e+03
-3.610067e+09 -3.409986e+09 -3.570037e+09 -3.694577e+04 -1.299511e+04 -1.918144e+03
-3.413889e+09 -3.213895e+09 -3.373902e+09 4.808702e+03 1.363363e+03 2.434511e+03
-1.698571e+09 -1.498566e+09 -1.658572e+09 -6.289689e+02 -9.566333e+03 5.000601e+03
-3.372502e+09 -3.172497e+09 -3.332518e+09 -1.606662e+04 -7.144190e+03 7.199839e+03
-2.289389e+09 -2.089395e+09 -2.249401e+09 5.653891e+03 3.976943e+03 7.053092e+03
-1.591855e+09 -1.391852e+09 -1.551854e+09 2.861787e+02 -1.432402e+04 6.759706e+03
-1.639689e+09 -1.439692e+09 -1.599697e+09 3.120608e+03 3.416351e+03 3.774992e+03
-1.959671e+09 -1.759674e+09 -1.919679e+09 2.929253e+03 1.560675e+03 1.753733e+03
-2.193181e+09 -1.993184e+09 -2.153189e+09 -1.992026e+03 -1.033950e+03 9.192728e+02
-3.407454e+09 -3.207460e+09 -3.367466e+09 3.771996e+03 1.344182e+03 1.558172e+03
-2.559844e+09 -2.359850e+09 -2.519854e+09 -2.597670e+03 -9.976388e+02 1.717173e+03
-2.491684e+09 -2.291687e+09 -2.451694e+09 -2.642782e+03 -1.511398e+03 2.560866e+03
-1.773175e+09 -1.573178e+09 -1.733183e+09 2.895704e+03 1.679219e+03 1.944512e+03
-2.561194e+09 -2.361200e+09 -2.521206e+09 4.780682e+03 2.268578e+03 2.965283e+03
-3.050431e+09 -2.850442e+09 -3.010445e+09 -2.082177e+03 -8.759167e+02 2.485259e+03
-2.562284e+09 -2.362301e+09 -2.522306e+09 -7.225327e+03 -2.638046e+03 7.246004e+03
-1.591030e+09 -1.391039e+09 -1.551041e+09 -1.906102e+03 -8.356419e+02 2.532976e+03
-2.120329e+09 -1.920359e+09 -2.080353e+09 -9.180380e+03 -5.508167e+03 2.163053e+04
-1.806922e+09 -1.606925e+09 -1.766930e+09 -3.864113e+03 -3.222628e+03 5.302681e+03
-2.619715e+09 -2.419717e+09 -2.579723e+09 2.784522e+03 1.190714e+03 1.407496e+03
-3.210146e+09 -3.010158e+09 -3.170169e+09 -1.172988e+04 -4.566433e+03 8.249610e+03
-2.804662e+09 -2.604672e+09 -2.764680e+09 -9.199707e+03 -5.569253e+03 8.530825e+03
-2.945358e+09 -2.745388e+09 -2.905391e+09 -6.991215e+03 -2.964841e+03 1.110863e+04
-2.274953e+09 -2.074966e+09 -2.234970e+09 -4.787904e+03 -3.391027e+03 6.097731e+03
-3.315674e+09 -3.115694e+09 -3.275699e+09 -7.656686e+03 -2.426593e+03 7.491109e+03
-2.927170e+09 -2.727190e+09 -2.887195e+09 -1.245110e+04 -4.761531e+03 9.743557e+03
-1.575610e+09 -1.375617e+09 -1.535620e+09 -2.388310e+03 -1.862920e+03 4.226655e+03
-2.028964e+09 -1.828974e+09 -1.988978e+09 -8.653569e+03 -6.732338e+03 1.116791e+04
-1.601955e+09 -1.401954e+09 -1.561960e+09 3.110942e+03 4.319970e+03 4.077237e+03
-3.182826e+09 -2.982837e+09 -3.142842e+09 -3.164867e+03 -1.310315e+03 3.113152e+03
-3.133507e+09 -2.933520e+09 -3.093523e+09 -2.602722e+03 -8.828483e+02 2.547257e+03
-1.688435e+09 -1.488427e+09 -1.648435e+09 -1.734493e+02 8.578187e+03 -2.129384e+03
-2.793232e+09 -2.593208e+09 -2.753237e+09 -1.050639e+04 1.319821e+04 -6.151212e+03
-2.601958e+09 -2.401977e+09 -2.561980e+09 -5.189307e+03 -2.409944e+03 7.006769e+03
-3.167792e+09 -2.967766e+09 -3.127797e+09 -6.628488e+03 1.288940e+04 -2.833722e+03
-2.515859e+09 -2.315873e+09 -2.475877e+09 -4.924913e+03 -2.522544e+03 6.572861e+03
-2.157547e+09 -1.957537e+09 -2.117549e+09 -2.565602e+03 6.876822e+03 -3.790547e+03
-3.329120e+09 -3.129149e+09 -3.289153e+09 -8.384058e+03 -4.017549e+03 9.280111e+03
-2.202703e+09 -2.002685e+09 -2.162703e+09 -1.279342e+03 1.111412e+04 -2.816074e+03
-1.992763e+09 -1.792774e+09 -1.952776e+09 -4.452918e+03 -3.623076e+03 8.292466e+03
-2.847259e+09 -2.647277e+09 -2.807284e+09 -1.010626e+04 -4.294330e+03 9.161426e+03
-2.809374e+09 -2.609337e+09 -2.769375e+09 1.138077e+04 -2.037783e+04 -5.998478e+03
-2.439594e+09 -2.239579e+09 -2.399596e+09 8.277608e+03 -1.410233e+04 -8.248571e+03
-3.078901e+09 -2.879020e+09 -3.038687e+09 -7.598613e+04 -1.015169e+05 1.511962e+05
-2.449958e+09 -2.249990e+09 -2.409830e+09 -9.956825e+04 -1.368219e+05 1.630422e+05
-1.985419e+09 -1.785410e+09 -1.945424e+09 -3.459394e+03 9.102392e+03 -5.608653e+03
-3.387617e+09 -3.187681e+09 -3.347284e+09 -8.266844e+04 -9.850026e+04 1.190101e+05
-1.864434e+09 -1.664485e+09 -1.824476e+09 -4.167138e+04 1.720650e+04 1.717475e+03
-1.831303e+09 -1.631291e+09 -1.791285e+09 -1.434441e+04 -2.130151e+04 1.045306e+04
-3.292454e+09 -3.092556e+09 -3.252330e+09 -7.897301e+04 1.898373e+04 -5.959232e+04
-3.189667e+09 -2.989672e+09 -3.149688e+09 -1.452212e+04 -8.177263e+03 7.912738e+03
-3.214486e+09 -3.014502e+09 -3.174512e+09 -1.413267e+04 -6.680075e+03 7.149829e+03
-1.699454e+09 -1.499461e+09 -1.659449e+09 7.110754e+03 5.885099e+03 -6.742919e+03
-3.005905e+09 -2.805914e+09 -2.965921e+09 -2.414878e+04 -1.055580e+04 1.167306e+04
-2.685364e+09 -2.485382e+09 -2.645392e+09 -1.398782e+04 -8.069574e+03 1.088676e+04
-2.960570e+09 -2.760585e+09 -2.920595e+09 -1.750796e+04 -8.246680e+03 1.042720e+04
-3.570129e+09 -3.370130e+09 -3.530150e+09 5.526782e+04 -5.049421e+03 -9.127237e+03
-3.024994e+09 -2.825044e+09 -2.985016e+09 4.190342e+04 9.165935e+03 -1.858490e+02
-1.952829e+09 -1.752930e+09 -1.912843e+09 3.851526e+04 6.410635e+03 5.667453e+04
-3.420064e+09 -3.220076e+09 -3.380093e+09 -2.189250e+04 -8.835675e+03 9.010239e+03
-1.891003e+09 -1.690990e+09 -1.851010e+09 6.065342e+03 -1.321132e+04 -8.511230e+03
-2.602556e+09 -2.402707e+09 -2.561580e+09 1.502373e+05 -2.921001e+05 -4.722185e+05
-1.766077e+09 -1.566087e+09 -1.726086e+09 -4.064204e+03 -8.063059e+03 1.070030e+04
-1.594610e+09 -1.394657e+09 -1.554398e+09 -1.540561e+04 -1.068259e+05 8.610947e+04
-2.800970e+09 -2.600977e+09 -2.760983e+09 4.787231e+03 2.039435e+03 3.268694e+03
-1.590416e+09 -1.390424e+09 -1.550427e+09 2.393606e+03 1.563011e+03 4.320064e+03
-1.588925e+09 -1.388929e+09 -1.548933e+09 2.970870e+03 3.118572e+03 5.655069e+03
-2.628683e+09 -2.428690e+09 -2.588695e+09 3.394603e+03 1.501809e+03 2.045982e+03
-2.153440e+09 -1.953455e+09 -2.113458e+09 -1.234351e+04 -1.206695e+04 1.412827e+04
-3.426002e+09 -3.226009e+09 -3.386032e+09 -2.992636e+04 -8.089000e+03 1.114822e+04
-1.803609e+09 -1.603614e+09 -1.763625e+09 -1.022736e+04 -1.495713e+04 1.537095e+04
-3.375339e+09 -3.175323e+09 -3.335351e+09 1.784032e+04 1.050491e+04 7.571146e+03
-3.363435e+09 -3.163415e+09 -3.323448e+09 2.277796e+04 1.146928e+04 6.816426e+03
-1.955682e+09 -1.755671e+09 -1.915688e+09 9.761545e+03 1.338131e+04 1.228204e+04
-3.605844e+09 -3.405853e+09 -3.565861e+09 5.455778e+03 1.543608e+03 3.232866e+03
-2.896400e+09 -2.696403e+09 -2.856408e+09 1.250450e+03 3.227563e+02 3.934618e+02
-1.569810e+09 -1.369818e+09 -1.529805e+09 1.998367e+03 6.148946e+03 1.703415e+04
-3.203631e+09 -3.003611e+09 -3.163638e+09 1.222310e+04 1.052660e+04 6.405140e+03
-1.587880e+09 -1.387890e+09 -1.547878e+09 4.849774e+03 -1.005021e+03 8.375049e+03
-2.032163e+09 -1.832182e+09 -1.992180e+09 1.084906e+04 4.901035e+03 1.603683e+04
-3.381020e+09 -3.181051e+09 -3.341054e+09 3.135789e+04 8.742812e+03 1.522359e+04
-3.304348e+09 -3.104330e+09 -3.264366e+09 1.865915e+04 -1.197796e+04 -1.016319e+04
-3.241085e+09 -3.041067e+09 -3.201093e+09 1.040472e+04 9.192561e+03 4.048561e+03
-2.603537e+09 -2.403567e+09 -2.563563e+09 1.420593e+04 5.482240e+03 1.666488e+04
-2.548627e+09 -2.348613e+09 -2.508631e+09 1.264376e+04 1.400751e+04 8.824419e+03
-2.816940e+09 -2.616925e+09 -2.776952e+09 -1.341998e+04 -1.255252e+04 8.915591e+03
-3.369594e+09 -3.169588e+09 -3.329610e+09 -1.646984e+04 -8.226714e+03 6.056822e+03
-2.566741e+09 -2.366737e+09 -2.526749e+09 -5.597376e+03 -6.624951e+03 6.178765e+03
-2.612451e+09 -2.412494e+09 -2.572464e+09 4.146367e+04 7.519443e+03 -1.070671e+04
-3.306143e+09 -3.106134e+09 -3.266156e+09 -1.104899e+04 -8.081980e+03 4.232998e+03
-2.552244e+09 -2.352239e+09 -2.512255e+09 -8.961483e+03 -1.010055e+04 7.977365e+03
-2.736391e+09 -2.536314e+09 -2.696337e+09 4.133937e+04 -9.454219e+03 -1.726373e+04
-3.611672e+09 -3.411643e+09 -3.571673e+09 3.383506e+04 1.248724e+04 7.492226e+03
-1.577589e+09 -1.377584e+09 -1.537585e+09 -4.782175e+02 1.425799e+04 9.015032e+03
-1.582461e+09 -1.382468e+09 -1.542426e+09 -1.605380e+03 1.264974e+04 1.697438e+04
-3.568466e+09 -3.368412e+09 -3.528449e+09 3.188841e+04 1.600038e+04 5.472551e+03
-1.784814e+09 -1.584808e+09 -1.744806e+09 1.907166e+03 -1.909897e+04 6.262150e+02
-1.801441e+09 -1.601420e+09 -1.761445e+09 1.223269e+03 -2.684587e+04 1.511398e+03
-1.770780e+09 -1.570774e+09 -1.730784e+09 7.515198e+03 1.831940e+04 9.235276e+03
-1.569188e+09 -1.369186e+09 -1.529183e+09 6.352604e+02 1.764127e+04 1.431899e+04
-3.210844e+09 -3.010781e+09 -3.170826e+09 -5.583880e+03 -1.064125e+04 3.940288e+03
-3.246796e+09 -3.046777e+09 -3.206804e+09 9.363221e+03 9.306785e+03 4.233289e+03
-3.386183e+09 -3.186154e+09 -3.346192e+09 3.224315e+04 1.268063e+04 8.706574e+03
-3.568464e+09 -3.368406e+09 -3.528445e+09 4.241267e+04 6.489937e+03 4.467328e+03
-3.602011e+09 -3.401919e+09 -3.561950e+09 3.454322e+04 4.960108e+03 2.783006e+03
-1.966394e+09 -1.766377e+09 -1.926392e+09 1.285297e+04 2.193124e+04 1.402605e+04
-3.575149e+09 -3.375325e+09 -3.535057e+09 -4.798158e+02 -6.774871e+03 -2.710154e+04
-2.450150e+09 -2.250231e+09 -2.410155e+09 -2.616283e+04 1.122770e+04 -3.061099e+04
-2.923473e+09 -2.723591e+09 -2.883415e+09 -5.410957e+04 5.636619e+03 -6.380887e+04
-2.688518e+09 -2.488553e+09 -2.648485e+09 -7.465610e+04 2.469517e+04 -3.824099e+04
-2.991462e+09 -2.791646e+09 -2.951264e+09 -6.240132e+04 4.971347e+04 -1.402939e+05
-2.009464e+09 -1.809652e+09 -1.969324e+09 -1.720020e+04 5.808977e+04 -2.040675e+05
-3.251692e+09 -3.051662e+09 -3.211696e+09 -7.133234e+03 -1.036943e+04 4.759526e+03
-3.403422e+09 -3.203394e+09 -3.363436e+09 -3.227639e+04 -1.119635e+04 9.485345e+03
-3.318532e+09 -3.118509e+09 -3.278542e+09 -1.251855e+04 -1.159385e+04 3.913678e+03
-3.056926e+09 -2.856896e+09 -3.016927e+09 -7.881550e+03 -9.683515e+03 4.667449e+03
-2.093820e+09 -1.893802e+09 -2.053819e+09 -4.299450e+03 -1.627037e+04 5.093018e+03
-1.898989e+09 -1.698976e+09 -1.858985e+09 2.671455e+03 -1.349979e+04 4.742115e+03
-1.580076e+09 -1.380107e+09 -1.539992e+09 9.099604e+03 -1.978523e+04 -5.845883e+04
-3.249237e+09 -3.049355e+09 -3.209256e+09 -2.671345e+04 9.148753e+03 -7.882700e+03
-3.162923e+09 -2.962896e+09 -3.122925e+09 1.823125e+04 1.057126e+04 8.124917e+03
-1.590510e+09 -1.390517e+09 -1.550517e+09 -3.280557e+03 -6.450581e+03 1.770590e+04
-1.917989e+09 -1.717998e+09 -1.878001e+09 -6.319394e+03 -5.630424e+03 1.312995e+04
-3.587315e+09 -3.387334e+09 -3.547337e+09 9.147137e+02 1.199548e+02 3.920413e+03
-2.999482e+09 -2.799496e+09 -2.959498e+09 1.226587e+03 3.205038e+02 2.315440e+03
-1.951552e+09 -1.751538e+09 -1.911552e+09 1.022878e+04 1.938762e+04 1.055267e+04
-3.411157e+09 -3.211125e+09 -3.371164e+09 1.385468e+04 1.184994e+04 4.887560e+03
-2.396667e+09 -2.196658e+09 -2.356674e+09 7.647267e+03 1.101606e+04 7.197358e+03
-3.500466e+09 -3.300480e+09 -3.460483e+09 1.630465e+03 2.571605e+02 1.927891e+03
-2.023051e+09 -1.823036e+09 -1.983055e+09 7.729502e+03 1.284140e+04 9.275138e+03
-1.760649e+09 -1.560632e+09 -1.720650e+09 3.671178e+03 1.734771e+04 6.198014e+03
-1.627021e+09 -1.427031e+09 -1.587033e+09 1.973304e+03 1.119762e+03 3.734678e+03
-1.766472e+09 -1.566485e+09 -1.726485e+09 7.392337e+02 1.654253e+02 4.890796e+03
-3.001502e+09 -2.801484e+09 -2.961508e+09 4.199249e+03 7.694590e+03 2.398988e+03
-2.038291e+09 -1.838277e+09 -1.998293e+09 6.317683e+03 1.065681e+04 4.884192e+03
-1.786560e+09 -1.586545e+09 -1.746560e+09 3.204569e+03 1.550187e+04 4.044549e+03
-3.163613e+09 -2.963584e+09 -3.123603e+09 2.378520e+04 1.303429e+04 8.621722e+03
-2.987560e+09 -2.787553e+09 -2.947573e+09 -7.201062e+03 8.403115e+03 -4.133141e+03
-3.289489e+09 -3.089476e+09 -3.249499e+09 -7.247532e+03 6.558256e+03 -3.689388e+03
-1.762384e+09 -1.562373e+09 -1.722384e+09 5.625140e+03 1.756344e+04 1.108941e+04
-3.193268e+09 -2.993237e+09 -3.153270e+09 7.411781e+03 1.208756e+04 2.215885e+03
-3.390607e+09 -3.190539e+09 -3.350597e+09 6.474861e+03 1.575205e+04 9.470312e+02
-1.781839e+09 -1.581829e+09 -1.741824e+09 2.467266e+03 2.293321e+04 3.401572e+03
-3.296194e+09 -3.096176e+09 -3.256198e+09 -2.829087e+03 6.872496e+03 -3.355657e+03
-1.976648e+09 -1.776649e+09 -1.936656e+09 1.498118e+04 1.247809e+04 1.169827e+04
-3.604611e+09 -3.404650e+09 -3.564652e+09 -1.743621e+04 -5.754295e+03 1.374721e+04
-3.290996e+09 -3.090978e+09 -3.251004e+09 -6.800613e+03 7.920436e+03 -1.503810e+03
-2.342050e+09 -2.142039e+09 -2.302049e+09 9.778541e+03 1.239223e+04 1.245074e+04
-2.567668e+09 -2.367655e+09 -2.527681e+09 1.510278e+04 1.155425e+04 9.119974e+03
-2.987192e+09 -2.787182e+09 -2.947200e+09 -4.026208e+03 6.494557e+03 -2.961969e+03
-2.097210e+09 -1.897203e+09 -2.057217e+09 -5.971024e+03 1.328308e+04 -7.371126e+03
-3.591867e+09 -3.391851e+09 -3.551882e+09 -1.119837e+04 1.021761e+04 -5.348099e+03
-3.390092e+09 -3.190085e+09 -3.350107e+09 1.604758e+04 8.153583e+03 7.053278e+03
-3.376673e+09 -3.176664e+09 -3.336690e+09 2.743073e+04 9.800998e+03 8.402100e+03
-3.393384e+09 -3.193391e+09 -3.353397e+09 3.804248e+03 8.209561e+02 1.942614e+03
-3.251917e+09 -3.052013e+09 -3.211966e+09 -2.251059e+04 3.040614e+03 1.393301e+04
-2.862587e+09 -2.662603e+09 -2.822607e+09 5.465207e+03 2.216911e+03 7.289078e+03
-3.404932e+09 -3.204942e+09 -3.364947e+09 3.894693e+03 8.170212e+02 2.141235e+03
-3.414281e+09 -3.214225e+09 -3.374204e+09 -6.052579e+04 -2.513908e+04 -5.549602e+03
-1.771448e+09 -1.571455e+09 -1.731458e+09 2.086279e+03 8.385951e+02 2.354898e+03
-3.118668e+09 -2.918692e+09 -3.078681e+09 -1.960048e+04 7.721188e+03 -9.603587e+03
-2.056950e+09 -1.856956e+09 -2.016960e+09 2.182771e+03 3.719261e+02 1.170848e+03
-1.917346e+09 -1.717341e+09 -1.877358e+09 -1.506128e+04 4.314534e+03 -8.559829e+03
-3.148303e+09 -2.948302e+09 -3.108310e+09 2.765461e+03 1.446550e+03 1.444554e+03
-3.170668e+09 -2.970677e+09 -3.130681e+09 2.814935e+03 8.929296e+02 1.941338e+03
-1.913795e+09 -1.714078e+09 -1.872916e+09 1.140513e+04 -7.550998e+04 1.019976e+06
-2.146201e+09 -1.946220e+09 -2.105346e+09 -2.845504e+04 -5.403150e+04 4.047784e+05
-2.002312e+09 -1.802309e+09 -1.962319e+09 7.737126e+03 9.016466e+03 9.470952e+03
-3.553961e+09 -3.353975e+09 -3.513985e+09 1.153857e+04 3.075856e+03 5.560658e+03
-1.607025e+09 -1.407030e+09 -1.567033e+09 2.466618e+03 1.503286e+03 2.535959e+03
-1.772113e+09 -1.572112e+09 -1.732116e+09 4.075888e+03 9.490071e+03 6.350806e+03
-1.585155e+09 -1.385162e+09 -1.545164e+09 2.201461e+03 1.090368e+03 2.341868e+03
-2.856476e+09 -2.656462e+09 -2.816484e+09 9.523288e+03 8.664994e+03 5.208248e+03
-1.783727e+09 -1.583729e+09 -1.743739e+09 7.889957e+03 1.118036e+04 1.079312e+04
-1.590404e+09 -1.390404e+09 -1.550410e+09 3.048577e+03 3.869256e+03 4.030510e+03
-3.593701e+09 -3.393652e+09 -3.553702e+09 7.305564e+03 1.323724e+04 2.379597e+03
-3.392067e+09 -3.192073e+09 -3.352089e+09 1.429326e+04 5.320874e+03 8.155661e+03
-3.609244e+09 -3.409202e+09 -3.569242e+09 -3.891370e+03 1.048018e+04 -1.898099e+03
-2.747023e+09 -2.546977e+09 -2.707021e+09 -1.559219e+04 1.401749e+04 -4.777805e+03
-1.837241e+09 -1.637237e+09 -1.797237e+09 -2.449338e+03 1.633466e+04 -4.530888e+03
-3.595988e+09 -3.395945e+09 -3.555987e+09 1.931487e+03 1.185520e+04 -5.075214e+02
-3.109342e+09 -2.909354e+09 -3.069365e+09 1.891358e+04 4.435736e+03 1.001248e+04
-1.806344e+09 -1.606337e+09 -1.766341e+09 2.369972e+02 1.791017e+04 -1.352565e+03
-1.786820e+09 -1.586813e+09 -1.746803e+09 7.455380e+03 6.276919e+03 6.919265e+03
-2.398791e+09 -2.198802e+09 -2.358801e+09 1.418972e+04 9.069968e+03 1.567705e+04
-3.609742e+09 -3.409686e+09 -3.569742e+09 -5.407499e+03 1.343174e+04 -2.273193e+03
-3.582209e+09 -3.382172e+09 -3.542210e+09 -6.496574e+03 1.160135e+04 -3.411471e+03
-2.750703e+09 -2.550625e+09 -2.710664e+09 -7.133133e+03 2.299701e+04 -5.806984e+03
-3.595986e+09 -3.395954e+09 -3.555987e+09 -4.520070e+02 1.054021e+04 -3.883254e+02
-3.206845e+09 -3.006849e+09 -3.166864e+09 1.776957e+04 7.562329e+03 9.095130e+03
-3.602901e+09 -3.402913e+09 -3.562925e+09 2.121805e+04 8.010610e+03 1.142157e+04
-3.230212e+09 -3.030176e+09 -3.190212e+09 2.875533e+03 -1.498713e+04 2.044000e+03
-3.382247e+09 -3.182267e+09 -3.342278e+09 2.354125e+04 9.957378e+03 1.277903e+04
-2.797241e+09 -2.597256e+09 -2.757262e+09 7.812702e+03 2.602706e+03 6.046691e+03
-3.136004e+09 -2.936016e+09 -3.096026e+09 1.223018e+04 6.357678e+03 8.793312e+03
-2.555812e+09 -2.355822e+09 -2.515829e+09 6.702748e+03 3.794397e+03 9.193173e+03
-2.079022e+09 -1.879000e+09 -2.039019e+09 1.415165e+03 -2.019734e+04 -4.095643e+03
-3.596286e+09 -3.396236e+09 -3.556285e+09 -1.595761e+04 -1.424246e+04 6.397619e+03
-2.012617e+09 -1.812631e+09 -1.972633e+09 5.738289e+03 2.599347e+03 8.636988e+03
-3.494926e+09 -3.294884e+09 -3.454929e+09 -4.960635e+03 -1.181988e+04 1.953159e+03
-1.743249e+09 -1.543244e+09 -1.703251e+09 2.276180e+01 -1.847193e+04 4.069256e+03
-2.764573e+09 -2.564591e+09 -2.724597e+09 1.080744e+04 3.398189e+03 8.999545e+03
-3.036696e+09 -2.836728e+09 -2.996730e+09 2.052122e+04 4.963659e+03 8.163650e+03
-2.401919e+09 -2.201932e+09 -2.361935e+09 3.500539e+03 1.816815e+03 6.062578e+03
-2.812295e+09 -2.612329e+09 -2.772330e+09 8.949337e+03 1.986371e+03 1.396723e+04
-2.394372e+09 -2.194392e+09 -2.354390e+09 9.006821e+03 7.817604e+03 1.559419e+04
-3.442734e+09 -3.242754e+09 -3.402760e+09 6.821916e+03 2.449771e+03 5.454303e+03
-3.578226e+09 -3.378170e+09 -3.538217e+09 2.040230e+04 1.377083e+04 4.570302e+03
-3.610660e+09 -3.410628e+09 -3.570668e+09 1.426940e+04 1.173642e+04 5.313486e+03
-3.410472e+09 -3.210495e+09 -3.370499e+09 5.506015e+03 1.963579e+03 6.856574e+03
-2.615201e+09 -2.415219e+09 -2.575222e+09 3.325358e+03 1.540121e+03 6.261865e+03
-3.190431e+09 -2.990382e+09 -3.150419e+09 3.336982e+03 1.432534e+04 -1.155953e+02
-3.382670e+09 -3.182682e+09 -3.342687e+09 4.145665e+03 8.419956e+02 3.320113e+03
-1.590503e+09 -1.390501e+09 -1.550500e+09 -1.042124e+01 2.055020e+04 3.972698e+03
-2.805897e+09 -2.605865e+09 -2.765897e+09 1.324921e+04 1.293720e+04 5.516286e+03
-2.667717e+09 -2.467727e+09 -2.627731e+09 3.874003e+03 2.192520e+03 5.018860e+03
-3.590876e+09 -3.390819e+09 -3.550869e+09 5.860012e+03 1.412965e+04 2.122966e+02
-3.186948e+09 -2.986905e+09 -3.146944e+09 1.003913e+04 1.301392e+04 2.848399e+03
-1.737420e+09 -1.537269e+09 -1.696505e+09 -5.562398e+04 -8.211780e+05 6.492152e+05
-3.249439e+09 -3.049367e+09 -3.209166e+09 -8.831614e+04 6.399699e+04 -4.568299e+04
-2.500094e+09 -2.300093e+09 -2.460106e+09 -7.875695e+03 -8.580235e+03 1.017173e+04
-1.579490e+09 -1.379510e+09 -1.539016e+09 -9.796824e+03 -3.709924e+05 2.582405e+05
-2.679796e+09 -2.479826e+09 -2.639770e+09 -7.786207e+04 -2.127923e+04 4.679179e+04
-3.589095e+09 -3.388955e+09 -3.548954e+09 -5.749610e+03 -1.136751e+04 6.797604e+03
-3.273319e+09 -3.073321e+09 -3.233331e+09 -5.434696e+03 -2.528728e+03 2.394821e+03
-3.574086e+09 -3.374088e+09 -3.534098e+09 -5.420763e+03 -2.344361e+03 2.413675e+03
-2.177693e+09 -1.977693e+09 -2.137701e+09 -4.237356e+03 -3.394288e+03 3.379252e+03
-1.571213e+09 -1.371214e+09 -1.531203e+09 5.328278e+02 2.670760e+04 -1.260971e+03
-3.584945e+09 -3.384954e+09 -3.544960e+09 -4.608650e+03 -9.421414e+02 1.974418e+03
-3.383986e+09 -3.183912e+09 -3.343956e+09 -2.842479e+04 1.423489e+04 -6.125124e+02
-3.587556e+09 -3.387398e+09 -3.547274e+09 -3.004162e+04 -3.869357e+04 -1.325161e+04
-2.081327e+09 -1.881282e+09 -2.041296e+09 -1.206784e+04 2.748396e+04 -1.250550e+04
-2.002844e+09 -1.802847e+09 -1.962852e+09 -3.080119e+03 -1.840544e+03 2.374964e+03
-2.559765e+09 -2.359768e+09 -2.519774e+09 -2.058963e+03 -6.802837e+02 1.091279e+03
-3.582947e+09 -3.382991e+09 -3.542242e+09 9.354544e+04 7.949957e+04 1.831269e+05
-1.653035e+09 -1.452997e+09 -1.611615e+09 -7.176076e+04 9.776304e+05 -5.223462e+05
-1.710256e+09 -1.510369e+09 -1.669405e+09 7.193159e+04 -1.629870e+05 9.978044e+05
-1.598498e+09 -1.398499e+09 -1.558499e+09 -2.478982e+03 -9.177383e+03 1.195204e+04
-2.408115e+09 -2.208120e+09 -2.368126e+09 -2.819465e+03 -1.680295e+03 2.530547e+03
-3.606913e+09 -3.406933e+09 -3.566950e+09 -2.338114e+04 -8.258035e+03 1.184587e+04
-1.561104e+09 -1.361106e+09 -1.521110e+09 -2.645276e+03 -7.300617e+03 8.830341e+03
-3.594447e+09 -3.394459e+09 -3.554468e+09 -8.040870e+03 -2.060803e+03 3.450971e+03
-3.590283e+09 -3.390368e+09 -3.550274e+09 -4.539357e+04 -2.111725e+03 5.368252e+03
-2.158270e+09 -1.958274e+09 -2.118278e+09 -2.414970e+03 -1.084177e+03 1.474049e+03
-3.406254e+09 -3.206226e+09 -3.366236e+09 3.531231e+04 8.638900e+03 5.768363e+03
-2.036921e+09 -1.836958e+09 -1.996939e+09 -7.388422e+03 -5.181350e+02 2.561862e+04
-1.561102e+09 -1.361105e+09 -1.521110e+09 -3.222225e+03 -8.033636e+03 1.056743e+04
-3.393512e+09 -3.193519e+09 -3.353528e+09 -6.896077e+03 -2.638873e+03 3.433445e+03
-1.544840e+09 -1.344847e+09 -1.504849e+09 -2.521399e+03 -3.088931e+03 6.376431e+03
-3.412495e+09 -3.212523e+09 -3.372529e+09 -1.604020e+04 -5.594583e+03 1.033939e+04
-2.570954e+09 -2.370947e+09 -2.530958e+09 1.531259e+04 1.059101e+04 9.046329e+03
-3.058033e+09 -2.858047e+09 -3.018052e+09 -5.135345e+03 -2.187476e+03 5.626621e+03
-2.447238e+09 -2.247223e+09 -2.407162e+09 3.125546e+04 9.518507e+03 -9.079904e+02
-2.021851e+09 -1.821874e+09 -1.981870e+09 -6.942487e+03 -5.986359e+03 1.660477e+04
-3.588201e+09 -3.388221e+09 -3.548233e+09 1.649899e+04 4.767989e+03 9.110974e+03
-2.308310e+09 -2.108285e+09 -2.268238e+09 2.174835e+04 -3.441803e+03 7.371426e+03
-1.946623e+09 -1.746631e+09 -1.906636e+09 4.969003e+03 4.152043e+03 7.906819e+03
-1.876008e+09 -1.676018e+09 -1.836019e+09 -2.902687e+03 -1.889746e+03 8.862251e+03
-1.772935e+09 -1.572938e+09 -1.732943e+09 2.940737e+03 2.136041e+03 3.585448e+03
-2.092895e+09 -1.892915e+09 -2.052916e+09 -3.041607e+03 -3.508514e+03 1.128326e+04
-2.808858e+09 -2.608873e+09 -2.768878e+09 -7.367118e+03 -4.721972e+03 9.169633e+03
-2.772177e+09 -2.572195e+09 -2.732198e+09 -3.374161e+03 -1.066201e+03 5.489147e+03
-1.599060e+09 -1.399064e+09 -1.559067e+09 2.627585e+03 6.354921e+03 1.067323e+04
-3.587706e+09 -3.387724e+09 -3.547730e+09 -5.796426e+03 -1.540391e+03 5.125606e+03
-3.086264e+09 -2.886132e+09 -3.046183e+09 4.107692e+03 -2.877701e+04 1.775701e+04
-3.579812e+09 -3.379829e+09 -3.539836e+09 -8.374811e+03 -2.835862e+03 4.298671e+03
-1.574242e+09 -1.374245e+09 -1.534185e+09 1.239082e+03 7.726467e+03 1.093447e+04
-1.763849e+09 -1.563849e+09 -1.723784e+09 -1.719422e+04 -2.963662e+04 -9.871023e+03
-3.245836e+09 -3.045851e+09 -3.205856e+09 -4.030943e+03 -1.985391e+03 4.507034e+03
-2.823685e+09 -2.623725e+09 -2.783723e+09 -7.274062e+03 -3.519745e+03 1.639104e+04
-3.409378e+09 -3.209417e+09 -3.369413e+09 -2.443062e+04 -3.301823e+03 9.481321e+03
-1.576263e+09 -1.376262e+09 -1.536264e+09 -3.222243e+03 -1.568563e+04 1.902456e+04
-2.010416e+09 -1.810429e+09 -1.970430e+09 -4.135368e+03 -2.158380e+03 5.702585e+03
-3.037287e+09 -2.837300e+09 -2.997305e+09 -3.668990e+03 -1.258754e+03 4.070088e+03
-3.616742e+09 -3.416652e+09 -3.576244e+09 -7.214361e+04 1.025220e+05 -8.533302e+04
-2.037168e+09 -1.836997e+09 -1.997026e+09 9.136815e+04 1.178530e+05 -1.349235e+04
-3.257429e+09 -3.057543e+09 -3.217381e+09 -4.996325e+04 9.525748e+03 -1.955580e+04
-3.604734e+09 -3.404789e+09 -3.564768e+09 -4.199595e+04 -1.131824e+04 1.396708e+04
-2.013953e+09 -1.813913e+09 -1.973884e+09 -6.212319e+04 2.143360e+04 -5.199724e+04
-3.321222e+09 -3.121128e+09 -3.281051e+09 -5.985320e+04 3.395978e+04 -2.369079e+04
-3.132802e+09 -2.932845e+09 -3.092839e+09 -1.877437e+04 -4.548108e+03 1.597375e+04
-2.422065e+09 -2.222015e+09 -2.382012e+09 -2.667992e+04 1.462616e+04 -8.761436e+03
-2.771002e+09 -2.570974e+09 -2.730992e+09 2.391483e+04 1.737422e+04 1.056352e+04
-2.714093e+09 -2.514011e+09 -2.673994e+09 -5.693944e+04 1.143728e+04 -1.381382e+04
-2.544616e+09 -2.344547e+09 -2.504538e+09 -1.069002e+04 -3.131165e+03 7.526756e+03
-1.590337e+09 -1.390336e+09 -1.550217e+09 9.206737e+03 -9.392199e+04 -2.607445e+04
-2.349081e+09 -2.148990e+09 -2.308947e+09 -2.413227e+02 -5.467628e+04 -1.412155e+04
-2.794930e+09 -2.594903e+09 -2.754922e+09 4.473349e+04 -2.803382e+03 -1.037611e+03
-1.589430e+09 -1.389424e+09 -1.549417e+09 -2.577613e+03 -9.409986e+03 -1.214175e+04
-3.597972e+09 -3.397882e+09 -3.557750e+09 7.069850e+04 -4.858032e+04 -2.515427e+03
-1.953738e+09 -1.753739e+09 -1.913210e+09 7.242621e+04 -3.972970e+05 -2.081523e+05
-3.404424e+09 -3.204304e+09 -3.363815e+09 1.262450e+05 -2.644503e+05 -1.608149e+05
-2.086990e+09 -1.886897e+09 -2.046282e+09 -4.460210e+04 -3.290217e+05 -1.146351e+05
-3.606408e+09 -3.406261e+09 -3.565823e+09 -1.105703e+03 -1.712629e+05 -4.818849e+04
-3.395557e+09 -3.195517e+09 -3.355532e+09 4.599599e+04 5.844861e+03 2.616560e+03
-3.188597e+09 -2.988531e+09 -3.148506e+09 4.472319e+04 1.537365e+04 2.850747e+04
-3.588120e+09 -3.388247e+09 -3.547750e+09 -4.360612e+04 1.845338e+04 -1.744813e+05
-3.174674e+09 -2.974649e+09 -3.134672e+09 4.511519e+04 -1.595388e+03 7.998186e+03
-2.054833e+09 -1.854800e+09 -2.014823e+09 8.526240e+03 -3.406228e+04 -1.090795e+04
-3.603121e+09 -3.403154e+09 -3.562485e+09 -8.111112e+04 8.480483e+04 -1.964525e+05
-3.566245e+09 -3.366127e+09 -3.526118e+09 4.198519e+04 -1.870185e+04 -2.231566e+03
-1.758362e+09 -1.558357e+09 -1.718351e+09 3.028965e+03 1.396529e+04 7.983702e+03
-2.013146e+09 -1.813233e+09 -1.972666e+09 9.955404e+04 2.621741e+04 -4.739610e+05
-3.600513e+09 -3.400501e+09 -3.559863e+09 8.704787e+04 1.585784e+05 1.299563e+05
-1.937660e+09 -1.737659e+09 -1.897658e+09 -3.843986e+02 1.214890e+04 -8.825637e+03
-1.683861e+09 -1.483854e+09 -1.643862e+09 3.573988e+02 8.219167e+03 -4.323472e+03
-3.128830e+09 -2.928789e+09 -3.088783e+09 3.670979e+04 -1.594338e+03 -5.186609e+02
-3.602035e+09 -3.401917e+09 -3.561946e+09 3.389945e+04 -1.481457e+03 1.397026e+03
-3.074892e+09 -2.874805e+09 -3.034820e+09 1.659930e+04 9.498385e+03 -9.984975e+02
-2.422730e+09 -2.222689e+09 -2.382665e+09 3.587599e+04 -1.483655e+04 -8.006589e+03
-3.433065e+09 -3.232959e+09 -3.393014e+09 2.223286e+04 1.943858e+03 9.579114e+01
-3.143005e+09 -2.942931e+09 -3.102970e+09 4.162026e+04 -2.223993e+04 -1.905623e+04
-1.776814e+09 -1.576789e+09 -1.736805e+09 5.756712e+03 1.706571e+04 6.060372e+03
-1.909876e+09 -1.709700e+09 -1.868539e+09 -4.641738e+04 7.766117e+05 1.427354e+05
-2.362412e+09 -2.162487e+09 -2.322454e+09 -2.020897e+04 3.196799e+03 -2.375370e+03
-3.534622e+09 -3.334726e+09 -3.494641e+09 -3.429904e+04 -2.337085e+03 -9.854853e+03
-3.299257e+09 -3.099242e+09 -3.259264e+09 -6.157444e+03 6.500372e+03 -1.887247e+03
-2.408356e+09 -2.208360e+09 -2.368365e+09 2.386995e+03 8.864746e+02 1.560112e+03
-1.797605e+09 -1.597611e+09 -1.757615e+09 2.599351e+03 1.482117e+03 1.944765e+03
-2.179373e+09 -1.979378e+09 -2.139382e+09 1.770910e+03 3.301998e+02 9.249953e+02
-1.994354e+09 -1.794360e+09 -1.954363e+09 2.702622e+03 1.256571e+03 2.167768e+03
-3.605844e+09 -3.405854e+09 -3.565861e+09 4.951630e+03 1.728428e+03 3.564594e+03
-1.859195e+09 -1.659188e+09 -1.819196e+09 2.132197e+02 8.043500e+03 -4.402218e+03
-3.189353e+09 -2.989392e+09 -3.149394e+09 -4.124143e+03 -1.469034e+03 9.942005e+03
-1.850479e+09 -1.650470e+09 -1.810481e+09 -1.983403e+03 9.453636e+03 -3.989122e+03
-2.247040e+09 -2.047047e+09 -2.207051e+09 1.876052e+03 7.775280e+02 1.402183e+03
-2.840784e+09 -2.640801e+09 -2.800803e+09 2.715714e+03 1.039455e+03 4.872053e+03
-3.230618e+09 -3.030634e+09 -3.190638e+09 2.983427e+03 1.049846e+03 3.977824e+03
-1.692883e+09 -1.492885e+09 -1.652890e+09 1.429467e+03 5.052649e+02 4.339084e+02
-1.586434e+09 -1.386443e+09 -1.546445e+09 -1.963806e+03 -1.822370e+03 4.994013e+03
-1.590104e+09 -1.390112e+09 -1.550113e+09 2.378612e+03 3.950790e+03 1.267551e+04
-3.200478e+09 -3.000513e+09 -3.160514e+09 8.702344e+03 1.367069e+03 1.071970e+04
-2.110555e+09 -1.910565e+09 -2.070570e+09 9.070488e+03 7.294627e+03 1.250869e+04
-3.626428e+09 -3.426444e+09 -3.586452e+09 8.571915e+03 2.208642e+03 5.644942e+03
-1.881432e+09 -1.681420e+09 -1.841430e+09 3.095266e+03 -1.565901e+04 4.862056e+03
-1.796295e+09 -1.596308e+09 -1.756310e+09 3.992135e+03 3.177950e+03 7.550305e+03
-3.578149e+09 -3.378180e+09 -3.538185e+09 1.631612e+04 3.767529e+03 1.096700e+04
-3.390376e+09 -3.190349e+09 -3.350382e+09 -2.293322e+04 9.841126e+03 -5.189055e+03
-2.355280e+09 -2.155261e+09 -2.315281e+09 -5.502629e+03 1.384781e+04 -3.481649e+03
-3.203371e+09 -3.003347e+09 -3.163382e+09 -1.796310e+04 8.467397e+03 -2.917632e+03
-2.809247e+09 -2.609227e+09 -2.769254e+09 -1.308317e+04 1.461772e+04 -7.939991e+03
-1.807652e+09 -1.607644e+09 -1.767659e+09 -6.104085e+03 1.702710e+04 -1.030424e+04
-1.802314e+09 -1.602299e+09 -1.762307e+09 -2.535120e+02 1.938065e+04 -8.009460e+03
-3.013529e+09 -2.813543e+09 -2.973546e+09 -1.510332e+03 -2.805242e+02 3.128271e+03
-2.789200e+09 -2.589218e+09 -2.749221e+09 -2.112864e+03 -9.471455e+02 5.897713e+03
-1.683024e+09 -1.483016e+09 -1.643026e+09 -5.817648e+02 -1.026054e+04 -4.680914e+03
-3.357761e+09 -3.157781e+09 -3.317783e+09 -2.546831e+02 1.603383e+01 3.971373e+03
-1.802420e+09 -1.602434e+09 -1.762435e+09 -1.329221e+03 -9.862806e+02 5.319839e+03
-3.189699e+09 -2.989683e+09 -3.149714e+09 1.091005e+04 -9.720560e+03 -5.641148e+03
-3.421595e+09 -3.221614e+09 -3.381617e+09 -2.720837e+03 -5.812811e+02 4.360550e+03
-3.593674e+09 -3.393731e+09 -3.553724e+09 -1.522406e+04 -4.535869e+03 1.313452e+04
-3.499698e+09 -3.299681e+09 -3.459711e+09 1.287825e+04 -9.752547e+03 -6.268690e+03
-1.577966e+09 -1.377972e+09 -1.537959e+09 -1.625512e+03 -9.093808e+03 1.390319e+04
-3.406226e+09 -3.206276e+09 -3.366274e+09 -7.834167e+03 -2.040294e+03 1.330026e+04
-1.852305e+09 -1.652316e+09 -1.812309e+09 -4.467371e+03 -7.486588e+03 1.528969e+04
-1.792907e+09 -1.592881e+09 -1.752908e+09 -1.380343e+03 -2.827929e+04 -6.265374e+03
-1.574475e+09 -1.374475e+09 -1.534468e+09 -6.110478e+03 -1.357741e+04 -5.907682e+03
-2.732199e+09 -2.532349e+09 -2.692165e+09 5.807504e+04 3.615493e+03 1.051846e+05
-1.775250e+09 -1.575318e+09 -1.734706e+09 3.570280e+04 2.327773e+05 3.351185e+05
-2.799149e+09 -2.599366e+09 -2.759036e+09 -4.326077e+04 -4.212740e+04 1.351044e+05
-1.603184e+09 -1.403191e+09 -1.563156e+09 2.140564e+02 9.459655e+02 -1.598961e+04
-1.944448e+09 -1.744585e+09 -1.904472e+09 -1.693650e+04 4.976157e+03 7.609485e+04
-3.567983e+09 -3.367864e+09 -3.527835e+09 5.137429e+04 6.460718e+03 -1.317151e+03
-3.567979e+09 -3.367841e+09 -3.527798e+09 4.752513e+04 5.841179e+04 2.649621e+04
-1.622433e+09 -1.422437e+09 -1.582413e+09 -5.810443e+03 -2.500513e+03 -1.481960e+02
-3.398467e+09 -3.198315e+09 -3.358253e+09 -2.714367e+04 4.474082e+04 9.143131e+03
-3.221855e+09 -3.021768e+09 -3.181824e+09 1.224952e+04 2.704751e+03 -4.601487e+03
-3.169534e+09 -2.969683e+09 -3.129073e+09 7.247677e+04 7.660599e+04 2.348681e+05
-2.640926e+09 -2.441164e+09 -2.600360e+09 -4.998021e+04 -1.614948e+05 4.006362e+05
-2.965243e+09 -2.765136e+09 -2.925092e+09 2.533190e+04 2.286100e+04 -8.954063e+03
-1.813309e+09 -1.613169e+09 -1.772968e+09 6.935683e+04 2.553934e+05 9.882609e+04
-3.045982e+09 -2.845705e+09 -3.005668e+09 -3.933912e+04 1.329706e+05 -2.152639e+04
-2.716245e+09 -2.516118e+09 -2.674386e+09 -5.278805e+04 -3.702185e+05 7.395368e+04
-2.228203e+09 -2.028133e+09 -2.187426e+09 -4.622612e+04 -2.758292e+05 1.559432e+05
-3.617268e+09 -3.417317e+09 -3.577318e+09 -8.246607e+03 -1.834661e+03 1.356407e+04
-3.269733e+09 -3.069567e+09 -3.228531e+09 -1.734775e+04 -2.017986e+05 1.242940e+05
-1.765804e+09 -1.565815e+09 -1.725813e+09 -9.317665e+03 -8.916657e+03 1.566287e+04
-3.152108e+09 -2.951932e+09 -3.111202e+09 -1.273688e+04 -3.580998e+05 -1.013227e+04
-1.570058e+09 -1.370061e+09 -1.530052e+09 -5.971436e+03 -3.216922e+03 2.658056e+04
-3.405965e+09 -3.206002e+09 -3.365959e+09 -5.474572e+04 -7.277707e+03 -1.320625e+04
-2.644961e+09 -2.445025e+09 -2.604998e+09 -2.725024e+04 -5.211466e+02 9.483163e+03
-2.055026e+09 -1.854778e+09 -2.014688e+09 2.753971e+04 -2.220298e+05 3.889595e+04
-3.413149e+09 -3.212909e+09 -3.372741e+09 -3.213571e+04 -1.993521e+05 -4.315262e+04
-3.338269e+09 -3.138175e+09 -3.297752e+09 -9.854821e+04 -1.795187e+05 1.144652e+05
-1.544839e+09 -1.344846e+09 -1.504848e+09 -2.734964e+03 -3.083300e+03 6.292302e+03
-1.695456e+09 -1.495449e+09 -1.655457e+09 3.874719e+02 9.335365e+03 1.125328e+02
-3.232097e+09 -3.031936e+09 -3.191884e+09 -6.172476e+04 -1.709299e+05 7.738760e+04
-2.662101e+09 -2.462005e+09 -2.622004e+09 -9.476329e+03 1.184565e+04 -1.184908e+04
-2.122339e+09 -1.922277e+09 -2.082298e+09 9.355928e+03 2.074098e+04 -3.088890e+03
-2.061594e+09 -1.861575e+09 -2.021593e+09 2.411946e+03 1.251743e+04 1.326291e+03
-2.956946e+09 -2.756923e+09 -2.916950e+09 3.650212e+03 1.072994e+04 8.929797e+02
-3.603006e+09 -3.403123e+09 -3.562461e+09 -7.507960e+04 8.183849e+04 -1.625857e+05
-2.620597e+09 -2.420800e+09 -2.580210e+09 -9.983439e+04 1.323041e+05 -3.065098e+05
-2.382033e+09 -2.181938e+09 -2.341849e+09 -2.843038e+04 -6.897753e+04 6.535468e+03
-1.624846e+09 -1.424790e+09 -1.584732e+09 1.539529e+03 5.989169e+05 -9.952824e+05
-2.818400e+09 -2.618508e+09 -2.778383e+09 6.121365e+04 -1.073871e+03 -3.250959e+04
-3.402513e+09 -3.202386e+09 -3.362317e+09 -6.245444e+04 -7.965399e+04 -7.099305e+03
-2.822836e+09 -2.622947e+09 -2.782848e+09 3.906800e+04 -6.093586e+03 -3.682368e+04
-3.385587e+09 -3.185430e+09 -3.345399e+09 -1.823180e+04 -6.936338e+04 -2.197833e+04
-2.996389e+09 -2.796391e+09 -2.956398e+09 -2.933969e+03 -1.358490e+03 1.719913e+03
-3.042451e+09 -2.842595e+09 -3.002273e+09 -8.964814e+04 8.478594e+04 -1.835658e+05
-2.028298e+09 -1.828306e+09 -1.988309e+09 -2.288083e+03 -8.098586e+02 1.658886e+03
-3.593503e+09 -3.393506e+09 -3.553514e+09 -4.041192e+03 -1.457344e+03 1.543934e+03
-2.852047e+09 -2.651897e+09 -2.811647e+09 1.265345e+05 -2.554618e+05 -8.472217e+04
-2.052011e+09 -1.852024e+09 -2.012026e+09 -3.664017e+03 -2.344514e+03 5.509678e+03
-2.769644e+09 -2.569851e+09 -2.729505e+09 8.264181e+03 -3.241545e+04 -1.037311e+05
-3.594307e+09 -3.394312e+09 -3.554321e+09 -6.209679e+03 -2.424000e+03 2.851996e+03
-3.080724e+09 -2.880727e+09 -3.040736e+09 -3.919005e+03 -2.053507e+03 2.386564e+03
-1.593656e+09 -1.393661e+09 -1.553612e+09 2.670301e+03 -6.518093e+03 1.590718e+04
-2.019312e+09 -1.819271e+09 -1.979297e+09 1.450903e+04 2.816146e+04 -2.673206e+03
-3.593150e+09 -3.393157e+09 -3.553164e+09 -5.036207e+03 -1.436117e+03 1.742116e+03
-3.597121e+09 -3.397062e+09 -3.557115e+09 1.462663e+04 1.430210e+04 4.344573e+03
-3.051476e+09 -2.851484e+09 -3.011488e+09 -2.686579e+03 -8.832429e+02 1.768983e+03
-3.626202e+09 -3.426222e+09 -3.586228e+09 -4.443893e+03 -1.778742e+03 4.884618e+03
-2.173356e+09 -1.973372e+09 -2.133371e+09 -1.740045e+04 -8.877468e+03 1.356322e+04
-2.063145e+09 -1.863056e+09 -2.023039e+09 -6.059153e+04 2.830506e+04 -1.367720e+04
-3.585604e+09 -3.385568e+09 -3.545590e+09 4.728795e+04 7.040080e+03 2.808869e+03
-3.590287e+09 -3.390390e+09 -3.550268e+09 -6.429013e+04 2.156867e+04 -1.502849e+04
-1.970787e+09 -1.770757e+09 -1.930778e+09 7.808860e+03 1.828429e+04 3.670812e+03
-2.410648e+09 -2.210667e+09 -2.370668e+09 1.506973e+04 1.110772e+04 2.235146e+04
-2.697509e+09 -2.497626e+09 -2.657537e+09 -2.490080e+04 2.985051e+03 -3.498468e+04
-3.063965e+09 -2.864027e+09 -3.024003e+09 -3.494412e+04 4.163050e+03 -9.315376e+03
-3.203331e+09 -3.003375e+09 -3.163368e+09 1.948421e+04 5.646634e+03 1.088153e+04
-3.086168e+09 -2.886228e+09 -3.046159e+09 -4.558267e+04 6.660221e+03 -7.337841e+03
-2.544018e+09 -2.344035e+09 -2.504042e+09 1.276093e+04 5.080400e+03 1.182650e+04
-1.589737e+09 -1.389736e+09 -1.549740e+09 2.649893e+03 1.066575e+04 9.763357e+03
-3.100597e+09 -2.900645e+09 -3.060599e+09 -4.385864e+04 -5.552774e+03 -2.687777e+03
-3.021035e+09 -2.821067e+09 -2.981068e+09 -8.728739e+03 -3.405047e+03 1.114438e+04
-2.480821e+09 -2.280828e+09 -2.440831e+09 -2.975905e+04 -1.237333e+04 1.492106e+04
-2.048599e+09 -1.848572e+09 -2.008563e+09 -5.252168e+04 2.186062e+04 -9.683873e+03
-3.592251e+09 -3.392283e+09 -3.552235e+09 -8.250550e+04 2.887779e+04 3.386347e+02
-2.463333e+09 -2.263362e+09 -2.423303e+09 -4.492061e+04 3.223809e+04 -3.971847e+04
-1.552810e+09 -1.352806e+09 -1.512796e+09 -1.760884e+03 1.534932e+04 8.539292e+03
-3.384290e+09 -3.184234e+09 -3.344288e+09 1.448262e+04 1.520449e+04 5.103448e+03
-3.581151e+09 -3.381167e+09 -3.541158e+09 -5.566600e+04 -7.786243e+03 4.095706e+03
-3.377181e+09 -3.177096e+09 -3.337069e+09 4.176067e+04 -1.975581e+04 -2.970861e+03
-2.525401e+09 -2.325368e+09 -2.485404e+09 1.720699e+04 1.677581e+04 6.758446e+03
-2.168469e+09 -1.968482e+09 -2.128483e+09 1.222561e+03 3.622175e+02 2.097476e+03
-3.604752e+09 -3.404773e+09 -3.564768e+09 -4.703642e+04 -8.057303e+03 1.768392e+04
-2.086408e+09 -1.886360e+09 -2.046385e+09 -1.424472e+04 1.357939e+04 -2.937436e+03
-3.502595e+09 -3.302608e+09 -3.462610e+09 2.179423e+03 3.635837e+02 1.682851e+03
-2.414226e+09 -2.214154e+09 -2.374154e+09 -3.854042e+04 -8.402066e+04 4.956408e+04
-2.191061e+09 -1.991059e+09 -2.151068e+09 -4.507083e+03 -5.101090e+03 3.701611e+03
-3.077999e+09 -2.877937e+09 -3.037939e+09 -2.214717e+04 4.529678e+03 2.248142e+03
-3.490270e+09 -3.290270e+09 -3.450281e+09 -5.511564e+03 -2.267748e+03 2.297296e+03
-3.385614e+09 -3.185619e+09 -3.345588e+09 -6.008268e+04 -1.271940e+04 3.864737e+02
-3.505180e+09 -3.305180e+09 -3.465193e+09 -8.605803e+03 -3.589627e+03 3.536388e+03
-2.195392e+09 -1.995390e+09 -2.155399e+09 -4.617536e+03 -4.885217e+03 4.660238e+03
-3.583503e+09 -3.383396e+09 -3.543340e+09 -4.630290e+04 -4.304192e+03 -7.559064e+03
-1.574229e+09 -1.374235e+09 -1.534163e+09 5.932131e+03 -9.508728e+03 -3.522257e+02
-2.567700e+09 -2.367703e+09 -2.527710e+09 -4.075391e+03 -2.818208e+03 3.559250e+03
-1.563002e+09 -1.363004e+09 -1.523009e+09 -2.206702e+03 -2.657398e+03 3.172185e+03
-2.107148e+09 -1.907149e+09 -2.067158e+09 -8.001770e+03 -7.440469e+03 9.012279e+03
-3.204417e+09 -3.004416e+09 -3.164427e+09 -4.424703e+03 -3.098227e+03 3.577923e+03
-1.593075e+09 -1.393076e+09 -1.553081e+09 -2.838331e+03 -5.439810e+03 6.341267e+03
-2.012202e+09 -1.812200e+09 -1.972207e+09 -2.669668e+03 -4.087306e+03 3.949355e+03
-3.600535e+09 -3.400475e+09 -3.560530e+09 -2.067315e+04 -1.617428e+04 8.464267e+03
-3.239219e+09 -3.039178e+09 -3.199222e+09 -9.986570e+03 1.618156e+04 -3.779518e+03
-2.617614e+09 -2.417586e+09 -2.577616e+09 -6.223477e+03 1.559004e+04 -6.098143e+03
-2.079960e+09 -1.879938e+09 -2.039957e+09 -2.155181e+03 1.843757e+04 -3.613974e+03
-1.867827e+09 -1.667829e+09 -1.827835e+09 -2.938655e+03 -2.185759e+03 2.375150e+03
-2.312089e+09 -2.112088e+09 -2.272096e+09 -4.433287e+03 -3.336099e+03 2.950189e+03
-2.511804e+09 -2.311793e+09 -2.471811e+09 -6.428287e+03 -1.232860e+04 7.777804e+03
-3.320048e+09 -3.120033e+09 -3.280060e+09 -1.256277e+04 -9.768127e+03 3.809913e+03
-2.607838e+09 -2.407830e+09 -2.567846e+09 -6.522147e+03 -9.921178e+03 8.158243e+03
-3.503435e+09 -3.303425e+09 -3.463447e+09 -1.081204e+04 -6.804983e+03 4.442533e+03
-3.427939e+09 -3.227901e+09 -3.387937e+09 -4.012440e+03 1.291911e+04 -1.777952e+03
-3.180481e+09 -2.980458e+09 -3.140486e+09 -5.946975e+03 9.057980e+03 -3.293951e+03
-1.701471e+09 -1.501466e+09 -1.661474e+09 -1.587818e+03 -7.918682e+03 4.714822e+03
-2.037998e+09 -1.837994e+09 -1.998003e+09 4.322477e+03 5.139011e+03 3.137401e+03
-3.389324e+09 -3.189299e+09 -3.349329e+09 -5.571341e+03 9.192181e+03 -3.916746e+03
-3.402835e+09 -3.202842e+09 -3.362855e+09 2.601035e+04 8.808284e+03 9.691458e+03
-3.379884e+09 -3.179853e+09 -3.339890e+09 -7.983804e+03 1.223016e+04 -3.169083e+03
-2.478785e+09 -2.278768e+09 -2.438789e+09 -2.233769e+03 1.326882e+04 -3.596532e+03
-2.207536e+09 -2.007538e+09 -2.167544e+09 4.215241e+03 2.704698e+03 2.896151e+03
-2.823847e+09 -2.623845e+09 -2.783857e+09 5.320287e+03 3.734828e+03 3.614733e+03
-1.903257e+09 -1.703244e+09 -1.863259e+09 -3.145793e+02 1.182140e+04 -2.308619e+03
-3.602086e+09 -3.402084e+09 -3.562097e+09 7.625749e+03 2.591094e+03 2.267415e+03
-3.300963e+09 -3.100961e+09 -3.260971e+09 3.929870e+03 1.949923e+03 1.880109e+03
-1.584958e+09 -1.384954e+09 -1.544961e+09 2.457873e+03 7.483668e+03 4.549071e+03
-2.658063e+09 -2.458077e+09 -2.618081e+09 -4.542441e+03 -1.849626e+03 5.405087e+03
-1.965979e+09 -1.765975e+09 -1.925985e+09 4.761465e+03 4.735421e+03 2.622845e+03
-2.518007e+09 -2.317984e+09 -2.478005e+09 -1.701979e+03 1.581496e+04 -1.598512e+03
-2.142742e+09 -1.942735e+09 -2.102747e+09 4.778003e+03 6.757280e+03 3.433326e+03
-2.963128e+09 -2.763122e+09 -2.923136e+09 4.352362e+03 4.494709e+03 2.885042e+03
-1.854719e+09 -1.654701e+09 -1.814721e+09 -4.953985e+02 1.762505e+04 -4.014178e+03
-2.736707e+09 -2.536699e+09 -2.696715e+09 6.666449e+03 8.961988e+03 4.539056e+03
-1.774913e+09 -1.574909e+09 -1.734916e+09 5.738245e+03 1.385054e+04 8.839285e+03
-3.500600e+09 -3.300614e+09 -3.460616e+09 -1.932465e+03 -2.750744e+02 1.841694e+03
-3.171903e+09 -2.971881e+09 -3.131911e+09 2.498004e+04 8.537562e+03 7.120704e+03
-1.572684e+09 -1.372683e+09 -1.532684e+09 2.750612e+00 1.370808e+04 9.192005e+03
-3.604597e+09 -3.404645e+09 -3.564645e+09 -2.088171e+04 -3.141557e+03 8.804095e+03
-1.577967e+09 -1.377973e+09 -1.537963e+09 -1.585383e+03 -3.901905e+03 1.769791e+04
-3.604616e+09 -3.404647e+09 -3.564651e+09 -2.203154e+04 -4.646061e+03 1.426592e+04
-2.016843e+09 -1.816821e+09 -1.976844e+09 -8.570981e+03 -2.177171e+04 6.964400e+03
-2.276023e+09 -2.076116e+09 -2.235156e+09 -1.139226e+05 -6.880836e+04 4.032182e+05
-1.908585e+09 -1.708486e+09 -1.867913e+09 -6.307459e+04 -3.405468e+05 2.958294e+05
-3.272523e+09 -3.072583e+09 -3.232411e+09 -6.787884e+04 -3.790632e+04 5.247418e+04
-2.734682e+09 -2.534660e+09 -2.693196e+09 -7.045134e+04 -2.836077e+05 3.943554e+05
-1.781312e+09 -1.581316e+09 -1.741320e+09 1.998357e+03 5.899237e+02 1.352547e+03
-2.697699e+09 -2.497816e+09 -2.657587e+09 -4.407347e+04 -5.402951e+04 1.469261e+05
-3.406495e+09 -3.206489e+09 -3.366250e+09 -8.422822e+04 -8.558029e+04 5.898809e+04
-1.977344e+09 -1.777273e+09 -1.936324e+09 1.669428e+05 6.611245e+04 4.000167e+05
-2.656580e+09 -2.456586e+09 -2.616590e+09 2.170203e+03 6.809492e+02 1.251253e+03
-2.565684e+09 -2.365710e+09 -2.524579e+09 1.230919e+05 2.795229e+05 2.917899e+05
-2.766759e+09 -2.566767e+09 -2.726771e+09 2.821650e+03 8.078971e+02 1.874298e+03
-3.608161e+09 -3.408166e+09 -3.568173e+09 4.716146e+03 1.444656e+03 2.182329e+03
-2.192402e+09 -1.992150e+09 -2.151139e+09 4.687276e+04 4.427874e+05 7.012976e+04
-3.302449e+09 -3.102242e+09 -3.261692e+09 -6.448534e+04 2.518494e+05 -7.334822e+04
-2.892741e+09 -2.692633e+09 -2.852577e+09 -6.380956e+03 5.655305e+04 1.762439e+04
-3.576256e+09 -3.376264e+09 -3.536269e+09 3.673860e+03 8.789877e+02 1.552968e+03
-3.443452e+09 -3.243466e+09 -3.403468e+09 2.228119e+03 4.656580e+02 2.207035e+03
-1.686045e+09 -1.486014e+09 -1.644046e+09 -6.685616e+04 -2.403627e+05 7.164132e+05
-2.563287e+09 -2.363519e+09 -2.523058e+09 5.094007e+04 4.980441e+04 2.348180e+05
-3.292776e+09 -3.092791e+09 -3.252793e+09 1.175526e+03 6.274148e+02 2.274782e+03
-3.156571e+09 -2.956586e+09 -3.116588e+09 1.072445e+03 -3.291975e+02 2.606007e+03
-3.290044e+09 -3.090059e+09 -3.250061e+09 1.630643e+03 -3.173604e+01 2.407964e+03
-3.164647e+09 -2.964662e+09 -3.124664e+09 -8.267090e+01 6.246799e+02 2.851761e+03
-2.591409e+09 -2.391428e+09 -2.550968e+09 -1.483139e+05 1.924476e+05 -3.501243e+05
-1.792389e+09 -1.592385e+09 -1.752385e+09 -1.188174e+03 -1.401734e+04 7.307409e+03
-3.000919e+09 -2.800913e+09 -2.960926e+09 4.119806e+03 3.019853e+03 2.195084e+03
-3.367749e+09 -3.167882e+09 -3.327737e+09 2.080431e+03 1.026405e+03 2.811099e+04
-3.283685e+09 -3.083763e+09 -3.243714e+09 3.479350e+04 -1.944718e+04 4.258833e+03
-3.294622e+09 -3.094617e+09 -3.254630e+09 4.489978e+03 2.621554e+03 2.527260e+03
-3.601324e+09 -3.401466e+09 -3.561338e+09 -2.251654e+04 2.436705e+03 3.071366e+04
-1.778683e+09 -1.578677e+09 -1.738687e+09 4.756893e+03 6.836902e+03 4.955793e+03
-3.570737e+09 -3.370846e+09 -3.530750e+09 5.900912e+04 1.297696e+04 1.841008e+04
-1.533313e+09 -1.333355e+09 -1.493238e+09 -4.989329e+03 3.770295e+03 1.170290e+05
-3.400345e+09 -3.200336e+09 -3.360356e+09 9.059869e+03 5.623077e+03 4.126524e+03
-2.834033e+09 -2.634022e+09 -2.794043e+09 1.030318e+04 1.002927e+04 5.522438e+03
-3.559352e+09 -3.359471e+09 -3.519365e+09 4.292224e+04 1.710151e+03 2.116292e+04
-3.577923e+09 -3.377955e+09 -3.537589e+09 8.621163e+04 9.966498e+04 7.229101e+04
-1.569094e+09 -1.369142e+09 -1.529068e+09 1.763260e+04 1.559390e+04 7.902681e+04
-3.583667e+09 -3.383838e+09 -3.543275e+09 2.906522e+04 1.975596e+04 1.765118e+05
-2.711045e+09 -2.511154e+09 -2.671006e+09 5.996594e+04 6.349453e+04 9.099985e+04
-3.594118e+09 -3.394147e+09 -3.554151e+09 4.130536e+03 1.283776e+03 7.479734e+03
-3.550687e+09 -3.350706e+09 -3.510710e+09 -4.541880e+02 -6.551709e+01 4.057190e+03
-3.530880e+09 -3.330904e+09 -3.490908e+09 -1.328116e+03 -5.528318e+02 5.831823e+03
-1.585218e+09 -1.385229e+09 -1.545230e+09 4.432805e+02 5.022362e+02 7.354038e+03
-2.192437e+09 -1.992433e+09 -2.152442e+09 3.405085e+03 3.395067e+03 1.946104e+03
-1.601955e+09 -1.401953e+09 -1.561960e+09 2.308832e+03 4.574243e+03 3.931991e+03
-1.884034e+09 -1.684030e+09 -1.844037e+09 2.144843e+03 4.026612e+03 2.734980e+03
-3.341268e+09 -3.141192e+09 -3.299975e+09 -1.705017e+04 5.333569e+04 -4.126647e+05
-2.633080e+09 -2.432968e+09 -2.592813e+09 -5.556481e+04 6.864169e+04 -6.794438e+04
-3.045526e+09 -2.845441e+09 -3.005461e+09 -8.139658e+03 -1.440042e+04 8.494379e+03
-3.452367e+09 -3.252242e+09 -3.411935e+09 -6.358183e+04 1.228138e+05 -2.578823e+04
-3.118673e+09 -2.918566e+09 -3.078526e+09 -2.747616e+04 3.998096e+04 1.156795e+03
-2.130824e+09 -1.930742e+09 -2.090779e+09 -5.651451e+03 -1.397325e+04 -8.734636e+02
-2.019373e+09 -1.819385e+09 -1.979387e+09 2.786756e+03 1.304800e+03 4.225068e+03
-2.031580e+09 -1.831591e+09 -1.991593e+09 4.303581e+03 1.949865e+03 5.288761e+03
-2.082816e+09 -1.882698e+09 -2.042727e+09 6.350976e+02 1.689199e+04 6.709651e+03
-3.595769e+09 -3.395817e+09 -3.555808e+09 -2.718354e+04 -6.938948e+03 1.340751e+04
-2.809018e+09 -2.609044e+09 -2.769040e+09 -4.800558e+04 6.620321e+02 7.468848e+03
-3.398579e+09 -3.198462e+09 -3.358476e+09 -1.560481e+03 9.015433e+03 1.183384e+03
-3.305993e+09 -3.105883e+09 -3.265920e+09 -2.778934e+04 8.318324e+03 5.639943e+02
-3.207775e+09 -3.007701e+09 -3.167740e+09 -2.792794e+02 -8.705990e+03 -1.107819e+03
-3.390145e+09 -3.190041e+09 -3.350099e+09 -2.785787e+03 -8.903752e+03 3.735748e+03
-3.604609e+09 -3.404642e+09 -3.564650e+09 -1.834345e+04 -5.566566e+03 1.387727e+04
-2.792472e+09 -2.592512e+09 -2.752511e+09 -4.143769e+03 -1.764943e+03 1.030568e+04
-1.943666e+09 -1.743678e+09 -1.903681e+09 -5.587963e+03 -4.922292e+03 1.095377e+04
-3.612830e+09 -3.412786e+09 -3.571203e+09 -3.771901e+04 -1.437305e+05 1.478871e+05
-3.134669e+09 -2.934633e+09 -3.094238e+09 -9.574156e+04 -1.799455e+05 1.238925e+05
-3.091879e+09 -2.891769e+09 -3.051760e+09 1.703468e+03 1.480327e+04 -8.488027e+03
-2.654508e+09 -2.454333e+09 -2.614040e+09 -6.387606e+04 -2.616958e+05 2.159566e+05
-2.558757e+09 -2.358881e+09 -2.518544e+09 1.211083e+05 1.451362e+05 2.421715e+05
-3.511391e+09 -3.311301e+09 -3.470285e+09 2.145107e+03 -1.966063e+05 9.537396e+04
-3.583265e+09 -3.383332e+09 -3.543319e+09 1.678496e+04 3.130153e+03 1.460393e+04
-2.576943e+09 -2.376993e+09 -2.536984e+09 1.487545e+04 4.443198e+03 2.077085e+04
-2.828459e+09 -2.628519e+09 -2.788491e+09 2.600612e+04 1.211788e+04 1.787452e+04
-3.376763e+09 -3.176930e+09 -3.336268e+09 8.381368e+04 8.441387e+04 2.437679e+05
-3.387400e+09 -3.187400e+09 -3.346983e+09 1.175801e+05 1.108379e+05 1.582004e+05
-2.462752e+09 -2.262788e+09 -2.422774e+09 2.222513e+04 1.671778e+02 1.049609e+04
-3.459107e+09 -3.258966e+09 -3.417935e+09 3.569775e+04 3.080388e+05 1.363520e+05
-2.105768e+09 -1.905863e+09 -2.063803e+09 1.144043e+05 5.320408e+05 4.956601e+05
-2.705104e+09 -2.504966e+09 -2.663035e+09 -6.096379e+04 2.595434e+05 -4.239268e+05
-1.574817e+09 -1.374818e+09 -1.534815e+09 1.758620e+03 -1.404437e+03 1.250473e+04
-2.024110e+09 -1.823877e+09 -1.983573e+09 8.233425e+04 4.103179e+05 1.241480e+05
-1.937581e+09 -1.737728e+09 -1.897629e+09 5.756410e+04 8.260576e+04 8.027815e+04
-1.766771e+09 -1.566805e+09 -1.726516e+09 1.051120e+05 1.402100e+05 1.551803e+05
-3.048248e+09 -2.848011e+09 -3.007928e+09 5.501020e+04 1.314667e+05 3.987883e+04
-2.146468e+09 -1.946471e+09 -2.106482e+09 -1.904401e+04 1.217979e+04 -8.362664e+03
-3.294800e+09 -3.094910e+09 -3.254832e+09 -1.166059e+04 1.334955e+04 5.246895e+03
-3.594371e+09 -3.394408e+09 -3.554408e+09 7.369169e+03 1.724986e+03 9.862959e+03
-2.674974e+09 -2.475070e+09 -2.635013e+09 -6.820480e+02 3.427408e+03 3.441666e+03
-3.594116e+09 -3.394147e+09 -3.554151e+09 2.172674e+03 6.708801e+02 7.550945e+03
-2.263932e+09 -2.064018e+09 -2.223974e+09 -2.647064e+03 5.876695e+03 1.390816e+04
-3.203581e+09 -3.003603e+09 -3.163605e+09 3.541294e+03 9.845606e+02 6.809801e+03
-1.685984e+09 -1.485986e+09 -1.645991e+09 1.619823e+03 7.246564e+02 7.474876e+02
-2.993732e+09 -2.793734e+09 -2.953740e+09 1.870267e+03 6.291665e+02 6.813337e+02
-3.302166e+09 -3.102167e+09 -3.262175e+09 3.312001e+03 1.480104e+03 6.669423e+02
-2.479937e+09 -2.279938e+09 -2.439945e+09 2.766898e+03 1.561884e+03 1.558264e+03
-3.252530e+09 -3.052530e+09 -3.212539e+09 3.660350e+03 1.707159e+03 1.736086e+03
-1.644032e+09 -1.444031e+09 -1.604038e+09 2.149967e+03 1.806214e+03 1.724152e+03
-3.406170e+09 -3.206192e+09 -3.366196e+09 3.401914e+03 1.177929e+03 5.083585e+03
-3.489913e+09 -3.289911e+09 -3.449921e+09 3.845584e+03 1.597133e+03 1.130726e+03
-3.602088e+09 -3.402085e+09 -3.562098e+09 4.972474e+03 2.683678e+03 1.849426e+03
-3.594162e+09 -3.394189e+09 -3.554191e+09 6.682712e+03 1.524960e+03 7.462014e+03
-2.161598e+09 -1.961608e+09 -2.121611e+09 -2.869211e+03 -1.365558e+03 3.094986e+03
-1.697432e+09 -1.497442e+09 -1.657443e+09 -1.457355e+03 -5.847617e+02 1.889235e+03
-1.806647e+09 -1.606659e+09 -1.766660e+09 3.016301e+03 2.181798e+03 6.344009e+03
-2.200040e+09 -2.000049e+09 -2.160051e+09 -1.803884e+03 -4.009597e+02 1.608366e+03
-1.688388e+09 -1.488397e+09 -1.648399e+09 -1.567159e+03 -5.709789e+02 1.478252e+03
-3.343261e+09 -3.143278e+09 -3.303280e+09 -1.098916e+03 -2.481891e+02 3.340608e+03
-2.452070e+09 -2.252088e+09 -2.412091e+09 2.230858e+03 1.051493e+03 8.553673e+03
-3.587316e+09 -3.387336e+09 -3.547338e+09 1.726376e+03 2.485054e+02 3.736672e+03
-3.404821e+09 -3.204838e+09 -3.364842e+09 2.963822e+03 6.166811e+02 4.044575e+03
-1.814014e+09 -1.614001e+09 -1.774016e+09 3.530482e+03 1.326012e+04 5.095748e+03
-2.075172e+09 -1.875222e+09 -2.035206e+09 -7.889057e+03 -7.105847e+02 7.648293e+03
-3.460334e+09 -3.260317e+09 -3.420341e+09 7.121118e+03 7.479319e+03 2.796021e+03
-2.396157e+09 -2.196140e+09 -2.356159e+09 5.104294e+03 1.575794e+04 5.834910e+03
-2.530864e+09 -2.330886e+09 -2.490888e+09 -2.702643e+03 -8.889447e+02 9.612016e+03
-1.592188e+09 -1.392198e+09 -1.552195e+09 -1.570646e+03 -1.722001e+03 1.311285e+04
-3.408945e+09 -3.208907e+09 -3.368949e+09 2.951026e+03 1.164412e+04 8.850234e+02
-2.507229e+09 -2.307264e+09 -2.467256e+09 -1.600560e+04 -5.543370e+03 1.553502e+04
-2.847606e+09 -2.647589e+09 -2.807611e+09 2.465249e+03 8.022024e+03 1.684443e+03
-2.523668e+09 -2.323702e+09 -2.483691e+09 -8.655654e+03 -2.883728e+03 1.992036e+04
-3.292119e+09 -3.092096e+09 -3.252122e+09 2.050271e+03 8.899268e+03 2.769082e+03
-1.595730e+09 -1.395725e+09 -1.555728e+09 -5.103247e+01 1.689582e+04 1.490355e+03
-1.854282e+09 -1.654267e+09 -1.814284e+09 2.099496e+03 1.212118e+04 2.066215e+03
-3.072330e+09 -2.872373e+09 -3.032370e+09 5.067554e+03 2.016058e+02 1.068188e+04
-2.614140e+09 -2.414177e+09 -2.574176e+09 -4.105184e+02 -2.100200e+03 1.353583e+04
-1.590511e+09 -1.390517e+09 -1.550515e+09 -3.409099e+03 -6.088143e+03 1.463400e+04
-1.589520e+09 -1.389515e+09 -1.549521e+09 -2.809708e+01 1.109894e+04 -5.385252e+03
-1.571797e+09 -1.371807e+09 -1.531808e+09 -2.519036e+03 -2.341057e+03 8.293031e+03
-3.617274e+09 -3.417323e+09 -3.577319e+09 -1.186499e+04 -1.412288e+03 1.312956e+04
-3.130380e+09 -2.930368e+09 -3.090397e+09 -1.745052e+04 8.219900e+03 -6.125858e+03
-3.073649e+09 -2.873664e+09 -3.033671e+09 -1.596387e+04 -6.059023e+03 1.147273e+04
-1.717033e+09 -1.517043e+09 -1.677046e+09 -3.141455e+03 -4.009935e+03 1.061462e+04
-3.019226e+09 -2.819246e+09 -2.979251e+09 -5.703926e+03 -2.003350e+03 9.256489e+03
-1.782260e+09 -1.582257e+09 -1.742256e+09 -5.923185e+02 1.478514e+04 -6.285721e+03
-1.590512e+09 -1.390520e+09 -1.550516e+09 -2.513147e+03 -4.262981e+03 1.385430e+04
-3.591472e+09 -3.391428e+09 -3.551473e+09 -2.955417e+04 1.051033e+04 -4.266826e+03
-1.890382e+09 -1.690374e+09 -1.850387e+09 -6.787312e+03 -1.322326e+04 4.589728e+03
-2.179774e+09 -1.979793e+09 -2.139794e+09 -9.419625e+03 -7.075733e+03 1.448017e+04
-3.518986e+09 -3.319010e+09 -3.479017e+09 -1.238238e+04 -2.680684e+03 8.974557e+03
-3.302022e+09 -3.102024e+09 -3.262042e+09 -2.509829e+04 6.925396e+03 -5.705903e+03
-1.605307e+09 -1.405318e+09 -1.565320e+09 -2.780186e+03 -4.538074e+03 1.322130e+04
-2.060290e+09 -1.860282e+09 -2.020294e+09 -3.618932e+03 1.061580e+04 -5.332728e+03
-2.576951e+09 -2.376903e+09 -2.536921e+09 -1.304557e+04 2.082850e+04 -5.054311e+03
-3.377848e+09 -3.177817e+09 -3.337855e+09 -1.307643e+04 1.452362e+04 -4.982967e+03
-3.601138e+09 -3.401117e+09 -3.561148e+09 -9.832105e+03 1.065319e+04 -4.212549e+03
-2.373751e+09 -2.173735e+09 -2.333753e+09 -3.557176e+03 1.304405e+04 -4.456457e+03
-3.404870e+09 -3.204856e+09 -3.364883e+09 -1.695039e+04 9.364070e+03 -5.047064e+03
-1.563752e+09 -1.363745e+09 -1.523752e+09 3.782134e+02 7.656641e+03 -3.619553e+03
-3.376597e+09 -3.176551e+09 -3.336595e+09 -1.409422e+04 1.626221e+04 -6.016216e+03
-1.947498e+09 -1.747500e+09 -1.907506e+09 1.354340e+04 1.413759e+04 1.537820e+04
-1.765979e+09 -1.565970e+09 -1.725980e+09 5.530601e+03 1.457531e+04 1.138762e+04
-1.563752e+09 -1.363745e+09 -1.523752e+09 4.637768e+02 7.544112e+03 -3.514526e+03
-2.167315e+09 -1.967305e+09 -2.127317e+09 -2.039008e+03 6.189427e+03 -2.195921e+03
-1.975411e+09 -1.775395e+09 -1.935410e+09 -3.589654e+03 1.395601e+04 -5.904891e+03
-3.203529e+09 -3.003576e+09 -3.163548e+09 -2.867027e+04 -4.819271e+03 4.347626e+02
-3.576747e+09 -3.376738e+09 -3.536763e+09 2.451695e+04 1.097577e+04 9.578966e+03
-3.204465e+09 -3.004483e+09 -3.164169e+09 9.668739e+04 1.051468e+05 6.840030e+04
-1.991184e+09 -1.791187e+09 -1.951192e+09 1.170716e+03 2.403731e+02 2.584492e+02
-1.987748e+09 -1.787741e+09 -1.947752e+09 5.569896e+03 9.992122e+03 6.021712e+03
-2.295659e+09 -2.095662e+09 -2.255666e+09 1.320774e+03 2.691593e+02 1.917731e+02
-1.572151e+09 -1.372147e+09 -1.532153e+09 1.884650e+03 1.023905e+04 5.767774e+03
-3.596754e+09 -3.396758e+09 -3.556764e+09 2.524363e+03 6.199743e+02 8.640240e+02
-1.572683e+09 -1.372681e+09 -1.532684e+09 1.259877e+03 1.700514e+04 1.505656e+04
-1.999894e+09 -1.799897e+09 -1.959902e+09 1.322553e+03 3.612662e+02 3.851642e+02
-1.964760e+09 -1.764755e+09 -1.924758e+09 1.323784e+04 2.129677e+04 2.055331e+04
-2.718655e+09 -2.518617e+09 -2.678651e+09 2.046140e+04 1.283204e+04 5.794947e+03
-1.571608e+09 -1.371605e+09 -1.531612e+09 -1.923085e+03 -6.026814e+03 5.348579e+03
-2.052913e+09 -1.852912e+09 -2.012920e+09 -5.145548e+03 -5.375602e+03 4.557467e+03
-1.695335e+09 -1.495338e+09 -1.655343e+09 1.303754e+03 4.435689e+02 4.128524e+02
-2.008610e+09 -1.808580e+09 -1.968602e+09 -5.023674e+03 1.481881e+04 -3.517502e+03
-1.692966e+09 -1.492969e+09 -1.652973e+09 1.313008e+03 3.206576e+02 4.329023e+02
-2.175653e+09 -1.975662e+09 -2.135664e+09 1.877462e+03 4.244633e+02 1.611140e+03
-3.275871e+09 -3.075867e+09 -3.235885e+09 -9.417102e+03 -5.575184e+03 3.661218e+03
-3.274392e+09 -3.074388e+09 -3.234402e+09 -6.362874e+03 -3.980026e+03 3.988927e+03
-3.413257e+09 -3.213241e+09 -3.373272e+09 -1.527854e+04 -9.227613e+03 6.764753e+03
-3.175207e+09 -2.975201e+09 -3.135224e+09 -1.426156e+04 -7.549566e+03 5.991641e+03
-3.235383e+09 -3.035363e+09 -3.195393e+09 -1.373316e+04 -1.547532e+04 8.649580e+03
-3.612060e+09 -3.412036e+09 -3.572070e+09 -1.246490e+04 -1.161144e+04 4.625765e+03
-2.522705e+09 -2.322691e+09 -2.482709e+09 -6.812627e+03 -1.246471e+04 7.460461e+03
-1.603150e+09 -1.403143e+09 -1.563103e+09 6.378770e+03 -7.361385e+03 -1.651954e+04
-3.594787e+09 -3.394714e+09 -3.554757e+09 -1.096527e+04 1.934710e+04 -2.571626e+03
-2.418174e+09 -2.218159e+09 -2.378172e+09 -1.173506e+04 -1.158046e+04 1.129378e+04
-2.175644e+09 -1.975418e+09 -2.133919e+09 1.184984e+04 -5.149974e+05 -4.861833e+05
-3.168809e+09 -2.968795e+09 -3.128823e+09 -1.984054e+04 -7.077048e+03 7.615728e+03
-2.557042e+09 -2.357023e+09 -2.517051e+09 -2.192658e+04 -1.322050e+04 1.033733e+04
-3.409129e+09 -3.209100e+09 -3.369134e+09 -2.189554e+04 -1.099558e+04 8.541395e+03
-2.876714e+09 -2.676704e+09 -2.836720e+09 4.269997e+03 5.093832e+03 2.708991e+03
-1.596471e+09 -1.396479e+09 -1.556477e+09 2.964823e+03 5.453749e+03 1.752817e+04
-1.592092e+09 -1.392096e+09 -1.552093e+09 2.857614e+03 4.007268e+03 1.724768e+04
-2.301964e+09 -2.101941e+09 -2.261954e+09 1.118264e+04 2.135170e+04 1.269809e+04
-1.577590e+09 -1.377586e+09 -1.537586e+09 -4.399881e+02 2.242537e+04 9.175526e+03
-3.198823e+09 -2.998872e+09 -3.158867e+09 1.114302e+04 6.818050e+02 1.049415e+04
-1.764677e+09 -1.564648e+09 -1.724678e+09 3.143325e+03 1.617855e+04 7.324477e+03
-1.605576e+09 -1.405572e+09 -1.565574e+09 -3.865712e+01 1.763143e+04 6.697951e+03
-3.427179e+09 -3.227157e+09 -3.387187e+09 9.824833e+03 8.741308e+03 4.023784e+03
-3.615181e+09 -3.415162e+09 -3.575191e+09 1.146411e+04 7.866454e+03 3.663243e+03
-2.307149e+09 -2.107122e+09 -2.267135e+09 1.064465e+04 1.990813e+04 9.003544e+03
-2.550286e+09 -2.350251e+09 -2.510262e+09 1.271368e+04 1.812994e+04 3.803720e+03
-3.603890e+09 -3.403815e+09 -3.563872e+09 -2.110810e+04 -1.947584e+04 4.139664e+03
-1.765735e+09 -1.565712e+09 -1.725729e+09 4.565196e+03 -2.612325e+04 1.482065e+02
-1.947872e+09 -1.747847e+09 -1.907852e+09 1.788967e+04 1.822351e+04 1.047725e+04
-3.566260e+09 -3.366145e+09 -3.526116e+09 5.446013e+04 -1.413693e+04 -1.264891e+04
-3.374483e+09 -3.174402e+09 -3.334464e+09 1.633007e+04 1.130022e+04 1.336967e+03
-2.799623e+09 -2.599547e+09 -2.759591e+09 1.499638e+03 -2.486144e+04 -3.999226e+03
-2.184872e+09 -1.984873e+09 -2.144878e+09 1.746716e+03 5.486264e+02 5.772031e+02
-1.991185e+09 -1.791187e+09 -1.951192e+09 1.218993e+03 2.226363e+02 2.759470e+02
-1.999307e+09 -1.799312e+09 -1.959316e+09 2.380106e+03 9.534625e+02 1.500913e+03
-3.432005e+09 -3.231831e+09 -3.391434e+09 5.463724e+03 -1.780358e+05 -1.301029e+04
-1.626076e+09 -1.426078e+09 -1.586083e+09 3.022618e+03 5.888630e+03 7.727583e+03
-2.092071e+09 -1.892074e+09 -2.052078e+09 1.816514e+03 4.477044e+02 6.989261e+02
-2.020419e+09 -1.820422e+09 -1.980427e+09 2.313056e+03 9.323098e+02 9.038246e+02
-1.871306e+09 -1.671305e+09 -1.831313e+09 4.588261e+03 4.134172e+03 4.877090e+03
-1.599060e+09 -1.399065e+09 -1.559067e+09 2.839246e+03 6.255125e+03 1.066492e+04
-1.977431e+09 -1.777443e+09 -1.937447e+09 7.108113e+03 4.313913e+03 1.008161e+04
-1.695336e+09 -1.495339e+09 -1.655343e+09 1.483743e+03 4.660642e+02 5.215008e+02
-2.618705e+09 -2.418709e+09 -2.578714e+09 1.689393e+03 5.210902e+02 6.772834e+02
-1.588189e+09 -1.388193e+09 -1.548103e+09 9.292205e+03 -1.136954e+05 -1.491411e+05
-3.585860e+09 -3.385861e+09 -3.545880e+09 1.967129e+04 8.334001e+03 8.903767e+03
-3.372273e+09 -3.172466e+09 -3.332070e+09 1.088137e+04 -6.234514e+04 -1.186116e+05
-3.550688e+09 -3.350708e+09 -3.510710e+09 -1.041490e+03 -3.044016e+02 3.912314e+03
-1.800307e+09 -1.600265e+09 -1.759746e+09 8.869663e+04 -5.680065e+04 -4.702276e+05
-2.611936e+09 -2.412113e+09 -2.571689e+09 5.194843e+04 -1.003773e+05 -1.877398e+05
-2.521819e+09 -2.322107e+09 -2.481528e+09 -2.023628e+04 5.593168e+04 -2.644489e+05
-1.783112e+09 -1.583228e+09 -1.743049e+09 -1.350130e+04 -3.370245e+03 -1.563994e+05
-1.862894e+09 -1.662895e+09 -1.822900e+09 -2.457877e+03 -2.744636e+03 2.799163e+03
-1.588445e+09 -1.388448e+09 -1.548452e+09 -1.850703e+03 -1.127940e+03 1.324000e+03
-2.662485e+09 -2.462467e+09 -2.622488e+09 -3.831167e+03 9.758055e+03 -4.435777e+03
-3.292408e+09 -3.092393e+09 -3.252412e+09 -3.415333e+03 4.172745e+03 -2.832605e+03
-2.363782e+09 -2.163769e+09 -2.323785e+09 -3.751803e+03 7.909665e+03 -2.109022e+03
-1.901998e+09 -1.701991e+09 -1.862003e+09 -7.003059e+03 -1.179566e+04 5.559461e+03
-2.995550e+09 -2.795534e+09 -2.955555e+09 -3.058085e+03 6.738956e+03 -2.440814e+03
-1.581575e+09 -1.381568e+09 -1.541576e+09 1.674474e+02 1.233241e+04 -4.322104e+03
-3.591640e+09 -3.391619e+09 -3.551647e+09 -5.823368e+03 8.444324e+03 -2.851581e+03
-3.174769e+09 -2.974758e+09 -3.134775e+09 3.987745e+03 5.182322e+03 3.198258e+03
-3.179501e+09 -2.979489e+09 -3.139509e+09 7.048567e+03 5.865707e+03 2.483514e+03
-1.596862e+09 -1.396856e+09 -1.556862e+09 4.520950e+02 1.331491e+04 3.875080e+03
-3.189504e+09 -2.989485e+09 -3.149509e+09 4.468084e+03 6.665856e+03 2.174195e+03
-3.085139e+09 -2.885149e+09 -3.045154e+09 2.814150e+03 7.791187e+02 2.097896e+03
-3.289096e+09 -3.089104e+09 -3.249108e+09 2.215133e+03 3.517797e+02 1.431762e+03
-3.048837e+09 -2.848846e+09 -3.008852e+09 3.504831e+03 1.204570e+03 2.873855e+03
-3.566058e+09 -3.366054e+09 -3.526073e+09 -9.014731e+03 -5.518786e+03 4.254183e+03
-2.984205e+09 -2.784200e+09 -2.944215e+09 -6.073018e+03 -4.337581e+03 4.005828e+03
-3.380336e+09 -3.180347e+09 -3.340351e+09 3.209536e+03 1.148372e+03 2.026983e+03
-2.670775e+09 -2.470785e+09 -2.630788e+09 2.868017e+03 9.343862e+02 2.357666e+03
-2.019405e+09 -1.819387e+09 -1.979406e+09 -9.521785e+03 -2.290370e+04 1.472557e+04
-3.589936e+09 -3.389899e+09 -3.549944e+09 -2.026157e+04 1.054913e+04 -3.939240e+03
-3.578956e+09 -3.378916e+09 -3.538958e+09 -1.311392e+04 1.373193e+04 -4.829188e+03
-2.413729e+09 -2.213700e+09 -2.373721e+09 -1.125669e+04 -1.752947e+04 1.011240e+04
-3.586888e+09 -3.386830e+09 -3.546873e+09 -1.967231e+04 1.859608e+04 -3.414140e+03
-1.593800e+09 -1.393796e+09 -1.553800e+09 1.836150e+03 1.231844e+04 -3.202360e+03
-2.310260e+09 -2.110250e+09 -2.270257e+09 -1.582636e+04 -1.382606e+04 1.263988e+04
-3.184088e+09 -2.984082e+09 -3.144103e+09 -2.131775e+04 -9.288805e+03 7.010141e+03
-3.592732e+09 -3.392723e+09 -3.552747e+09 1.415370e+04 7.320580e+03 4.993880e+03
-1.588379e+09 -1.388377e+09 -1.548382e+09 2.490114e+03 8.434179e+03 6.415189e+03
-1.587839e+09 -1.387840e+09 -1.547845e+09 2.543622e+03 6.759349e+03 5.959064e+03
-3.197129e+09 -2.997127e+09 -3.157141e+09 6.666346e+03 4.268881e+03 3.713260e+03
-1.577079e+09 -1.377076e+09 -1.537083e+09 2.344271e+03 4.301898e+03 3.238157e+03
-3.408228e+09 -3.208219e+09 -3.368250e+09 -2.832326e+04 -1.296903e+04 1.185554e+04
-2.337017e+09 -2.137011e+09 -2.297018e+09 -1.511125e+04 -1.351081e+04 1.477840e+04
-2.096629e+09 -1.896634e+09 -2.056645e+09 -1.190478e+04 -1.247565e+04 1.945454e+04
-1.943519e+09 -1.743509e+09 -1.903523e+09 -9.004848e+03 -1.313996e+04 8.341079e+03
-1.732673e+09 -1.532655e+09 -1.692676e+09 -8.222775e+03 -1.680379e+04 1.264591e+04
-1.620564e+09 -1.420577e+09 -1.580516e+09 -5.590412e+03 -9.355859e+03 3.313793e+04
-2.412637e+09 -2.212650e+09 -2.372653e+09 2.881227e+03 2.009440e+03 5.665697e+03
-3.603043e+09 -3.403016e+09 -3.563050e+09 1.100039e+04 9.421629e+03 3.012498e+03
-1.605575e+09 -1.405573e+09 -1.565574e+09 6.749193e+02 1.691749e+04 7.777440e+03
-2.109007e+09 -1.908989e+09 -2.069007e+09 2.012611e+03 1.236025e+04 1.595647e+03
-3.591543e+09 -3.391501e+09 -3.551547e+09 1.159885e+04 1.250369e+04 4.230605e+03
-2.464018e+09 -2.264028e+09 -2.424031e+09 2.376333e+03 1.098832e+03 2.781424e+03
-2.196632e+09 -1.996618e+09 -2.156634e+09 3.338554e+03 1.060011e+04 3.212788e+03
-3.026573e+09 -2.826584e+09 -2.986589e+09 4.252477e+03 1.613079e+03 3.405379e+03
-1.594608e+09 -1.394639e+09 -1.554467e+09 2.266251e+03 -1.314732e+03 1.520970e+05
-2.591169e+09 -2.391236e+09 -2.551155e+09 -3.485460e+04 -1.091010e+04 1.510377e+04
-3.601709e+09 -3.401718e+09 -3.561723e+09 4.065534e+03 9.829355e+02 1.914581e+03
-2.470824e+09 -2.270832e+09 -2.430836e+09 2.335277e+03 8.885558e+02 1.864975e+03
-2.822021e+09 -2.622028e+09 -2.782033e+09 3.444575e+03 1.060928e+03 2.038009e+03
-3.595816e+09 -3.395964e+09 -3.555762e+09 4.378937e+04 1.080075e+04 6.861584e+04
-3.596750e+09 -3.396790e+09 -3.556794e+09 -3.496503e+03 -1.441761e+03 1.127984e+04
-1.870194e+09 -1.670202e+09 -1.830204e+09 2.190605e+03 6.620805e+02 1.683546e+03
-2.360567e+09 -2.160577e+09 -2.320581e+09 2.464853e+03 1.176987e+03 3.428629e+03
-3.399750e+09 -3.199781e+09 -3.359784e+09 1.353150e+03 1.141939e+03 8.393757e+03
-2.817979e+09 -2.618003e+09 -2.778004e+09 1.414876e+03 1.500072e+02 8.997835e+03
-1.781310e+09 -1.581316e+09 -1.741319e+09 1.981051e+03 5.950163e+02 8.957491e+02
-1.860283e+09 -1.660288e+09 -1.820291e+09 -6.946629e+03 -9.904454e+03 1.709757e+04
-1.825123e+09 -1.625133e+09 -1.785134e+09 -5.825059e+03 -6.764501e+03 1.245271e+04
-1.973596e+09 -1.773598e+09 -1.933610e+09 -1.280239e+04 -1.405695e+04 1.262851e+04
-3.391370e+09 -3.191381e+09 -3.351392e+09 -1.185312e+04 -2.790383e+03 6.135103e+03
-1.681582e+09 -1.481584e+09 -1.641587e+09 -4.714724e+03 -9.393418e+03 1.855031e+04
-1.580672e+09 -1.380671e+09 -1.540675e+09 -2.615595e+03 -8.194327e+03 8.368695e+03
-3.117037e+09 -2.917066e+09 -3.077073e+09 -1.303737e+04 -4.857681e+03 1.013282e+04
-2.829176e+09 -2.629184e+09 -2.789200e+09 -1.639450e+04 -7.877903e+03 1.312146e+04
-3.590704e+09 -3.390716e+09 -3.550732e+09 -1.689166e+04 -4.570439e+03 6.987536e+03
-3.124810e+09 -2.924809e+09 -3.084827e+09 -1.066003e+04 -6.163251e+03 5.838979e+03
-2.611205e+09 -2.411213e+09 -2.571222e+09 -1.073280e+04 -5.591223e+03 9.929133e+03
-2.038387e+09 -1.838357e+09 -1.998376e+09 -3.805945e+03 -1.934238e+04 3.963447e+03
-3.580555e+09 -3.380496e+09 -3.540547e+09 -4.283595e+02 1.510159e+04 -4.471779e+02
-2.811574e+09 -2.611500e+09 -2.771548e+09 6.265458e+03 -1.467897e+04 2.047122e+03
-1.836837e+09 -1.636803e+09 -1.796809e+09 5.497874e+03 -9.111256e+03 1.036111e+04
-2.423898e+09 -2.223940e+09 -2.383879e+09 4.364150e+04 -1.114472e+04 -4.317831e+04
-3.581558e+09 -3.381558e+09 -3.541555e+09 4.817482e+04 6.701695e+03 1.413614e+04
-3.268050e+09 -3.068071e+09 -3.228086e+09 -2.158843e+04 -8.085724e+03 1.317167e+04
-2.799624e+09 -2.599809e+09 -2.759273e+09 1.622377e+05 -1.089591e+05 -2.209034e+05
-3.592012e+09 -3.392151e+09 -3.552010e+09 4.113855e+04 -1.532151e+04 -1.641484e+04
-2.437502e+09 -2.237512e+09 -2.397520e+09 -8.609983e+03 -6.773476e+03 1.165845e+04
-2.743846e+09 -2.543834e+09 -2.703853e+09 -9.675587e+03 -1.608359e+04 8.067125e+03
-3.213072e+09 -3.013084e+09 -3.172722e+09 1.326831e+05 -1.840690e+05 -2.378744e+05
-3.605563e+09 -3.405627e+09 -3.565409e+09 6.185193e+04 -2.605750e+04 -3.522630e+04
-3.627325e+09 -3.427306e+09 -3.586962e+09 1.016080e+05 -9.578282e+04 -4.394239e+04
-2.102533e+09 -1.902519e+09 -2.062535e+09 -6.642129e+03 -1.281159e+04 7.077684e+03
-1.961435e+09 -1.761463e+09 -1.921459e+09 1.677930e+04 8.999377e+03 1.677999e+04
-1.591857e+09 -1.391854e+09 -1.551857e+09 9.091839e+02 -1.307289e+04 4.669005e+03
-1.672431e+09 -1.472449e+09 -1.632422e+09 8.041066e+03 6.082248e+03 -1.195933e+04
-3.605596e+09 -3.405639e+09 -3.565438e+09 8.673710e+04 -5.837775e+04 -8.850554e+04
-3.587673e+09 -3.387775e+09 -3.547546e+09 6.432992e+04 -2.137497e+04 -2.329790e+04
-1.593662e+09 -1.393658e+09 -1.553636e+09 1.712685e+03 9.973510e+03 7.598854e+03
-1.575499e+09 -1.375493e+09 -1.535486e+09 3.315246e+03 6.784529e+03 9.413576e+03
-1.569818e+09 -1.369823e+09 -1.529814e+09 3.575983e+03 7.628963e+03 6.688590e+03
-2.004340e+09 -1.804327e+09 -1.964343e+09 -9.109894e+03 -2.006909e+04 9.768782e+03
-3.206726e+09 -3.006659e+09 -3.166598e+09 -5.500519e+04 -2.310330e+04 1.061921e+04
-3.115887e+09 -2.915930e+09 -3.075482e+09 -1.195344e+05 -1.219198e+05 1.529159e+05
-2.811671e+09 -2.611669e+09 -2.771622e+09 -7.581130e+04 -4.703710e+04 4.077465e+04
-3.579270e+09 -3.379277e+09 -3.539177e+09 7.072389e+04 -1.958206e+03 -2.001147e+04
-3.287743e+09 -3.087788e+09 -3.247774e+09 4.375391e+04 7.652423e+03 1.265827e+04
-2.554167e+09 -2.354000e+09 -2.513718e+09 -8.178297e+04 -1.506619e+05 1.143729e+05
-3.606848e+09 -3.406926e+09 -3.566834e+09 6.196302e+04 1.626453e+03 -4.391107e+02
-3.605590e+09 -3.405644e+09 -3.565403e+09 7.569027e+04 -2.975968e+04 -2.822733e+04
-1.989110e+09 -1.788973e+09 -1.949021e+09 -4.044693e+04 -1.595697e+05 6.917071e+04
-3.503710e+09 -3.303714e+09 -3.463734e+09 2.863597e+04 -1.252441e+04 -1.043950e+04
-2.612726e+09 -2.412657e+09 -2.572461e+09 -7.882387e+04 -6.128156e+04 5.694127e+04
-1.614687e+09 -1.414669e+09 -1.574619e+09 -7.275601e+02 2.422470e+03 2.346644e+04
-2.406350e+09 -2.206354e+09 -2.366359e+09 2.519290e+03 1.180024e+03 1.473259e+03
-3.398718e+09 -3.198723e+09 -3.358729e+09 3.187678e+03 7.788810e+02 1.403807e+03
-2.591913e+09 -2.391918e+09 -2.551923e+09 2.845759e+03 8.397763e+02 1.714318e+03
-3.384648e+09 -3.184655e+09 -3.344660e+09 2.839400e+03 1.034096e+03 1.362164e+03
-3.204826e+09 -3.004878e+09 -3.164870e+09 -5.767662e+02 -1.508670e+03 1.135493e+04
-3.600091e+09 -3.400165e+09 -3.560154e+09 9.679548e+02 8.502080e+01 1.495222e+04
-3.600100e+09 -3.400179e+09 -3.560159e+09 -4.835015e+03 1.321001e+02 1.500920e+04
-3.328019e+09 -3.128072e+09 -3.288069e+09 -1.417662e+04 -3.792625e+03 1.602637e+04
-3.365159e+09 -3.165165e+09 -3.325170e+09 2.520262e+03 6.527660e+02 1.066878e+03
-3.412501e+09 -3.212551e+09 -3.372548e+09 1.775522e+03 -7.294485e+02 1.109309e+04
-3.297000e+09 -3.097005e+09 -3.257010e+09 1.962673e+03 7.820551e+02 7.996048e+02
-3.557363e+09 -3.357505e+09 -3.517426e+09 4.803241e+03 3.990722e+03 2.456707e+03
-3.613607e+09 -3.413683e+09 -3.573664e+09 7.406031e+03 2.643830e+03 1.607773e+04
-1.778566e+09 -1.578600e+09 -1.738594e+09 4.255261e+03 3.813352e+03 2.587896e+04
-3.608476e+09 -3.408501e+09 -3.568503e+09 -2.510685e+03 -8.131214e+02 5.511089e+03
-3.594777e+09 -3.394684e+09 -3.554747e+09 -1.630078e+04 1.228316e+04 -1.760695e+03
-2.139035e+09 -1.939125e+09 -2.099047e+09 1.494330e+04 7.836031e+03 5.051744e+04
-3.132004e+09 -2.932159e+09 -3.091951e+09 1.335404e+04 5.305430e+03 9.381795e+04
-3.102924e+09 -2.902941e+09 -3.062942e+09 -7.478272e+02 -4.155739e+02 3.540818e+03
-3.619706e+09 -3.419687e+09 -3.579721e+09 -3.456175e+04 6.806070e+03 -5.092495e+03
-2.637721e+09 -2.437736e+09 -2.597738e+09 -1.118400e+02 -2.181157e+02 4.002682e+03
-1.890214e+09 -1.690228e+09 -1.850229e+09 4.667259e-01 3.768737e+01 3.752642e+03
-2.775928e+09 -2.575948e+09 -2.735956e+09 -1.450345e+04 -5.493796e+03 1.448621e+04
-2.677000e+09 -2.477116e+09 -2.637035e+09 9.932202e+03 7.454839e+03 1.673102e+03
-1.581806e+09 -1.381817e+09 -1.541813e+09 -2.062731e+03 -2.716403e+03 1.130150e+04
-1.798913e+09 -1.598914e+09 -1.758918e+09 -2.332082e+04 -6.807174e+03 7.878839e+03
-2.525787e+09 -2.325826e+09 -2.485816e+09 -1.401540e+04 -6.227592e+03 1.856422e+04
-3.084699e+09 -2.884806e+09 -3.044711e+09 1.737995e+03 -6.313516e+03 2.642808e+04
-3.610469e+09 -3.410549e+09 -3.570518e+09 -2.916696e+04 -3.694435e+03 1.422817e+04
-3.021464e+09 -2.821467e+09 -2.981485e+09 -1.629547e+04 1.048245e+04 -5.466025e+03
-3.075536e+09 -2.875425e+09 -3.035412e+09 -3.095923e+04 -2.508702e+04 2.931368e+03
-3.564299e+09 -3.364313e+09 -3.524318e+09 -5.768154e+03 -1.511665e+03 3.068669e+03
-3.105184e+09 -2.905295e+09 -3.065174e+09 -1.135132e+04 -2.478946e+04 2.436571e+04
-3.600541e+09 -3.400715e+09 -3.560468e+09 -9.885875e+03 -3.337941e+03 7.300442e+04
-3.291903e+09 -3.092019e+09 -3.251822e+09 -5.859067e+04 -2.102012e+04 5.114757e+04
-3.301187e+09 -3.101210e+09 -3.261217e+09 -1.363253e+04 -4.065798e+03 1.068836e+04
-2.691345e+09 -2.491383e+09 -2.651369e+09 -3.009281e+04 -4.949655e+03 1.306049e+04
-1.576257e+09 -1.376262e+09 -1.536242e+09 -1.256775e+03 -1.307846e+04 6.811140e+03
-3.616081e+09 -3.416116e+09 -3.576095e+09 -5.738486e+04 -3.648537e+03 1.141176e+03
-1.694414e+09 -1.494416e+09 -1.654401e+09 -5.270982e+02 3.974733e+03 2.317799e+04
-2.221586e+09 -2.021589e+09 -2.181599e+09 -1.680663e+04 1.817991e+04 -1.366549e+04
-1.592254e+09 -1.392252e+09 -1.552250e+09 -4.036775e+03 -2.454305e+04 2.080365e+04
-3.600551e+09 -3.400679e+09 -3.560440e+09 -5.817962e+04 -1.199960e+04 6.226536e+04
-3.058277e+09 -2.858357e+09 -3.018314e+09 -4.036004e+04 -6.639040e+03 2.373649e+04
-3.597926e+09 -3.397924e+09 -3.557943e+09 -4.553836e+04 3.038502e+03 -4.842285e+03
-3.597939e+09 -3.397932e+09 -3.557950e+09 -3.789427e+04 1.428389e+04 -1.176867e+04
-2.424052e+09 -2.224041e+09 -2.384052e+09 -1.421269e+04 1.222745e+04 -7.473995e+03
-3.359177e+09 -3.159080e+09 -3.319129e+09 -3.784669e+03 1.404604e+04 -3.512593e+03
-1.680362e+09 -1.480375e+09 -1.640274e+09 -9.307773e+03 -9.906886e+03 7.192752e+04
-1.991488e+09 -1.791475e+09 -1.951485e+09 -2.987411e+03 1.271019e+04 -7.580877e+03
-3.404439e+09 -3.204458e+09 -3.364368e+09 -7.241419e+04 -2.964987e+04 3.111580e+04
-3.583622e+09 -3.383516e+09 -3.543582e+09 -1.072020e+04 -5.014868e+03 2.604837e+03
-3.608709e+09 -3.408619e+09 -3.568678e+09 3.430725e+03 -1.888289e+04 2.087717e+03
-2.493336e+09 -2.293334e+09 -2.453344e+09 -5.951426e+03 -6.897486e+03 6.147053e+03
-3.229710e+09 -3.029667e+09 -3.189458e+09 -9.346045e+04 -7.343064e+04 5.497842e+04
-3.410702e+09 -3.210667e+09 -3.370467e+09 -8.706363e+04 -6.999956e+04 5.457439e+04
-1.599807e+09 -1.399812e+09 -1.559787e+09 -8.741459e+03 -6.083232e+04 5.855536e+04
-2.682721e+09 -2.482666e+09 -2.642343e+09 -1.543960e+05 3.264642e+05 -1.625388e+05
-2.565533e+09 -2.365566e+09 -2.525154e+09 1.134292e+05 1.806796e+05 1.514860e+05
-2.124065e+09 -1.924163e+09 -2.083019e+09 3.947074e+04 1.949065e+05 -4.275678e+05
-2.208199e+09 -2.008215e+09 -2.168217e+09 -7.117324e+03 -4.916415e+03 1.048195e+04
-3.168098e+09 -2.968098e+09 -3.126928e+09 -6.570835e+04 1.602141e+05 -2.359999e+05
-2.689217e+09 -2.489246e+09 -2.649239e+09 -2.303691e+04 -1.499840e+04 1.965002e+04
-1.807398e+09 -1.607419e+09 -1.767414e+09 -7.573511e+02 -4.831351e+03 1.504296e+04
-1.571836e+09 -1.371873e+09 -1.531404e+09 -3.218065e+02 2.506473e+05 3.772154e+05
-3.075943e+09 -2.875964e+09 -3.035970e+09 -1.402433e+04 -6.266157e+03 1.142212e+04
-2.495445e+09 -2.295458e+09 -2.455467e+09 -1.194068e+04 -5.176301e+03 1.050238e+04
-3.584924e+09 -3.385007e+09 -3.544588e+09 7.935101e+04 3.867326e+04 1.176335e+05
-3.414746e+09 -3.214780e+09 -3.374786e+09 -1.611250e+04 -3.488049e+03 1.291406e+04
-1.818885e+09 -1.618894e+09 -1.778899e+09 -6.615778e+03 -5.570131e+03 1.094477e+04
-3.221280e+09 -3.021299e+09 -3.181307e+09 -1.182030e+04 -3.458110e+03 1.038195e+04
-1.591625e+09 -1.391605e+09 -1.551004e+09 -2.093304e+04 1.549140e+05 4.534712e+05
-3.352925e+09 -3.153049e+09 -3.312936e+09 -3.827044e+04 -1.094457e+04 2.818672e+04
-1.981566e+09 -1.781577e+09 -1.941581e+09 -5.848417e+03 -3.647780e+03 9.806258e+03
-3.370587e+09 -3.170595e+09 -3.330613e+09 -1.592939e+04 -5.972705e+03 8.090655e+03
-2.834190e+09 -2.634014e+09 -2.793130e+09 -2.541597e+03 4.101238e+05 -1.411625e+04
-1.533319e+09 -1.333335e+09 -1.493241e+09 -4.399748e+03 1.470563e+04 1.271848e+05
-1.592256e+09 -1.392260e+09 -1.552264e+09 -3.002571e+03 -5.533579e+03 9.325285e+03
-3.600581e+09 -3.400766e+09 -3.560468e+09 -3.928742e+04 -2.533223e+04 6.380468e+04
-2.119884e+09 -1.919947e+09 -2.079857e+09 -3.742172e+04 -1.912941e+02 2.337119e+04
-3.377682e+09 -3.177817e+09 -3.337352e+09 4.424995e+04 8.001552e+04 1.277200e+05
-2.157267e+09 -1.957277e+09 -2.117282e+09 6.924426e+03 4.924863e+03 8.276949e+03
-3.559851e+09 -3.359964e+09 -3.519019e+09 -3.202781e+04 -1.362996e+05 1.814547e+05
-3.265752e+09 -3.065778e+09 -3.225788e+09 -2.137360e+04 -7.974842e+03 1.312928e+04
-3.604516e+09 -3.404508e+09 -3.562917e+09 1.305689e+04 -4.045977e+04 -7.749107e+04
-1.650209e+09 -1.450211e+09 -1.610212e+09 -3.683066e+03 -8.271337e+03 1.711316e+04
-3.031416e+09 -2.831437e+09 -2.991443e+09 -9.331242e+03 -4.656652e+03 1.088576e+04
-1.974830e+09 -1.774925e+09 -1.934879e+09 -5.774722e+02 -8.567529e+03 1.449448e+04
-1.570337e+09 -1.370337e+09 -1.530333e+09 -4.354170e+02 2.184769e+04 5.904641e+03
-1.621580e+09 -1.421547e+09 -1.582159e+09 8.817920e+04 4.369623e+05 1.035281e+06
-2.006400e+09 -1.806404e+09 -1.966408e+09 2.547379e+03 1.019956e+03 1.087379e+03
-3.376242e+09 -3.176209e+09 -3.336241e+09 2.313072e+04 1.221018e+04 6.350255e+03
-1.590729e+09 -1.390733e+09 -1.550737e+09 1.572828e+03 6.563931e+02 6.967436e+02
-2.780741e+09 -2.580681e+09 -2.740728e+09 4.108847e+03 1.658983e+04 1.550055e+03
-2.401482e+09 -2.201488e+09 -2.361492e+09 2.880652e+03 1.201282e+03 1.801563e+03
-2.714497e+09 -2.514502e+09 -2.674506e+09 2.178976e+03 6.565976e+02 9.605622e+02
-2.562932e+09 -2.362890e+09 -2.522933e+09 1.281454e+04 1.784725e+04 7.693716e+03
-1.981910e+09 -1.781928e+09 -1.941929e+09 7.532359e+03 3.343961e+03 1.269850e+04
-3.588046e+09 -3.388078e+09 -3.548081e+09 1.044775e+04 2.425122e+03 8.648865e+03
-2.364280e+09 -2.164247e+09 -2.324257e+09 5.341977e+03 1.897652e+04 2.857490e+03
-3.595850e+09 -3.395989e+09 -3.555767e+09 6.709859e+04 3.986733e+04 5.417038e+04
-2.779973e+09 -2.579915e+09 -2.739963e+09 2.351642e+04 1.389498e+04 -1.309379e+03
-3.553265e+09 -3.353470e+09 -3.513141e+09 1.887946e+04 1.730290e+04 7.353862e+04
-3.086720e+09 -2.886845e+09 -3.046731e+09 1.111588e+04 3.094774e+03 2.494034e+04
-1.573135e+09 -1.373203e+09 -1.532944e+09 1.994686e+04 1.153130e+04 2.292578e+05
-2.566506e+09 -2.366465e+09 -2.526480e+09 2.336150e+04 9.874757e+03 4.690141e+03
-3.582954e+09 -3.382965e+09 -3.542980e+09 1.387832e+04 5.287999e+03 7.512087e+03
-3.572253e+09 -3.372260e+09 -3.532269e+09 6.682483e+03 2.338309e+03 3.566391e+03
-2.667852e+09 -2.467852e+09 -2.627865e+09 8.326279e+03 6.484553e+03 6.852903e+03
-1.579174e+09 -1.379176e+09 -1.539156e+09 -8.105026e+01 1.815018e+04 3.603911e+03
-1.929072e+09 -1.729047e+09 -1.889062e+09 1.107139e+04 1.504459e+04 4.143323e+03
-1.841681e+09 -1.641683e+09 -1.801689e+09 3.327418e+03 3.379483e+03 3.629018e+03
-1.746850e+09 -1.546831e+09 -1.706852e+09 1.075920e+04 1.966710e+04 5.959995e+03
-2.319278e+09 -2.119246e+09 -2.279262e+09 1.456204e+04 -2.132058e+03 4.485227e+03
-1.804079e+09 -1.604082e+09 -1.764087e+09 2.295876e+03 1.176051e+03 1.679301e+03
-3.387200e+09 -3.187203e+09 -3.347210e+09 3.980554e+03 1.460824e+03 1.899782e+03
-3.489749e+09 -3.289753e+09 -3.449760e+09 -2.937148e+03 -9.643880e+02 1.247674e+03
-1.808725e+09 -1.608730e+09 -1.768734e+09 2.397723e+03 1.196797e+03 1.390100e+03
-1.825021e+09 -1.625026e+09 -1.785030e+09 2.654835e+03 1.337308e+03 2.265707e+03
-2.022451e+09 -1.822457e+09 -1.982461e+09 3.270299e+03 1.748148e+03 3.065550e+03
-2.628005e+09 -2.428011e+09 -2.588016e+09 3.544615e+03 1.789206e+03 2.495559e+03
-2.026153e+09 -1.826164e+09 -1.986165e+09 2.750113e+03 1.192661e+03 3.206875e+03
-3.601348e+09 -3.401526e+09 -3.561356e+09 -6.197968e+03 -5.073563e+03 3.188669e+04
-2.388631e+09 -2.188718e+09 -2.348676e+09 1.466236e+04 -1.820293e+04 -7.179723e+03
-2.637336e+09 -2.437347e+09 -2.597350e+09 2.542771e+03 8.685071e+02 3.828670e+03
-2.579535e+09 -2.379544e+09 -2.539547e+09 1.978072e+03 7.438419e+02 1.821121e+03
-2.993480e+09 -2.793491e+09 -2.953495e+09 2.030023e+03 5.844378e+02 2.037164e+03
-3.299059e+09 -3.099069e+09 -3.259072e+09 2.844722e+03 3.666043e+02 1.655575e+03
-3.503919e+09 -3.304032e+09 -3.463970e+09 3.156724e+04 6.852324e+02 4.941242e+03
-3.359991e+09 -3.159999e+09 -3.320004e+09 2.623537e+03 1.006844e+03 1.228797e+03
-3.052103e+09 -2.852192e+09 -3.012118e+09 3.006652e+04 1.186473e+04 1.586888e+04
-3.024241e+09 -2.824251e+09 -2.984256e+09 3.380053e+03 1.236149e+03 2.917967e+03
-3.288676e+09 -3.088689e+09 -3.248692e+09 2.721591e+03 4.694294e+02 2.358387e+03
-2.077281e+09 -1.877291e+09 -2.037292e+09 2.149026e+03 6.743925e+02 1.935718e+03
-2.286747e+09 -2.086735e+09 -2.246751e+09 5.155697e+03 -1.011145e+04 -7.039627e+03
-1.585529e+09 -1.385538e+09 -1.545540e+09 1.679522e+03 8.920415e+02 2.286728e+03
-3.218269e+09 -3.018284e+09 -3.178288e+09 3.675709e+03 1.109129e+03 3.885810e+03
-3.577110e+09 -3.377123e+09 -3.537127e+09 4.087824e+03 8.806925e+02 2.329627e+03
-2.393447e+09 -2.193502e+09 -2.353488e+09 2.481482e+04 -1.866804e+04 -1.582112e+04
-2.509458e+09 -2.309547e+09 -2.469362e+09 5.459234e+04 4.978775e+04 5.315518e+04
-3.481047e+09 -3.281031e+09 -3.441058e+09 7.454038e+03 -9.285231e+03 -5.368361e+03
-2.993136e+09 -2.793175e+09 -2.953090e+09 8.376733e+04 3.270577e+04 3.585836e+04
-1.549140e+09 -1.349141e+09 -1.509142e+09 1.144813e+04 1.812798e+04 1.400015e+04
-2.273421e+09 -2.073420e+09 -2.233395e+09 3.171756e+04 -4.042635e+03 7.835555e+03
-2.773279e+09 -2.573267e+09 -2.733291e+09 -1.508543e+04 -1.430503e+04 8.151923e+03
-1.585048e+09 -1.385055e+09 -1.545058e+09 -2.059941e+03 -1.315255e+03 2.266891e+03
-2.341739e+09 -2.141723e+09 -2.301732e+09 -1.553276e+04 -1.075806e+04 1.233142e+04
-1.598811e+09 -1.398818e+09 -1.558821e+09 -2.406713e+03 -1.844664e+03 3.109030e+03
-3.488609e+09 -3.288614e+09 -3.448619e+09 1.933575e+03 2.766292e+02 5.717870e+02
-3.545222e+09 -3.345180e+09 -3.505223e+09 -7.446215e+03 -1.430136e+04 4.154564e+03
-2.543382e+09 -2.343364e+09 -2.503386e+09 -5.090792e+03 -1.859109e+04 3.846260e+03
-1.588444e+09 -1.388448e+09 -1.548452e+09 -1.725080e+03 -1.119128e+03 1.473505e+03
-3.161546e+09 -2.961551e+09 -3.121557e+09 -3.366792e+03 -1.231564e+03 1.769681e+03
-3.220994e+09 -3.021001e+09 -3.181010e+09 -5.263702e+03 -3.123170e+03 4.162532e+03
-3.590234e+09 -3.390242e+09 -3.550254e+09 -9.051064e+03 -3.483961e+03 4.479354e+03
-2.003580e+09 -1.803551e+09 -1.963562e+09 -1.071212e+04 -3.234989e+04 1.512229e+04
-2.779915e+09 -2.579918e+09 -2.739925e+09 -4.692714e+03 -2.185803e+03 2.556122e+03
-2.956285e+09 -2.756290e+09 -2.916295e+09 -1.998733e+03 -6.418681e+02 1.089212e+03
-1.598813e+09 -1.398819e+09 -1.558822e+09 -2.770218e+03 -2.305034e+03 3.688520e+03
-2.037597e+09 -1.837578e+09 -1.997595e+09 -1.277550e+04 -2.478659e+04 1.638383e+04
-1.569115e+09 -1.369164e+09 -1.529080e+09 4.475610e+03 5.682933e+04 1.019645e+05
-3.358107e+09 -3.158260e+09 -3.318003e+09 4.489593e+04 3.059231e+04 8.314146e+04
-1.886911e+09 -1.686919e+09 -1.846899e+09 -5.294110e+04 -1.351711e+04 -1.020281e+04
-3.013012e+09 -2.813004e+09 -2.973026e+09 1.133377e+04 -1.090926e+04 -7.294705e+03
-3.222876e+09 -3.022881e+09 -3.182890e+09 6.723916e+03 2.864536e+03 3.283238e+03
-3.605842e+09 -3.405852e+09 -3.565861e+09 8.045471e+03 1.707888e+03 2.866921e+03
-1.868739e+09 -1.668740e+09 -1.828747e+09 4.872508e+03 5.718052e+03 5.621024e+03
-1.599038e+09 -1.399039e+09 -1.559029e+09 -7.354855e+01 2.107412e+04 3.204385e+03
-2.585701e+09 -2.385689e+09 -2.545711e+09 8.458541e+03 -1.603803e+04 -1.012893e+04
-1.585048e+09 -1.385056e+09 -1.545058e+09 -2.107148e+03 -1.332409e+03 2.641962e+03
-1.582226e+09 -1.382236e+09 -1.542238e+09 -2.020059e+03 -9.936710e+02 3.096311e+03
-3.579015e+09 -3.378905e+09 -3.538939e+09 -5.401130e+03 1.999391e+04 4.020913e+03
-3.591479e+09 -3.391444e+09 -3.551476e+09 -2.448278e+04 1.470729e+04 -7.368695e+03
-2.690762e+09 -2.490748e+09 -2.650769e+09 -5.632157e+03 9.808110e+03 -5.624435e+03
-2.231728e+09 -2.031738e+09 -2.191742e+09 -3.765596e+03 -1.314770e+03 4.005178e+03
-2.146178e+09 -1.946187e+09 -2.106190e+09 -3.122187e+03 -1.129818e+03 3.885267e+03
-3.577700e+09 -3.377654e+09 -3.537697e+09 -1.770194e+04 1.622204e+04 -9.418675e+03
-2.594519e+09 -2.394500e+09 -2.554522e+09 -1.515150e+03 1.247097e+04 -3.801895e+03
-3.270006e+09 -3.069965e+09 -3.230007e+09 -1.021900e+04 1.549571e+04 -5.246080e+03
-3.599220e+09 -3.399231e+09 -3.559235e+09 -2.664962e+03 -6.443387e+02 1.787001e+03
-3.006917e+09 -2.806927e+09 -2.966930e+09 -1.993874e+03 -6.174108e+02 1.690888e+03
-3.239157e+09 -3.039164e+09 -3.199179e+09 -2.017733e+04 -1.034094e+04 1.131025e+04
-3.385964e+09 -3.185964e+09 -3.345985e+09 -2.246519e+04 -9.485987e+03 8.965942e+03
-1.891012e+09 -1.691021e+09 -1.851023e+09 -2.124689e+03 -6.056333e+02 1.766496e+03
-2.633814e+09 -2.433822e+09 -2.593837e+09 -1.448588e+04 -9.319543e+03 1.222110e+04
-3.606924e+09 -3.406938e+09 -3.566953e+09 -2.628397e+04 -8.044062e+03 1.183660e+04
-2.723819e+09 -2.523795e+09 -2.683814e+09 -3.838673e+04 -1.175271e+04 1.273643e+04
-1.598650e+09 -1.398647e+09 -1.558646e+09 -2.263114e+02 -1.691236e+04 1.415362e+04
-3.185644e+09 -2.985643e+09 -3.145660e+09 -1.575182e+04 -7.954928e+03 7.917486e+03
-1.593822e+09 -1.393834e+09 -1.553835e+09 -4.708926e+02 -4.258803e+02 4.252990e+03
-1.591029e+09 -1.391038e+09 -1.551040e+09 -1.753102e+03 -8.511168e+02 1.971633e+03
-2.501114e+09 -2.301075e+09 -2.461077e+09 1.888631e+04 -8.120516e+03 7.795012e+03
-3.223727e+09 -3.023648e+09 -3.183673e+09 2.438860e+04 -6.929227e+03 -1.191690e+03
-1.598649e+09 -1.398647e+09 -1.558652e+09 -3.301718e+03 -8.735283e+03 1.286497e+04
-3.606910e+09 -3.406926e+09 -3.566942e+09 -3.236692e+04 -3.506927e+03 6.390351e+03
-2.195734e+09 -1.995740e+09 -2.155752e+09 -2.223885e+04 -6.288489e+03 1.107813e+04
-2.546148e+09 -2.346144e+09 -2.506164e+09 -1.497875e+04 -1.367853e+04 1.144772e+04
-1.891651e+09 -1.691652e+09 -1.851667e+09 -1.241158e+04 -1.168958e+04 1.838460e+04
-2.722657e+09 -2.522607e+09 -2.682592e+09 1.644644e+04 -5.779081e+03 -1.336332e+02
-1.682370e+09 -1.482368e+09 -1.642317e+09 -9.101069e+02 1.057044e+04 2.117333e+04
-2.632136e+09 -2.432102e+09 -2.592147e+09 3.575022e+04 -1.267555e+04 -6.066437e+03
-1.585198e+09 -1.385198e+09 -1.545193e+09 -6.388060e+03 -2.050244e+04 -6.609199e+03
-2.090155e+09 -1.890114e+09 -2.050146e+09 -1.027134e+04 -2.660903e+04 7.151298e+03
-1.588821e+09 -1.388821e+09 -1.548778e+09 2.638454e+03 -5.393819e+03 8.088185e+03
-1.564892e+09 -1.364885e+09 -1.524795e+09 2.327733e+03 -5.245729e+04 -2.409518e+03
-3.579305e+09 -3.379282e+09 -3.539183e+09 7.603625e+04 -1.303444e+04 -3.204750e+03
-2.652738e+09 -2.452741e+09 -2.612441e+09 9.240939e+04 -1.583007e+05 -8.117849e+04
-2.020929e+09 -1.820906e+09 -1.980913e+09 1.552958e+04 -3.710066e+04 -4.010467e+03
-3.183089e+09 -2.983030e+09 -3.143084e+09 8.984829e+03 -9.399811e+03 -3.644626e+03
-1.699452e+09 -1.499466e+09 -1.659460e+09 3.354375e+03 -8.647160e+03 -8.641873e+02
-3.503920e+09 -3.304013e+09 -3.463972e+09 3.234348e+04 -3.174227e+03 -6.408656e+01
-3.220843e+09 -3.020951e+09 -3.180914e+09 1.378040e+04 -4.526190e+03 5.197643e+03
-1.996656e+09 -1.796617e+09 -1.956649e+09 4.623245e+03 -3.729168e+04 -9.518913e+03
-2.366779e+09 -2.166754e+09 -2.326770e+09 9.783591e+02 -2.363176e+04 -4.378485e+03
-3.494854e+09 -3.294857e+09 -3.454862e+09 1.696791e+03 3.411079e+02 3.158761e+02
-1.822655e+09 -1.622638e+09 -1.782656e+09 -4.027412e+03 -1.996882e+04 9.733420e+03
-3.419510e+09 -3.219433e+09 -3.379444e+09 -3.895962e+04 1.192453e+04 -3.217482e+03
-2.608052e+09 -2.407998e+09 -2.568015e+09 1.014917e+04 -2.013251e+04 3.735412e+02
-1.786696e+09 -1.586695e+09 -1.746694e+09 -1.806896e+03 -1.439561e+04 5.872736e+03
-3.600539e+09 -3.400484e+09 -3.560532e+09 -2.659703e+04 -1.806898e+04 4.406587e+03
-3.232371e+09 -3.032310e+09 -3.192352e+09 -2.240634e+04 -6.620114e+03 5.903623e+03
-3.610048e+09 -3.409988e+09 -3.570024e+09 -3.421062e+04 -1.270119e+04 8.069680e+03
-3.417298e+09 -3.217267e+09 -3.377304e+09 -1.384717e+04 -1.159648e+04 6.016106e+03
-3.048845e+09 -2.848733e+09 -3.008683e+09 2.504753e+04 1.825007e+04 2.422472e+04
-1.917339e+09 -1.717363e+09 -1.877364e+09 -9.043168e+03 1.061109e+04 -1.102423e+04
-2.629109e+09 -2.428971e+09 -2.588622e+09 1.079380e+05 2.013398e+05 1.398044e+05
-3.418620e+09 -3.218596e+09 -3.378527e+09 -6.332267e+04 -1.274225e+04 3.002971e+04
-1.833918e+09 -1.633949e+09 -1.793944e+09 -1.171704e+04 1.180702e+04 -7.545140e+03
-3.519342e+09 -3.319362e+09 -3.478817e+09 -8.851640e+04 -1.115047e+05 1.303587e+05
-2.247547e+09 -2.047644e+09 -2.206719e+09 -4.949855e+04 -7.328406e+04 4.206945e+05
-2.278001e+09 -2.078082e+09 -2.237047e+09 -6.824536e+04 -1.944250e+05 2.852812e+05
-2.670361e+09 -2.470571e+09 -2.629852e+09 4.322255e+04 2.557425e+05 5.001689e+05
-2.038122e+09 -1.837927e+09 -1.997341e+09 -4.593188e+04 -2.419621e+05 1.598371e+05
-1.686282e+09 -1.486277e+09 -1.646285e+09 2.144954e+03 5.054487e+03 2.546019e+03
-3.600479e+09 -3.400419e+09 -3.559826e+09 1.068107e+05 1.200140e+05 1.099553e+05
-2.038688e+09 -1.838688e+09 -1.998678e+09 4.349237e+04 2.877688e+03 -4.923885e+03
-3.341366e+09 -3.141352e+09 -3.301356e+09 -4.053689e+04 -4.562524e+03 3.669374e+03
-3.340661e+09 -3.140661e+09 -3.300678e+09 -1.174889e+04 -4.399291e+03 5.700049e+03
-2.567770e+09 -2.367753e+09 -2.527759e+09 -2.328255e+04 -1.952172e+04 1.306180e+04
-3.595982e+09 -3.395941e+09 -3.555985e+09 -7.071022e+02 1.184137e+04 -5.201859e+02
-1.583619e+09 -1.383617e+09 -1.543616e+09 -8.604028e+01 2.243953e+04 6.899685e+02
-3.368481e+09 -3.168469e+09 -3.328489e+09 -3.401199e+04 -9.349837e+03 9.301506e+03
-2.412335e+09 -2.212330e+09 -2.372333e+09 -1.739851e+04 1.883353e+04 -1.293979e+04
-2.844926e+09 -2.644864e+09 -2.804915e+09 -4.955590e+04 6.864903e+03 2.101209e+04
-2.423310e+09 -2.223285e+09 -2.383311e+09 -1.329442e+04 -1.285444e+04 5.442901e+03
-1.794839e+09 -1.594778e+09 -1.754715e+09 -1.764154e+03 -3.880154e+04 4.072537e+04
-1.989061e+09 -1.789038e+09 -1.949056e+09 -1.647740e+04 -1.659821e+04 1.097522e+04
-1.764280e+09 -1.564263e+09 -1.724145e+09 -1.618021e+04 -7.646675e+04 -1.955946e+04
-2.021114e+09 -1.821052e+09 -1.981030e+09 -3.737814e+04 -6.092045e+04 2.216131e+04
-3.219190e+09 -3.019140e+09 -3.179185e+09 -3.045182e+04 -1.234246e+04 9.166678e+02
-3.614259e+09 -3.414211e+09 -3.574110e+09 -6.900670e+04 -9.891914e+03 1.923414e+03
-3.400141e+09 -3.200070e+09 -3.360105e+09 -4.148824e+04 -3.690922e+03 -8.797064e+03
-1.608999e+09 -1.408978e+09 -1.568845e+09 -9.640198e+03 -1.056701e+05 -1.082933e+03
-3.610107e+09 -3.410042e+09 -3.569800e+09 -9.052185e+04 -8.240836e+04 7.080935e+04
-1.581083e+09 -1.381080e+09 -1.541079e+09 1.882307e+03 1.134427e+04 1.286312e+04
-3.583942e+09 -3.383959e+09 -3.543963e+09 3.827742e+04 1.107610e+04 1.173731e+04
-3.600812e+09 -3.400863e+09 -3.560859e+09 2.950772e+04 2.437502e+03 7.345799e+03
-3.365609e+09 -3.165573e+09 -3.325609e+09 -1.401851e+04 1.093644e+04 -5.152589e+03
-2.792012e+09 -2.591991e+09 -2.752020e+09 -8.212021e+03 1.334540e+04 -5.057878e+03
-1.546806e+09 -1.346796e+09 -1.506790e+09 -6.693335e+03 1.367703e+04 1.385524e+04
-1.593653e+09 -1.393655e+09 -1.553655e+09 1.031613e+04 -8.542016e+03 -3.259607e+03
-2.007534e+09 -1.807542e+09 -1.967488e+09 4.943037e+04 -1.477070e+04 -5.483870e+04
-3.186727e+09 -2.986705e+09 -3.146735e+09 -7.997771e+03 9.952524e+03 -4.200547e+03
-1.546774e+09 -1.346768e+09 -1.506685e+09 8.032218e+03 -2.454365e+04 1.677612e+04
-3.219088e+09 -3.019057e+09 -3.179092e+09 -4.467416e+03 1.300093e+04 -2.537218e+03
-3.363415e+09 -3.163292e+09 -3.323266e+09 3.570000e+04 -1.557765e+04 -6.226630e+03
-3.082158e+09 -2.882142e+09 -3.042164e+09 -4.351062e+03 9.524689e+03 -2.377999e+03
-2.755025e+09 -2.554999e+09 -2.715029e+09 -6.820150e+03 1.546532e+04 -5.740187e+03
-1.589519e+09 -1.389513e+09 -1.549521e+09 3.401337e+02 1.188990e+04 -5.208380e+03
-1.768243e+09 -1.568222e+09 -1.728245e+09 -1.380594e+03 2.028348e+04 -6.756651e+03
-3.609748e+09 -3.409693e+09 -3.569745e+09 -1.025876e+04 1.325324e+04 -1.661531e+03
-3.022655e+09 -2.822615e+09 -2.982652e+09 -4.088491e+03 1.892995e+04 -2.298613e+03
-1.873421e+09 -1.673410e+09 -1.833418e+09 -1.464823e+03 1.774229e+04 -3.549618e+03
-1.575869e+09 -1.375814e+09 -1.535111e+09 -4.161010e+04 -2.133946e+05 -2.854753e+05
-1.621296e+09 -1.421271e+09 -1.581093e+09 1.686646e+03 -2.088870e+05 -6.319819e+04
-2.690693e+09 -2.490498e+09 -2.650227e+09 -3.928208e+04 -1.441526e+05 -8.543512e+04
-2.153245e+09 -1.953159e+09 -2.113166e+09 3.766065e+04 -3.275496e+04 -5.910108e+03
-3.589945e+09 -3.389914e+09 -3.549949e+09 -1.479407e+04 1.384173e+04 -5.749419e+03
-2.394891e+09 -2.194876e+09 -2.354893e+09 -3.005369e+03 6.666002e+03 -2.629340e+03
-3.413028e+09 -3.212972e+09 -3.373035e+09 1.892856e+04 -1.352250e+04 -5.299718e+03
-3.162283e+09 -2.962268e+09 -3.122288e+09 3.430253e+03 6.748059e+03 3.459959e+03
-3.415218e+09 -3.215136e+09 -3.375170e+09 4.180336e+03 -5.927104e+03 3.213417e+03
-2.662799e+09 -2.462730e+09 -2.622769e+09 2.026013e+04 -2.500824e+04 -1.031434e+04
-2.412383e+09 -2.212345e+09 -2.372371e+09 1.609559e+03 -1.598758e+04 2.114251e+03
-3.401258e+09 -3.201181e+09 -3.361235e+09 -5.906577e+03 -2.023812e+04 2.814727e+03
-2.610979e+09 -2.410930e+09 -2.570951e+09 6.907383e+02 -1.814029e+04 -1.586297e+03
-3.487502e+09 -3.287481e+09 -3.447507e+09 5.577607e+03 6.008687e+03 1.956661e+03
-3.579814e+09 -3.379829e+09 -3.539837e+09 -7.082344e+03 -2.554576e+03 4.874879e+03
-3.380109e+09 -3.180039e+09 -3.340090e+09 1.507990e+04 -1.811038e+04 -6.870926e+03
-1.575609e+09 -1.375618e+09 -1.535620e+09 -2.551041e+03 -1.941856e+03 4.270950e+03
-3.593777e+09 -3.393787e+09 -3.553794e+09 -5.402148e+03 -1.463702e+03 2.860614e+03
-3.374640e+09 -3.174649e+09 -3.334655e+09 -3.700598e+03 -1.115965e+03 3.151799e+03
-3.564301e+09 -3.364313e+09 -3.524319e+09 -4.794193e+03 -1.317953e+03 2.830716e+03
-2.273572e+09 -2.073516e+09 -2.231317e+09 1.158669e+05 3.430582e+05 3.259266e+05
-2.158913e+09 -1.958782e+09 -2.118803e+09 -6.449116e+04 7.215716e+04 6.626290e+03
-2.189448e+09 -1.989567e+09 -2.147160e+09 -1.965647e+05 6.492596e+05 -6.275342e+05
-2.086909e+09 -1.886922e+09 -2.046928e+09 -1.092563e+04 -6.868867e+03 1.583955e+04
-1.571797e+09 -1.371806e+09 -1.531807e+09 -2.227728e+03 -2.725018e+03 8.344860e+03
-1.933935e+09 -1.733942e+09 -1.893945e+09 -5.539617e+03 -3.936251e+03 1.065599e+04
-2.742380e+09 -2.542391e+09 -2.702396e+09 -4.658610e+03 -2.073378e+03 3.976256e+03
-3.582479e+09 -3.382492e+09 -3.542496e+09 -4.062935e+03 -1.085028e+03 3.071080e+03
-1.943187e+09 -1.743184e+09 -1.903196e+09 -7.383811e+03 -1.021157e+04 8.928057e+03
-3.430846e+09 -3.230887e+09 -3.389402e+09 -4.390758e+04 1.398837e+05 -1.015458e+05
-3.499401e+09 -3.299413e+09 -3.459416e+09 -2.170883e+03 -4.194102e+02 1.469758e+03
-2.113838e+09 -1.913856e+09 -2.073856e+09 -1.971868e+03 -1.787468e+03 8.129679e+03
-1.840110e+09 -1.640125e+09 -1.800124e+09 -1.024972e+01 6.980185e+02 9.178379e+03
-3.211133e+09 -3.011150e+09 -3.171154e+09 2.712909e+03 7.679836e+02 4.256662e+03
-3.598129e+09 -3.398155e+09 -3.558157e+09 1.603360e+03 1.932853e+02 5.632856e+03
-2.928739e+09 -2.728711e+09 -2.888744e+09 -2.114954e+03 -1.198435e+04 1.524810e+03
-2.821153e+09 -2.621167e+09 -2.781170e+09 3.294067e+03 1.143486e+03 3.482412e+03
-3.402907e+09 -3.202921e+09 -3.362924e+09 3.169241e+03 1.170557e+03 2.667454e+03
-2.949201e+09 -2.749177e+09 -2.909208e+09 -4.808046e+03 -1.002144e+04 3.782554e+03
-3.545218e+09 -3.345183e+09 -3.505223e+09 -1.128499e+04 -1.551706e+04 3.894793e+03
-3.249094e+09 -3.049058e+09 -3.209099e+09 -7.483142e+03 -1.346863e+04 2.278660e+03
-2.946609e+09 -2.746583e+09 -2.906614e+09 -3.481137e+03 -1.189964e+04 3.144296e+03
-3.593741e+09 -3.393736e+09 -3.553760e+09 -1.396226e+04 -8.681991e+03 7.202148e+03
-3.601322e+09 -3.401474e+09 -3.561340e+09 1.084573e+04 -3.885534e+03 3.293719e+04
-3.272334e+09 -3.072434e+09 -3.232328e+09 3.544345e+04 4.119443e+03 2.411767e+04
-1.585342e+09 -1.385367e+09 -1.544873e+09 2.537421e+02 -4.316903e+04 4.300266e+05
-2.770834e+09 -2.570847e+09 -2.730850e+09 4.020226e+03 1.707041e+03 4.664641e+03
-2.418480e+09 -2.218473e+09 -2.378520e+09 5.159504e+04 8.142860e+03 -8.576192e+03
-3.196215e+09 -2.996242e+09 -3.156186e+09 5.506276e+04 4.228525e+03 2.059405e+04
-3.230139e+09 -3.030116e+09 -3.190148e+09 -1.806086e+04 -1.093679e+04 5.533981e+03
-3.610553e+09 -3.410530e+09 -3.570564e+09 -1.923524e+04 -7.188599e+03 4.720791e+03
-3.605313e+09 -3.405281e+09 -3.565322e+09 -2.851550e+04 -1.677808e+04 9.948887e+03
-3.337021e+09 -3.137091e+09 -3.296961e+09 7.504469e+04 1.738767e+04 2.996047e+04
-1.765006e+09 -1.565064e+09 -1.724894e+09 3.062638e+04 1.648311e+04 7.029019e+04
-3.422891e+09 -3.222815e+09 -3.382864e+09 -2.341950e+04 -1.008832e+04 3.070220e+03
-1.803822e+09 -1.603817e+09 -1.763815e+09 -6.864008e+02 -1.707341e+04 8.473191e+03
-3.614261e+09 -3.414219e+09 -3.574130e+09 -7.130004e+04 -4.309687e+04 2.037736e+04
-3.401829e+09 -3.201749e+09 -3.361813e+09 3.238991e+04 -1.688463e+04 -6.599616e+03
-3.212919e+09 -3.012968e+09 -3.172969e+09 3.354524e+04 -5.766408e+03 -5.695066e+03
-3.590595e+09 -3.390605e+09 -3.550497e+09 7.244576e+04 1.743380e+03 1.633209e+04
-3.433226e+09 -3.233178e+09 -3.392998e+09 -8.131139e+04 -5.317234e+04 6.462898e+04
-2.588337e+09 -2.388357e+09 -2.548162e+09 7.038071e+04 3.037510e+04 7.107860e+04
-3.077513e+09 -2.877425e+09 -3.037463e+09 -3.645240e+04 -2.168015e+04 1.901196e+04
-2.408798e+09 -2.208768e+09 -2.368779e+09 -3.148591e+04 -3.438594e+04 2.466454e+04
-1.790109e+09 -1.590101e+09 -1.750105e+09 -7.753682e+03 2.197988e+04 -9.372616e+03
-2.811484e+09 -2.611446e+09 -2.771475e+09 -6.436714e+03 1.583537e+04 -2.598476e+03
-1.969447e+09 -1.769405e+09 -1.929428e+09 -2.578548e+03 1.577640e+04 2.798962e+03
-3.484397e+09 -3.284238e+09 -3.444213e+09 2.869942e+04 5.063837e+04 4.455245e+03
-3.508290e+09 -3.308141e+09 -3.468067e+09 -4.807829e+04 3.328499e+04 -2.284461e+04
-1.837232e+09 -1.637212e+09 -1.797171e+09 -4.886580e+03 -1.883698e+03 7.897961e+03
-2.458919e+09 -2.258855e+09 -2.418880e+09 -2.151277e+02 -1.247655e+04 2.990326e+03
-1.580782e+09 -1.380789e+09 -1.540753e+09 4.434022e+03 2.287733e+04 -1.038041e+04
-3.183673e+09 -2.983645e+09 -3.143665e+09 3.354997e+04 7.698512e+03 7.777916e+03
-2.779725e+09 -2.579724e+09 -2.739742e+09 3.676202e+04 1.182351e+04 7.217080e+03
-1.941205e+09 -1.741173e+09 -1.901193e+09 1.262716e+04 1.327823e+04 7.620701e+03
-2.806862e+09 -2.606799e+09 -2.766839e+09 -1.618935e+04 1.623441e+04 -5.373065e+03
-2.732257e+09 -2.532225e+09 -2.691917e+09 -1.170013e+05 1.418964e+05 -1.119706e+05
-3.162897e+09 -2.962821e+09 -3.122872e+09 -5.647150e+03 2.726279e+03 -3.971523e+03
-3.364722e+09 -3.164649e+09 -3.324684e+09 1.911755e+03 1.204691e+04 -5.391150e+02
-3.170776e+09 -2.970717e+09 -3.130753e+09 3.976287e+03 1.137812e+04 3.095149e+03
-1.698885e+09 -1.498882e+09 -1.658889e+09 -1.923325e+03 -6.020507e+03 4.178072e+03
-2.692383e+09 -2.492304e+09 -2.652332e+09 6.425182e+03 5.271487e+03 -5.297497e+03
-1.693865e+09 -1.493873e+09 -1.653876e+09 1.660247e+03 5.251768e+02 1.721514e+03
-1.989244e+09 -1.789130e+09 -1.949047e+09 6.702266e+02 -1.071964e+05 -2.341298e+04
-2.494197e+09 -2.294144e+09 -2.454174e+09 -1.947648e+04 1.168706e+02 4.253925e+03
-3.592735e+09 -3.392722e+09 -3.552748e+09 1.336813e+04 6.984388e+03 5.169602e+03
-3.562011e+09 -3.361993e+09 -3.522011e+09 -5.453320e+04 -1.096305e+04 5.300882e+03
-3.035419e+09 -2.835407e+09 -2.995414e+09 -6.048024e+04 -6.478176e+03 -2.605070e+04
-2.061443e+09 -1.861449e+09 -2.021424e+09 -5.554173e+04 -1.273435e+03 -1.263353e+04
-2.915783e+09 -2.715740e+09 -2.875757e+09 -5.770013e+04 9.789404e+03 -1.654582e+04
-1.590000e+09 -1.389999e+09 -1.549980e+09 2.285656e+03 -1.966044e+04 1.343595e+04
-2.001305e+09 -1.801285e+09 -1.961303e+09 -2.225431e+03 -2.550785e+04 3.799007e+03
-3.583733e+09 -3.383726e+09 -3.543745e+09 9.359255e+03 4.906974e+03 3.291100e+03
-3.591138e+09 -3.391264e+09 -3.550787e+09 -4.922767e+04 -1.719813e+04 1.473015e+05
-2.716651e+09 -2.516802e+09 -2.676684e+09 4.347499e+04 4.118640e+04 3.041914e+04
-2.260568e+09 -2.060745e+09 -2.220557e+09 3.128009e+04 4.486914e+04 2.024269e+05
-1.578721e+09 -1.378718e+09 -1.538726e+09 2.543828e+03 6.169822e+03 4.291082e+03
-3.615181e+09 -3.415165e+09 -3.575191e+09 9.630915e+03 7.044664e+03 4.133507e+03
-3.570736e+09 -3.370813e+09 -3.530742e+09 4.260247e+04 1.815288e+03 -6.027762e+03
-3.389714e+09 -3.189868e+09 -3.349484e+09 6.986746e+04 4.263293e+04 1.451335e+05
-3.484405e+09 -3.284246e+09 -3.444242e+09 1.377553e+04 -7.247664e+03 2.227788e+03
-1.596473e+09 -1.396480e+09 -1.556478e+09 2.353206e+03 3.142774e+03 1.584927e+04
-2.244065e+09 -2.044057e+09 -2.204070e+09 4.628001e+03 6.207703e+03 3.369995e+03
-1.956897e+09 -1.756891e+09 -1.916900e+09 2.015600e+03 5.022425e+03 3.045501e+03
-1.607476e+09 -1.407471e+09 -1.567478e+09 1.691437e+03 9.812898e+03 5.094159e+03
-3.600132e+09 -3.400139e+09 -3.560158e+09 1.884669e+04 6.504813e+03 7.572243e+03
-1.644742e+09 -1.444747e+09 -1.604745e+09 2.904165e+03 8.694212e+03 1.250010e+04
-3.477557e+09 -3.277543e+09 -3.437564e+09 7.081374e+03 5.821972e+03 2.855745e+03
-2.682186e+09 -2.482086e+09 -2.642071e+09 3.734732e+04 1.962135e+04 1.438132e+04
-1.830499e+09 -1.630285e+09 -1.789899e+09 7.318446e+04 5.046332e+05 2.994689e+05
-2.772139e+09 -2.571936e+09 -2.731725e+09 -1.026805e+05 1.892202e+05 -1.916401e+05
-3.130751e+09 -2.930762e+09 -3.090774e+09 1.156694e+04 5.955673e+03 8.581546e+03
-2.675076e+09 -2.475275e+09 -2.634528e+09 -1.380904e+05 1.048885e+05 -3.202500e+05
-2.534299e+09 -2.334139e+09 -2.494033e+09 1.552443e+03 8.738177e+04 -4.831147e+04
-2.560100e+09 -2.359978e+09 -2.519951e+09 -1.395020e+04 -2.466136e+04 3.469468e+04
-1.986331e+09 -1.786505e+09 -1.946245e+09 3.346198e+04 -1.813551e+04 -1.944516e+05
-3.600831e+09 -3.400865e+09 -3.560870e+09 2.055857e+04 7.729894e+03 1.300570e+04
-1.601045e+09 -1.401009e+09 -1.560574e+09 -1.662276e+03 -3.862403e+04 -4.856579e+05
-2.653544e+09 -2.453568e+09 -2.613573e+09 3.417922e+04 1.387884e+04 1.448315e+04
-2.806353e+09 -2.606397e+09 -2.766395e+09 1.953778e+04 6.841391e+03 1.266296e+04
-3.194941e+09 -2.994990e+09 -3.154975e+09 2.976031e+04 -1.304145e+02 4.470169e+02
-2.771489e+09 -2.571511e+09 -2.731515e+09 8.947599e+03 4.318652e+03 1.081619e+04
-1.765321e+09 -1.565288e+09 -1.725316e+09 2.551274e+04 -1.360767e+04 -8.919128e+03
-2.582286e+09 -2.382327e+09 -2.542310e+09 9.914896e+03 4.966372e+03 1.922411e+04
-1.876663e+09 -1.676671e+09 -1.836667e+09 1.709130e+04 1.623094e+04 1.969272e+04
-1.575421e+09 -1.375419e+09 -1.535322e+09 -8.428103e+03 -4.816793e+04 -2.671238e+04
-3.435552e+09 -3.235470e+09 -3.395113e+09 -8.220352e+04 -1.272855e+05 1.207779e+05
-3.587603e+09 -3.387424e+09 -3.547309e+09 -7.494800e+03 -7.471302e+04 1.403276e+04
-2.837552e+09 -2.637617e+09 -2.797534e+09 5.837844e+04 -7.791832e+03 -2.920015e+04
-2.443184e+09 -2.243285e+09 -2.403244e+09 7.499576e+04 -1.205207e+05 -1.959087e+05
-3.500600e+09 -3.300614e+09 -3.460616e+09 -2.026914e+03 -5.247488e+02 1.785944e+03
-3.243441e+09 -3.043453e+09 -3.203456e+09 -2.507195e+03 -1.899991e+02 2.275946e+03
-1.698631e+09 -1.498642e+09 -1.658644e+09 -1.253582e+03 -5.201422e+02 2.172751e+03
-3.095437e+09 -2.895544e+09 -3.055450e+09 3.056932e+04 -3.642225e+03 -1.863605e+04
-3.495834e+09 -3.295845e+09 -3.455848e+09 2.351107e+03 3.125242e+02 1.373282e+03
-2.703377e+09 -2.503397e+09 -2.663377e+09 4.046234e+04 9.606359e+03 8.971575e+03
-1.907342e+09 -1.707390e+09 -1.867340e+09 4.672659e+03 -1.770472e+02 -9.870389e+03
-3.600076e+09 -3.400176e+09 -3.560121e+09 2.679278e+04 1.440673e+03 -6.094395e+03
-2.128748e+09 -1.928801e+09 -2.085312e+09 -7.171532e+04 -3.510625e+04 -3.691486e+05
-1.679080e+09 -1.479073e+09 -1.639082e+09 -8.913511e+01 -1.196935e+04 -6.488142e+03
-3.484991e+09 -3.284966e+09 -3.444999e+09 9.269453e+03 -8.163645e+03 -3.530722e+03
-2.644578e+09 -2.444560e+09 -2.604593e+09 1.738984e+04 -1.680488e+04 -1.124234e+04
-2.126921e+09 -1.926873e+09 -2.083741e+09 -4.487479e+04 -2.823533e+05 -1.003546e+05
-2.765591e+09 -2.565592e+09 -2.725601e+09 5.282914e+03 2.836772e+03 2.720853e+03
-3.600138e+09 -3.400145e+09 -3.560160e+09 1.501254e+04 6.132624e+03 7.797293e+03
-2.116417e+09 -1.916425e+09 -2.076433e+09 1.032153e+04 7.167865e+03 1.036570e+04
-1.916542e+09 -1.716324e+09 -1.874438e+09 9.490194e+04 7.461094e+05 2.030290e+05
-1.628730e+09 -1.428626e+09 -1.587478e+09 8.164121e+04 -7.651958e+05 -5.373276e+05
-3.596650e+09 -3.396647e+09 -3.556668e+09 -1.678427e+04 -7.496063e+03 7.552344e+03
-2.542853e+09 -2.342763e+09 -2.502598e+09 8.418087e+04 -1.417018e+05 -2.890921e+04
-2.538792e+09 -2.338784e+09 -2.498807e+09 -1.404774e+04 -1.327080e+04 1.166349e+04
-3.015958e+09 -2.815947e+09 -2.975967e+09 -7.529382e+03 -4.649711e+03 3.850642e+03
-3.213252e+09 -3.013244e+09 -3.173261e+09 -6.615956e+03 -5.509636e+03 4.641399e+03
-2.063228e+09 -1.863230e+09 -2.023237e+09 -4.151143e+03 -3.779896e+03 3.352898e+03
-3.022369e+09 -2.822564e+09 -2.982185e+09 -9.551059e+04 3.583383e+04 -1.846998e+05
-2.548851e+09 -2.349133e+09 -2.508012e+09 8.330744e+04 1.474712e+05 -4.621275e+05
-1.961723e+09 -1.761928e+09 -1.920547e+09 4.948707e+04 -4.254295e+04 -1.102776e+06
-3.566059e+09 -3.366055e+09 -3.526073e+09 -1.113030e+04 -5.418383e+03 4.765958e+03
-2.717540e+09 -2.517530e+09 -2.677547e+09 -8.936939e+03 -9.823580e+03 7.530832e+03
-2.860286e+09 -2.660261e+09 -2.820295e+09 -1.771922e+04 -1.970912e+04 9.738898e+03
-3.362834e+09 -3.162826e+09 -3.321519e+09 5.562562e+04 -2.124179e+05 -7.326221e+04
-1.692617e+09 -1.492628e+09 -1.652630e+09 -1.768181e+03 -2.290816e+03 9.144258e+03
-3.126434e+09 -2.926455e+09 -3.086460e+09 -4.874600e+03 -2.405982e+03 8.837637e+03
-1.790119e+09 -1.590098e+09 -1.750075e+09 -5.753488e+03 1.482969e+04 -1.258108e+04
-3.573259e+09 -3.373197e+09 -3.533252e+09 -1.482482e+04 1.574297e+04 -4.745205e+03
-2.469923e+09 -2.269866e+09 -2.429880e+09 -1.152218e+04 1.112267e+04 -4.010964e+03
-3.372699e+09 -3.172640e+09 -3.332668e+09 -2.119360e+04 8.097325e+03 3.196604e+02
-1.578350e+09 -1.378307e+09 -1.537860e+09 1.071119e+04 -3.327486e+05 2.362761e+05
-1.728920e+09 -1.528933e+09 -1.688934e+09 -1.994547e+02 -2.884236e+02 7.091528e+03
-3.619707e+09 -3.419698e+09 -3.579728e+09 -2.360114e+04 1.153809e+04 -1.006670e+04
-2.649925e+09 -2.449924e+09 -2.609927e+09 -1.304310e+04 1.799073e+04 -7.920329e+03
-1.689984e+09 -1.489978e+09 -1.649985e+09 7.487916e+02 1.000576e+04 -6.401538e+03
-3.626202e+09 -3.426224e+09 -3.586228e+09 -4.598076e+03 -1.658445e+03 5.064070e+03
-3.368768e+09 -3.168763e+09 -3.328781e+09 -1.054805e+04 -5.731369e+03 5.542917e+03
-3.544172e+09 -3.344174e+09 -3.504190e+09 -1.292483e+04 -5.401642e+03 5.494286e+03
-2.698752e+09 -2.498769e+09 -2.658770e+09 -3.640569e+02 -3.304568e+01 4.473796e+03
-3.593185e+09 -3.393202e+09 -3.553206e+09 -2.616497e+03 -8.045842e+02 3.252664e+03
-3.596643e+09 -3.396646e+09 -3.556667e+09 -1.641571e+04 -7.885488e+03 8.174605e+03
-1.917262e+09 -1.717254e+09 -1.877263e+09 -1.064123e+04 -1.906516e+04 1.579200e+04
-2.028043e+09 -1.828058e+09 -1.988058e+09 -1.443997e+03 -1.079525e+03 5.219545e+03
-2.484481e+09 -2.284363e+09 -2.444406e+09 -1.823462e+04 7.256947e+04 1.775802e+04
-2.675290e+09 -2.475308e+09 -2.635287e+09 -4.946731e+04 -2.214320e+03 -2.185852e+03
-3.290549e+09 -3.090568e+09 -3.250570e+09 -9.632827e+02 -3.227569e+02 5.072493e+03
-3.587701e+09 -3.387725e+09 -3.547730e+09 -7.711610e+03 -2.390267e+03 5.553383e+03
-1.593823e+09 -1.393834e+09 -1.553835e+09 -1.042288e+03 -5.873664e+02 4.107404e+03
-3.518983e+09 -3.319012e+09 -3.479017e+09 -1.001583e+04 -3.385109e+03 8.440009e+03
-1.615362e+09 -1.415342e+09 -1.575209e+09 2.248165e+04 -6.119037e+04 -2.046548e+05
-3.587703e+09 -3.387723e+09 -3.547729e+09 -7.064390e+03 -1.890992e+03 5.777690e+03
-3.112778e+09 -2.912677e+09 -3.072682e+09 2.987240e+03 1.650764e+04 1.854453e+04
-2.531948e+09 -2.331967e+09 -2.491967e+09 -1.611918e+03 -1.042587e+03 6.501838e+03
-1.602868e+09 -1.402878e+09 -1.562877e+09 -1.084390e+03 -5.061757e+03 1.906003e+04
-1.592188e+09 -1.392197e+09 -1.552195e+09 -1.198344e+03 -1.960652e+03 1.312493e+04
-3.421446e+09 -3.221512e+09 -3.381376e+09 7.036684e+04 -2.304298e+04 -5.346594e+04
-2.054403e+09 -1.854290e+09 -2.014223e+09 1.044854e+04 -7.475711e+04 2.442938e+04
-1.748726e+09 -1.548707e+09 -1.708682e+09 2.421266e+04 -2.030819e+04 2.098439e+04
-1.591316e+09 -1.391325e+09 -1.551266e+09 3.210200e+03 -3.149915e+04 -9.881307e+03
-3.602021e+09 -3.401935e+09 -3.561963e+09 4.340576e+04 1.239683e+04 -5.351684e+03
-1.587841e+09 -1.387841e+09 -1.547845e+09 2.759928e+03 6.811395e+03 6.287848e+03
-3.186273e+09 -2.986216e+09 -3.146242e+09 2.529974e+04 -1.972013e+02 -2.940638e+03
-3.097000e+09 -2.897078e+09 -3.057021e+09 2.443734e+04 -1.583957e+03 1.026887e+04
-3.604499e+09 -3.404566e+09 -3.564517e+09 3.592594e+04 7.566302e+03 8.636620e+03
-3.571199e+09 -3.371242e+09 -3.531234e+09 3.579783e+04 9.043808e+03 1.684503e+04
-1.574817e+09 -1.374820e+09 -1.534816e+09 1.669462e+03 9.540344e+03 2.040374e+04
-3.153820e+09 -2.953831e+09 -3.113829e+09 3.296941e+04 -3.132620e+03 6.654322e+03
-2.846572e+09 -2.646580e+09 -2.806584e+09 -1.874547e+03 -6.536998e+02 1.325558e+03
-3.395618e+09 -3.195624e+09 -3.355631e+09 -4.389654e+03 -1.400613e+03 1.857188e+03
-1.780594e+09 -1.580598e+09 -1.740476e+09 2.660727e+04 -2.009291e+04 -3.592640e+04
-2.093876e+09 -1.893887e+09 -2.053888e+09 -2.071952e+03 -7.574966e+02 2.244841e+03
-1.945931e+09 -1.745939e+09 -1.905942e+09 -1.689844e+03 -5.126143e+02 1.100750e+03
-3.173247e+09 -2.973430e+09 -3.133170e+09 -1.248057e+04 -9.025559e+03 8.743347e+04
-2.103950e+09 -1.903993e+09 -2.063912e+09 4.853000e+04 5.317271e+04 2.648518e+04
-1.693237e+09 -1.493238e+09 -1.653243e+09 -2.097357e+03 -1.835977e+03 1.945976e+03
-3.113045e+09 -2.913125e+09 -3.072876e+09 1.038365e+05 7.761005e+04 1.203907e+05
-3.584946e+09 -3.385100e+09 -3.544608e+09 6.352720e+04 6.746707e+04 1.356394e+05
-2.411236e+09 -2.211237e+09 -2.371248e+09 7.587851e+03 7.019832e+03 6.873878e+03
-1.714104e+09 -1.514182e+09 -1.673955e+09 2.595485e+04 1.595083e+04 1.174020e+05
-1.753903e+09 -1.553937e+09 -1.713927e+09 8.068502e+04 6.907834e+04 1.312721e+05
-2.994084e+09 -2.794151e+09 -2.954134e+09 2.841101e+04 -4.009837e+03 1.222874e+04
-1.772139e+09 -1.572180e+09 -1.732068e+09 2.302538e+04 1.050073e+04 3.210452e+04
-2.265927e+09 -2.066010e+09 -2.225968e+09 1.664989e+04 -1.171655e+04 -4.722817e+03
-2.616460e+09 -2.416460e+09 -2.576469e+09 3.968212e+03 3.715706e+03 2.586418e+03
-1.588378e+09 -1.388376e+09 -1.548382e+09 3.090679e+03 8.429469e+03 6.473924e+03
-2.745194e+09 -2.545218e+09 -2.705220e+09 -2.820213e+03 -8.732514e+02 9.572296e+03
-3.593382e+09 -3.393380e+09 -3.553395e+09 9.297309e+03 3.533087e+03 3.735120e+03
-2.779176e+09 -2.579179e+09 -2.739194e+09 2.075309e+04 1.200185e+04 1.143558e+04
-1.783927e+09 -1.583989e+09 -1.743862e+09 7.478600e+03 4.468156e+03 4.409598e+04
-3.369744e+09 -3.169889e+09 -3.329780e+09 9.576594e+03 2.158605e+03 2.749169e+04
-1.584960e+09 -1.384955e+09 -1.544962e+09 1.512489e+03 7.573347e+03 4.680129e+03
-3.607649e+09 -3.407638e+09 -3.567660e+09 1.079106e+04 5.471898e+03 3.809019e+03
-2.583248e+09 -2.383243e+09 -2.543259e+09 8.884987e+03 8.176826e+03 7.681879e+03
-1.789698e+09 -1.589692e+09 -1.749702e+09 5.267682e+03 8.399186e+03 7.415671e+03
-2.528298e+09 -2.328449e+09 -2.488254e+09 3.385419e+04 1.662005e+04 7.877915e+04
-2.043919e+09 -1.843947e+09 -2.003931e+09 2.084817e+04 -5.963841e+03 -1.857831e+04
-1.762094e+09 -1.562167e+09 -1.722163e+09 2.303035e+04 1.109708e+04 4.468607e+04
-2.576353e+09 -2.376361e+09 -2.536367e+09 1.761717e+04 1.071382e+04 1.215968e+04
-1.949779e+09 -1.749874e+09 -1.909766e+09 7.793726e+04 5.983181e+04 1.373677e+05
-2.786166e+09 -2.586169e+09 -2.746175e+09 2.690734e+03 1.170757e+03 1.307503e+03
-2.306300e+09 -2.106345e+09 -2.266302e+09 4.304763e+04 1.063462e+04 3.216801e+04
-1.586083e+09 -1.386085e+09 -1.546090e+09 2.041469e+03 1.139616e+03 1.523030e+03
-3.599864e+09 -3.399866e+09 -3.559875e+09 4.757114e+03 1.305531e+03 1.460537e+03
-1.584230e+09 -1.384224e+09 -1.544160e+09 2.661172e+04 5.840201e+04 6.648444e+04
-3.331747e+09 -3.131799e+09 -3.291682e+09 7.845109e+04 2.992994e+04 2.202006e+04
-2.851609e+09 -2.651616e+09 -2.811622e+09 4.169820e+03 1.427871e+03 2.532032e+03
-2.516486e+09 -2.316488e+09 -2.476497e+09 1.019642e+04 7.356799e+03 9.181622e+03
-2.617791e+09 -2.417802e+09 -2.577806e+09 4.268827e+03 1.604326e+03 5.416636e+03
-3.572256e+09 -3.372261e+09 -3.532270e+09 7.280098e+03 2.212989e+03 3.892370e+03
-3.606871e+09 -3.406891e+09 -3.566836e+09 6.648171e+04 2.504703e+02 8.501631e+03
-2.635193e+09 -2.435217e+09 -2.595055e+09 6.192933e+04 -3.335834e+04 -7.858009e+04
-3.163688e+09 -2.963762e+09 -3.123255e+09 9.761158e+04 1.395619e+05 2.322776e+05
-1.546790e+09 -1.346784e+09 -1.506760e+09 -3.710591e+03 -2.485498e+04 -2.525149e+04
-3.055735e+09 -2.855790e+09 -3.015691e+09 5.293546e+04 1.633487e+04 4.128284e+04
-3.590582e+09 -3.390625e+09 -3.550511e+09 8.343533e+04 3.157207e+04 2.946940e+04
-1.574256e+09 -1.374255e+09 -1.534231e+09 9.756683e+03 -9.024230e+04 5.238428e+04
-2.848795e+09 -2.648784e+09 -2.808802e+09 4.566368e+03 7.362873e+03 3.563888e+03
-1.658366e+09 -1.458361e+09 -1.618368e+09 1.222855e+03 9.120621e+03 3.826291e+03
-1.607477e+09 -1.407472e+09 -1.567478e+09 1.406254e+03 9.703612e+03 4.891181e+03
-1.973450e+09 -1.773444e+09 -1.933455e+09 5.064091e+03 6.032082e+03 2.720696e+03
-3.096471e+09 -2.896453e+09 -3.056477e+09 7.859810e+03 8.689496e+03 3.137719e+03
-3.583507e+09 -3.383383e+09 -3.543355e+09 -4.829640e+04 -3.632038e+04 1.426576e+04
-1.817902e+09 -1.617858e+09 -1.777890e+09 1.518720e+04 -4.462302e+03 6.917668e+03
-3.283088e+09 -3.082976e+09 -3.242986e+09 -2.323605e+04 6.797886e+03 1.801000e+04
-1.768441e+09 -1.568376e+09 -1.728417e+09 -4.177681e+03 -1.403532e+05 7.515271e+04
-3.072958e+09 -2.872804e+09 -3.032606e+09 1.387817e+04 -1.131468e+05 1.162285e+04
-3.488251e+09 -3.288240e+09 -3.448258e+09 6.123502e+03 4.080477e+03 2.108412e+03
-1.950055e+09 -1.749982e+09 -1.909960e+09 -1.192926e+04 -2.865574e+04 1.908220e+04
-3.233649e+09 -3.033657e+09 -3.193663e+09 4.170863e+03 1.458684e+03 2.633116e+03
-1.588925e+09 -1.388931e+09 -1.548933e+09 3.258739e+03 2.887779e+03 5.707505e+03
-3.238002e+09 -3.038019e+09 -3.198026e+09 6.588172e+03 2.666809e+03 7.084084e+03
-3.591639e+09 -3.391614e+09 -3.551645e+09 -8.265083e+03 7.552906e+03 -2.655191e+03
-3.594706e+09 -3.394691e+09 -3.554715e+09 -5.718531e+03 6.743188e+03 -2.616045e+03
-3.598209e+09 -3.398117e+09 -3.558154e+09 -2.819694e+04 1.591146e+04 -8.795220e+03
-2.666453e+09 -2.466378e+09 -2.626403e+09 -3.498941e+04 -9.663936e+03 5.727990e+03
-3.586895e+09 -3.386837e+09 -3.546877e+09 -2.629393e+04 1.629077e+04 -4.574929e+03
-1.575502e+09 -1.375505e+09 -1.535510e+09 2.354416e+03 2.128035e+03 2.585972e+03
-1.988646e+09 -1.788625e+09 -1.948643e+09 4.394897e+03 1.568358e+04 2.335313e+03
-2.595120e+09 -2.395124e+09 -2.555129e+09 2.922102e+03 1.370039e+03 1.589591e+03
-2.956773e+09 -2.756807e+09 -2.916790e+09 3.021724e+04 -8.747877e+03 -2.035178e+03
-3.281142e+09 -3.081208e+09 -3.241170e+09 3.943525e+04 1.059253e+04 6.247788e+03
-3.025529e+09 -2.825553e+09 -2.985551e+09 3.724780e+04 4.829912e+03 -6.796284e+03
-2.975338e+09 -2.775355e+09 -2.935305e+09 4.472131e+04 -8.453870e+02 2.570965e+04
-1.606404e+09 -1.406408e+09 -1.566412e+09 2.273652e+03 1.271573e+03 1.939093e+03
-2.949313e+09 -2.749328e+09 -2.909330e+09 -6.300209e+02 -3.591648e+02 2.844657e+03
-3.499424e+09 -3.299440e+09 -3.459442e+09 -6.485068e+02 -1.752197e+02 2.106426e+03
-3.596762e+09 -3.396768e+09 -3.556775e+09 5.287487e+03 1.604735e+03 2.169174e+03
-2.845679e+09 -2.645693e+09 -2.805695e+09 -1.199365e+03 -3.825497e+02 3.093417e+03
-1.575503e+09 -1.375506e+09 -1.535510e+09 2.583183e+03 1.981381e+03 2.619364e+03
-2.790412e+09 -2.590418e+09 -2.750429e+09 -9.041414e+03 -4.864969e+03 7.146013e+03
-1.961746e+09 -1.761726e+09 -1.921743e+09 -1.477733e+04 -1.873494e+04 1.512747e+04
-3.594307e+09 -3.394314e+09 -3.554322e+09 -6.869435e+03 -2.264173e+03 2.953307e+03
-3.574086e+09 -3.374089e+09 -3.534099e+09 -6.493358e+03 -2.340967e+03 2.611255e+03
-1.787451e+09 -1.587449e+09 -1.747467e+09 -1.624613e+04 -1.707691e+04 1.590317e+04
-2.713512e+09 -2.513542e+09 -2.673548e+09 -4.282866e+04 -8.644815e+03 5.317108e+03
-3.152011e+09 -2.951987e+09 -3.112015e+09 4.835472e+03 1.002086e+04 1.776924e+02
-3.604016e+09 -3.403976e+09 -3.564017e+09 5.637364e+03 1.149055e+04 7.604688e+02
-2.601600e+09 -2.401573e+09 -2.561596e+09 3.189423e+03 1.710884e+04 2.386572e+03
-3.092742e+09 -2.892748e+09 -3.052751e+09 -2.920222e+04 -1.118560e+04 1.262844e+04
-3.594841e+09 -3.394825e+09 -3.554860e+09 -2.546920e+04 -1.336856e+04 8.087560e+03
-3.610107e+09 -3.410106e+09 -3.570133e+09 -2.983211e+04 -1.043620e+04 9.783945e+03
-3.604161e+09 -3.404169e+09 -3.564190e+09 -2.326435e+04 -7.471777e+03 8.265981e+03
-2.289873e+09 -2.089863e+09 -2.249861e+09 -2.106120e+04 -8.513789e+03 1.268361e+04
-2.267099e+09 -2.067093e+09 -2.227105e+09 -5.673598e+03 -6.816797e+03 6.204515e+03
-2.617012e+09 -2.416995e+09 -2.577023e+09 -1.238800e+04 -1.272777e+04 8.994564e+03
-2.408808e+09 -2.208796e+09 -2.368813e+09 -9.905473e+03 -1.456833e+04 9.624674e+03
-1.930267e+09 -1.730258e+09 -1.890268e+09 -1.565815e+04 -2.117218e+04 1.452735e+04
-3.199466e+09 -2.999336e+09 -3.159255e+09 -1.744438e+04 5.189843e+04 4.856406e+03
-1.803922e+09 -1.603951e+09 -1.763925e+09 2.355661e+04 -3.400030e+04 -1.484299e+04
-3.566221e+09 -3.366140e+09 -3.526095e+09 5.577275e+04 -9.490717e+03 4.768897e+03
-2.694639e+09 -2.494667e+09 -2.654361e+09 8.299034e+04 -1.104006e+05 -1.274422e+05
-1.620825e+09 -1.420821e+09 -1.580800e+09 4.890443e+03 -1.043893e+04 -3.160200e+03
-2.762699e+09 -2.562637e+09 -2.722571e+09 6.432867e+04 -4.122847e+04 -2.721875e+04
-1.740860e+09 -1.540837e+09 -1.700827e+09 3.779107e+03 5.187620e+03 5.332991e+03
-3.376130e+09 -3.176118e+09 -3.336128e+09 4.186860e+04 1.109983e+04 8.270950e+03
-1.925269e+09 -1.725239e+09 -1.885229e+09 3.316483e+04 5.844347e+03 -2.280832e+04
-3.604071e+09 -3.403971e+09 -3.563967e+09 -6.288790e+04 2.289897e+04 5.554615e+03
-2.097412e+09 -1.897337e+09 -2.057353e+09 -3.205938e+04 -7.106547e+03 -8.571110e+02
-3.401507e+09 -3.201387e+09 -3.361407e+09 -2.716508e+04 8.636822e+02 -4.516852e+02
-1.898625e+09 -1.698596e+09 -1.858531e+09 -8.961409e+03 3.139435e+04 -1.901747e+04
-1.753451e+09 -1.553455e+09 -1.713446e+09 3.984843e+03 1.601429e+04 1.256017e+04
-3.601136e+09 -3.401178e+09 -3.561183e+09 -1.351709e+04 -2.519432e+03 1.047023e+04
-1.896390e+09 -1.696405e+09 -1.856407e+09 -4.908468e+03 -1.776088e+03 9.637566e+03
-1.582770e+09 -1.382771e+09 -1.542764e+09 -8.844699e+02 2.521372e+04 1.135488e+04
-2.588310e+09 -2.388328e+09 -2.548331e+09 -1.136626e+04 -5.227889e+03 9.203678e+03
-1.747165e+09 -1.547161e+09 -1.707141e+09 2.963977e+03 2.647353e+04 8.252699e+03
-2.193772e+09 -1.993710e+09 -2.153702e+09 3.113649e+04 4.256553e+03 -1.162113e+04
-1.808344e+09 -1.608388e+09 -1.768385e+09 3.874565e+03 -1.229229e+04 1.682912e+04
-3.184922e+09 -2.984917e+09 -3.144937e+09 1.493674e+04 8.998033e+03 7.770790e+03
-1.921805e+09 -1.721804e+09 -1.881762e+09 1.235559e+04 3.504769e+03 -5.331007e+03
-1.596467e+09 -1.396467e+09 -1.556463e+09 1.680705e+03 8.367254e+03 7.184812e+03
-2.407214e+09 -2.207409e+09 -2.366961e+09 -1.369726e+04 7.783650e+04 -2.543012e+05
-2.606355e+09 -2.406503e+09 -2.566285e+09 -1.031532e+04 4.095221e+03 -3.837921e+04
-3.199162e+09 -2.999154e+09 -3.159168e+09 3.309628e+04 3.227062e+03 5.593585e+03
-3.572038e+09 -3.372195e+09 -3.531975e+09 -2.269010e+04 1.385499e+04 -2.727654e+04
-1.999478e+09 -1.799443e+09 -1.959470e+09 -3.157513e+02 2.168573e+04 -1.342930e+02
-3.189860e+09 -2.989785e+09 -3.149802e+09 -1.424040e+04 1.327485e+04 -2.458939e+03
-1.586998e+09 -1.387040e+09 -1.546841e+09 8.704629e+03 -1.008789e+04 -1.890766e+05
-3.071023e+09 -2.870930e+09 -3.030967e+09 -1.832864e+04 -1.456619e+04 4.541604e+03
-2.013047e+09 -1.813083e+09 -1.973066e+09 1.195680e+04 -7.452697e+03 -9.234176e+03
-1.761978e+09 -1.561964e+09 -1.721954e+09 -2.447325e+03 1.618008e+04 1.354937e+01
-3.168440e+09 -2.968376e+09 -3.128413e+09 -2.737498e+02 1.506938e+04 -3.262644e+02
-3.589068e+09 -3.388951e+09 -3.548932e+09 -1.409158e+04 9.551411e+02 -8.963230e+03
-1.802355e+09 -1.602330e+09 -1.762351e+09 -2.938002e+03 2.478273e+04 -4.124423e+03
-1.759683e+09 -1.559657e+09 -1.719669e+09 1.638580e+04 2.017222e+04 7.351507e+03
-2.245915e+09 -2.045923e+09 -2.205925e+09 -1.820392e+03 -4.193188e+02 1.164756e+03
-3.382428e+09 -3.182412e+09 -3.342419e+09 5.532658e+04 -5.045339e+03 -1.985956e+02
-1.787672e+09 -1.587681e+09 -1.747683e+09 -1.970626e+03 -1.069501e+03 2.373037e+03
-2.640456e+09 -2.440382e+09 -2.600434e+09 4.694705e+04 1.380676e+03 4.034149e+03
-2.399688e+09 -2.199645e+09 -2.359660e+09 4.419152e+03 -1.502533e+04 -5.644315e+03
-1.900057e+09 -1.700066e+09 -1.860068e+09 -1.577690e+03 -6.655051e+02 1.763614e+03
-3.575485e+09 -3.375423e+09 -3.535477e+09 -1.029758e+04 -1.690195e+04 5.033985e+03
-3.224863e+09 -3.024825e+09 -3.184865e+09 -5.993018e+03 -1.431247e+04 8.231561e+02
-1.574474e+09 -1.374471e+09 -1.534470e+09 -4.815310e+03 -2.792289e+04 -1.460507e+04
-2.073573e+09 -1.873558e+09 -2.033575e+09 9.542763e+03 -1.975405e+04 -9.550287e+03
-2.944476e+09 -2.744396e+09 -2.904420e+09 -5.840290e+03 -1.464729e+04 -1.768534e+03
-3.610059e+09 -3.409973e+09 -3.570037e+09 -2.734891e+04 -1.042450e+04 5.988159e+03
-3.219142e+09 -3.019081e+09 -3.179117e+09 -3.560317e+04 1.029660e+04 -4.256275e+03
-1.822006e+09 -1.621996e+09 -1.782006e+09 -5.606302e+03 -2.088982e+04 9.750737e+03
-3.404974e+09 -3.204933e+09 -3.364959e+09 -2.824893e+04 -8.960317e+03 3.552902e+03
-1.901625e+09 -1.701602e+09 -1.861588e+09 -7.102331e+03 -8.954824e+03 -4.994063e+03
-2.620827e+09 -2.420784e+09 -2.580821e+09 -2.054093e+04 -2.133480e+04 1.189861e+04
-1.575852e+09 -1.375886e+09 -1.535300e+09 -2.466211e+04 -3.845615e+05 8.416862e+04
-2.993898e+09 -2.793907e+09 -2.953911e+09 2.032143e+03 6.311200e+02 1.520952e+03
-3.575179e+09 -3.375338e+09 -3.535072e+09 6.601315e+03 -5.610343e+02 -7.616237e+04
-1.907309e+09 -1.707301e+09 -1.866697e+09 -3.837276e+04 -3.363535e+05 2.213477e+05
-2.057391e+09 -1.857223e+09 -2.017005e+09 1.790340e+04 -1.290878e+05 -1.544443e+04
-1.683901e+09 -1.483908e+09 -1.643911e+09 1.706621e+03 5.590717e+02 1.415052e+03
-1.578393e+09 -1.378408e+09 -1.538284e+09 5.103744e+03 -6.365795e+04 -4.507597e+03
-1.575441e+09 -1.375424e+09 -1.535348e+09 -6.975894e+02 -8.792994e+04 -9.104216e+02
-2.572732e+09 -2.372721e+09 -2.532741e+09 1.037840e+04 9.338287e+03 7.071873e+03
-2.258080e+09 -2.058068e+09 -2.218082e+09 4.281563e+03 6.709447e+03 2.452084e+03
-1.799056e+09 -1.598938e+09 -1.758981e+09 -3.466234e+04 -1.571545e+05 6.705909e+04
-1.894645e+09 -1.694635e+09 -1.854648e+09 3.234249e+03 7.888934e+03 3.864039e+03
-1.588194e+09 -1.388201e+09 -1.548113e+09 7.618726e+03 -1.908410e+04 -8.839323e+04
-3.601228e+09 -3.401291e+09 -3.561271e+09 2.685762e+04 2.639121e+03 1.411348e+04
-1.588818e+09 -1.388824e+09 -1.548778e+09 -1.918335e+02 1.353930e+04 7.919711e+02
-2.029798e+09 -1.829816e+09 -1.989815e+09 1.359458e+04 9.244742e+03 1.683315e+04
-3.519306e+09 -3.319272e+09 -3.478760e+09 -7.106960e+04 -1.665269e+05 1.027685e+05
-1.897144e+09 -1.697106e+09 -1.857116e+09 1.002463e+04 -2.044583e+04 -7.690506e+03
-1.880397e+09 -1.680399e+09 -1.840404e+09 1.801357e+03 6.957733e+02 8.953542e+02
-2.738835e+09 -2.538838e+09 -2.698845e+09 4.061199e+03 1.796786e+03 2.497462e+03
-3.485072e+09 -3.284966e+09 -3.444990e+09 -2.787839e+04 4.371114e+03 1.005683e+03
-1.581982e+09 -1.381981e+09 -1.541976e+09 8.707458e+01 1.559900e+03 4.692575e+03
-1.578989e+09 -1.378994e+09 -1.538998e+09 1.964872e+03 7.393065e+02 1.434304e+03
-3.186491e+09 -2.986495e+09 -3.146502e+09 3.818905e+03 1.460207e+03 1.946544e+03
-3.112832e+09 -2.912837e+09 -3.072842e+09 2.153409e+03 6.550525e+02 9.733944e+02
-1.574905e+09 -1.374906e+09 -1.534911e+09 2.163942e+03 1.549889e+03 1.532810e+03
-3.556768e+09 -3.356775e+09 -3.516779e+09 2.275658e+03 5.231289e+02 9.673971e+02
-1.880649e+09 -1.680657e+09 -1.840659e+09 1.611866e+03 5.981536e+02 1.500453e+03
-3.367444e+09 -3.167452e+09 -3.327456e+09 3.048428e+03 5.100677e+02 1.749205e+03
-2.194223e+09 -1.994225e+09 -2.154230e+09 1.623065e+03 5.007669e+02 6.716746e+02
-1.889748e+09 -1.689751e+09 -1.849756e+09 1.712135e+03 5.331375e+02 6.585303e+02
-2.397315e+09 -2.197319e+09 -2.357325e+09 3.563768e+03 2.130560e+03 2.784165e+03
-2.018623e+09 -1.818707e+09 -1.978595e+09 3.870259e+04 -2.897395e+04 -5.426839e+04
-3.030351e+09 -2.830093e+09 -2.989086e+09 -6.115065e+04 4.600231e+05 -1.994680e+05
-3.606868e+09 -3.406872e+09 -3.566877e+09 2.092363e+03 3.873461e+02 6.514457e+02
-2.617723e+09 -2.417728e+09 -2.577733e+09 2.381090e+03 1.081902e+03 1.361564e+03
-1.590730e+09 -1.390734e+09 -1.550738e+09 1.760347e+03 5.979496e+02 1.017663e+03
-2.009738e+09 -1.810006e+09 -1.969643e+09 -7.223251e+04 3.413432e+04 -2.581303e+05
-2.953103e+09 -2.753110e+09 -2.913113e+09 1.928911e+03 5.364703e+02 1.223542e+03
-1.852303e+09 -1.652090e+09 -1.810592e+09 -1.603363e+05 9.290358e+05 -6.035852e+05
-1.574699e+09 -1.374707e+09 -1.534709e+09 2.013604e+03 8.637519e+02 2.484726e+03
-1.574699e+09 -1.374707e+09 -1.534709e+09 1.912809e+03 8.863645e+02 1.935209e+03
-3.594257e+09 -3.394266e+09 -3.554271e+09 2.455123e+03 6.503508e+02 1.318977e+03
-3.207474e+09 -3.007526e+09 -3.167505e+09 -3.743132e+04 1.525754e+04 -5.483676e+03
-3.498174e+09 -3.298214e+09 -3.458208e+09 -3.461170e+04 1.052875e+04 -8.304946e+03
-1.618049e+09 -1.418049e+09 -1.578041e+09 6.977764e+02 9.008050e+03 -1.147886e+04
-1.696253e+09 -1.496255e+09 -1.656248e+09 -7.771717e+00 1.028701e+04 -4.464047e+03
-2.445891e+09 -2.245877e+09 -2.405898e+09 5.768679e+03 -1.582091e+04 -7.432162e+03
-2.084322e+09 -1.884301e+09 -2.044324e+09 8.164772e+03 -2.366448e+04 -8.224451e+03
-2.484273e+09 -2.284248e+09 -2.444271e+09 1.178839e+04 -2.463966e+04 -1.191533e+04
-3.308647e+09 -3.108457e+09 -3.267833e+09 -2.973582e+04 2.061510e+05 -2.538776e+04
-2.272037e+09 -2.072024e+09 -2.232040e+09 4.493279e+03 -9.412261e+03 -4.555875e+03
-3.392516e+09 -3.192482e+09 -3.352520e+09 2.128107e+04 -1.426875e+04 -7.363025e+03
-1.697734e+09 -1.497729e+09 -1.657737e+09 -4.631742e+01 -1.099397e+04 -7.035901e+03
-1.893620e+09 -1.693634e+09 -1.853610e+09 1.719219e+04 -6.364463e+03 3.225005e+02
-3.580206e+09 -3.380179e+09 -3.540221e+09 1.673660e+04 -1.212795e+04 -5.861976e+03
-2.138563e+09 -1.938559e+09 -2.098577e+09 1.417962e+04 -1.819053e+04 -1.434002e+04
-3.590269e+09 -3.390461e+09 -3.549996e+09 4.649734e+04 -2.307579e+04 -7.148004e+04
-2.176571e+09 -1.976556e+09 -2.136573e+09 4.215940e+03 -1.305016e+04 -5.766692e+03
-2.843334e+09 -2.643337e+09 -2.803349e+09 2.132673e+04 -1.234483e+04 -7.184203e+03
-3.603313e+09 -3.403283e+09 -3.563266e+09 6.109980e+04 -1.125388e+04 -2.998224e+03
-1.578487e+09 -1.378498e+09 -1.538499e+09 -1.396472e+03 -8.851040e+02 3.590921e+03
-3.593187e+09 -3.393203e+09 -3.553206e+09 -3.478699e+03 -9.132807e+02 3.332393e+03
-3.131783e+09 -2.931791e+09 -3.091799e+09 2.164137e+04 -1.072359e+04 -1.004719e+04
-2.002134e+09 -1.802148e+09 -1.962149e+09 -2.821652e+03 -1.077601e+03 5.354514e+03
-3.203959e+09 -3.003912e+09 -3.163948e+09 4.025516e+04 3.992494e+03 -6.149265e+03
-1.599219e+09 -1.399221e+09 -1.559217e+09 3.448004e+03 -1.018830e+04 9.481996e+03
-1.595478e+09 -1.395479e+09 -1.555442e+09 2.403492e+03 6.028209e+03 2.790060e+03
-3.588642e+09 -3.388620e+09 -3.548656e+09 3.992846e+04 -7.373845e+03 -8.338664e+03
-1.985325e+09 -1.785304e+09 -1.945321e+09 1.342169e+04 -2.426614e+04 -1.642294e+04
-2.828708e+09 -2.628644e+09 -2.788694e+09 -4.075918e+03 -2.462552e+04 2.870766e+03
-2.955217e+09 -2.755036e+09 -2.914960e+09 2.642104e+04 1.176671e+05 4.499299e+04
-3.590223e+09 -3.390328e+09 -3.549963e+09 7.049815e+04 -2.222003e+04 -7.026185e+04
-1.958223e+09 -1.758217e+09 -1.918229e+09 8.846839e+03 -1.906785e+04 -1.962114e+04
-2.112821e+09 -1.912808e+09 -2.072820e+09 1.005844e+04 -1.791519e+04 -1.750900e+04
-1.988164e+09 -1.788160e+09 -1.948171e+09 8.996989e+03 -1.589439e+04 -1.416364e+04
-1.636783e+09 -1.436790e+09 -1.596794e+09 7.314843e+03 -1.259326e+04 -1.302328e+04
-1.865497e+09 -1.665501e+09 -1.825515e+09 1.296428e+04 -1.669196e+04 -1.930655e+04
-2.087119e+09 -1.887146e+09 -2.047150e+09 1.582309e+04 -1.209845e+04 -1.174763e+04
-1.917523e+09 -1.717523e+09 -1.877533e+09 6.991360e+03 -1.742494e+04 -1.374555e+04
-1.789996e+09 -1.589989e+09 -1.750006e+09 7.576778e+03 -1.621176e+04 -1.376686e+04
-2.100586e+09 -1.900570e+09 -2.060598e+09 1.299880e+04 -1.689545e+04 -1.111915e+04
-1.480123e+09 -1.280120e+09 -1.440117e+09 1.032052e+03 -1.682188e+04 -1.157485e+04
-1.708835e+09 -1.508830e+09 -1.668837e+09 7.285293e+03 -2.025384e+04 -1.685813e+04
-1.830698e+09 -1.630694e+09 -1.790700e+09 7.872986e+03 -1.713511e+04 -2.052906e+04
-1.866305e+09 -1.666306e+09 -1.826309e+09 3.020957e+03 -1.601581e+04 -1.158266e+04
-1.738780e+09 -1.538779e+09 -1.698785e+09 2.041867e+03 -1.511427e+04 -1.286276e+04
-1.492491e+09 -1.292492e+09 -1.452487e+09 -1.957624e+03 -1.732113e+04 -1.543022e+04
-2.074199e+09 -1.874195e+09 -2.034205e+09 8.851048e+03 -1.839984e+04 -1.595318e+04
-2.413934e+09 -2.213931e+09 -2.373948e+09 1.502891e+04 -1.262001e+04 -1.100579e+04
-2.260019e+09 -2.060016e+09 -2.220028e+09 1.106319e+04 -1.368368e+04 -1.511767e+04
-1.776220e+09 -1.576215e+09 -1.736223e+09 -3.988562e+02 -1.332678e+04 -8.962260e+03
-1.620927e+09 -1.420922e+09 -1.580926e+09 -1.208043e+03 -1.385384e+04 -1.058376e+04
-1.465629e+09 -1.265623e+09 -1.425629e+09 -2.365509e+03 -1.484378e+04 -9.829387e+03
-1.465627e+09 -1.265627e+09 -1.425629e+09 -6.637978e+02 -1.406256e+04 -1.079922e+04
-1.620918e+09 -1.420918e+09 -1.580920e+09 1.767627e+03 -1.632193e+04 -1.450248e+04
-1.931516e+09 -1.731509e+09 -1.891519e+09 2.367157e+03 -1.383327e+04 -8.836463e+03
-1.931509e+09 -1.731505e+09 -1.891515e+09 4.537515e+03 -1.490107e+04 -1.091653e+04
-1.776219e+09 -1.576215e+09 -1.736223e+09 -3.627077e+02 -1.286569e+04 -9.773533e+03
-1.993025e+09 -1.793024e+09 -1.953040e+09 1.284298e+04 -1.658071e+04 -1.942099e+04
-2.147616e+09 -1.947612e+09 -2.107627e+09 1.487803e+04 -1.481240e+04 -1.488098e+04
-2.333430e+09 -2.133431e+09 -2.293445e+09 1.759858e+04 -9.096397e+03 -1.070328e+04
-1.961235e+09 -1.761247e+09 -1.921248e+09 1.383839e+03 3.094392e+02 2.382591e+03
-2.130093e+09 -1.930106e+09 -2.090106e+09 1.392357e+03 6.275424e+02 2.346968e+03
-2.311758e+09 -2.111770e+09 -2.271771e+09 1.380632e+03 5.325091e+02 2.064649e+03
-1.917000e+09 -1.717011e+09 -1.877012e+09 1.381170e+03 3.145240e+02 2.626812e+03
-2.085858e+09 -1.885870e+09 -2.045871e+09 1.586233e+03 4.991380e+02 2.542294e+03
-1.951879e+09 -1.751890e+09 -1.911892e+09 1.481089e+03 6.121482e+02 2.504022e+03
-1.667526e+09 -1.467536e+09 -1.627538e+09 1.595116e+03 4.504640e+02 1.988314e+03
-1.979749e+09 -1.779759e+09 -1.939760e+09 1.586615e+03 5.136991e+02 2.024343e+03
-2.020761e+09 -1.820771e+09 -1.980773e+09 1.612220e+03 5.891670e+02 1.979598e+03
-1.511416e+09 -1.311426e+09 -1.471427e+09 1.451011e+03 5.730542e+02 2.217503e+03
-1.511416e+09 -1.311425e+09 -1.471427e+09 1.435186e+03 6.011131e+02 2.221573e+03
-1.708539e+09 -1.508549e+09 -1.668551e+09 1.406966e+03 7.753101e+02 2.200832e+03
-2.108178e+09 -1.908188e+09 -2.068190e+09 1.657826e+03 3.404516e+02 2.013541e+03
-2.205144e+09 -2.005156e+09 -2.165157e+09 1.905646e+03 4.774313e+02 2.225368e+03
-2.273839e+09 -2.073850e+09 -2.233852e+09 2.115663e+03 4.260552e+02 2.018552e+03
-1.892922e+09 -1.692933e+09 -1.852935e+09 1.792537e+03 5.405025e+02 2.088666e+03
-1.764494e+09 -1.564504e+09 -1.724506e+09 1.889260e+03 4.524236e+02 2.374243e+03
-1.961618e+09 -1.761628e+09 -1.921630e+09 1.832798e+03 5.962980e+02 2.343185e+03
-1.627671e+09 -1.427683e+09 -1.587683e+09 1.122232e+03 3.699684e+02 2.119848e+03
-1.832806e+09 -1.632818e+09 -1.792819e+09 1.371896e+03 2.734900e+02 2.398755e+03
-2.058679e+09 -1.858691e+09 -2.018692e+09 1.139481e+03 3.220071e+02 2.182814e+03
-1.841068e+09 -1.641079e+09 -1.801080e+09 1.323403e+03 9.050856e+02 2.498465e+03
-1.712639e+09 -1.512650e+09 -1.672651e+09 1.625854e+03 7.298423e+02 2.610672e+03
-1.459560e+09 -1.259571e+09 -1.419572e+09 1.637622e+03 6.579946e+02 2.586936e+03
-2.504356e+09 -2.304368e+09 -2.464369e+09 1.656203e+03 3.035577e+02 1.976684e+03
-2.068549e+09 -1.868560e+09 -2.028562e+09 1.432351e+03 4.211580e+02 2.193080e+03
-2.165516e+09 -1.965527e+09 -2.125529e+09 1.860867e+03 3.898783e+02 2.205981e+03
-2.347181e+09 -2.147193e+09 -2.307194e+09 1.623763e+03 3.329098e+02 2.022724e+03
-2.250214e+09 -2.050225e+09 -2.210226e+09 1.478196e+03 3.881612e+02 2.127640e+03
-2.407388e+09 -2.207400e+09 -2.367401e+09 1.630772e+03 2.825253e+02 1.975483e+03
-2.225725e+09 -2.025735e+09 -2.185737e+09 1.639392e+03 3.300752e+02 2.053938e+03
-2.322691e+09 -2.122703e+09 -2.282704e+09 1.793469e+03 4.577625e+02 2.217690e+03
-1.788570e+09 -1.588582e+09 -1.748583e+09 1.401924e+03 2.664731e+02 2.565677e+03
-1.677759e+09 -1.477771e+09 -1.637772e+09 1.276212e+03 3.609185e+02 2.480179e+03
-1.472624e+09 -1.272635e+09 -1.432636e+09 1.023200e+03 4.569720e+02 2.168341e+03
-1.948738e+09 -1.748749e+09 -1.908750e+09 1.575430e+03 6.775538e+02 2.970419e+03
-2.082717e+09 -1.882729e+09 -2.042730e+09 1.488451e+03 5.230408e+02 2.923207e+03
-2.210521e+09 -2.010533e+09 -2.170535e+09 1.774851e+03 6.520443e+02 3.179538e+03
-1.513693e+09 -1.313703e+09 -1.473704e+09 1.807520e+03 7.328334e+02 3.434280e+03
-1.513693e+09 -1.313703e+09 -1.473704e+09 1.857967e+03 7.028131e+02 3.426598e+03
-1.752309e+09 -1.552320e+09 -1.712321e+09 1.445170e+03 1.102914e+03 3.846598e+03
-1.632150e+09 -1.432161e+09 -1.592162e+09 1.945960e+03 7.981090e+02 3.603634e+03
-1.870766e+09 -1.670777e+09 -1.830779e+09 1.917280e+03 9.679740e+02 3.884524e+03
-1.975786e+09 -1.775798e+09 -1.935799e+09 1.975887e+03 9.222497e+02 3.990925e+03
-1.499215e+09 -1.299227e+09 -1.459227e+09 1.255870e+03 3.648717e+02 3.007064e+03
-1.704350e+09 -1.504362e+09 -1.664363e+09 1.089769e+03 4.768622e+02 3.003113e+03
-1.593539e+09 -1.393551e+09 -1.553551e+09 1.015096e+03 6.831127e+02 2.680503e+03
-1.584848e+09 -1.384858e+09 -1.544859e+09 1.767499e+03 7.481060e+02 2.992565e+03
-1.837927e+09 -1.637937e+09 -1.797939e+09 1.866374e+03 8.111178e+02 2.955599e+03
-2.005386e+09 -1.805398e+09 -1.965399e+09 1.603972e+03 1.039997e+03 3.207306e+03
-1.948095e+09 -1.748107e+09 -1.908108e+09 1.725427e+03 6.314738e+02 2.895677e+03
-2.180920e+09 -1.980933e+09 -2.140934e+09 1.993449e+03 8.144771e+02 3.791839e+03
-2.075900e+09 -1.875912e+09 -2.035914e+09 1.760475e+03 8.748449e+02 3.425159e+03
-1.617672e+09 -1.417684e+09 -1.577684e+09 1.531135e+03 5.620697e+02 3.395909e+03
-1.942304e+09 -1.742317e+09 -1.902318e+09 1.934709e+03 4.854447e+02 3.750677e+03
-1.822807e+09 -1.622819e+09 -1.782820e+09 1.450628e+03 5.851095e+02 3.237134e+03
-1.850325e+09 -1.650337e+09 -1.810338e+09 1.874847e+03 2.639513e+02 4.715217e+03
-1.737170e+09 -1.537182e+09 -1.697183e+09 1.734661e+03 6.602339e+02 4.275907e+03
-1.506862e+09 -1.306873e+09 -1.466874e+09 1.308274e+03 7.550072e+02 3.750870e+03
-1.506863e+09 -1.306873e+09 -1.466874e+09 1.661834e+03 9.983959e+02 3.877085e+03
-1.737171e+09 -1.537182e+09 -1.697184e+09 1.602966e+03 1.036055e+03 4.352919e+03
-1.850325e+09 -1.650336e+09 -1.810338e+09 1.940582e+03 1.174670e+03 4.252793e+03
-1.847806e+09 -1.647819e+09 -1.807820e+09 1.955760e+03 8.415335e+02 4.735644e+03
-2.006419e+09 -1.806433e+09 -1.966434e+09 1.588056e+03 9.853991e+02 6.005217e+03
-2.130572e+09 -1.930587e+09 -2.090588e+09 2.163746e+03 7.845809e+02 4.814718e+03
-1.741652e+09 -1.541665e+09 -1.701665e+09 1.595889e+03 6.962863e+02 4.660566e+03
-1.907408e+09 -1.707421e+09 -1.867421e+09 1.676147e+03 7.634457e+02 4.983566e+03
-1.794254e+09 -1.594267e+09 -1.754267e+09 1.455407e+03 8.238539e+02 4.422758e+03
-1.830681e+09 -1.630693e+09 -1.790694e+09 2.327083e+03 1.276365e+03 4.779149e+03
-1.907872e+09 -1.707885e+09 -1.867885e+09 1.822478e+03 1.439700e+03 5.024060e+03
-1.809057e+09 -1.609070e+09 -1.769071e+09 2.084741e+03 1.150101e+03 4.866673e+03
-1.783719e+09 -1.583731e+09 -1.743732e+09 2.265118e+03 1.232086e+03 5.679011e+03
-1.908070e+09 -1.708084e+09 -1.868084e+09 2.281555e+03 1.158006e+03 5.608856e+03
-1.801918e+09 -1.601930e+09 -1.761930e+09 2.247803e+03 1.166349e+03 6.171584e+03
-1.677565e+09 -1.477576e+09 -1.637577e+09 1.444479e+03 1.616403e+03 5.625139e+03
-1.578751e+09 -1.378762e+09 -1.538763e+09 1.817469e+03 1.292655e+03 5.952773e+03
-1.578751e+09 -1.378761e+09 -1.538763e+09 1.840005e+03 1.436444e+03 5.971724e+03
-2.204835e+09 -2.004850e+09 -2.164851e+09 2.834015e+03 1.043735e+03 5.290116e+03
-1.879139e+09 -1.679152e+09 -1.839153e+09 2.310267e+03 8.944629e+02 5.377230e+03
-1.956330e+09 -1.756343e+09 -1.916344e+09 2.602010e+03 9.413364e+02 5.335304e+03
-2.080682e+09 -1.880696e+09 -2.040697e+09 2.835856e+03 8.593780e+02 5.728304e+03
-2.003493e+09 -1.803505e+09 -1.963506e+09 2.951457e+03 9.350086e+02 6.255049e+03
-2.127645e+09 -1.927659e+09 -2.087660e+09 3.013961e+03 7.579957e+02 5.025385e+03
-2.003292e+09 -1.803306e+09 -1.963307e+09 3.112473e+03 8.658914e+02 5.062359e+03
-2.080483e+09 -1.880497e+09 -2.040498e+09 2.775586e+03 1.012380e+03 5.287115e+03
-1.734652e+09 -1.534665e+09 -1.694666e+09 1.415926e+03 7.476938e+02 4.991233e+03
-1.670099e+09 -1.470112e+09 -1.630112e+09 1.358748e+03 9.588266e+02 5.250094e+03
-1.893264e+09 -1.693279e+09 -1.853280e+09 1.928404e+03 8.276045e+02 5.701546e+03
-1.628499e+09 -1.428511e+09 -1.588511e+09 1.104248e+03 5.758289e+02 4.876842e+03
-1.563946e+09 -1.363957e+09 -1.523958e+09 1.126422e+03 8.472323e+02 4.708013e+03
-1.563946e+09 -1.363958e+09 -1.523958e+09 1.056926e+03 7.944993e+02 4.705407e+03
-1.824488e+09 -1.624501e+09 -1.784502e+09 1.774060e+03 7.069531e+02 6.688148e+03
-1.717726e+09 -1.517739e+09 -1.677740e+09 1.714510e+03 9.881099e+02 6.402744e+03
-1.494560e+09 -1.294572e+09 -1.454572e+09 1.137483e+03 1.090627e+03 5.457708e+03
-1.495168e+09 -1.295179e+09 -1.455179e+09 1.617058e+03 1.154347e+03 7.463648e+03
-1.718335e+09 -1.518346e+09 -1.678347e+09 2.201933e+03 1.413203e+03 6.473136e+03
-1.824488e+09 -1.624501e+09 -1.784502e+09 1.759658e+03 1.663276e+03 6.539625e+03
-1.899052e+09 -1.699067e+09 -1.859067e+09 2.901007e+03 1.608621e+03 9.361694e+03
-2.039963e+09 -1.839979e+09 -1.999980e+09 2.448713e+03 1.479607e+03 7.283540e+03
-2.173133e+09 -1.973151e+09 -2.133152e+09 3.088115e+03 9.269354e+02 9.355455e+03
-1.773209e+09 -1.573222e+09 -1.733222e+09 1.503702e+03 2.101357e+03 8.504307e+03
-1.690953e+09 -1.490967e+09 -1.650967e+09 2.258447e+03 1.714657e+03 8.006836e+03
-1.914118e+09 -1.714134e+09 -1.874135e+09 2.786294e+03 1.960710e+03 7.469317e+03
-1.514251e+09 -1.314262e+09 -1.474262e+09 8.774099e+02 1.272329e+03 8.676457e+03
-1.754182e+09 -1.554195e+09 -1.714196e+09 2.015618e+03 9.156323e+02 1.032908e+04
-1.874079e+09 -1.674094e+09 -1.834094e+09 2.222727e+03 3.962975e+02 1.079095e+04
-1.945166e+09 -1.745182e+09 -1.905182e+09 2.418192e+03 1.302852e+03 7.250274e+03
-2.035216e+09 -1.835232e+09 -1.995232e+09 2.318427e+03 1.253403e+03 7.129312e+03
-2.174155e+09 -1.974173e+09 -2.134175e+09 2.351034e+03 9.761710e+02 9.362090e+03
-1.819324e+09 -1.619338e+09 -1.779338e+09 1.717064e+03 8.256049e+02 7.307588e+03
-1.712562e+09 -1.512576e+09 -1.672576e+09 1.843670e+03 1.189361e+03 6.994478e+03
-1.909375e+09 -1.709389e+09 -1.869389e+09 1.635737e+03 7.945189e+02 6.820414e+03
-1.666450e+09 -1.466461e+09 -1.626461e+09 1.372370e+03 2.207162e+03 9.000125e+03
-1.584197e+09 -1.384207e+09 -1.544208e+09 2.036172e+03 1.867838e+03 9.459639e+03
-1.584197e+09 -1.384207e+09 -1.544208e+09 1.993730e+03 1.984184e+03 9.470046e+03
-1.812050e+09 -1.612065e+09 -1.772065e+09 1.008223e+03 8.774554e+02 8.300096e+03
-1.711057e+09 -1.511073e+09 -1.671073e+09 1.403602e+03 9.689233e+02 8.478282e+03
-1.950988e+09 -1.751006e+09 -1.911006e+09 2.135407e+03 5.185624e+02 9.324579e+03
-1.792292e+09 -1.592306e+09 -1.752305e+09 2.618685e+03 1.747599e+03 9.435444e+03
-1.949968e+09 -1.749984e+09 -1.909984e+09 2.344030e+03 1.469133e+03 9.005571e+03
-1.824129e+09 -1.624142e+09 -1.784141e+09 2.689684e+03 1.353844e+03 9.861737e+03
-1.874079e+09 -1.674093e+09 -1.834095e+09 1.404530e+03 1.708294e+03 1.060273e+04
-1.748238e+09 -1.548250e+09 -1.708250e+09 2.643571e+03 1.171275e+03 1.027920e+04
-1.508304e+09 -1.308316e+09 -1.468315e+09 2.373584e+03 1.278328e+03 1.035740e+04
-1.489397e+09 -1.289409e+09 -1.449409e+09 5.989829e+02 8.935682e+02 7.581305e+03
-1.585218e+09 -1.385230e+09 -1.545230e+09 8.659685e+02 4.937098e+02 7.380881e+03
-1.686210e+09 -1.486222e+09 -1.646222e+09 4.818599e+02 3.948079e+02 7.476050e+03
-1.496320e+09 -1.296330e+09 -1.456329e+09 2.407133e+03 2.368047e+03 1.359148e+04
-1.496320e+09 -1.296330e+09 -1.456329e+09 2.500415e+03 2.677689e+03 1.345985e+04
-1.708793e+09 -1.508805e+09 -1.668804e+09 1.482208e+03 3.277518e+03 1.556787e+04
-1.924943e+09 -1.724962e+09 -1.884959e+09 1.841737e+03 2.159135e+03 1.372354e+04
-2.109719e+09 -1.909740e+09 -2.069737e+09 2.653044e+03 1.200019e+03 1.376525e+04
-1.989081e+09 -1.789100e+09 -1.949097e+09 2.427708e+03 7.152268e+02 1.335160e+04
-1.881170e+09 -1.681188e+09 -1.841186e+09 1.866211e+03 7.210710e+02 1.348085e+04
-1.753537e+09 -1.553551e+09 -1.713550e+09 2.462131e+03 9.746656e+02 1.285760e+04
-1.480242e+09 -1.280254e+09 -1.440253e+09 1.873419e+03 1.694743e+03 1.167683e+04
-1.600133e+09 -1.400150e+09 -1.560150e+09 1.755778e+03 1.550537e+03 1.103214e+04
-1.873430e+09 -1.673447e+09 -1.833447e+09 3.022725e+03 1.112966e+03 1.382100e+04
-2.021520e+09 -1.821543e+09 -1.981544e+09 1.435405e+03 7.103263e+02 1.300309e+04
-1.693735e+09 -1.493748e+09 -1.653748e+09 1.255345e+03 1.003872e+03 1.051392e+04
-1.573700e+09 -1.373713e+09 -1.533712e+09 1.106687e+03 1.072180e+03 1.082608e+04
-1.453802e+09 -1.253815e+09 -1.413814e+09 8.363150e+02 1.252599e+03 1.074308e+04
-1.453802e+09 -1.253815e+09 -1.413815e+09 1.611446e+03 9.648067e+02 1.104818e+04
-1.813632e+09 -1.613646e+09 -1.773645e+09 1.489243e+03 9.949715e+02 1.102798e+04
-1.693735e+09 -1.493748e+09 -1.653747e+09 1.123309e+03 1.303412e+03 1.043087e+04
-1.573698e+09 -1.373712e+09 -1.533711e+09 1.847957e+03 1.396499e+03 1.197291e+04
-1.813632e+09 -1.613647e+09 -1.773646e+09 1.313344e+03 6.706554e+02 1.066384e+04
-1.981340e+09 -1.781359e+09 -1.941357e+09 2.867095e+03 1.077026e+03 1.417179e+04
-2.101980e+09 -1.902000e+09 -2.061997e+09 2.251324e+03 1.618023e+03 1.480364e+04
-2.233998e+09 -2.034022e+09 -2.194020e+09 3.686627e+03 1.856224e+03 1.194060e+04
-1.496320e+09 -1.296331e+09 -1.456328e+09 1.884125e+03 1.965890e+03 1.323493e+04
-1.708790e+09 -1.508804e+09 -1.668803e+09 2.022417e+03 2.422743e+03 1.432300e+04
-1.797306e+09 -1.597323e+09 -1.757321e+09 3.571205e+03 2.438031e+03 1.550482e+04
-1.616209e+09 -1.416226e+09 -1.576225e+09 2.873208e+03 1.773859e+03 9.972216e+03
-1.960702e+09 -1.760722e+09 -1.920724e+09 2.969015e+03 2.244655e+03 1.187797e+04
-1.828683e+09 -1.628701e+09 -1.788700e+09 1.282149e+03 2.720095e+03 1.395847e+04
-1.928536e+09 -1.728558e+09 -1.888555e+09 3.070075e+03 1.877540e+03 1.654908e+04
-2.023348e+09 -1.823372e+09 -1.983366e+09 1.971259e+03 2.489204e+03 1.807860e+04
-2.203002e+09 -2.003030e+09 -2.163027e+09 3.601651e+03 2.295117e+03 1.426534e+04
-1.810968e+09 -1.610989e+09 -1.770986e+09 3.136474e+03 1.471997e+03 1.637887e+04
-1.888077e+09 -1.688099e+09 -1.848097e+09 -1.012923e+03 -2.416902e+02 1.648639e+04
-1.784369e+09 -1.584390e+09 -1.744390e+09 2.539898e+02 7.114780e+02 1.704327e+04
-1.885903e+09 -1.685922e+09 -1.845920e+09 1.196403e+03 2.433982e+03 1.673103e+04
-2.004734e+09 -1.804758e+09 -1.964757e+09 3.630827e+03 2.724961e+03 1.413179e+04
-2.189511e+09 -1.989537e+09 -2.149536e+09 3.468068e+03 1.120856e+03 1.336071e+04
-1.758264e+09 -1.558284e+09 -1.718281e+09 8.962852e+02 2.601731e+03 1.618822e+04
-1.788574e+09 -1.588599e+09 -1.748598e+09 2.139571e+03 2.785990e+03 1.457771e+04
-1.877097e+09 -1.677120e+09 -1.837118e+09 4.466399e+03 3.156340e+03 1.453638e+04
-1.893041e+09 -1.693061e+09 -1.853057e+09 1.926008e+03 1.587902e+03 1.444104e+04
-1.765407e+09 -1.565422e+09 -1.725420e+09 3.324787e+03 2.103937e+03 1.408379e+04
-1.935415e+09 -1.735432e+09 -1.895429e+09 -6.974391e+02 1.151399e+03 1.204077e+04
-1.876479e+09 -1.676499e+09 -1.836492e+09 2.039602e+03 2.649609e+03 1.563743e+04
-2.012440e+09 -1.812464e+09 -1.972457e+09 2.419058e+03 1.696790e+03 1.519106e+04
-1.917630e+09 -1.717651e+09 -1.877645e+09 2.262785e+03 6.545579e+02 1.419425e+04
-1.938606e+09 -1.738627e+09 -1.898625e+09 3.098682e+03 1.622385e+03 1.647672e+04
-2.118997e+09 -1.919024e+09 -2.079023e+09 2.385054e+03 1.500563e+03 1.459883e+04
-2.161367e+09 -1.961394e+09 -2.121393e+09 2.088622e+03 9.530922e+02 1.477310e+04
-1.492115e+09 -1.292126e+09 -1.452123e+09 1.187647e+03 8.192139e+02 1.511361e+04
-1.558417e+09 -1.358428e+09 -1.518425e+09 -1.320015e+02 -4.902124e+02 1.153260e+04
-1.662125e+09 -1.462137e+09 -1.622133e+09 -3.651948e+03 -6.990745e+01 1.376395e+04
-1.823995e+09 -1.624014e+09 -1.784011e+09 2.810561e+03 1.942056e+03 1.311491e+04
-1.731099e+09 -1.531115e+09 -1.691114e+09 -2.058704e+02 1.206577e+03 1.298070e+04
-1.505143e+09 -1.305151e+09 -1.465146e+09 -1.405716e+02 1.692542e+03 1.575193e+04
-1.669757e+09 -1.469768e+09 -1.629763e+09 1.312061e+03 3.344828e+03 1.660381e+04
-1.576122e+09 -1.376129e+09 -1.536127e+09 2.468263e+03 3.585339e+03 1.653523e+04
-1.576122e+09 -1.376130e+09 -1.536127e+09 2.396883e+03 3.438160e+03 1.652621e+04
-1.478414e+09 -1.278423e+09 -1.438415e+09 8.376074e+02 1.641287e+03 2.137246e+04
-1.666117e+09 -1.466131e+09 -1.626127e+09 4.699539e+03 2.601962e+03 1.647261e+04
-1.759748e+09 -1.559767e+09 -1.719762e+09 2.968204e+03 2.686592e+03 1.651277e+04
-1.882924e+09 -1.682960e+09 -1.842951e+09 3.528023e+03 5.934885e+03 2.324133e+04
-1.777935e+09 -1.577966e+09 -1.737961e+09 1.259480e+04 3.840706e+03 2.163549e+04
-2.053805e+09 -1.853838e+09 -2.013836e+09 2.741207e+04 4.461947e+03 1.378099e+04
-2.008822e+09 -1.808861e+09 -1.968852e+09 9.342897e+02 4.363517e+03 2.243047e+04
-2.179698e+09 -1.979746e+09 -2.139736e+09 -1.477107e+03 3.726045e+03 1.371821e+04
-2.259264e+09 -2.059320e+09 -2.219299e+09 -5.406058e+01 8.097891e+02 1.558052e+04
-1.620413e+09 -1.420429e+09 -1.580422e+09 1.792520e+03 -8.400560e+01 1.744638e+04
-1.822555e+09 -1.622575e+09 -1.782565e+09 9.403816e+02 -6.944986e+02 1.416814e+04
-1.933241e+09 -1.733265e+09 -1.893259e+09 8.027952e+02 3.013101e+01 1.475281e+04
-1.980403e+09 -1.780434e+09 -1.940415e+09 1.330775e+03 2.884724e+03 2.206332e+04
-2.094451e+09 -1.894488e+09 -2.054460e+09 -1.559466e+03 2.812282e+03 2.290840e+04
-1.939929e+09 -1.739963e+09 -1.899940e+09 2.228793e+02 4.642944e+02 2.117675e+04
-1.499447e+09 -1.299462e+09 -1.459447e+09 5.737546e+01 -5.036212e+02 2.823931e+04
-1.749528e+09 -1.549545e+09 -1.709535e+09 2.297419e+03 1.266135e+02 2.448759e+04
-1.854503e+09 -1.654531e+09 -1.814519e+09 -7.372167e+02 7.832539e+01 2.252282e+04
-2.044911e+09 -1.844941e+09 -2.004934e+09 4.491481e+02 1.574313e+03 1.880437e+04
-2.107589e+09 -1.907622e+09 -2.067611e+09 -1.427772e+03 1.354498e+03 1.635134e+04
-2.211338e+09 -2.011380e+09 -2.171367e+09 -5.813227e+02 -1.062700e+03 2.107469e+04
-1.831713e+09 -1.631740e+09 -1.791737e+09 -9.316712e+02 -1.145458e+03 1.560993e+04
-1.716440e+09 -1.516461e+09 -1.676462e+09 -2.710651e+03 -4.375661e+02 1.657975e+04
-1.935461e+09 -1.735497e+09 -1.895494e+09 7.122899e+01 -3.426098e+03 2.048548e+04
-1.828890e+09 -1.628916e+09 -1.788900e+09 1.118004e+03 -1.585548e+02 1.912225e+04
-1.733332e+09 -1.533353e+09 -1.693339e+09 1.712960e+03 -1.829897e+03 2.179545e+04
-1.514311e+09 -1.314317e+09 -1.474309e+09 -2.774708e+03 8.374946e+02 1.541993e+04
-1.617867e+09 -1.417887e+09 -1.577880e+09 4.283638e+02 1.916815e+03 2.335386e+04
-1.805575e+09 -1.605596e+09 -1.765595e+09 4.044295e+03 3.122473e+03 1.753821e+04
-1.991434e+09 -1.791467e+09 -1.951465e+09 -9.051135e+02 2.682701e+03 2.414858e+04
-1.527880e+09 -1.327891e+09 -1.487884e+09 -1.474653e+03 5.203076e+03 1.731475e+04
-1.527877e+09 -1.327889e+09 -1.487880e+09 1.671115e+03 2.750010e+03 1.517893e+04
-1.803755e+09 -1.603767e+09 -1.763763e+09 1.555308e+03 4.272426e+03 1.449584e+04
-1.922302e+09 -1.722329e+09 -1.882326e+09 2.761861e+03 2.835461e+03 1.744921e+04
-2.058268e+09 -1.858295e+09 -2.018293e+09 1.900194e+03 9.017476e+02 1.466843e+04
-2.217404e+09 -2.017437e+09 -2.177432e+09 1.681973e+03 2.526219e+03 2.427278e+04
-2.281148e+09 -2.081184e+09 -2.241178e+09 4.737584e+02 3.595324e+03 2.130324e+04
-1.948646e+09 -1.748671e+09 -1.908662e+09 1.273076e+02 1.595233e+03 1.978670e+04
-2.011323e+09 -1.811351e+09 -1.971341e+09 -6.104846e+01 2.617232e+03 1.867236e+04
-2.122004e+09 -1.922039e+09 -2.082032e+09 4.231285e+02 2.642699e+03 1.864538e+04
-2.059328e+09 -1.859359e+09 -2.019354e+09 4.889652e+03 2.810765e+03 1.666211e+04
-2.218467e+09 -2.018503e+09 -2.178497e+09 3.630154e+03 4.538095e+03 2.490229e+04
-2.107779e+09 -1.907812e+09 -2.067807e+09 3.127987e+03 2.384888e+03 2.248171e+04
-2.170460e+09 -1.970493e+09 -2.130483e+09 6.273261e+02 3.091796e+03 2.083729e+04
-1.503684e+09 -1.303696e+09 -1.463691e+09 9.489470e+02 -8.157100e+02 1.865963e+04
-1.590556e+09 -1.390564e+09 -1.550561e+09 -3.067477e+03 -1.421545e+03 1.807390e+04
-1.705832e+09 -1.505845e+09 -1.665838e+09 -1.859890e+03 -6.047483e+02 1.756815e+04
-1.941968e+09 -1.742017e+09 -1.901994e+09 1.353609e+03 -2.761417e+03 6.386643e+03
-2.081311e+09 -1.881367e+09 -2.041344e+09 -4.276228e+03 1.997140e+02 1.868033e+04
-2.203424e+09 -2.003490e+09 -2.163466e+09 8.520937e+02 7.846350e+02 1.020445e+04
-1.862288e+09 -1.662333e+09 -1.822307e+09 -1.216724e+03 4.223824e+03 2.612951e+04
-1.734327e+09 -1.534366e+09 -1.694346e+09 1.218026e+04 9.616143e+03 2.595232e+04
-1.984404e+09 -1.784448e+09 -1.944427e+09 2.485009e+04 8.805648e+03 2.096010e+04
-1.977069e+09 -1.777110e+09 -1.937060e+09 -1.557032e+03 1.338016e+03 2.227424e+04
-2.082935e+09 -1.882984e+09 -2.042926e+09 -4.429400e+03 1.924284e+03 1.431889e+04
-1.942372e+09 -1.742410e+09 -1.902361e+09 -4.786584e+03 -7.340184e+02 8.797102e+03
-1.499450e+09 -1.299463e+09 -1.459454e+09 -2.103981e+03 6.135271e+03 9.793692e+03
-1.499447e+09 -1.299461e+09 -1.459447e+09 -3.190000e+02 1.648631e+03 8.338668e+03
-1.749536e+09 -1.549548e+09 -1.709538e+09 2.126009e+03 2.694429e+03 3.370398e+03
-1.925278e+09 -1.725319e+09 -1.885303e+09 -4.746668e+03 1.821317e+03 1.182461e+04
-2.042124e+09 -1.842175e+09 -2.002159e+09 -5.514532e+03 -1.810482e+03 1.479655e+04
-2.182691e+09 -1.982750e+09 -2.142724e+09 -6.381544e+03 3.197588e+03 2.071033e+04
-1.814418e+09 -1.614451e+09 -1.774423e+09 -5.233162e+03 4.074275e+03 9.164507e+03
-1.695162e+09 -1.495182e+09 -1.655155e+09 1.665854e+03 -1.512521e+03 1.520824e+04
-1.482753e+09 -1.282758e+09 -1.442741e+09 -6.804124e+02 2.696050e+03 7.583909e+03
-1.797324e+09 -1.597359e+09 -1.757348e+09 -3.027493e+03 2.845319e+03 9.150210e+03
-1.701758e+09 -1.501785e+09 -1.661782e+09 -2.428801e+03 2.066166e+03 9.137225e+03
-1.914169e+09 -1.714210e+09 -1.874201e+09 -2.818328e+03 -2.401057e+03 1.259870e+04
-1.702999e+09 -1.503020e+09 -1.663003e+09 -2.310346e+03 -1.029855e+03 1.949171e+04
-1.607437e+09 -1.407454e+09 -1.567439e+09 -7.496004e+02 -4.307802e+03 2.094417e+04
-1.607436e+09 -1.407447e+09 -1.567435e+09 -3.292970e+03 4.318253e+01 2.087120e+04
-1.494941e+09 -1.294957e+09 -1.454934e+09 -1.020613e+03 -3.668661e+03 2.435275e+04
-1.729848e+09 -1.529867e+09 -1.689839e+09 1.771125e+02 -4.263928e+03 2.081010e+04
-1.857795e+09 -1.657827e+09 -1.817796e+09 -3.757755e+03 -5.615015e+03 1.921441e+04
-1.720086e+09 -1.520112e+09 -1.680085e+09 -7.444764e+03 3.554981e+03 1.087121e+04
-1.600821e+09 -1.400838e+09 -1.560811e+09 1.481929e+03 -4.527431e+03 1.372876e+04
-1.600819e+09 -1.400824e+09 -1.560805e+09 -4.910633e+03 6.488959e+03 1.438306e+04
-1.834155e+09 -1.634208e+09 -1.794173e+09 8.548051e+02 6.534816e+03 1.284519e+03
-1.754542e+09 -1.554583e+09 -1.714557e+09 3.746145e+03 7.861202e+03 9.430830e+02
-1.989455e+09 -1.789499e+09 -1.949466e+09 1.532986e+04 5.411629e+03 -3.619692e+03
-1.826770e+09 -1.626814e+09 -1.786802e+09 -6.705839e+03 5.777554e+02 -1.394550e+04
-1.707489e+09 -1.507523e+09 -1.667521e+09 -7.213946e+03 9.761794e+03 -1.433674e+04
-1.495110e+09 -1.295115e+09 -1.455100e+09 -1.964482e+03 6.508068e+03 -3.878099e+03
-1.494927e+09 -1.294952e+09 -1.454930e+09 -4.909235e+03 8.285122e+03 -1.228829e+04
-1.494925e+09 -1.294952e+09 -1.454928e+09 -2.808148e+03 2.960295e+02 -1.338384e+04
-1.729840e+09 -1.529866e+09 -1.689843e+09 -1.049334e+03 1.955328e+03 -1.592984e+04
-1.514280e+09 -1.314307e+09 -1.474271e+09 -4.067577e+03 -6.996479e+03 3.886751e+03
-1.773909e+09 -1.573956e+09 -1.733918e+09 -7.502813e+02 2.826070e+03 -3.010626e+03
-1.853515e+09 -1.653572e+09 -1.813532e+09 1.493987e+03 1.115233e+03 -1.729809e+03
-1.953422e+09 -1.753486e+09 -1.913451e+09 -2.341965e+03 3.230517e+03 -8.883251e+01
-2.108696e+09 -1.908775e+09 -2.068734e+09 -2.139331e+03 3.361130e+03 -1.196281e+04
-2.214572e+09 -2.014655e+09 -2.174620e+09 -3.339251e+03 5.968671e+02 -1.374122e+04
-1.972780e+09 -1.772848e+09 -1.932807e+09 -3.128030e+03 -5.832369e+02 -4.413481e+03
-2.105587e+09 -1.905655e+09 -2.065612e+09 -1.315789e+04 -1.516259e+03 -1.154844e+04
-1.952665e+09 -1.752724e+09 -1.912727e+09 -1.011453e+04 1.001541e+04 -1.246532e+04
-1.795637e+09 -1.595699e+09 -1.755588e+09 -3.407505e+03 1.563517e+04 -2.899467e+04
-1.891443e+09 -1.691533e+09 -1.851419e+09 -2.052073e+04 1.505813e+04 -3.722508e+04
-1.776202e+09 -1.576282e+09 -1.736148e+09 -9.524657e+03 3.274234e+04 -4.942449e+04
-1.925071e+09 -1.725156e+09 -1.885069e+09 -1.807850e+04 1.765140e+04 -4.359078e+04
-2.092581e+09 -1.892673e+09 -2.052566e+09 -2.811526e+04 7.266522e+03 -4.900102e+04
-2.159220e+09 -1.959338e+09 -2.119237e+09 -2.913762e+04 2.873018e+03 -5.573937e+04
-1.517856e+09 -1.317864e+09 -1.477838e+09 -1.175942e+04 2.791185e+04 -4.214673e+04
-1.785654e+09 -1.585668e+09 -1.745622e+09 -1.686673e+04 2.189922e+04 -4.368635e+04
-1.915555e+09 -1.715601e+09 -1.875566e+09 -3.938859e+04 2.630870e+04 -4.731673e+04
-2.004388e+09 -1.804441e+09 -1.964380e+09 -1.584969e+04 6.449633e+03 -1.175485e+04
-2.087329e+09 -1.887395e+09 -2.047367e+09 -1.925734e+04 3.212553e+03 -6.721637e+02
-2.162274e+09 -1.962346e+09 -2.122309e+09 -2.054635e+04 4.195497e+03 -3.020605e+03
-1.607173e+09 -1.407199e+09 -1.567154e+09 -7.600781e+03 7.400449e+03 2.696288e+03
-1.894497e+09 -1.694556e+09 -1.854514e+09 -1.565111e+04 1.006022e+04 -1.445854e+04
-1.819555e+09 -1.619608e+09 -1.779573e+09 -1.270755e+04 8.323939e+03 -1.116656e+04
-1.500456e+09 -1.300481e+09 -1.460435e+09 -1.987791e+03 -1.337753e+01 -3.704031e+03
-1.500451e+09 -1.300455e+09 -1.460427e+09 -1.086209e+04 1.979063e+04 -1.875616e+03
-1.682095e+09 -1.482120e+09 -1.642098e+09 -2.173046e+04 5.263961e+03 -5.860383e+03
-2.018226e+09 -1.818292e+09 -1.978209e+09 -1.900689e+04 -5.426822e+03 -8.742699e+03
-2.254099e+09 -2.054194e+09 -2.214107e+09 -1.858625e+04 3.586753e+03 1.886375e+03
-2.101173e+09 -1.901251e+09 -2.061209e+09 -1.766095e+04 1.779252e+03 -4.857234e+01
-1.614545e+09 -1.414603e+09 -1.574597e+09 -1.119684e+04 -7.025603e+03 -1.750703e+04
-1.874193e+09 -1.674254e+09 -1.834229e+09 3.167837e+02 2.571379e+02 -3.204386e+04
-1.939970e+09 -1.740054e+09 -1.900036e+09 -8.608544e+03 2.813262e+03 -3.170074e+04
-2.300290e+09 -2.100400e+09 -2.260303e+09 -2.073519e+04 1.884246e+04 -4.429373e+04
-1.936838e+09 -1.736915e+09 -1.896836e+09 -2.003792e+04 2.003062e+04 -3.214999e+04
-2.067011e+09 -1.867101e+09 -2.027006e+09 -7.160931e+03 1.842066e+04 -3.422826e+04
-2.132788e+09 -1.932901e+09 -2.092813e+09 -1.609790e+04 2.141112e+04 -3.436207e+04
-2.002623e+09 -1.802717e+09 -1.962645e+09 -1.314359e+04 2.030270e+04 -3.605614e+04
-2.170126e+09 -1.970228e+09 -2.130133e+09 -2.059244e+04 1.107513e+04 -3.993400e+04
-2.104331e+09 -1.904423e+09 -2.064329e+09 -1.013093e+04 9.340389e+03 -3.608513e+04
-2.234484e+09 -2.034594e+09 -2.194490e+09 -1.611539e+04 2.098927e+04 -4.344438e+04
-2.030832e+09 -1.830906e+09 -1.990825e+09 -2.470454e+04 1.291256e+04 -4.260371e+04
-2.097485e+09 -1.897571e+09 -2.057506e+09 -3.108399e+04 1.387315e+04 -4.175484e+04
-1.929197e+09 -1.729272e+09 -1.889132e+09 -2.992744e+04 1.895973e+04 -5.324201e+04
-1.629896e+09 -1.429921e+09 -1.589897e+09 -9.473618e+03 2.262799e+04 6.031741e+03
-1.897698e+09 -1.697730e+09 -1.857693e+09 -1.461121e+04 1.427661e+04 2.248634e+03
-1.949873e+09 -1.749912e+09 -1.909893e+09 -2.363894e+04 1.756816e+03 1.446972e+03
-1.646523e+09 -1.446556e+09 -1.606461e+09 6.279769e+01 -7.412891e+01 -6.446001e+04
-1.555123e+09 -1.355155e+09 -1.515106e+09 -2.851562e+03 6.524788e+01 -5.139305e+04
-1.555112e+09 -1.355145e+09 -1.515082e+09 -7.314535e+02 -7.672324e+03 -5.916422e+04
-1.746816e+09 -1.546855e+09 -1.706761e+09 -2.006964e+03 -6.024468e+03 -5.887061e+04
-1.454800e+09 -1.254823e+09 -1.414729e+09 -2.756266e+03 2.771963e+04 -5.943040e+04
-1.454807e+09 -1.254836e+09 -1.414748e+09 -3.108503e+03 -2.481057e+03 -6.276717e+04
-1.746821e+09 -1.546850e+09 -1.706779e+09 3.289306e+03 1.013339e+04 -3.451177e+04
-1.646519e+09 -1.446539e+09 -1.606463e+09 -3.051565e+03 2.407055e+04 -6.477573e+04
-1.799251e+09 -1.599309e+09 -1.759214e+09 -1.663173e+04 2.644934e+03 -3.814833e+04
-1.684011e+09 -1.484056e+09 -1.643937e+09 -7.081946e+03 1.598661e+04 -5.210803e+04
-1.487882e+09 -1.287908e+09 -1.447805e+09 -1.045024e+04 7.835971e+03 -3.729137e+04
-2.063394e+09 -1.863434e+09 -2.023268e+09 -5.005341e+04 4.920756e+04 -1.113921e+05
-2.141894e+09 -1.941978e+09 -2.101832e+09 -7.274683e+04 6.365294e+04 -1.071428e+05
-1.937138e+09 -1.737209e+09 -1.897050e+09 -6.013982e+04 5.778961e+04 -9.435770e+04
-2.079241e+09 -1.879307e+09 -2.039154e+09 -4.246552e+04 1.332489e+04 -5.887352e+04
-2.202658e+09 -2.002726e+09 -2.162625e+09 -4.691840e+04 1.540859e+04 -3.478869e+04
-2.269662e+09 -2.069736e+09 -2.229650e+09 -4.903491e+04 3.005041e+03 -3.469933e+04
-2.033022e+09 -1.833094e+09 -1.992906e+09 -4.613796e+04 2.779760e+04 -1.383489e+05
-2.111546e+09 -1.911649e+09 -2.071475e+09 -7.560970e+04 4.372832e+04 -1.258881e+05
-2.191771e+09 -1.991904e+09 -2.151694e+09 -6.793824e+04 4.277893e+04 -1.433140e+05
-1.826670e+09 -1.626765e+09 -1.786528e+09 -5.288151e+04 5.140244e+04 -1.169796e+05
-1.710760e+09 -1.510832e+09 -1.670608e+09 -5.659471e+04 1.196302e+05 -1.204596e+05
-1.906895e+09 -1.707028e+09 -1.866722e+09 -3.012583e+04 7.693850e+04 -1.377521e+05
-2.047101e+09 -1.847176e+09 -2.007015e+09 -4.202474e+04 5.034912e+03 -5.623080e+04
-2.098872e+09 -1.898952e+09 -2.058766e+09 -5.857910e+04 1.286621e+04 -4.802464e+04
-2.267139e+09 -2.067239e+09 -2.227108e+09 -5.407448e+04 9.205968e+03 -3.217478e+04
-1.520048e+09 -1.320057e+09 -1.480005e+09 -1.609105e+04 6.407578e+03 -2.857031e+04
-1.520041e+09 -1.320035e+09 -1.479997e+09 -1.407814e+04 5.083036e+04 -2.400555e+04
-1.716989e+09 -1.516998e+09 -1.677003e+09 -3.511054e+04 2.295804e+04 -2.456375e+04
-1.778510e+09 -1.578510e+09 -1.738473e+09 -5.471279e+04 5.199059e+04 -8.681798e+04
-1.665975e+09 -1.465953e+09 -1.625856e+09 -2.140079e+04 3.613512e+04 -7.717920e+04
-1.470489e+09 -1.270465e+09 -1.430408e+09 -5.644193e+03 4.219500e+04 -6.540705e+04
-1.922884e+09 -1.722922e+09 -1.882762e+09 -4.519180e+04 4.726885e+04 -1.035966e+05
-2.125695e+09 -1.925735e+09 -2.085572e+09 -3.997112e+04 5.533262e+04 -1.071589e+05
-2.060081e+09 -1.860097e+09 -2.019955e+09 -5.019249e+04 6.279090e+04 -1.126541e+05
-1.941984e+09 -1.742016e+09 -1.901907e+09 -4.646056e+04 3.209217e+04 -2.308191e+04
-2.144777e+09 -1.944814e+09 -2.104682e+09 -4.800613e+04 3.939600e+04 -2.938293e+04
-2.197356e+09 -1.997398e+09 -2.157333e+09 -5.215757e+04 2.699786e+04 -1.154121e+04
-1.487837e+09 -1.287887e+09 -1.447862e+09 -2.995469e+04 6.843728e+04 -1.552675e+05
-1.487819e+09 -1.287890e+09 -1.447794e+09 -1.663448e+04 1.732712e+04 -1.673826e+05
-1.683974e+09 -1.484050e+09 -1.643947e+09 -7.419299e+03 2.814027e+04 -1.811656e+05
-1.917749e+09 -1.717835e+09 -1.877757e+09 -4.026296e+04 2.439615e+04 -3.897355e+04
-1.787842e+09 -1.587896e+09 -1.747810e+09 -2.081693e+04 1.876647e+04 -3.409177e+04
-1.984777e+09 -1.784839e+09 -1.944772e+09 -4.140770e+04 1.478341e+04 -4.385405e+04
-1.807264e+09 -1.607343e+09 -1.767136e+09 -4.937542e+04 8.499626e+04 -9.027021e+04
-1.691347e+09 -1.491420e+09 -1.651194e+09 -5.608488e+04 1.154374e+05 -1.232888e+05
-1.468465e+09 -1.268487e+09 -1.428468e+09 -4.872998e+04 1.206871e+05 -8.123695e+04
-1.602111e+09 -1.402120e+09 -1.562093e+09 -2.717912e+04 4.237837e+04 -2.268009e+04
-1.797602e+09 -1.597609e+09 -1.757551e+09 -4.318990e+04 3.565103e+04 -3.740081e+04
-1.912453e+09 -1.712474e+09 -1.872434e+09 -5.210948e+04 6.236237e+03 -1.314047e+04
-1.952029e+09 -1.752116e+09 -1.911944e+09 -7.865142e+04 5.123538e+04 -9.372516e+04
-2.156806e+09 -1.956900e+09 -2.116737e+09 -9.032401e+04 5.013933e+04 -1.128075e+05
-2.280544e+09 -2.080622e+09 -2.240390e+09 -1.047587e+05 3.225674e+04 -1.168902e+05
-1.893352e+09 -1.693206e+09 -1.852846e+09 -6.258619e+04 1.001602e+05 -1.993619e+05
-1.762518e+09 -1.562417e+09 -1.722236e+09 -1.064071e+05 2.724417e+05 -4.851089e+05
-1.961364e+09 -1.761329e+09 -1.920653e+09 -8.588529e+04 8.410498e+04 -4.065075e+05
-1.986311e+09 -1.786283e+09 -1.946204e+09 -7.881200e+04 8.309852e+04 -7.049142e+04
-2.131341e+09 -1.931343e+09 -2.091191e+09 -8.358132e+04 9.423296e+04 -8.827356e+04
-2.196124e+09 -1.996100e+09 -2.156100e+09 -8.551042e+04 1.042378e+05 -1.995887e+04
-1.850999e+09 -1.650940e+09 -1.810886e+09 -5.531396e+04 7.989966e+04 -8.699166e+04
-1.743001e+09 -1.542931e+09 -1.702839e+09 -2.298040e+04 6.651306e+04 -6.895420e+04
-1.496948e+09 -1.296895e+09 -1.456852e+09 -4.306723e+03 5.854805e+04 -5.246970e+04
-1.981783e+09 -1.781746e+09 -1.941665e+09 -6.762031e+04 7.807572e+04 -7.726100e+04
-2.126837e+09 -1.926804e+09 -2.086688e+09 -5.654500e+04 7.886953e+04 -6.684099e+04
-1.987396e+09 -1.787344e+09 -1.947112e+09 -3.622718e+04 1.334421e+05 -1.308968e+05
-1.696418e+09 -1.496400e+09 -1.656387e+09 -4.555571e+04 7.491874e+04 -5.429642e+04
-1.583864e+09 -1.383845e+09 -1.543775e+09 -7.691113e+03 5.862153e+04 -6.272484e+04
-1.583857e+09 -1.383815e+09 -1.543775e+09 -7.205530e+03 9.288988e+04 -5.902080e+04
-2.046462e+09 -1.846501e+09 -2.006373e+09 -6.702191e+04 4.400216e+04 -1.185384e+05
-2.234894e+09 -2.034945e+09 -2.194779e+09 -7.572521e+04 2.649542e+04 -1.082560e+05
-2.170190e+09 -1.970253e+09 -2.130024e+09 -8.421773e+04 5.787918e+04 -1.175906e+05
-1.958332e+09 -1.758288e+09 -1.918224e+09 -5.380290e+04 6.422037e+04 -5.442911e+04
-1.737979e+09 -1.537942e+09 -1.697895e+09 -5.908997e+04 7.080723e+04 -6.153078e+04
-1.824867e+09 -1.624842e+09 -1.784782e+09 -7.034492e+04 5.250319e+04 -3.378603e+04
-1.712281e+09 -1.512247e+09 -1.672196e+09 -4.003489e+04 6.146478e+04 -4.235435e+04
-1.983989e+09 -1.783946e+09 -1.943838e+09 -5.676855e+04 5.657068e+04 -7.402060e+04
-2.070922e+09 -1.870878e+09 -2.030810e+09 -6.275397e+04 4.863276e+04 -5.263837e+04
-1.625312e+09 -1.425316e+09 -1.585277e+09 -3.220718e+04 6.704354e+04 -6.519377e+04
-1.871397e+09 -1.671366e+09 -1.831281e+09 -5.314226e+04 7.321748e+04 -6.604763e+04
-1.588962e+09 -1.389025e+09 -1.549083e+09 -7.193679e+04 1.151978e+05 -1.685545e+05
-1.811823e+09 -1.611949e+09 -1.771758e+09 -8.361749e+04 1.023737e+05 -2.337709e+05
-1.930697e+09 -1.730851e+09 -1.890634e+09 -8.229472e+04 1.020117e+05 -2.279168e+05
-1.508742e+09 -1.308671e+09 -1.468236e+09 -6.218584e+04 4.153205e+05 -3.713371e+05
-1.508778e+09 -1.308754e+09 -1.468337e+09 -4.369915e+04 1.016561e+05 -4.062631e+05
-1.707731e+09 -1.507766e+09 -1.667156e+09 -3.802063e+04 3.556529e+04 -3.781944e+05
-1.879364e+09 -1.679332e+09 -1.839001e+09 1.132681e+04 2.556918e+05 -1.569224e+05
-1.748509e+09 -1.548529e+09 -1.708383e+09 -4.098480e+04 4.342642e+05 -4.174701e+05
-1.494970e+09 -1.294855e+09 -1.455111e+09 -4.013686e+03 4.276480e+05 -3.677806e+05
-1.942577e+09 -1.742683e+09 -1.902422e+09 -1.094884e+05 1.694079e+05 -2.436407e+05
-2.116080e+09 -1.916140e+09 -2.075764e+09 -1.225054e+05 1.553653e+05 -2.413012e+05
-2.184265e+09 -1.984391e+09 -2.143992e+09 -1.226080e+05 1.794879e+05 -2.370876e+05
-1.985813e+09 -1.785760e+09 -1.945448e+09 -4.785657e+04 1.547852e+05 -8.812696e+04
-2.125276e+09 -1.925230e+09 -2.085070e+09 -6.820311e+04 8.800221e+04 -2.880612e+04
-2.261819e+09 -2.061765e+09 -2.221580e+09 -7.713264e+04 7.902159e+04 -3.236136e+04
-1.871701e+09 -1.671621e+09 -1.831537e+09 -7.000592e+04 1.043732e+05 -5.009729e+04
-1.763678e+09 -1.563679e+09 -1.723513e+09 -3.916991e+04 8.528140e+04 -4.888735e+04
-2.008259e+09 -1.808218e+09 -1.968056e+09 -6.434092e+04 1.323377e+05 -5.114254e+04
-2.016181e+09 -1.816060e+09 -1.975811e+09 -1.080476e+05 1.366548e+05 -1.220131e+05
-2.154213e+09 -1.954064e+09 -2.113893e+09 -1.011734e+05 1.558581e+05 -1.443087e+05
-2.301511e+09 -2.101320e+09 -2.261102e+09 -9.322165e+04 1.422317e+05 -1.574967e+05
-1.517599e+09 -1.317542e+09 -1.477475e+09 -1.083782e+03 7.760526e+04 -4.358228e+04
-1.517606e+09 -1.317587e+09 -1.477473e+09 9.166800e+03 8.028605e+04 -3.643325e+04
-1.762139e+09 -1.562113e+09 -1.721987e+09 -2.087519e+04 1.154456e+05 -7.838582e+04
-2.056389e+09 -1.856220e+09 -2.016214e+09 -4.780390e+04 2.028983e+05 -6.517711e+04
-2.187708e+09 -1.987529e+09 -2.147540e+09 -4.171453e+04 1.953118e+05 -4.866938e+04
-2.040418e+09 -1.840277e+09 -2.000361e+09 -4.977188e+04 2.085040e+05 -5.016422e+04
-1.901997e+09 -1.701862e+09 -1.861841e+09 -3.353470e+04 1.117133e+05 -3.770190e+04
-1.762204e+09 -1.562151e+09 -1.722054e+09 -5.833507e+03 9.481605e+04 -1.798624e+04
-1.517585e+09 -1.317579e+09 -1.477462e+09 3.726040e+03 7.503982e+04 1.268478e+04
-1.633423e+09 -1.433245e+09 -1.593227e+09 -9.000670e+04 4.350175e+05 -1.984658e+05
-1.886933e+09 -1.686876e+09 -1.846417e+09 -9.976380e+04 4.630400e+05 -2.136389e+05
-2.056830e+09 -1.856732e+09 -2.016101e+09 -7.338234e+04 4.180985e+05 -1.863421e+05
-1.501720e+09 -1.301479e+09 -1.461669e+09 -1.360093e+04 5.380703e+05 -2.884831e+05
-1.778055e+09 -1.577972e+09 -1.737455e+09 -7.170819e+04 4.851187e+05 -3.823880e+05
-1.916555e+09 -1.716531e+09 -1.876084e+09 2.989850e+03 3.348022e+05 -1.111880e+05
-1.742708e+09 -1.542587e+09 -1.702009e+09 -3.188757e+04 4.871446e+05 -3.253991e+05
-1.604677e+09 -1.404629e+09 -1.564448e+09 -6.442216e+04 3.935466e+05 -2.207768e+05
-1.604768e+09 -1.404594e+09 -1.564693e+09 -5.643184e+04 4.323012e+05 -1.324075e+05
-1.881056e+09 -1.681012e+09 -1.840429e+09 -2.904853e+04 3.967447e+05 -2.023685e+05
-1.466163e+09 -1.266048e+09 -1.425604e+09 -4.235636e+04 5.840759e+05 -2.552147e+05
-1.466171e+09 -1.266010e+09 -1.425571e+09 -9.554630e+04 4.632797e+05 -2.712773e+05
-1.881187e+09 -1.680964e+09 -1.840717e+09 4.749382e+03 5.303292e+05 -8.643177e+02
-1.742705e+09 -1.542459e+09 -1.702092e+09 -7.424546e+04 6.075293e+05 -3.009130e+05
-1.895557e+09 -1.695390e+09 -1.855348e+09 -3.186974e+04 7.462823e+04 8.668068e+03
-2.071603e+09 -1.871428e+09 -2.031333e+09 -1.784511e+04 7.734822e+04 -1.105348e+04
-2.212215e+09 -2.012053e+09 -2.171826e+09 -2.889328e+04 8.593352e+04 -2.431556e+04
-2.021959e+09 -1.821730e+09 -1.981696e+09 -3.457769e+04 2.403048e+05 -2.521170e+04
-2.280643e+09 -2.080406e+09 -2.240337e+09 -4.661999e+04 2.461980e+05 -2.244429e+04
-2.139978e+09 -1.939766e+09 -2.099665e+09 -4.746475e+04 2.361404e+05 -4.051115e+04
-1.637562e+09 -1.437225e+09 -1.597271e+09 -3.991215e+03 6.107175e+05 -3.708032e+04
-1.913873e+09 -1.713688e+09 -1.873003e+09 -4.137134e+04 5.724672e+05 -8.912913e+04
-2.050721e+09 -1.850476e+09 -2.009588e+09 1.846843e+04 5.182844e+05 2.743302e+04
-2.017983e+09 -1.817668e+09 -1.977637e+09 -5.264243e+04 2.800938e+05 -7.004801e+04
-2.135988e+09 -1.935669e+09 -2.095569e+09 -5.620766e+04 2.911018e+05 -5.294746e+04
-2.282223e+09 -2.081866e+09 -2.241619e+09 1.429006e+04 2.410197e+05 2.963855e+04
-1.755722e+09 -1.555591e+09 -1.715544e+09 -1.645900e+04 8.264170e+04 -2.168447e+03
-1.700406e+09 -1.500375e+09 -1.660276e+09 -4.629451e+04 5.980375e+04 -1.811077e+04
-1.931797e+09 -1.731665e+09 -1.891555e+09 -2.132061e+04 9.901132e+04 -5.474564e+03
-1.859423e+09 -1.659182e+09 -1.819342e+09 9.195557e+04 2.022137e+05 4.724995e+04
-1.755455e+09 -1.555158e+09 -1.715364e+09 1.297400e+04 2.331889e+05 -3.327127e+04
-2.005572e+09 -1.805325e+09 -1.965200e+09 9.986245e+04 1.889738e+05 1.987234e+04
-1.524055e+09 -1.323866e+09 -1.483708e+09 -7.153220e+04 6.305698e+05 -1.987122e+05
-1.774174e+09 -1.574054e+09 -1.733583e+09 8.796913e+04 5.690079e+05 2.150338e+05
-1.524037e+09 -1.323888e+09 -1.483700e+09 -1.775947e+03 5.719864e+05 1.763554e+05
-1.791553e+09 -1.591444e+09 -1.751426e+09 -2.510413e+04 8.865427e+04 -1.646195e+04
-1.980880e+09 -1.780749e+09 -1.940709e+09 -6.052511e+04 9.853695e+04 -5.037717e+04
-1.841087e+09 -1.641022e+09 -1.800916e+09 -2.825844e+04 8.709371e+04 -2.980673e+04
-1.651719e+09 -1.451645e+09 -1.611622e+09 -9.939103e+03 9.690147e+04 -2.700092e+04
-1.596452e+09 -1.396410e+09 -1.556354e+09 2.059431e+03 1.071830e+05 -3.005540e+04
-1.596457e+09 -1.396449e+09 -1.556353e+09 1.653701e+04 8.598346e+04 -3.554119e+04
-1.843031e+09 -1.642941e+09 -1.802926e+09 -1.191729e+04 7.835202e+04 8.933504e+03
-1.723662e+09 -1.523617e+09 -1.683552e+09 5.495843e+03 6.845415e+04 -1.016528e+03
-1.492341e+09 -1.292358e+09 -1.452323e+09 1.116957e+04 1.547567e+04 2.878836e+04
-1.507761e+09 -1.307635e+09 -1.467716e+09 -1.220673e+04 2.329366e+05 -6.076701e+04
-1.739093e+09 -1.539008e+09 -1.698971e+09 -3.574551e+04 2.519339e+05 -5.814059e+04
-1.843058e+09 -1.643065e+09 -1.802910e+09 1.269262e+02 2.085793e+05 -9.844785e+03
-2.019630e+09 -1.819520e+09 -1.979545e+09 2.114862e+04 7.819269e+04 2.154131e+04
-2.141250e+09 -1.941132e+09 -2.101134e+09 2.697210e+04 6.538509e+04 1.558311e+04
-2.315895e+09 -2.115738e+09 -2.275816e+09 2.473285e+04 6.681126e+04 5.386211e+04
-1.990068e+09 -1.789976e+09 -1.949970e+09 1.299314e+04 6.755825e+04 1.505005e+04
-2.104204e+09 -1.904101e+09 -2.064054e+09 2.823977e+04 5.831117e+04 3.255522e+04
-1.942797e+09 -1.742712e+09 -1.902682e+09 2.320374e+04 5.189974e+04 1.904870e+04
-1.881583e+09 -1.681505e+09 -1.841545e+09 4.372934e+03 4.789723e+04 -9.259927e+03
-1.762205e+09 -1.562149e+09 -1.722170e+09 3.261885e+04 4.184834e+04 -1.876730e+04
-2.056206e+09 -1.856094e+09 -2.016199e+09 1.413086e+04 6.516722e+04 1.456586e+04
-1.997155e+09 -1.797028e+09 -1.957064e+09 2.414305e+04 6.918623e+04 4.161109e+04
-2.111263e+09 -1.911135e+09 -2.071123e+09 3.419153e+04 5.320633e+04 4.064117e+04
-2.222570e+09 -2.022425e+09 -2.182407e+09 3.538080e+04 3.443645e+04 4.409367e+04
-1.851620e+09 -1.651520e+09 -1.811450e+09 3.601004e+04 4.972582e+04 3.006741e+04
-1.731605e+09 -1.531455e+09 -1.691480e+09 4.784755e+04 1.107709e+05 3.012908e+04
-1.962928e+09 -1.762795e+09 -1.922748e+09 2.900162e+04 8.939229e+04 3.726939e+04
-1.830488e+09 -1.630442e+09 -1.790343e+09 3.622791e+04 6.988682e+04 2.415245e+04
-1.710462e+09 -1.510389e+09 -1.670262e+09 2.165853e+04 1.011913e+05 -1.022098e+04
-1.486665e+09 -1.286584e+09 -1.446582e+09 4.007461e+04 9.470966e+04 -1.298867e+04
-1.530921e+09 -1.330921e+09 -1.490885e+09 3.906763e+03 6.828608e+04 -1.159257e+04
-1.530931e+09 -1.330944e+09 -1.490904e+09 2.832507e+02 2.422004e+04 -1.636643e+04
-1.824881e+09 -1.624806e+09 -1.784836e+09 -1.683297e+03 5.603397e+04 -5.304154e+03
-1.507788e+09 -1.307722e+09 -1.467515e+09 2.976265e+03 1.631341e+05 1.017860e+05
-1.507788e+09 -1.307617e+09 -1.467593e+09 1.168805e+04 2.224764e+05 1.330304e+05
-1.739056e+09 -1.538954e+09 -1.698666e+09 1.030439e+04 2.201390e+05 1.538429e+05
-1.640656e+09 -1.440634e+09 -1.600552e+09 -8.013325e+03 1.480057e+04 1.235734e+04
-1.900273e+09 -1.700215e+09 -1.860149e+09 5.695855e+03 4.967833e+04 1.434782e+04
-2.084559e+09 -1.884448e+09 -2.044428e+09 1.643648e+04 5.307646e+04 3.347445e+04
-1.870061e+09 -1.669997e+09 -1.829953e+09 4.967317e+03 4.862933e+04 2.002537e+04
-1.757727e+09 -1.557695e+09 -1.717636e+09 2.683296e+03 4.906120e+04 1.817574e+04
-1.498109e+09 -1.298115e+09 -1.458039e+09 -8.664242e+03 1.362240e+04 1.764063e+04
-1.986387e+09 -1.786331e+09 -1.946302e+09 3.149438e+04 2.507500e+04 -1.487094e+04
-2.147808e+09 -1.947730e+09 -2.107696e+09 3.601779e+04 2.833563e+04 3.838660e+03
-2.413045e+09 -2.212947e+09 -2.372954e+09 5.526077e+04 5.222033e+04 2.650486e+03
-2.185005e+09 -1.984940e+09 -2.144924e+09 2.846531e+04 2.531191e+04 2.248022e+04
-2.255388e+09 -2.055339e+09 -2.215320e+09 2.271405e+04 -7.133527e+03 -1.541034e+04
-2.359393e+09 -2.159335e+09 -2.319307e+09 3.056412e+04 -1.021937e+03 1.054349e+04
-2.005978e+09 -1.805903e+09 -1.965881e+09 2.556729e+04 2.719081e+04 1.852420e+02
-2.285276e+09 -2.085187e+09 -2.245202e+09 4.197998e+04 5.636867e+04 1.836344e+04
-2.349185e+09 -2.149095e+09 -2.309116e+09 4.337552e+04 6.122864e+04 6.138498e+03
-2.047538e+09 -1.847475e+09 -2.007411e+09 2.278910e+04 -9.791951e+02 4.980706e+03
-2.383181e+09 -2.183121e+09 -2.343110e+09 4.492940e+04 -1.588550e+04 1.359303e+04
-2.312780e+09 -2.112706e+09 -2.272677e+09 4.087309e+04 2.438863e+04 3.027600e+03
-1.842335e+09 -1.642258e+09 -1.802276e+09 1.460028e+04 1.676027e+04 1.198847e+04
-1.971617e+09 -1.771578e+09 -1.931592e+09 3.620448e+04 3.320218e+04 -8.415360e+03
-1.839738e+09 -1.639675e+09 -1.799716e+09 3.118313e+04 4.955524e+03 9.449587e+03
-1.679524e+09 -1.479491e+09 -1.639419e+09 2.784231e+04 1.135032e+05 5.458785e+04
-1.553987e+09 -1.353955e+09 -1.513854e+09 3.426089e+03 6.380336e+04 2.861039e+04
-1.553957e+09 -1.353908e+09 -1.513898e+09 3.461940e+04 9.098095e+04 5.102646e+04
-1.777760e+09 -1.577732e+09 -1.737654e+09 2.758298e+04 1.082259e+05 6.257838e+04
-1.455763e+09 -1.255764e+09 -1.415701e+09 -7.649196e+02 2.268900e+04 3.585123e+04
-1.455717e+09 -1.255657e+09 -1.415621e+09 2.611226e+04 1.021134e+05 4.563177e+04
-1.777795e+09 -1.577759e+09 -1.737678e+09 1.289883e+04 7.522472e+04 2.675847e+04
-1.679520e+09 -1.479507e+09 -1.639402e+09 1.498934e+04 6.400402e+04 6.198496e+04
-1.854425e+09 -1.654437e+09 -1.814373e+09 2.536588e+04 3.425691e+04 -8.060678e+03
-1.722558e+09 -1.522536e+09 -1.682521e+09 9.694680e+03 3.015648e+04 1.286161e+04
-1.495013e+09 -1.294988e+09 -1.454995e+09 1.683108e+04 2.226317e+04 5.794229e+03
-1.511955e+09 -1.311972e+09 -1.471925e+09 -8.552832e+03 -1.511913e+04 4.909626e+03
-1.745942e+09 -1.545931e+09 -1.705932e+09 1.287386e+04 1.001992e+04 1.210098e+04
-1.850422e+09 -1.650389e+09 -1.810393e+09 1.729773e+04 7.095232e+03 8.476452e+03
-1.511947e+09 -1.311955e+09 -1.471910e+09 -2.140492e+03 2.378004e+04 -1.255195e+04
-1.511956e+09 -1.311974e+09 -1.471927e+09 -3.382244e+03 -1.250149e+04 -1.707575e+04
-1.745961e+09 -1.545923e+09 -1.705929e+09 -5.363316e+03 1.698340e+04 -5.533370e+03
-1.883890e+09 -1.683840e+09 -1.843824e+09 1.098554e+04 1.995086e+04 -1.921252e+04
-1.771572e+09 -1.571551e+09 -1.731520e+09 5.641609e+03 4.071812e+03 -1.391716e+04
-2.005584e+09 -1.805510e+09 -1.965565e+09 1.351936e+04 -8.541146e+03 -3.501027e+03
-1.982300e+09 -1.782257e+09 -1.942283e+09 2.261905e+04 8.312680e+03 7.530488e+02
-2.086299e+09 -1.886253e+09 -2.046245e+09 3.003041e+04 1.347246e+04 1.070734e+04
-1.958875e+09 -1.758843e+09 -1.918836e+09 2.756253e+04 8.061866e+03 -2.599285e+02
-1.821878e+09 -1.621866e+09 -1.781866e+09 8.901816e+03 -1.327285e+04 -4.574053e+03
-1.729389e+09 -1.529387e+09 -1.689385e+09 6.518419e+03 -1.052140e+04 -6.368442e+03
-1.512423e+09 -1.312425e+09 -1.472412e+09 -4.567073e+03 -2.094151e+04 -1.573185e+04
-1.495009e+09 -1.295006e+09 -1.454943e+09 -1.225699e+02 1.604879e+03 9.320382e+03
-1.495013e+09 -1.294987e+09 -1.454996e+09 1.061847e+04 2.366508e+04 7.345323e+03
-1.722548e+09 -1.522535e+09 -1.682524e+09 8.973384e+03 3.091445e+04 1.555433e+04
-1.951002e+09 -1.750977e+09 -1.910945e+09 2.137784e+04 -1.790604e+04 -2.437659e+04
-2.078428e+09 -1.878388e+09 -2.038362e+09 2.412132e+04 -1.392727e+04 -1.243957e+04
-2.190963e+09 -1.990924e+09 -2.150938e+09 2.863350e+04 -2.102947e+04 -1.710153e+04
-1.512412e+09 -1.312416e+09 -1.472396e+09 -1.168207e+03 -4.827959e+02 -1.567137e+04
-1.512417e+09 -1.312423e+09 -1.472409e+09 -4.545136e+03 -2.062704e+04 -1.915252e+04
-1.729402e+09 -1.529381e+09 -1.689379e+09 1.015794e+02 -3.707740e+03 -7.707723e+03
-1.850892e+09 -1.650854e+09 -1.810867e+09 1.628762e+04 -5.950715e+03 -9.236625e+03
-1.746438e+09 -1.546411e+09 -1.706410e+09 -3.182240e+03 -1.072411e+04 -4.779108e+03
-1.963410e+09 -1.763366e+09 -1.923391e+09 1.296106e+04 -2.595012e+04 -5.810454e+03
-1.495018e+09 -1.295002e+09 -1.454986e+09 4.242522e+03 -2.418209e+04 -1.169672e+04
-1.722553e+09 -1.522539e+09 -1.682518e+09 2.805133e+03 -2.748858e+04 -9.746799e+03
-1.829533e+09 -1.629503e+09 -1.789498e+09 8.268859e+03 -2.742809e+04 -8.456621e+03
-1.953530e+09 -1.753504e+09 -1.913478e+09 1.163595e+04 -1.356735e+04 -1.881627e+04
-2.063917e+09 -1.863890e+09 -2.023916e+09 2.071874e+04 -1.716805e+04 -1.525829e+04
-1.928865e+09 -1.728843e+09 -1.888850e+09 1.288128e+04 -1.464017e+04 -8.258515e+03
-1.788971e+09 -1.588951e+09 -1.748958e+09 9.293090e+03 -2.346843e+04 -1.528830e+04
-1.696490e+09 -1.496477e+09 -1.656479e+09 1.548521e+03 -2.193546e+04 -1.518671e+04
-1.899770e+09 -1.699734e+09 -1.859769e+09 1.247503e+04 -3.042534e+04 -1.377118e+04
-1.941409e+09 -1.741395e+09 -1.901398e+09 5.408567e+03 -2.433063e+04 -2.146043e+04
-2.046511e+09 -1.846489e+09 -2.006493e+09 7.413187e+03 -2.282618e+04 -1.834879e+04
-1.916676e+09 -1.716666e+09 -1.876669e+09 6.207034e+03 -1.961176e+04 -1.358093e+04
-1.791679e+09 -1.591678e+09 -1.751674e+09 7.831824e+02 -1.638618e+04 -9.785739e+03
-1.682794e+09 -1.482793e+09 -1.642790e+09 -3.938282e+02 -1.388984e+04 -1.210998e+04
-1.479510e+09 -1.279513e+09 -1.439496e+09 -6.006946e+03 -1.989898e+04 -1.663777e+04
-1.486622e+09 -1.286606e+09 -1.446597e+09 -3.264505e+03 -1.878700e+04 -1.020986e+04
-1.707525e+09 -1.507508e+09 -1.667501e+09 1.456356e+03 -2.348560e+04 -1.587521e+04
-1.832523e+09 -1.632513e+09 -1.792504e+09 2.908606e+03 -1.696474e+04 -2.327633e+04
-1.913967e+09 -1.713956e+09 -1.873938e+09 1.237243e+04 -2.789609e+04 -8.635875e+03
-2.024778e+09 -1.824766e+09 -1.984774e+09 1.732469e+04 -2.858632e+04 -1.254177e+04
-2.154605e+09 -1.954589e+09 -2.114595e+09 2.031149e+04 -3.064069e+04 -1.940247e+04
-1.847926e+09 -1.647912e+09 -1.807932e+09 1.964954e+04 -1.464090e+04 -2.183589e+04
-1.961840e+09 -1.761858e+09 -1.921852e+09 2.242897e+04 -1.546225e+04 -1.183563e+04
-1.836840e+09 -1.636849e+09 -1.796852e+09 2.188326e+04 -1.127210e+04 -1.442720e+04
-1.479509e+09 -1.279513e+09 -1.439487e+09 -5.787929e+03 -1.217280e+04 -1.617212e+04
-1.479511e+09 -1.279514e+09 -1.439497e+09 -4.852522e+03 -2.022948e+04 -1.661898e+04
-1.682806e+09 -1.482796e+09 -1.642797e+09 -3.442706e+03 -1.196643e+04 -7.611146e+03
-1.929858e+09 -1.729839e+09 -1.889846e+09 2.123169e+04 -9.919559e+03 -4.980994e+03
-2.178832e+09 -1.978812e+09 -2.138820e+09 3.154054e+04 2.439520e+02 -3.145598e+03
-2.064923e+09 -1.864894e+09 -2.024919e+09 2.664707e+04 -1.232613e+04 -1.644167e+04
-1.734335e+09 -1.534328e+09 -1.694320e+09 -8.845136e+02 -8.461833e+02 -6.471260e+03
-1.609335e+09 -1.409322e+09 -1.569316e+09 -4.632894e+02 -6.287161e+03 -4.495578e+03
-1.609338e+09 -1.409322e+09 -1.569330e+09 -3.985280e+02 2.611423e+03 -3.433656e+03
-1.938265e+09 -1.738257e+09 -1.898265e+09 1.314411e+04 -1.979030e+04 -2.334179e+04
-2.043357e+09 -1.843346e+09 -2.003358e+09 1.732047e+04 -1.645065e+04 -1.669660e+04
-2.163184e+09 -1.963177e+09 -2.123187e+09 2.098192e+04 -9.016140e+03 -9.519922e+03
-1.926526e+09 -1.726517e+09 -1.886517e+09 8.161805e+03 -2.330670e+04 -1.725925e+04
-2.063929e+09 -1.863925e+09 -2.023938e+09 1.302245e+04 -1.688314e+04 -1.256328e+04
-2.188578e+09 -1.988569e+09 -2.148584e+09 1.572602e+04 -1.964751e+04 -1.738032e+04
-1.597202e+09 -1.397202e+09 -1.557197e+09 -2.923178e+02 -1.801266e+04 -1.492443e+04
-1.843492e+09 -1.643489e+09 -1.803495e+09 3.202441e+03 -1.540975e+04 -1.196184e+04
-1.946992e+09 -1.746981e+09 -1.906990e+09 4.860987e+03 -1.344936e+04 -1.039417e+04
-1.805301e+09 -1.605294e+09 -1.765298e+09 3.109008e+03 -2.222171e+04 -1.617408e+04
-1.696415e+09 -1.496408e+09 -1.656414e+09 1.513674e+03 -2.123293e+04 -1.767706e+04
-1.903986e+09 -1.703965e+09 -1.863985e+09 5.469490e+03 -2.040258e+04 -1.227702e+04
-1.739003e+09 -1.538999e+09 -1.698998e+09 3.541849e+03 -1.113014e+04 -1.370282e+04
-1.617140e+09 -1.417136e+09 -1.577136e+09 2.628492e+03 -1.353183e+04 -1.270860e+04
-1.617139e+09 -1.417132e+09 -1.577138e+09 3.983792e+03 -7.407609e+03 -1.231615e+04
-1.493133e+09 -1.293130e+09 -1.453125e+09 -4.532460e+03 -1.829642e+04 -1.488697e+04
-1.493133e+09 -1.293131e+09 -1.453125e+09 -4.591087e+03 -2.154747e+04 -1.523549e+04
-1.700705e+09 -1.500688e+09 -1.660694e+09 -1.529965e+03 -1.860912e+04 -1.013150e+04
-1.970274e+09 -1.770281e+09 -1.930283e+09 1.441885e+04 -1.258373e+04 -1.975609e+04
-1.740713e+09 -1.540707e+09 -1.700713e+09 1.004184e+04 -1.531034e+04 -1.852642e+04
-1.961620e+09 -1.761622e+09 -1.921625e+09 9.935088e+03 -2.029410e+04 -2.438479e+04
-2.092136e+09 -1.892148e+09 -2.052145e+09 1.198603e+04 -1.559668e+04 -1.874029e+04
-1.618855e+09 -1.418849e+09 -1.578852e+09 7.105693e+03 -1.239128e+04 -1.609623e+04
-1.839750e+09 -1.639749e+09 -1.799755e+09 1.397040e+04 -1.613445e+04 -2.112154e+04
-1.871229e+09 -1.671238e+09 -1.831237e+09 1.317241e+04 -1.654521e+04 -1.665793e+04
-1.749365e+09 -1.549370e+09 -1.709372e+09 1.301507e+04 -1.240806e+04 -1.796398e+04
-1.909369e+09 -1.709365e+09 -1.869373e+09 5.628928e+03 -2.038473e+04 -1.672927e+04
-2.150271e+09 -1.950257e+09 -2.110280e+09 1.259202e+04 -1.519635e+04 -1.211418e+04
-2.046772e+09 -1.846762e+09 -2.006783e+09 1.097711e+04 -1.555022e+04 -1.328187e+04
-1.509696e+09 -1.309689e+09 -1.469690e+09 1.642559e+03 -1.573740e+04 -1.310968e+04
-1.484030e+09 -1.284026e+09 -1.444028e+09 1.962952e+02 -1.447315e+04 -1.222737e+04
-1.569383e+09 -1.369379e+09 -1.529383e+09 4.214749e+03 -1.385888e+04 -1.262212e+04
-1.541278e+09 -1.341277e+09 -1.501282e+09 3.485170e+03 -1.453490e+04 -1.183304e+04
-1.632983e+09 -1.432979e+09 -1.592985e+09 3.612885e+03 -1.556601e+04 -1.388274e+04
-1.724592e+09 -1.524587e+09 -1.684592e+09 4.072743e+03 -1.496625e+04 -1.209916e+04
-1.696908e+09 -1.496903e+09 -1.656908e+09 4.147396e+03 -1.446047e+04 -1.236798e+04
-1.502669e+09 -1.302671e+09 -1.462673e+09 1.810932e+03 -1.275003e+04 -1.182409e+04
-1.502670e+09 -1.302671e+09 -1.462673e+09 2.381621e+03 -1.267355e+04 -1.214493e+04
-1.594368e+09 -1.394368e+09 -1.554375e+09 5.169370e+03 -1.525219e+04 -1.461698e+04
-1.715118e+09 -1.515125e+09 -1.675128e+09 6.857238e+03 -1.342175e+04 -1.259838e+04
-1.525756e+09 -1.325751e+09 -1.485760e+09 1.914998e+03 -1.319332e+04 -1.191515e+04
-1.653279e+09 -1.453278e+09 -1.613284e+09 3.712479e+03 -1.491450e+04 -1.299527e+04
-1.593586e+09 -1.393579e+09 -1.553590e+09 3.671624e+03 -1.392228e+04 -1.262824e+04
-1.748883e+09 -1.548872e+09 -1.708888e+09 4.536478e+03 -1.415115e+04 -1.153535e+04
-1.445677e+09 -1.245674e+09 -1.405673e+09 -5.517341e+02 -1.715502e+04 -1.537892e+04
-1.424338e+09 -1.224336e+09 -1.384337e+09 -5.218620e+02 -1.532119e+04 -1.351865e+04
-1.481587e+09 -1.281589e+09 -1.441589e+09 1.452418e+03 -1.567441e+04 -1.420037e+04
-1.424337e+09 -1.224335e+09 -1.384335e+09 -5.544548e+02 -1.402750e+04 -1.265486e+04
-1.424337e+09 -1.224335e+09 -1.384333e+09 -1.700631e+01 -1.531727e+04 -1.236877e+04
-1.516037e+09 -1.316034e+09 -1.476037e+09 2.128404e+03 -1.640502e+04 -1.369237e+04
-1.573291e+09 -1.373290e+09 -1.533292e+09 2.434687e+03 -1.573484e+04 -1.519190e+04
-1.452438e+09 -1.252434e+09 -1.412435e+09 -7.402855e+02 -1.475761e+04 -1.238922e+04
-1.448112e+09 -1.248107e+09 -1.408111e+09 -8.491167e+02 -1.356148e+04 -1.260169e+04
-1.452439e+09 -1.252434e+09 -1.412437e+09 -6.670641e+02 -1.580594e+04 -1.320009e+04
-1.512127e+09 -1.312125e+09 -1.472128e+09 1.284959e+03 -1.396576e+04 -1.222375e+04
-1.639652e+09 -1.439650e+09 -1.599653e+09 1.764781e+03 -1.449927e+04 -1.170997e+04
-1.579960e+09 -1.379955e+09 -1.539960e+09 7.392644e+02 -1.353868e+04 -1.237044e+04
-1.452437e+09 -1.252433e+09 -1.412434e+09 -9.609851e+02 -1.466003e+04 -1.395280e+04
-1.604094e+09 -1.404090e+09 -1.564096e+09 3.508563e+03 -1.320837e+04 -1.141341e+04
-1.731617e+09 -1.531614e+09 -1.691619e+09 4.407776e+03 -1.604232e+04 -1.271887e+04
-1.905558e+09 -1.705552e+09 -1.865562e+09 7.291345e+03 -1.299197e+04 -1.162437e+04
-1.828599e+09 -1.628595e+09 -1.788602e+09 5.317339e+03 -1.423993e+04 -1.402332e+04
-1.466070e+09 -1.266067e+09 -1.426069e+09 -2.120617e+03 -1.328491e+04 -1.176519e+04
-1.582322e+09 -1.382317e+09 -1.542321e+09 -2.367183e+03 -1.324507e+04 -1.117651e+04
-1.504674e+09 -1.304670e+09 -1.464673e+09 -1.916467e+03 -1.358717e+04 -1.140927e+04
-1.427024e+09 -1.227021e+09 -1.387023e+09 -2.793288e+03 -1.399568e+04 -1.037159e+04
-1.427026e+09 -1.227023e+09 -1.387024e+09 -2.077852e+03 -1.329463e+04 -1.150587e+04
-1.504672e+09 -1.304669e+09 -1.464670e+09 -1.232530e+03 -1.425405e+04 -1.287570e+04
-1.659970e+09 -1.459964e+09 -1.619969e+09 -1.225064e+03 -1.360157e+04 -1.111270e+04
-1.659966e+09 -1.459962e+09 -1.619968e+09 2.882233e+02 -1.393001e+04 -1.159331e+04
-1.582321e+09 -1.382318e+09 -1.542321e+09 -2.238944e+03 -1.344817e+04 -1.122864e+04
-1.562364e+09 -1.362363e+09 -1.522365e+09 2.232715e+03 -1.242252e+04 -1.189662e+04
-1.654062e+09 -1.454059e+09 -1.614067e+09 5.226300e+03 -1.490941e+04 -1.474835e+04
-1.745670e+09 -1.545666e+09 -1.705673e+09 5.788887e+03 -1.422325e+04 -1.263993e+04
-1.842651e+09 -1.642648e+09 -1.802654e+09 6.771522e+03 -1.224731e+04 -1.294985e+04
-1.569008e+09 -1.369019e+09 -1.529020e+09 1.213653e+03 3.609666e+02 2.007668e+03
-1.653229e+09 -1.453240e+09 -1.613241e+09 1.260584e+03 3.512686e+02 2.107050e+03
-1.743931e+09 -1.543942e+09 -1.703943e+09 1.258072e+03 4.780793e+02 2.190504e+03
-1.833624e+09 -1.633635e+09 -1.793636e+09 1.254982e+03 4.069131e+02 2.105730e+03
-1.494947e+09 -1.294958e+09 -1.454959e+09 1.235397e+03 4.717813e+02 2.162697e+03
-1.491485e+09 -1.291495e+09 -1.451496e+09 1.185555e+03 4.002881e+02 2.006231e+03
-1.560301e+09 -1.360312e+09 -1.520312e+09 1.272324e+03 4.341987e+02 2.099249e+03
-1.541802e+09 -1.341813e+09 -1.501813e+09 1.202514e+03 4.278977e+02 2.106934e+03
-1.626023e+09 -1.426034e+09 -1.586034e+09 1.235807e+03 3.661621e+02 2.194182e+03
-1.716725e+09 -1.516736e+09 -1.676737e+09 1.274357e+03 4.650327e+02 2.242092e+03
-1.688730e+09 -1.488741e+09 -1.648742e+09 1.309165e+03 5.063123e+02 2.284217e+03
-1.528361e+09 -1.328371e+09 -1.488372e+09 1.342435e+03 4.839193e+02 1.987074e+03
-1.528361e+09 -1.328371e+09 -1.488372e+09 1.465469e+03 4.602099e+02 1.957873e+03
-1.684472e+09 -1.484482e+09 -1.644484e+09 1.414778e+03 5.318055e+02 2.029899e+03
-1.729428e+09 -1.529438e+09 -1.689439e+09 1.464256e+03 5.404150e+02 2.039983e+03
-1.450306e+09 -1.250316e+09 -1.410317e+09 1.284679e+03 5.371898e+02 1.992732e+03
-1.450306e+09 -1.250316e+09 -1.410317e+09 1.443214e+03 4.386953e+02 2.102655e+03
-1.450306e+09 -1.250316e+09 -1.410317e+09 1.353375e+03 5.635989e+02 2.124202e+03
-1.573317e+09 -1.373327e+09 -1.533328e+09 1.357961e+03 6.380026e+02 2.148021e+03
-1.593714e+09 -1.393725e+09 -1.553726e+09 1.482888e+03 4.173527e+02 2.027527e+03
-1.749826e+09 -1.549836e+09 -1.709838e+09 1.473034e+03 3.841641e+02 2.016721e+03
-1.800199e+09 -1.600210e+09 -1.760211e+09 1.584943e+03 4.527449e+02 2.178202e+03
-1.857857e+09 -1.657867e+09 -1.817869e+09 1.687773e+03 4.523644e+02 2.096916e+03
-1.515659e+09 -1.315670e+09 -1.475671e+09 1.431569e+03 4.548446e+02 2.061113e+03
-1.644088e+09 -1.444099e+09 -1.604100e+09 1.560063e+03 4.678442e+02 2.058550e+03
-1.578735e+09 -1.378745e+09 -1.538746e+09 1.650826e+03 4.169235e+02 2.211648e+03
-1.701746e+09 -1.501756e+09 -1.661758e+09 1.571635e+03 5.325979e+02 2.246309e+03
-1.503654e+09 -1.303665e+09 -1.463666e+09 1.176431e+03 3.453912e+02 2.011938e+03
-1.503654e+09 -1.303665e+09 -1.463666e+09 1.133799e+03 3.278601e+02 1.997105e+03
-1.587875e+09 -1.387886e+09 -1.547887e+09 1.226527e+03 3.415869e+02 2.122317e+03
-1.705195e+09 -1.505206e+09 -1.665207e+09 1.182067e+03 3.197652e+02 2.155982e+03
-1.444630e+09 -1.244640e+09 -1.404641e+09 1.390364e+03 4.926140e+02 2.275358e+03
-1.453758e+09 -1.253768e+09 -1.413769e+09 1.415531e+03 4.348815e+02 2.059933e+03
-1.444630e+09 -1.244640e+09 -1.404641e+09 1.416102e+03 4.646251e+02 2.260549e+03
-1.509983e+09 -1.309994e+09 -1.469995e+09 1.440655e+03 4.336593e+02 2.157314e+03
-1.638413e+09 -1.438424e+09 -1.598424e+09 1.286890e+03 6.094812e+02 2.257343e+03
-1.573060e+09 -1.373070e+09 -1.533071e+09 1.492699e+03 5.146309e+02 2.319405e+03
-1.444630e+09 -1.244640e+09 -1.404641e+09 1.592746e+03 4.467006e+02 2.138206e+03
-1.609336e+09 -1.409347e+09 -1.569348e+09 1.299381e+03 3.643311e+02 1.971701e+03
-1.949379e+09 -1.749391e+09 -1.909392e+09 1.414843e+03 3.589070e+02 2.033604e+03
-1.730725e+09 -1.530736e+09 -1.690737e+09 1.307132e+03 3.946380e+02 2.078008e+03
-1.781098e+09 -1.581109e+09 -1.741111e+09 1.500965e+03 4.579138e+02 2.137770e+03
-1.870792e+09 -1.670803e+09 -1.830804e+09 1.399614e+03 3.688293e+02 2.062261e+03
-1.820418e+09 -1.620429e+09 -1.780431e+09 1.327872e+03 3.795489e+02 2.073519e+03
-1.899006e+09 -1.699017e+09 -1.859018e+09 1.394838e+03 3.408404e+02 2.013355e+03
-1.809313e+09 -1.609324e+09 -1.769325e+09 1.390247e+03 3.958994e+02 1.989982e+03
-1.859686e+09 -1.659697e+09 -1.819698e+09 1.472324e+03 4.415759e+02 2.138768e+03
-1.438721e+09 -1.238732e+09 -1.398733e+09 1.182471e+03 4.364799e+02 2.207070e+03
-1.426131e+09 -1.226142e+09 -1.386142e+09 1.159182e+03 3.647149e+02 2.032888e+03
-1.476448e+09 -1.276459e+09 -1.436460e+09 1.190488e+03 4.303706e+02 2.118566e+03
-1.426131e+09 -1.226142e+09 -1.386143e+09 1.165871e+03 4.128867e+02 2.030638e+03
-1.426131e+09 -1.226142e+09 -1.386143e+09 1.081888e+03 3.860156e+02 1.999416e+03
-1.510351e+09 -1.310362e+09 -1.470363e+09 1.166698e+03 3.871771e+02 2.122900e+03
-1.560669e+09 -1.360680e+09 -1.520681e+09 1.246695e+03 3.556465e+02 2.172748e+03
-1.467594e+09 -1.267605e+09 -1.427606e+09 1.309439e+03 4.740008e+02 2.413174e+03
-1.462970e+09 -1.262981e+09 -1.422981e+09 1.405024e+03 5.506714e+02 2.845827e+03
-1.517097e+09 -1.317108e+09 -1.477109e+09 1.380445e+03 5.171129e+02 2.624730e+03
-1.501563e+09 -1.301574e+09 -1.461574e+09 1.482665e+03 4.975712e+02 2.681733e+03
-1.572719e+09 -1.372730e+09 -1.532731e+09 1.430155e+03 5.683219e+02 2.821704e+03
-1.658468e+09 -1.458479e+09 -1.618480e+09 1.422100e+03 5.272908e+02 2.815462e+03
-1.627909e+09 -1.427920e+09 -1.587921e+09 1.366982e+03 5.318077e+02 2.823922e+03
-1.426997e+09 -1.227008e+09 -1.387009e+09 1.404824e+03 5.519208e+02 2.485068e+03
-1.413466e+09 -1.213477e+09 -1.373478e+09 1.438809e+03 6.184118e+02 2.897075e+03
-1.452059e+09 -1.252070e+09 -1.412071e+09 1.458281e+03 5.617159e+02 2.646499e+03
-1.413466e+09 -1.213477e+09 -1.373478e+09 1.460196e+03 5.758475e+02 2.847570e+03
-1.413466e+09 -1.213477e+09 -1.373478e+09 1.539866e+03 6.556110e+02 2.738982e+03
-1.484623e+09 -1.284633e+09 -1.444634e+09 1.512978e+03 7.207983e+02 2.766415e+03
-1.523215e+09 -1.323226e+09 -1.483227e+09 1.349171e+03 6.615771e+02 2.733796e+03
-1.429001e+09 -1.229012e+09 -1.389013e+09 1.230336e+03 4.450335e+02 2.514747e+03
-1.437907e+09 -1.237919e+09 -1.397919e+09 1.256516e+03 4.883176e+02 2.932280e+03
-1.429001e+09 -1.229012e+09 -1.389013e+09 1.212597e+03 4.486642e+02 2.516393e+03
-1.478504e+09 -1.278515e+09 -1.438516e+09 1.255984e+03 4.886399e+02 2.694692e+03
-1.589316e+09 -1.389327e+09 -1.549328e+09 1.361835e+03 2.627067e+02 2.838987e+03
-1.539812e+09 -1.339823e+09 -1.499824e+09 1.249168e+03 4.122839e+02 2.682456e+03
-1.429001e+09 -1.229012e+09 -1.389013e+09 1.083566e+03 4.622960e+02 2.424115e+03
-1.517594e+09 -1.317605e+09 -1.477606e+09 1.553757e+03 6.623067e+02 2.967483e+03
-1.588750e+09 -1.388761e+09 -1.548762e+09 1.580778e+03 6.331026e+02 2.950497e+03
-1.674499e+09 -1.474510e+09 -1.634511e+09 1.562343e+03 6.035309e+02 2.850146e+03
-1.750284e+09 -1.550295e+09 -1.710296e+09 1.495626e+03 6.836123e+02 3.134900e+03
-1.443029e+09 -1.243040e+09 -1.403040e+09 1.577987e+03 7.578128e+02 3.180170e+03
-1.443029e+09 -1.243040e+09 -1.403040e+09 1.737311e+03 7.288626e+02 3.193644e+03
-1.443029e+09 -1.243039e+09 -1.403040e+09 1.703280e+03 7.505424e+02 3.215110e+03
-1.568317e+09 -1.368328e+09 -1.528329e+09 1.564115e+03 9.116845e+02 3.377786e+03
-1.509329e+09 -1.309339e+09 -1.469340e+09 1.693800e+03 7.730046e+02 3.332729e+03
-1.509329e+09 -1.309339e+09 -1.469340e+09 1.757307e+03 7.762384e+02 3.281933e+03
-1.634617e+09 -1.434628e+09 -1.594628e+09 1.691089e+03 8.404961e+02 3.450067e+03
-1.698449e+09 -1.498460e+09 -1.658461e+09 1.809070e+03 8.430882e+02 3.590239e+03
-1.437908e+09 -1.237919e+09 -1.397919e+09 1.195053e+03 5.023644e+02 3.000506e+03
-1.437908e+09 -1.237919e+09 -1.397919e+09 1.199159e+03 4.274697e+02 3.006979e+03
-1.548719e+09 -1.348730e+09 -1.508731e+09 1.143347e+03 4.408178e+02 2.978638e+03
-1.499215e+09 -1.299227e+09 -1.459227e+09 1.041252e+03 5.799558e+02 2.775137e+03
-1.468091e+09 -1.268101e+09 -1.428102e+09 1.576721e+03 7.605576e+02 2.969235e+03
-1.468091e+09 -1.268101e+09 -1.428102e+09 1.658941e+03 7.749119e+02 2.951324e+03
-1.539247e+09 -1.339257e+09 -1.499258e+09 1.647298e+03 8.173841e+02 2.970277e+03
-1.639472e+09 -1.439483e+09 -1.599484e+09 1.502663e+03 9.398301e+02 3.088214e+03
-1.558831e+09 -1.358842e+09 -1.518843e+09 1.706070e+03 7.489381e+02 3.183197e+03
-1.669642e+09 -1.469654e+09 -1.629654e+09 1.734305e+03 7.233165e+02 3.053428e+03
-1.809260e+09 -1.609271e+09 -1.769272e+09 1.757176e+03 7.822238e+02 3.436596e+03
-1.745427e+09 -1.545438e+09 -1.705439e+09 1.685136e+03 8.090131e+02 3.317930e+03
-1.504207e+09 -1.304218e+09 -1.464218e+09 1.404154e+03 6.680192e+02 3.220025e+03
-1.504207e+09 -1.304218e+09 -1.464219e+09 1.408002e+03 5.929267e+02 3.226100e+03
-1.683972e+09 -1.483984e+09 -1.643984e+09 1.614474e+03 6.036696e+02 3.517802e+03
-1.615018e+09 -1.415030e+09 -1.575030e+09 1.366545e+03 5.889386e+02 3.152261e+03
-1.436257e+09 -1.236268e+09 -1.396269e+09 1.408793e+03 7.414084e+02 3.700177e+03
-1.454704e+09 -1.254715e+09 -1.414715e+09 1.345642e+03 7.041505e+02 3.372264e+03
-1.502556e+09 -1.302568e+09 -1.462568e+09 1.443167e+03 7.014695e+02 3.440004e+03
-1.454704e+09 -1.254715e+09 -1.414715e+09 1.387964e+03 6.765664e+02 3.409341e+03
-1.454704e+09 -1.254715e+09 -1.414715e+09 1.303684e+03 6.546506e+02 3.330312e+03
-1.573161e+09 -1.373172e+09 -1.533173e+09 1.576887e+03 6.978706e+02 3.685904e+03
-1.621014e+09 -1.421025e+09 -1.581026e+09 1.697751e+03 6.621017e+02 3.801401e+03
-1.436257e+09 -1.236268e+09 -1.396269e+09 1.657005e+03 8.486729e+02 3.737085e+03
-1.454704e+09 -1.254715e+09 -1.414715e+09 1.584335e+03 7.895361e+02 3.364750e+03
-1.502557e+09 -1.302568e+09 -1.462568e+09 1.872202e+03 7.347506e+02 3.502773e+03
-1.454704e+09 -1.254715e+09 -1.414715e+09 1.606525e+03 7.872940e+02 3.391084e+03
-1.621014e+09 -1.421025e+09 -1.581026e+09 1.663088e+03 9.381553e+02 3.696416e+03
-1.573161e+09 -1.373172e+09 -1.533173e+09 1.667551e+03 8.889991e+02 3.696453e+03
-1.454705e+09 -1.254715e+09 -1.414715e+09 1.674799e+03 8.270663e+02 3.318524e+03
-1.436339e+09 -1.236350e+09 -1.396350e+09 1.465575e+03 7.997569e+02 4.238929e+03
-1.435946e+09 -1.235957e+09 -1.395957e+09 1.567455e+03 8.480940e+02 4.584587e+03
-1.436338e+09 -1.236350e+09 -1.396350e+09 1.531560e+03 7.617072e+02 4.239279e+03
-1.483879e+09 -1.283890e+09 -1.443890e+09 1.607861e+03 8.132362e+02 4.321636e+03
-1.597033e+09 -1.397045e+09 -1.557045e+09 1.870254e+03 6.332180e+02 4.692046e+03
-1.549492e+09 -1.349504e+09 -1.509504e+09 1.691763e+03 7.415981e+02 4.523361e+03
-1.436338e+09 -1.236350e+09 -1.396350e+09 1.400952e+03 7.537777e+02 4.093612e+03
-1.436339e+09 -1.236350e+09 -1.396350e+09 1.777321e+03 8.096576e+02 4.070532e+03
-1.435946e+09 -1.235957e+09 -1.395957e+09 1.730412e+03 9.520348e+02 4.519888e+03
-1.483879e+09 -1.283890e+09 -1.443890e+09 1.840429e+03 8.781510e+02 4.236252e+03
-1.435946e+09 -1.235956e+09 -1.395957e+09 1.847919e+03 8.994522e+02 4.426850e+03
-1.435946e+09 -1.235956e+09 -1.395957e+09 1.789178e+03 8.801299e+02 4.489815e+03
-1.549100e+09 -1.349111e+09 -1.509111e+09 1.760814e+03 9.776676e+02 4.583562e+03
-1.597033e+09 -1.397044e+09 -1.557045e+09 1.613841e+03 1.011546e+03 4.603737e+03
-1.506146e+09 -1.306158e+09 -1.466158e+09 2.006105e+03 9.291413e+02 4.923133e+03
-1.570699e+09 -1.370711e+09 -1.530711e+09 1.968575e+03 8.638503e+02 4.867866e+03
-1.650790e+09 -1.450803e+09 -1.610803e+09 1.816073e+03 1.040454e+03 5.622659e+03
-1.719805e+09 -1.519819e+09 -1.679819e+09 2.057716e+03 8.823096e+02 4.809800e+03
-1.462009e+09 -1.262020e+09 -1.422020e+09 1.811349e+03 7.910157e+02 4.843667e+03
-1.526562e+09 -1.326574e+09 -1.486573e+09 1.778935e+03 7.462102e+02 4.810895e+03
-1.613652e+09 -1.413664e+09 -1.573664e+09 1.762176e+03 7.809834e+02 4.935258e+03
-1.566111e+09 -1.366123e+09 -1.526123e+09 1.688057e+03 8.608515e+02 4.708870e+03
-1.488150e+09 -1.288161e+09 -1.448161e+09 1.925495e+03 1.083983e+03 4.768963e+03
-1.488150e+09 -1.288161e+09 -1.448161e+09 2.031450e+03 1.036796e+03 4.735263e+03
-1.601304e+09 -1.401315e+09 -1.561316e+09 2.074396e+03 1.052784e+03 4.799307e+03
-1.652577e+09 -1.452589e+09 -1.612590e+09 1.873737e+03 1.232177e+03 5.128239e+03
-1.484748e+09 -1.284759e+09 -1.444759e+09 2.121225e+03 9.458462e+02 5.164908e+03
-1.583561e+09 -1.383573e+09 -1.543573e+09 2.237609e+03 1.128118e+03 5.374923e+03
-1.637511e+09 -1.437524e+09 -1.597524e+09 2.111883e+03 1.076034e+03 5.346728e+03
-1.593375e+09 -1.393386e+09 -1.553386e+09 2.133936e+03 1.054098e+03 5.631669e+03
-1.440611e+09 -1.240621e+09 -1.400621e+09 1.897202e+03 1.114464e+03 4.950258e+03
-1.518640e+09 -1.318650e+09 -1.478651e+09 1.759354e+03 1.275581e+03 5.543309e+03
-1.472030e+09 -1.272040e+09 -1.432040e+09 1.718616e+03 1.155516e+03 5.006197e+03
-1.570843e+09 -1.370855e+09 -1.530855e+09 1.909271e+03 1.163712e+03 5.254388e+03
-1.518640e+09 -1.318650e+09 -1.478651e+09 2.077754e+03 1.057222e+03 5.498104e+03
-1.472029e+09 -1.272040e+09 -1.432040e+09 2.047141e+03 1.047448e+03 4.830544e+03
-1.570844e+09 -1.370855e+09 -1.530855e+09 1.673733e+03 1.321945e+03 5.503210e+03
-1.419826e+09 -1.219836e+09 -1.379836e+09 1.955359e+03 1.067557e+03 5.323502e+03
-1.419826e+09 -1.219836e+09 -1.379836e+09 1.978114e+03 1.199684e+03 5.340060e+03
-1.532287e+09 -1.332299e+09 -1.492299e+09 2.043537e+03 9.090040e+02 4.911105e+03
-1.788118e+09 -1.588131e+09 -1.748131e+09 2.348812e+03 1.031757e+03 5.069703e+03
-1.613879e+09 -1.413891e+09 -1.573891e+09 2.075823e+03 9.339949e+02 5.209804e+03
-1.665152e+09 -1.465164e+09 -1.625165e+09 2.249655e+03 9.950938e+02 5.141110e+03
-1.719102e+09 -1.519115e+09 -1.679115e+09 2.374365e+03 9.611900e+02 5.356915e+03
-1.667830e+09 -1.467841e+09 -1.627842e+09 2.463924e+03 9.324706e+02 5.613992e+03
-1.736844e+09 -1.536857e+09 -1.696857e+09 2.486809e+03 7.885065e+02 4.827408e+03
-1.682894e+09 -1.482907e+09 -1.642907e+09 2.478921e+03 8.665051e+02 4.829580e+03
-1.734168e+09 -1.534181e+09 -1.694181e+09 2.322820e+03 1.068001e+03 5.064349e+03
-1.458605e+09 -1.258617e+09 -1.418617e+09 1.788945e+03 8.887413e+02 5.107094e+03
-1.523159e+09 -1.323171e+09 -1.483170e+09 1.727120e+03 8.177734e+02 5.030978e+03
-1.497096e+09 -1.297108e+09 -1.457107e+09 1.510806e+03 8.578787e+02 4.981130e+03
-1.603249e+09 -1.403262e+09 -1.563262e+09 1.923473e+03 8.885682e+02 5.517315e+03
-1.414468e+09 -1.214480e+09 -1.374479e+09 1.584416e+03 7.584325e+02 5.008636e+03
-1.479021e+09 -1.279033e+09 -1.439033e+09 1.531851e+03 7.063946e+02 4.955482e+03
-1.452958e+09 -1.252969e+09 -1.412969e+09 1.277680e+03 7.451941e+02 4.965045e+03
-1.452958e+09 -1.252970e+09 -1.412969e+09 1.293608e+03 7.538219e+02 4.970404e+03
-1.442899e+09 -1.242910e+09 -1.402910e+09 1.577978e+03 9.844571e+02 6.044835e+03
-1.432543e+09 -1.232554e+09 -1.392554e+09 1.689149e+03 9.583576e+02 5.399275e+03
-1.487035e+09 -1.287047e+09 -1.447047e+09 1.618170e+03 9.498412e+02 5.720570e+03
-1.432543e+09 -1.232555e+09 -1.392554e+09 1.584962e+03 9.090224e+02 5.345162e+03
-1.432543e+09 -1.232554e+09 -1.392554e+09 1.385809e+03 9.427751e+02 5.065043e+03
-1.538697e+09 -1.338709e+09 -1.498709e+09 1.729267e+03 9.694045e+02 5.745637e+03
-1.593191e+09 -1.393203e+09 -1.553203e+09 1.711696e+03 8.106550e+02 5.993414e+03
-1.442899e+09 -1.242910e+09 -1.402910e+09 1.957180e+03 1.043432e+03 5.952067e+03
-1.432543e+09 -1.232554e+09 -1.392554e+09 2.053815e+03 1.016293e+03 5.243949e+03
-1.442899e+09 -1.242910e+09 -1.402910e+09 2.052147e+03 1.011255e+03 5.910796e+03
-1.487036e+09 -1.287047e+09 -1.447047e+09 2.015205e+03 1.011909e+03 5.595157e+03
-1.593191e+09 -1.393203e+09 -1.553203e+09 1.895822e+03 1.314937e+03 5.784140e+03
-1.549054e+09 -1.349065e+09 -1.509065e+09 2.178829e+03 1.173387e+03 5.676228e+03
-1.442899e+09 -1.242910e+09 -1.402910e+09 2.046521e+03 1.070508e+03 5.949994e+03
-1.434241e+09 -1.234252e+09 -1.394251e+09 1.587693e+03 1.062110e+03 6.571591e+03
-1.436308e+09 -1.236319e+09 -1.396318e+09 1.728053e+03 1.115789e+03 7.085050e+03
-1.434240e+09 -1.234252e+09 -1.394251e+09 1.638129e+03 9.826586e+02 6.633843e+03
-1.482141e+09 -1.282153e+09 -1.442152e+09 1.760582e+03 1.069737e+03 6.804981e+03
-1.588903e+09 -1.388915e+09 -1.548915e+09 1.879032e+03 9.296149e+02 7.022971e+03
-1.541002e+09 -1.341013e+09 -1.501013e+09 1.711681e+03 1.081190e+03 6.906309e+03
-1.434240e+09 -1.234252e+09 -1.394251e+09 1.481756e+03 1.081395e+03 6.438146e+03
-1.434241e+09 -1.234252e+09 -1.394251e+09 1.969290e+03 1.123864e+03 6.506969e+03
-1.436308e+09 -1.236318e+09 -1.396318e+09 2.028865e+03 1.226548e+03 7.226514e+03
-1.482141e+09 -1.282152e+09 -1.442152e+09 2.021550e+03 1.184558e+03 6.851238e+03
-1.436308e+09 -1.236318e+09 -1.396318e+09 2.037193e+03 1.240786e+03 7.263683e+03
-1.436308e+09 -1.236318e+09 -1.396318e+09 2.024835e+03 1.090846e+03 7.295028e+03
-1.543070e+09 -1.343080e+09 -1.503080e+09 2.306603e+03 1.192509e+03 6.850828e+03
-1.588903e+09 -1.388914e+09 -1.548914e+09 1.905585e+03 1.282940e+03 7.012305e+03
-1.530355e+09 -1.330367e+09 -1.490366e+09 3.025270e+03 1.289005e+03 7.938281e+03
-1.612609e+09 -1.412622e+09 -1.572621e+09 2.832931e+03 1.567389e+03 8.504375e+03
-1.684524e+09 -1.484538e+09 -1.644537e+09 2.685906e+03 1.382107e+03 7.284583e+03
-1.762466e+09 -1.562480e+09 -1.722480e+09 3.045974e+03 1.193237e+03 8.729277e+03
-1.471153e+09 -1.271164e+09 -1.431163e+09 2.399661e+03 1.494599e+03 7.393301e+03
-1.553406e+09 -1.353419e+09 -1.513418e+09 1.944068e+03 1.777850e+03 7.837297e+03
-1.518560e+09 -1.318572e+09 -1.478572e+09 2.528476e+03 1.503478e+03 7.530194e+03
-1.625321e+09 -1.425334e+09 -1.585334e+09 2.773305e+03 1.625040e+03 7.299065e+03
-1.449221e+09 -1.249233e+09 -1.409232e+09 1.520885e+03 1.394858e+03 9.431906e+03
-1.447609e+09 -1.247621e+09 -1.407620e+09 1.720294e+03 1.515164e+03 8.398250e+03
-1.508422e+09 -1.308435e+09 -1.468434e+09 1.580226e+03 1.326490e+03 8.923709e+03
-1.447610e+09 -1.247622e+09 -1.407620e+09 1.565202e+03 1.263889e+03 8.238975e+03
-1.447609e+09 -1.247621e+09 -1.407620e+09 1.262048e+03 1.530362e+03 8.037516e+03
-1.573452e+09 -1.373465e+09 -1.533464e+09 1.886898e+03 1.283726e+03 9.107881e+03
-1.634266e+09 -1.434280e+09 -1.594279e+09 1.984570e+03 1.076424e+03 9.370271e+03
-1.547619e+09 -1.347633e+09 -1.507632e+09 2.528594e+03 1.242924e+03 8.073808e+03
-1.654381e+09 -1.454395e+09 -1.614394e+09 2.573615e+03 1.258889e+03 7.416737e+03
-1.707472e+09 -1.507485e+09 -1.667485e+09 2.520545e+03 1.145820e+03 7.324868e+03
-1.781202e+09 -1.581217e+09 -1.741217e+09 2.535662e+03 1.130448e+03 8.850221e+03
-1.488419e+09 -1.288431e+09 -1.448429e+09 1.901092e+03 8.271969e+02 7.482948e+03
-1.595179e+09 -1.395192e+09 -1.555191e+09 1.954749e+03 8.719890e+02 7.483863e+03
-1.547278e+09 -1.347291e+09 -1.507290e+09 1.902076e+03 1.000231e+03 7.361551e+03
-1.648270e+09 -1.448283e+09 -1.608282e+09 1.862696e+03 7.910485e+02 7.336688e+03
-1.423254e+09 -1.223264e+09 -1.383263e+09 2.417097e+03 1.545228e+03 7.691493e+03
-1.505508e+09 -1.305518e+09 -1.465517e+09 1.949078e+03 1.825185e+03 8.134559e+03
-1.470663e+09 -1.270672e+09 -1.430672e+09 2.412279e+03 1.577412e+03 8.343889e+03
-1.470662e+09 -1.270672e+09 -1.430672e+09 2.401570e+03 1.630491e+03 8.352502e+03
-1.499719e+09 -1.299732e+09 -1.459731e+09 1.983152e+03 1.389167e+03 8.444772e+03
-1.600710e+09 -1.400724e+09 -1.560723e+09 1.615654e+03 1.115825e+03 8.193378e+03
-1.548598e+09 -1.348612e+09 -1.508611e+09 1.834363e+03 1.287265e+03 8.349138e+03
-1.674440e+09 -1.474456e+09 -1.634455e+09 2.271651e+03 9.912425e+02 8.992036e+03
-1.482456e+09 -1.282467e+09 -1.442466e+09 2.800354e+03 1.365115e+03 7.987101e+03
-1.564709e+09 -1.364721e+09 -1.524720e+09 2.657194e+03 1.627713e+03 8.467125e+03
-1.655705e+09 -1.455719e+09 -1.615718e+09 2.563018e+03 1.432125e+03 8.359224e+03
-1.596505e+09 -1.396517e+09 -1.556516e+09 2.847031e+03 1.314334e+03 8.670555e+03
-1.449222e+09 -1.249233e+09 -1.409232e+09 2.253493e+03 1.262715e+03 9.184042e+03
-1.447610e+09 -1.247621e+09 -1.407620e+09 2.566261e+03 1.389787e+03 8.091426e+03
-1.449222e+09 -1.249233e+09 -1.409232e+09 2.393667e+03 1.374631e+03 9.170464e+03
-1.508423e+09 -1.308435e+09 -1.468434e+09 2.395717e+03 1.352190e+03 8.543346e+03
-1.634267e+09 -1.434279e+09 -1.594279e+09 1.981861e+03 1.681448e+03 9.088361e+03
-1.575066e+09 -1.375077e+09 -1.535076e+09 2.766855e+03 1.317649e+03 8.773316e+03
-1.449222e+09 -1.249233e+09 -1.409232e+09 2.575883e+03 1.447891e+03 9.048381e+03
-1.440519e+09 -1.240530e+09 -1.400529e+09 1.506140e+03 9.108833e+02 7.657889e+03
-1.440518e+09 -1.240529e+09 -1.400528e+09 1.012519e+03 8.968211e+02 7.589121e+03
-1.489398e+09 -1.289410e+09 -1.449409e+09 1.168915e+03 7.640739e+02 7.715547e+03
-1.541510e+09 -1.341521e+09 -1.501520e+09 1.193333e+03 6.235301e+02 7.695592e+03
-1.440320e+09 -1.240332e+09 -1.400330e+09 1.237314e+03 1.283139e+03 1.032594e+04
-1.448136e+09 -1.248147e+09 -1.408146e+09 1.274266e+03 1.392984e+03 1.105245e+04
-1.440320e+09 -1.240332e+09 -1.400330e+09 1.246239e+03 1.216440e+03 1.030087e+04
-1.500047e+09 -1.300060e+09 -1.460058e+09 1.320171e+03 1.289393e+03 1.043601e+04
-1.619944e+09 -1.419957e+09 -1.579956e+09 1.464248e+03 1.274554e+03 1.060192e+04
-1.560217e+09 -1.360229e+09 -1.520228e+09 1.529339e+03 1.263898e+03 1.075286e+04
-1.440320e+09 -1.240332e+09 -1.400330e+09 1.156850e+03 1.320027e+03 1.022947e+04
-1.440321e+09 -1.240332e+09 -1.400331e+09 1.756150e+03 1.339072e+03 1.008402e+04
-1.448136e+09 -1.248147e+09 -1.408146e+09 1.434489e+03 1.332692e+03 1.105714e+04
-1.500047e+09 -1.300059e+09 -1.460058e+09 1.724867e+03 1.388279e+03 1.026948e+04
-1.448136e+09 -1.248147e+09 -1.408146e+09 1.782086e+03 1.384970e+03 1.084831e+04
-1.448136e+09 -1.248147e+09 -1.408146e+09 1.882484e+03 1.204566e+03 1.085136e+04
-1.568033e+09 -1.368045e+09 -1.528043e+09 2.076077e+03 1.237217e+03 1.040263e+04
-1.619944e+09 -1.419957e+09 -1.579956e+09 1.566862e+03 1.441642e+03 1.052954e+04
-1.435913e+09 -1.235924e+09 -1.395923e+09 1.771439e+03 2.197050e+03 1.246003e+04
-1.435914e+09 -1.235924e+09 -1.395923e+09 2.193465e+03 2.232888e+03 1.210863e+04
-1.435914e+09 -1.235924e+09 -1.395922e+09 2.086029e+03 2.203086e+03 1.223735e+04
-1.543823e+09 -1.343835e+09 -1.503834e+09 1.107119e+03 2.854536e+03 1.434557e+04
-1.475957e+09 -1.275970e+09 -1.435967e+09 1.335053e+03 1.467454e+03 1.293490e+04
-1.470465e+09 -1.270478e+09 -1.430475e+09 1.401748e+03 1.797228e+03 1.203093e+04
-1.523460e+09 -1.323475e+09 -1.483472e+09 1.917170e+03 1.577566e+03 1.212504e+04
-1.514210e+09 -1.314225e+09 -1.474222e+09 1.765184e+03 1.572934e+03 1.202813e+04
-1.606045e+09 -1.406060e+09 -1.566057e+09 1.866968e+03 1.343569e+03 1.255787e+04
-1.679403e+09 -1.479419e+09 -1.639416e+09 2.218309e+03 1.723399e+03 1.303592e+04
-1.631371e+09 -1.431385e+09 -1.591382e+09 1.993768e+03 2.343323e+03 1.347497e+04
-1.432156e+09 -1.232168e+09 -1.392165e+09 1.768680e+03 1.531789e+03 1.255497e+04
-1.422960e+09 -1.222972e+09 -1.382970e+09 1.624267e+03 1.755366e+03 1.148790e+04
-1.466705e+09 -1.266719e+09 -1.426717e+09 1.783145e+03 1.433999e+03 1.196719e+04
-1.422960e+09 -1.222972e+09 -1.382970e+09 1.737374e+03 1.347287e+03 1.116821e+04
-1.422960e+09 -1.222971e+09 -1.382969e+09 1.928833e+03 1.916129e+03 1.124916e+04
-1.514794e+09 -1.314806e+09 -1.474805e+09 2.233534e+03 1.438334e+03 1.181938e+04
-1.558540e+09 -1.358554e+09 -1.518552e+09 2.104901e+03 1.125899e+03 1.234875e+04
-1.482685e+09 -1.282699e+09 -1.442698e+09 1.398902e+03 1.881228e+03 9.992505e+03
-1.482685e+09 -1.282699e+09 -1.442698e+09 1.846453e+03 1.852414e+03 1.047849e+04
-1.574520e+09 -1.374534e+09 -1.534534e+09 2.418289e+03 1.504951e+03 1.194759e+04
-1.659861e+09 -1.459879e+09 -1.619879e+09 1.522456e+03 1.417901e+03 1.084294e+04
-1.448136e+09 -1.248148e+09 -1.408146e+09 1.204969e+03 1.698973e+03 1.127958e+04
-1.542984e+09 -1.342997e+09 -1.502995e+09 1.219115e+03 1.457381e+03 1.090795e+04
-1.482815e+09 -1.282827e+09 -1.442826e+09 9.746805e+02 1.575148e+03 1.103106e+04
-1.423087e+09 -1.223099e+09 -1.383097e+09 8.996474e+02 1.361080e+03 1.110967e+04
-1.423087e+09 -1.223099e+09 -1.383097e+09 1.572875e+03 1.522279e+03 1.145590e+04
-1.602711e+09 -1.402725e+09 -1.562723e+09 1.204444e+03 1.517664e+03 1.067404e+04
-1.542984e+09 -1.342996e+09 -1.502995e+09 1.194223e+03 1.489912e+03 1.089008e+04
-1.482814e+09 -1.282827e+09 -1.442825e+09 1.645586e+03 1.676649e+03 1.196725e+04
-1.602712e+09 -1.402725e+09 -1.562723e+09 1.108720e+03 1.496773e+03 1.066188e+04
-1.530190e+09 -1.330205e+09 -1.490203e+09 1.653742e+03 1.652427e+03 1.035465e+04
-1.622023e+09 -1.422040e+09 -1.582038e+09 2.248649e+03 1.366733e+03 1.242988e+04
-1.695382e+09 -1.495399e+09 -1.655397e+09 2.116081e+03 2.159352e+03 1.292156e+04
-1.767773e+09 -1.567792e+09 -1.727790e+09 2.325415e+03 1.780684e+03 1.089642e+04
-1.432210e+09 -1.232221e+09 -1.392219e+09 1.840715e+03 2.070130e+03 1.377702e+04
-1.435913e+09 -1.235925e+09 -1.395923e+09 1.652561e+03 2.210537e+03 1.248289e+04
-1.479713e+09 -1.279726e+09 -1.439724e+09 2.797256e+03 2.169543e+03 1.309981e+04
-1.435914e+09 -1.235925e+09 -1.395923e+09 1.550659e+03 2.261668e+03 1.221268e+04
-1.587623e+09 -1.387637e+09 -1.547635e+09 2.133804e+03 2.391035e+03 1.358606e+04
-1.543822e+09 -1.343835e+09 -1.503833e+09 1.846108e+03 2.454805e+03 1.358137e+04
-1.435914e+09 -1.235925e+09 -1.395923e+09 1.698100e+03 2.084364e+03 1.218666e+04
-1.495637e+09 -1.295652e+09 -1.455650e+09 1.998869e+03 1.589794e+03 1.034207e+04
-1.495637e+09 -1.295651e+09 -1.455650e+09 2.370149e+03 1.468246e+03 9.868472e+03
-1.675938e+09 -1.475955e+09 -1.635955e+09 2.117570e+03 2.172625e+03 1.090276e+04
-1.603547e+09 -1.403563e+09 -1.563562e+09 1.135396e+03 2.309686e+03 1.304057e+04
-1.493012e+09 -1.293025e+09 -1.453022e+09 6.427122e+02 1.054099e+03 1.419300e+04
-1.487732e+09 -1.287743e+09 -1.447740e+09 1.011577e+03 9.450586e+02 1.464405e+04
-1.551996e+09 -1.352011e+09 -1.512008e+09 1.148460e+03 8.602942e+02 1.455097e+04
-1.533426e+09 -1.333440e+09 -1.493437e+09 1.478218e+03 1.108788e+03 1.433198e+04
-1.621945e+09 -1.421959e+09 -1.581956e+09 1.107008e+03 1.686991e+03 1.567246e+04
-1.709244e+09 -1.509261e+09 -1.669258e+09 1.027427e+03 1.252611e+03 1.475840e+04
-1.679634e+09 -1.479648e+09 -1.639646e+09 1.120296e+03 7.565507e+02 1.464669e+04
-1.447316e+09 -1.247327e+09 -1.407325e+09 1.554967e+03 1.314652e+03 1.351431e+04
-1.447396e+09 -1.247407e+09 -1.407404e+09 1.878255e+03 1.443056e+03 1.425246e+04
-1.447316e+09 -1.247328e+09 -1.407325e+09 1.734788e+03 1.176402e+03 1.356103e+04
-1.506299e+09 -1.306313e+09 -1.466311e+09 1.806385e+03 1.332813e+03 1.423665e+04
-1.633937e+09 -1.433951e+09 -1.593949e+09 1.894536e+03 1.345744e+03 1.429229e+04
-1.574953e+09 -1.374965e+09 -1.534963e+09 2.603231e+03 1.501039e+03 1.430693e+04
-1.447316e+09 -1.247327e+09 -1.407324e+09 1.999593e+03 1.689766e+03 1.352822e+04
-1.434106e+09 -1.234117e+09 -1.394115e+09 1.653229e+03 1.293601e+03 1.495318e+04
-1.428746e+09 -1.228756e+09 -1.388754e+09 1.857015e+03 1.399337e+03 1.581635e+04
-1.474440e+09 -1.274452e+09 -1.434451e+09 1.691293e+03 1.417189e+03 1.451626e+04
-1.428747e+09 -1.228756e+09 -1.388754e+09 1.696295e+03 1.633256e+03 1.600422e+04
-1.428745e+09 -1.228756e+09 -1.388752e+09 8.866098e+02 8.778948e+02 1.687313e+04
-1.517264e+09 -1.317275e+09 -1.477273e+09 1.243337e+03 1.622837e+03 1.628990e+04
-1.562958e+09 -1.362972e+09 -1.522970e+09 7.298196e+02 1.812530e+03 1.544002e+04
-1.525978e+09 -1.325994e+09 -1.485990e+09 2.632843e+03 2.907583e+03 1.436978e+04
-1.618875e+09 -1.418890e+09 -1.578887e+09 2.917970e+03 2.675557e+03 1.523979e+04
-1.676686e+09 -1.476703e+09 -1.636698e+09 2.254895e+03 3.073925e+03 1.655206e+04
-1.761559e+09 -1.561579e+09 -1.721577e+09 3.003632e+03 3.024920e+03 1.407280e+04
-1.476337e+09 -1.276351e+09 -1.436349e+09 2.666878e+03 2.648246e+03 1.508659e+04
-1.569233e+09 -1.369247e+09 -1.529245e+09 3.273869e+03 2.612527e+03 1.574218e+04
-1.637114e+09 -1.437130e+09 -1.597127e+09 1.312185e+03 2.312365e+03 1.548519e+04
-1.585005e+09 -1.385022e+09 -1.545020e+09 2.705958e+03 2.613561e+03 1.576778e+04
-1.530490e+09 -1.330504e+09 -1.490502e+09 1.630187e+03 1.397887e+03 1.434304e+04
-1.624125e+09 -1.424141e+09 -1.584139e+09 1.282825e+03 2.283271e+03 1.601144e+04
-1.669880e+09 -1.469897e+09 -1.629895e+09 2.234713e+03 1.719919e+03 1.426864e+04
-1.757182e+09 -1.557199e+09 -1.717198e+09 2.006096e+03 1.350040e+03 1.370665e+04
-1.471506e+09 -1.271518e+09 -1.431516e+09 2.261873e+03 1.765389e+03 1.513669e+04
-1.565140e+09 -1.365155e+09 -1.525152e+09 1.455502e+03 2.423081e+03 1.610931e+04
-1.522377e+09 -1.322392e+09 -1.482390e+09 1.652645e+03 1.536980e+03 1.604861e+04
-1.610894e+09 -1.410910e+09 -1.570909e+09 2.419992e+03 1.691155e+03 1.472849e+04
-1.499502e+09 -1.299514e+09 -1.459509e+09 1.842960e+03 1.851605e+03 1.484535e+04
-1.627135e+09 -1.427151e+09 -1.587147e+09 1.880507e+03 1.835966e+03 1.503021e+04
-1.568151e+09 -1.368165e+09 -1.528161e+09 2.733749e+03 2.077544e+03 1.498616e+04
-1.671857e+09 -1.471872e+09 -1.631868e+09 1.711603e+03 2.013043e+03 1.431467e+04
-1.473761e+09 -1.273772e+09 -1.433766e+09 1.065667e+03 1.638202e+03 1.538750e+04
-1.466997e+09 -1.267009e+09 -1.427003e+09 1.135488e+03 2.496585e+03 1.460785e+04
-1.516519e+09 -1.316533e+09 -1.476527e+09 1.979960e+03 2.259000e+03 1.588464e+04
-1.510704e+09 -1.310718e+09 -1.470712e+09 2.064937e+03 2.135998e+03 1.609512e+04
-1.603600e+09 -1.403615e+09 -1.563610e+09 1.934356e+03 1.967431e+03 1.403931e+04
-1.661409e+09 -1.461426e+09 -1.621421e+09 2.060097e+03 2.408959e+03 1.527876e+04
-1.610155e+09 -1.410169e+09 -1.570163e+09 2.009777e+03 3.116092e+03 1.548396e+04
-1.535323e+09 -1.335338e+09 -1.495334e+09 2.864936e+03 2.284365e+03 1.472113e+04
-1.628219e+09 -1.428234e+09 -1.588231e+09 2.934089e+03 2.085254e+03 1.564626e+04
-1.720029e+09 -1.520047e+09 -1.680045e+09 2.762829e+03 2.100431e+03 1.426715e+04
-1.764749e+09 -1.564767e+09 -1.724764e+09 2.815497e+03 2.436955e+03 1.402545e+04
-1.440515e+09 -1.240526e+09 -1.400523e+09 2.123129e+03 2.031602e+03 1.517246e+04
-1.440515e+09 -1.240526e+09 -1.400523e+09 1.855631e+03 1.435864e+03 1.544246e+04
-1.492115e+09 -1.292127e+09 -1.452124e+09 1.787957e+03 1.589204e+03 1.467010e+04
-1.544222e+09 -1.344234e+09 -1.504230e+09 7.612648e+02 1.513976e+03 1.507025e+04
-1.432122e+09 -1.232131e+09 -1.392128e+09 1.803129e+03 2.139648e+03 1.425787e+04
-1.424238e+09 -1.224246e+09 -1.384243e+09 2.289284e+03 3.060800e+03 1.303063e+04
-1.432123e+09 -1.232132e+09 -1.392128e+09 1.899124e+03 2.090826e+03 1.483674e+04
-1.467944e+09 -1.267956e+09 -1.427952e+09 3.678014e+03 2.799782e+03 1.448553e+04
-1.432123e+09 -1.232130e+09 -1.392125e+09 1.960745e+03 3.156304e+03 1.453016e+04
-1.525015e+09 -1.325027e+09 -1.485025e+09 1.829068e+03 2.966742e+03 1.330125e+04
-1.560839e+09 -1.360852e+09 -1.520850e+09 2.545150e+03 2.463817e+03 1.326709e+04
-1.431173e+09 -1.231182e+09 -1.391178e+09 2.526664e+03 1.843616e+03 1.503454e+04
-1.524809e+09 -1.324820e+09 -1.484815e+09 1.791538e+03 2.885765e+03 1.610948e+04
-1.482048e+09 -1.282057e+09 -1.442054e+09 2.428507e+03 2.903789e+03 1.593126e+04
-1.482048e+09 -1.282056e+09 -1.442052e+09 1.609960e+03 1.946162e+03 1.631508e+04
-1.430052e+09 -1.230062e+09 -1.390057e+09 1.764581e+03 1.776541e+03 1.629513e+04
-1.431174e+09 -1.231183e+09 -1.391178e+09 1.992223e+03 2.268446e+03 1.525327e+04
-1.430052e+09 -1.230061e+09 -1.390057e+09 2.032914e+03 2.342933e+03 1.671191e+04
-1.472809e+09 -1.272822e+09 -1.432818e+09 1.805326e+03 2.338190e+03 1.586485e+04
-1.566446e+09 -1.366459e+09 -1.526454e+09 2.132189e+03 2.723549e+03 1.562398e+04
-1.523687e+09 -1.323698e+09 -1.483693e+09 2.756197e+03 2.680023e+03 1.552847e+04
-1.430051e+09 -1.230061e+09 -1.390056e+09 2.025165e+03 1.960892e+03 1.696968e+04
-1.500335e+09 -1.300346e+09 -1.460339e+09 1.241767e+03 6.216686e+02 1.680497e+04
-1.484416e+09 -1.284427e+09 -1.444421e+09 4.890636e+02 9.597846e+01 1.730935e+04
-1.556373e+09 -1.356386e+09 -1.516380e+09 1.682381e+03 5.957252e+02 1.848495e+04
-1.538168e+09 -1.338183e+09 -1.498176e+09 1.383418e+03 6.544189e+02 1.844150e+04
-1.628168e+09 -1.428183e+09 -1.588176e+09 1.540230e+03 1.588960e+03 1.891736e+04
-1.704935e+09 -1.504952e+09 -1.664944e+09 1.328576e+03 1.048506e+03 1.758489e+04
-1.673104e+09 -1.473117e+09 -1.633111e+09 1.811349e+03 3.996506e+02 1.590549e+04
-1.446578e+09 -1.246587e+09 -1.406583e+09 1.135330e+03 4.780500e+02 1.640945e+04
-1.444455e+09 -1.244463e+09 -1.404458e+09 1.567226e+03 1.003299e+03 1.663228e+04
-1.446577e+09 -1.246587e+09 -1.406583e+09 1.569185e+03 1.573343e+02 1.679299e+04
-1.502616e+09 -1.302628e+09 -1.462623e+09 1.964613e+03 8.151868e+02 1.841928e+04
-1.619347e+09 -1.419359e+09 -1.579354e+09 3.681531e+02 6.005387e+02 1.659605e+04
-1.563307e+09 -1.363317e+09 -1.523313e+09 8.653043e+02 1.044687e+03 1.599456e+04
-1.446576e+09 -1.246586e+09 -1.406582e+09 9.098917e+02 8.388827e+02 1.626415e+04
-1.442170e+09 -1.242178e+09 -1.402173e+09 1.924665e+03 1.215467e+03 1.753695e+04
-1.428376e+09 -1.228383e+09 -1.388377e+09 2.271637e+03 1.794543e+03 2.004188e+04
-1.482126e+09 -1.282139e+09 -1.442134e+09 1.973256e+03 1.465262e+03 1.914339e+04
-1.428377e+09 -1.228384e+09 -1.388377e+09 1.599071e+03 2.083803e+03 1.989998e+04
-1.428376e+09 -1.228382e+09 -1.388375e+09 1.804897e+03 6.211743e+02 2.032245e+04
-1.518376e+09 -1.318384e+09 -1.478379e+09 2.464700e+03 1.941517e+03 1.988868e+04
-1.572127e+09 -1.372141e+09 -1.532135e+09 1.954978e+03 1.608334e+03 1.937044e+04
-1.500599e+09 -1.300612e+09 -1.460601e+09 5.120313e+03 1.410491e+03 1.886602e+04
-1.605578e+09 -1.405598e+09 -1.565589e+09 2.343101e+03 2.808528e+03 2.055287e+04
-1.555641e+09 -1.355657e+09 -1.515650e+09 7.740851e+03 2.167585e+03 1.984277e+04
-1.695108e+09 -1.495125e+09 -1.655116e+09 1.106717e+04 2.176660e+03 1.777845e+04
-1.568189e+09 -1.368207e+09 -1.528195e+09 1.587115e+03 1.101584e+03 1.564785e+04
-1.673172e+09 -1.473195e+09 -1.633186e+09 7.687231e+02 1.954703e+03 1.945975e+04
-1.762692e+09 -1.562720e+09 -1.722709e+09 1.090836e+02 2.221067e+03 1.439294e+04
-1.826343e+09 -1.626373e+09 -1.786360e+09 7.779706e+02 8.596759e+02 1.571593e+04
-1.507785e+09 -1.307797e+09 -1.467789e+09 1.725423e+03 2.800851e+01 1.803519e+04
-1.624507e+09 -1.424526e+09 -1.584519e+09 5.297280e+01 -5.458293e+02 1.782034e+04
-1.568468e+09 -1.368485e+09 -1.528478e+09 2.931832e+03 9.636419e+01 1.803822e+04
-1.683743e+09 -1.483761e+09 -1.643753e+09 1.437044e+03 1.167037e+01 1.701081e+04
-1.498524e+09 -1.298535e+09 -1.458522e+09 2.244368e+03 -5.166041e+00 1.909829e+04
-1.505948e+09 -1.305959e+09 -1.465948e+09 1.525608e+03 5.232476e+01 1.819708e+04
-1.566109e+09 -1.366128e+09 -1.526119e+09 1.421630e+03 3.280370e+02 1.753296e+04
-1.563415e+09 -1.363434e+09 -1.523424e+09 1.267155e+03 -1.652040e+02 1.736021e+04
-1.692007e+09 -1.492027e+09 -1.652015e+09 1.248917e+03 -1.075088e+03 1.884893e+04
-1.744363e+09 -1.544385e+09 -1.704370e+09 3.892594e+02 5.282082e+02 1.967460e+04
-1.668403e+09 -1.468422e+09 -1.628411e+09 7.536755e+02 9.323289e+02 1.907896e+04
-1.445892e+09 -1.245897e+09 -1.405890e+09 3.150762e+03 -5.211639e+02 2.086426e+04
-1.438354e+09 -1.238360e+09 -1.398352e+09 3.742667e+03 6.890643e+02 2.006265e+04
-1.445892e+09 -1.245898e+09 -1.405892e+09 3.354274e+03 7.454072e+02 2.154777e+04
-1.495821e+09 -1.295834e+09 -1.455828e+09 2.878735e+03 8.210773e+02 1.872166e+04
-1.600808e+09 -1.400825e+09 -1.560815e+09 1.697229e+03 1.229073e+03 2.002513e+04
-1.550878e+09 -1.350887e+09 -1.510879e+09 3.248467e+03 1.119535e+03 2.114516e+04
-1.445891e+09 -1.245898e+09 -1.405890e+09 3.016919e+03 -1.822187e+02 2.217145e+04
-1.581578e+09 -1.381600e+09 -1.541590e+09 1.668139e+03 -2.762585e+02 1.858788e+04
-1.721046e+09 -1.521068e+09 -1.681058e+09 1.585375e+03 5.528318e+02 1.956746e+04
-1.774071e+09 -1.574094e+09 -1.734081e+09 -5.393756e+01 4.483953e+02 1.685949e+04
-1.836631e+09 -1.636661e+09 -1.796651e+09 6.784044e+02 -7.593463e+02 1.864072e+04
-1.519329e+09 -1.319348e+09 -1.479344e+09 2.834492e+03 8.229924e+02 1.767002e+04
-1.634604e+09 -1.434625e+09 -1.594619e+09 2.265068e+02 8.227863e+02 1.654379e+04
-1.571270e+09 -1.371289e+09 -1.531286e+09 1.965081e+03 9.560255e+02 1.664421e+04
-1.697164e+09 -1.497191e+09 -1.657188e+09 2.274616e+03 -1.249617e+03 1.670430e+04
-1.441047e+09 -1.241055e+09 -1.401045e+09 2.665141e+03 -6.735975e+02 1.822892e+04
-1.456011e+09 -1.256019e+09 -1.416011e+09 3.525646e+03 1.194279e+03 1.634311e+04
-1.508633e+09 -1.308648e+09 -1.468641e+09 1.357835e+03 -1.979131e+02 1.692866e+04
-1.456013e+09 -1.256019e+09 -1.416012e+09 2.772769e+03 1.192902e+02 1.555638e+04
-1.456011e+09 -1.256017e+09 -1.416008e+09 1.652398e+03 2.077391e+03 1.424269e+04
-1.581905e+09 -1.381918e+09 -1.541909e+09 3.832491e+03 1.803939e+02 1.736064e+04
-1.634534e+09 -1.434551e+09 -1.594541e+09 3.075132e+03 9.009060e+01 1.713350e+04
-1.490619e+09 -1.290631e+09 -1.450625e+09 2.338163e+03 2.034739e+03 2.170089e+04
-1.490618e+09 -1.290629e+09 -1.450623e+09 1.904931e+03 1.014044e+03 2.217508e+04
-1.580619e+09 -1.380631e+09 -1.540628e+09 3.088996e+03 2.224144e+03 2.025186e+04
-1.680116e+09 -1.480133e+09 -1.640129e+09 9.114393e+02 1.506100e+03 2.278205e+04
-1.450666e+09 -1.250670e+09 -1.410662e+09 2.943784e+03 2.561437e+03 1.707211e+04
-1.450665e+09 -1.250670e+09 -1.410663e+09 2.195987e+03 3.784306e+03 1.668653e+04
-1.450664e+09 -1.250669e+09 -1.410660e+09 2.450289e+03 1.676093e+03 1.634232e+04
-1.590132e+09 -1.390137e+09 -1.550131e+09 2.493428e+03 2.645160e+03 1.582827e+04
-1.546657e+09 -1.346674e+09 -1.506667e+09 1.267325e+03 8.785911e+02 2.053710e+04
-1.636657e+09 -1.436675e+09 -1.596669e+09 1.897970e+03 1.492958e+03 1.899001e+04
-1.713426e+09 -1.513444e+09 -1.673438e+09 1.277171e+03 6.946649e+02 1.707844e+04
-1.796845e+09 -1.596867e+09 -1.756860e+09 1.251614e+03 1.229955e+03 2.215027e+04
-1.570026e+09 -1.370046e+09 -1.530035e+09 1.443221e+03 9.474961e+02 2.114883e+04
-1.686758e+09 -1.486778e+09 -1.646771e+09 1.618640e+03 1.601618e+03 1.723987e+04
-1.823203e+09 -1.623229e+09 -1.783218e+09 2.319816e+02 1.221007e+03 2.014539e+04
-1.770174e+09 -1.570200e+09 -1.730191e+09 2.828944e+03 2.049642e+03 2.309475e+04
-1.451742e+09 -1.251753e+09 -1.411747e+09 2.616458e+03 2.385166e+02 1.827422e+04
-1.451741e+09 -1.251752e+09 -1.411747e+09 1.432971e+03 -6.593062e+02 1.845921e+04
-1.503684e+09 -1.303695e+09 -1.463690e+09 7.824126e+02 8.685190e+01 1.827546e+04
-1.567016e+09 -1.367029e+09 -1.527022e+09 7.092933e+02 -6.985918e+02 1.816004e+04
-1.497137e+09 -1.297149e+09 -1.457137e+09 5.790635e+02 2.216631e+03 1.933570e+04
-1.475944e+09 -1.275960e+09 -1.435939e+09 1.323094e+03 5.200199e+02 1.852504e+04
-1.543453e+09 -1.343473e+09 -1.503461e+09 -7.789747e+02 1.021841e+03 1.939525e+04
-1.537616e+09 -1.337636e+09 -1.497621e+09 1.821843e+03 1.249640e+03 1.915808e+04
-1.648651e+09 -1.448673e+09 -1.608654e+09 2.461092e+03 3.608771e+03 2.405244e+04
-1.703004e+09 -1.503032e+09 -1.663007e+09 1.306854e+03 1.726558e+03 2.028949e+04
-1.639014e+09 -1.439035e+09 -1.599015e+09 -8.819927e+02 -8.376243e+02 1.925691e+04
-1.450089e+09 -1.250096e+09 -1.410089e+09 2.124695e+03 6.737894e+02 2.089223e+04
-1.429620e+09 -1.229629e+09 -1.389616e+09 1.627008e+03 2.515329e+03 2.062395e+04
-1.491289e+09 -1.291302e+09 -1.451296e+09 2.216399e+03 1.066120e+03 1.881418e+04
-1.429621e+09 -1.229626e+09 -1.389616e+09 1.660016e+03 2.390507e+03 2.085985e+04
-1.429618e+09 -1.229625e+09 -1.389610e+09 1.399727e+03 -1.407680e+03 2.271924e+04
-1.540662e+09 -1.340670e+09 -1.500659e+09 6.565338e+02 1.261291e+03 2.433682e+04
-1.602327e+09 -1.402346e+09 -1.562332e+09 -6.713932e+02 5.584253e+02 2.208920e+04
-1.435460e+09 -1.235469e+09 -1.395458e+09 8.539044e+02 -2.850640e+02 1.871590e+04
-1.434734e+09 -1.234745e+09 -1.394730e+09 -4.160769e+02 4.808191e+01 1.854646e+04
-1.435460e+09 -1.235471e+09 -1.395459e+09 3.229161e+02 2.382702e+02 1.881206e+04
-1.481776e+09 -1.281793e+09 -1.441784e+09 -9.183185e+02 -1.770155e+02 1.952786e+04
-1.577339e+09 -1.377361e+09 -1.537343e+09 -1.139271e+03 6.467717e+02 1.953751e+04
-1.531019e+09 -1.331035e+09 -1.491020e+09 7.864025e+01 -1.049743e+03 2.131324e+04
-1.435459e+09 -1.235468e+09 -1.395457e+09 -6.382552e+02 1.244317e+03 1.835302e+04
-1.538769e+09 -1.338798e+09 -1.498783e+09 1.477248e+03 -3.591876e+02 1.818944e+04
-1.649805e+09 -1.449836e+09 -1.609814e+09 1.007073e+03 2.230401e+03 1.505064e+04
-1.704161e+09 -1.504196e+09 -1.664169e+09 -6.047906e+02 1.398556e+01 1.173476e+04
-1.785785e+09 -1.585829e+09 -1.745811e+09 1.595434e+03 -4.559445e+02 1.724238e+04
-1.492455e+09 -1.292473e+09 -1.452456e+09 4.113980e+03 2.783612e+03 1.756676e+04
-1.603499e+09 -1.403519e+09 -1.563494e+09 7.244655e+03 2.600768e+03 1.717697e+04
-1.690227e+09 -1.490263e+09 -1.650243e+09 4.123431e+03 2.836359e+03 1.845027e+04
-1.627395e+09 -1.427421e+09 -1.587404e+09 8.313053e+03 4.502632e+03 1.690310e+04
-1.494314e+09 -1.294330e+09 -1.454308e+09 -8.689815e+02 1.106997e+03 1.476003e+04
-1.492865e+09 -1.292882e+09 -1.452862e+09 -8.642224e+00 3.301947e+03 1.644632e+04
-1.557145e+09 -1.357171e+09 -1.517154e+09 -1.466352e+03 2.581581e+03 1.586480e+04
-1.541685e+09 -1.341707e+09 -1.501690e+09 5.516410e+02 2.589636e+03 1.567613e+04
-1.636024e+09 -1.436047e+09 -1.596025e+09 -3.687183e+01 2.353062e+03 1.312351e+04
-1.722356e+09 -1.522388e+09 -1.682365e+09 -1.750888e+03 2.987777e+03 1.816755e+04
-1.685101e+09 -1.485126e+09 -1.645105e+09 -7.042580e+02 4.191277e+03 2.045632e+04
-1.429622e+09 -1.229632e+09 -1.389625e+09 2.495459e+03 3.847114e+03 1.116473e+04
-1.531686e+09 -1.331694e+09 -1.491683e+09 1.348028e+03 1.285473e+03 9.632610e+03
-1.461854e+09 -1.261864e+09 -1.421856e+09 1.471545e+03 1.519155e+03 1.260757e+04
-1.420643e+09 -1.220652e+09 -1.380635e+09 2.001809e+03 7.175407e+03 1.085989e+04
-1.420645e+09 -1.220653e+09 -1.380642e+09 1.193091e+03 8.798894e+02 9.837389e+03
-1.572891e+09 -1.372900e+09 -1.532885e+09 2.004241e+03 3.564818e+03 1.474657e+04
-1.531687e+09 -1.331695e+09 -1.491684e+09 1.911161e+03 6.164279e+03 9.347081e+03
-1.461854e+09 -1.261862e+09 -1.421854e+09 1.844201e+03 7.939516e+00 1.160044e+04
-1.572893e+09 -1.372902e+09 -1.532889e+09 1.580093e+03 -5.789498e+01 1.143323e+04
-1.539177e+09 -1.339204e+09 -1.499191e+09 -1.541362e+03 3.227069e+03 1.863233e+04
-1.634738e+09 -1.434768e+09 -1.594753e+09 -2.380917e+03 2.089003e+03 1.493941e+04
-1.682750e+09 -1.482783e+09 -1.642771e+09 -1.360495e+03 1.703005e+03 1.643907e+04
-1.769092e+09 -1.569129e+09 -1.729118e+09 -2.851333e+03 3.656402e+03 2.184801e+04
-1.437237e+09 -1.237248e+09 -1.397229e+09 1.908534e+03 9.636607e+02 1.250319e+04
-1.430028e+09 -1.230041e+09 -1.390025e+09 2.493834e+03 3.431191e+03 1.247415e+04
-1.478843e+09 -1.278861e+09 -1.438847e+09 1.178991e+03 6.279020e+02 1.514824e+04
-1.430029e+09 -1.230039e+09 -1.390024e+09 2.121224e+03 1.048626e+03 1.112952e+04
-1.430030e+09 -1.230039e+09 -1.390020e+09 3.759785e+03 4.197978e+03 1.038129e+04
-1.524370e+09 -1.324381e+09 -1.484363e+09 4.006752e+03 2.630761e+03 1.126100e+04
-1.573182e+09 -1.373203e+09 -1.533185e+09 -3.515739e+02 1.462186e+03 1.359059e+04
-1.476345e+09 -1.276365e+09 -1.436355e+09 7.042734e+02 3.817660e+03 1.494590e+04
-1.571901e+09 -1.371929e+09 -1.531916e+09 -1.520555e+03 3.093544e+03 1.252255e+04
-1.525575e+09 -1.325599e+09 -1.485590e+09 1.652028e+03 4.181822e+03 1.320325e+04
-1.619916e+09 -1.419942e+09 -1.579934e+09 1.450262e+03 2.532600e+03 1.305420e+04
-1.434731e+09 -1.234747e+09 -1.394727e+09 2.352723e+02 2.614721e+03 2.133368e+04
-1.530293e+09 -1.330313e+09 -1.490294e+09 -1.897058e+03 4.250200e+02 1.911218e+04
-1.483970e+09 -1.283986e+09 -1.443970e+09 -1.055791e+02 -2.403129e+03 2.039438e+04
-1.483969e+09 -1.283983e+09 -1.443966e+09 3.810238e+02 2.343048e+03 2.100109e+04
-1.445491e+09 -1.245500e+09 -1.405485e+09 1.286316e+03 -1.739245e+00 1.778133e+04
-1.451253e+09 -1.251263e+09 -1.411248e+09 2.147393e+03 1.357007e+03 1.829284e+04
-1.445489e+09 -1.245502e+09 -1.405486e+09 2.333994e+03 1.942610e+03 1.868621e+04
-1.508319e+09 -1.308340e+09 -1.468328e+09 1.809676e+03 1.782975e+03 1.748289e+04
-1.636274e+09 -1.436299e+09 -1.596281e+09 -1.639901e+03 -1.864179e+02 2.100689e+04
-1.573449e+09 -1.373460e+09 -1.533444e+09 1.590678e+03 1.366961e+03 1.986859e+04
-1.445488e+09 -1.245498e+09 -1.405483e+09 2.685419e+03 -2.833463e+02 1.896612e+04
-1.516265e+09 -1.316286e+09 -1.476261e+09 -5.819693e+02 -8.467107e+02 1.303436e+04
-1.489362e+09 -1.289388e+09 -1.449354e+09 -5.923453e+02 -2.377571e+03 1.204001e+04
-1.572108e+09 -1.372137e+09 -1.532114e+09 -2.551745e+03 -2.478170e+03 1.296309e+04
-1.556271e+09 -1.356301e+09 -1.516273e+09 -6.824890e+02 -1.211267e+03 1.127041e+04
-1.662802e+09 -1.462834e+09 -1.622785e+09 2.506512e+02 1.255803e+03 1.512802e+04
-1.736971e+09 -1.537007e+09 -1.696961e+09 2.948598e+02 -3.361911e+03 1.309636e+04
-1.691377e+09 -1.491407e+09 -1.651367e+09 -2.751878e+03 -3.963552e+03 1.162081e+04
-1.449353e+09 -1.249366e+09 -1.409348e+09 -1.050886e+02 -1.356874e+03 1.164234e+04
-1.444253e+09 -1.244270e+09 -1.404244e+09 -1.349775e+03 -1.053064e+03 1.109160e+04
-1.449354e+09 -1.249368e+09 -1.409349e+09 -5.837490e+02 -3.065716e+02 1.249479e+04
-1.505195e+09 -1.305218e+09 -1.465203e+09 -2.418227e+03 -7.079849e+02 1.195531e+04
-1.624467e+09 -1.424495e+09 -1.584465e+09 -3.412269e+03 3.704686e+03 9.771432e+03
-1.568624e+09 -1.368644e+09 -1.528620e+09 -3.515409e+02 -1.303765e+03 1.560812e+04
-1.449352e+09 -1.249365e+09 -1.409347e+09 -1.503356e+03 7.939864e+02 1.183625e+04
-1.455320e+09 -1.255331e+09 -1.415315e+09 5.497069e+02 7.187774e+02 1.562534e+04
-1.433512e+09 -1.233529e+09 -1.393508e+09 1.226652e+02 9.159750e+02 1.648820e+04
-1.500415e+09 -1.300436e+09 -1.460422e+09 -1.053985e+02 1.153345e+03 1.220325e+04
-1.433512e+09 -1.233525e+09 -1.393508e+09 4.245916e+02 1.045752e+03 1.693964e+04
-1.433514e+09 -1.233525e+09 -1.393508e+09 1.828193e+03 -4.529825e+03 1.936436e+04
-1.540052e+09 -1.340068e+09 -1.500043e+09 1.651153e+03 -2.104633e+03 1.665488e+04
-1.606956e+09 -1.406985e+09 -1.566960e+09 1.822149e+02 -6.486034e+03 1.528732e+04
-1.444252e+09 -1.244273e+09 -1.404247e+09 -1.129643e+03 5.165484e+03 1.540604e+04
-1.563524e+09 -1.363549e+09 -1.523520e+09 -4.449390e+03 4.556868e+03 1.113050e+04
-1.507677e+09 -1.307696e+09 -1.467673e+09 -3.713386e+02 -1.935138e+03 1.530066e+04
-1.507674e+09 -1.307691e+09 -1.467665e+09 -1.874548e+03 6.314608e+03 1.560909e+04
-1.460017e+09 -1.260042e+09 -1.420009e+09 3.899202e+02 5.355808e+02 -2.325855e+03
-1.539624e+09 -1.339655e+09 -1.499625e+09 3.201111e+02 1.250575e+03 -4.304444e+02
-1.513109e+09 -1.313134e+09 -1.473109e+09 -8.039211e+02 6.605673e+03 -2.412793e+03
-1.619650e+09 -1.419683e+09 -1.579643e+09 3.853231e+03 2.771728e+03 -4.594506e+03
-1.442845e+09 -1.242864e+09 -1.402846e+09 -7.802076e+02 2.341432e+03 -1.036547e+04
-1.444256e+09 -1.244275e+09 -1.404249e+09 2.110918e+03 7.682060e+03 -7.360610e+03
-1.442854e+09 -1.242866e+09 -1.402846e+09 9.994288e+02 1.725835e+03 -3.343580e+03
-1.498702e+09 -1.298725e+09 -1.458701e+09 3.458488e+03 5.029928e+03 -5.741152e+03
-1.442855e+09 -1.242867e+09 -1.402840e+09 3.015668e+03 6.501508e+03 -4.782122e+03
-1.562105e+09 -1.362135e+09 -1.522113e+09 -1.060031e+03 9.518099e+03 -1.276509e+04
-1.617959e+09 -1.417994e+09 -1.577970e+09 -3.010875e+03 5.997159e+03 -1.264767e+04
-1.433505e+09 -1.233525e+09 -1.393498e+09 9.028006e+02 2.919653e+03 -4.289684e+03
-1.433500e+09 -1.233518e+09 -1.393496e+09 -2.718491e+03 9.196201e+03 -6.948726e+03
-1.433498e+09 -1.233518e+09 -1.393492e+09 5.066331e+02 -1.536148e+03 -8.528512e+03
-1.540043e+09 -1.340066e+09 -1.500040e+09 2.283737e+03 3.027634e+03 -1.056802e+04
-1.429125e+09 -1.229142e+09 -1.389125e+09 -9.082816e+02 2.047188e+03 -3.425853e+03
-1.414911e+09 -1.214928e+09 -1.374901e+09 3.354249e+02 4.008766e+03 4.143975e+02
-1.429124e+09 -1.229144e+09 -1.389124e+09 -6.144873e+02 2.273223e+03 -2.640274e+03
-1.455629e+09 -1.255655e+09 -1.415639e+09 -2.141045e+03 2.036139e+03 2.385337e+03
-1.535244e+09 -1.335273e+09 -1.495245e+09 1.173343e+03 2.189909e+03 2.865553e+02
-1.508730e+09 -1.308758e+09 -1.468730e+09 -1.380853e+03 3.479269e+03 -4.662671e+03
-1.429119e+09 -1.229137e+09 -1.389113e+09 -1.996589e+03 -2.373403e+03 -4.744192e+02
-1.515867e+09 -1.315899e+09 -1.475865e+09 -1.823833e+03 -2.501329e+03 -6.491165e+03
-1.595471e+09 -1.395511e+09 -1.555480e+09 -1.580878e+03 -1.210123e+03 -2.970605e+03
-1.675488e+09 -1.475534e+09 -1.635494e+09 -2.275773e+03 1.303416e+03 -1.026550e+04
-1.749656e+09 -1.549705e+09 -1.709663e+09 -3.272198e+03 -2.290599e+03 -1.370201e+04
-1.483569e+09 -1.283595e+09 -1.443570e+09 -3.535015e+03 2.273004e+03 -6.517777e+03
-1.470763e+09 -1.270786e+09 -1.430758e+09 -2.320155e+03 5.801306e+02 -3.613414e+03
-1.539407e+09 -1.339446e+09 -1.499421e+09 -4.209476e+03 4.112045e+03 1.198507e+03
-1.511474e+09 -1.311511e+09 -1.471493e+09 -4.058494e+03 -3.069271e+02 1.104877e+03
-1.658690e+09 -1.458723e+09 -1.618697e+09 -1.623186e+03 4.722713e+03 -1.187020e+04
-1.683854e+09 -1.483892e+09 -1.643857e+09 -5.232642e+03 1.321434e+02 -9.112995e+03
-1.591090e+09 -1.391129e+09 -1.551099e+09 -2.653463e+02 -2.497100e+02 -2.174150e+03
-1.435434e+09 -1.235454e+09 -1.395439e+09 -6.174256e+03 3.932082e+02 -1.203189e+04
-1.449633e+09 -1.249660e+09 -1.409640e+09 -8.937906e+03 6.999998e+03 -1.737060e+04
-1.435432e+09 -1.235456e+09 -1.395431e+09 -7.059124e+03 5.488090e+03 -7.404400e+03
-1.496672e+09 -1.296702e+09 -1.456679e+09 -7.430898e+03 5.545602e+03 -2.684632e+03
-1.603368e+09 -1.403396e+09 -1.563385e+09 -1.880609e+04 4.165897e+03 -8.887789e+03
-1.542146e+09 -1.342158e+09 -1.502147e+09 -9.053862e+03 5.696854e+03 -1.532367e+04
-1.435433e+09 -1.235452e+09 -1.395431e+09 -6.451949e+03 5.260357e+03 -6.752015e+03
-1.453003e+09 -1.253021e+09 -1.413004e+09 -4.900861e+03 2.821388e+03 -5.485121e+03
-1.436707e+09 -1.236732e+09 -1.396711e+09 -6.994098e+03 6.498995e+03 -6.243301e+03
-1.501306e+09 -1.301338e+09 -1.461329e+09 -6.994858e+03 2.070313e+03 -4.670278e+03
-1.436707e+09 -1.236727e+09 -1.396710e+09 -6.549177e+03 2.781146e+03 -8.916603e+03
-1.436697e+09 -1.236719e+09 -1.396674e+09 -5.684925e+03 -1.141921e+04 -2.641689e+03
-1.562602e+09 -1.362631e+09 -1.522605e+09 -3.920354e+03 -2.152588e+03 -2.768338e+03
-1.627210e+09 -1.427247e+09 -1.587217e+09 -1.628848e+03 -2.456936e+03 -2.280988e+03
-1.500045e+09 -1.300074e+09 -1.460046e+09 -6.816330e+03 3.228315e+03 -8.041587e+03
-1.497948e+09 -1.297993e+09 -1.457956e+09 -1.229189e+04 5.988264e+03 -1.241374e+04
-1.561284e+09 -1.361322e+09 -1.521284e+09 -8.889113e+03 3.187457e+02 -2.130886e+03
-1.562552e+09 -1.362601e+09 -1.522568e+09 -9.562268e+03 7.506006e+03 -1.016828e+04
-1.688448e+09 -1.488497e+09 -1.648442e+09 -7.720747e+03 1.171592e+04 -1.112738e+04
-1.746832e+09 -1.546883e+09 -1.706849e+09 -1.158335e+04 7.730134e+03 -5.658722e+03
-1.667983e+09 -1.468025e+09 -1.627996e+09 -1.188509e+04 3.342392e+03 -1.287279e+04
-1.490597e+09 -1.290630e+09 -1.450561e+09 -7.316480e+03 1.197445e+04 -2.968589e+04
-1.590893e+09 -1.390936e+09 -1.550862e+09 -6.014486e+03 1.450860e+04 -2.885877e+04
-1.660632e+09 -1.460687e+09 -1.620615e+09 -1.515931e+04 1.409460e+04 -3.029602e+04
-1.603925e+09 -1.403974e+09 -1.563894e+09 -1.006368e+04 2.402805e+04 -3.981213e+04
-1.545962e+09 -1.346020e+09 -1.505965e+09 -1.335821e+04 7.436460e+03 -3.683770e+04
-1.646263e+09 -1.446321e+09 -1.606263e+09 -1.470811e+04 1.281176e+04 -3.011593e+04
-1.730244e+09 -1.530303e+09 -1.690240e+09 -2.024132e+04 6.574024e+03 -3.884232e+04
-1.790083e+09 -1.590162e+09 -1.750101e+09 -1.970822e+04 5.699473e+03 -3.515392e+04
-1.456514e+09 -1.256538e+09 -1.416494e+09 -6.354477e+03 1.573693e+04 -4.480101e+04
-1.443785e+09 -1.243811e+09 -1.403774e+09 -2.286939e+03 1.789805e+04 -3.867200e+04
-1.511900e+09 -1.311931e+09 -1.471896e+09 -9.317635e+03 1.516404e+04 -3.275010e+04
-1.443785e+09 -1.243806e+09 -1.403770e+09 -2.570638e+03 2.096456e+04 -3.854976e+04
-1.443783e+09 -1.243801e+09 -1.403762e+09 -2.606053e+03 2.478659e+04 -3.948499e+04
-1.573262e+09 -1.373280e+09 -1.533245e+09 -5.753682e+03 2.037930e+04 -4.527656e+04
-1.641350e+09 -1.441388e+09 -1.601359e+09 -2.096931e+04 1.713137e+04 -3.892449e+04
-1.561564e+09 -1.361606e+09 -1.521570e+09 -1.350772e+04 1.074944e+04 -1.114532e+04
-1.691028e+09 -1.491069e+09 -1.651014e+09 -1.392608e+04 7.876618e+03 -1.535731e+04
-1.742336e+09 -1.542384e+09 -1.702357e+09 -1.815572e+04 4.486066e+03 -4.204003e+03
-1.793150e+09 -1.593202e+09 -1.753165e+09 -1.629644e+04 9.519613e+03 -4.979402e+03
-1.506179e+09 -1.306214e+09 -1.466175e+09 -1.291200e+04 1.012099e+04 -1.334432e+04
-1.612855e+09 -1.412908e+09 -1.572873e+09 -1.799480e+04 5.123779e+03 2.155876e+03
-1.551630e+09 -1.351672e+09 -1.511635e+09 -5.188784e+03 7.718684e+03 -3.393436e+03
-1.663687e+09 -1.463733e+09 -1.623690e+09 -1.370390e+04 1.099983e+04 -8.480122e+03
-1.444931e+09 -1.244962e+09 -1.404937e+09 -1.022262e+04 1.548209e+04 -9.027094e+03
-1.444930e+09 -1.244958e+09 -1.404921e+09 -7.095090e+03 7.325542e+02 -3.772407e+03
-1.444927e+09 -1.244949e+09 -1.404913e+09 -1.107953e+04 1.953084e+04 -2.382674e+03
-1.556990e+09 -1.357021e+09 -1.516992e+09 -1.443181e+04 1.060389e+04 -2.817090e+03
-1.553334e+09 -1.353383e+09 -1.513334e+09 -1.660458e+04 1.863522e+03 -6.104931e+03
-1.682797e+09 -1.482844e+09 -1.642775e+09 -1.606562e+04 -3.897793e+03 -1.005459e+04
-1.753311e+09 -1.553366e+09 -1.713300e+09 -1.941141e+04 6.136011e+03 -8.552922e+03
-1.811692e+09 -1.611756e+09 -1.771701e+09 -1.985994e+04 6.967245e+02 -2.093170e+03
-1.482186e+09 -1.282230e+09 -1.442227e+09 -8.987798e+03 6.647085e+03 -9.593826e+03
-1.482179e+09 -1.282221e+09 -1.442206e+09 -9.328783e+03 -1.186848e+04 -1.250710e+04
-1.608085e+09 -1.408132e+09 -1.568123e+09 -4.760463e+03 -5.000738e+03 -2.176038e+04
-1.660045e+09 -1.460103e+09 -1.620098e+09 -1.164827e+04 -5.538445e+03 -1.756422e+04
-1.537578e+09 -1.337632e+09 -1.497586e+09 -1.930223e+04 1.054791e+04 -1.716226e+04
-1.832484e+09 -1.632564e+09 -1.792500e+09 -2.231551e+04 1.521244e+04 -2.705370e+04
-1.626043e+09 -1.426097e+09 -1.586042e+09 -1.913905e+04 1.335237e+04 -1.778005e+04
-1.696550e+09 -1.496613e+09 -1.656550e+09 -1.335540e+04 1.292162e+04 -2.077310e+04
-1.748510e+09 -1.548590e+09 -1.708535e+09 -1.854319e+04 1.657426e+04 -1.987461e+04
-1.678003e+09 -1.478073e+09 -1.638026e+09 -1.614854e+04 1.493146e+04 -2.141656e+04
-1.761977e+09 -1.562051e+09 -1.721987e+09 -2.034250e+04 1.016944e+04 -2.633353e+04
-1.710007e+09 -1.510075e+09 -1.670009e+09 -1.544269e+04 9.999792e+03 -2.280051e+04
-1.780508e+09 -1.580586e+09 -1.740515e+09 -1.944901e+04 1.547413e+04 -2.610963e+04
-1.513340e+09 -1.313377e+09 -1.473328e+09 -1.990346e+04 1.147829e+04 -3.664517e+04
-1.500477e+09 -1.300516e+09 -1.460474e+09 -1.924465e+04 8.753928e+03 -2.856474e+04
-1.570049e+09 -1.370100e+09 -1.530047e+09 -2.037317e+04 1.543567e+04 -3.915627e+04
-1.568603e+09 -1.368654e+09 -1.528603e+09 -1.684173e+04 9.054457e+03 -2.441636e+04
-1.698072e+09 -1.498125e+09 -1.658074e+09 -1.594232e+04 1.210889e+04 -3.516645e+04
-1.757920e+09 -1.557986e+09 -1.717939e+09 -2.041175e+04 1.236184e+04 -2.902480e+04
-1.685301e+09 -1.485353e+09 -1.645281e+09 -2.077995e+04 1.791600e+04 -3.508149e+04
-1.500315e+09 -1.300354e+09 -1.460332e+09 -1.038873e+04 1.589679e+04 -7.248323e+03
-1.500313e+09 -1.300344e+09 -1.460321e+09 -9.586485e+03 2.218993e+04 -4.868089e+03
-1.629782e+09 -1.429816e+09 -1.589776e+09 -1.247392e+04 2.068153e+04 -5.096378e+03
-1.686453e+09 -1.486490e+09 -1.646465e+09 -1.531732e+04 9.884298e+03 -7.334900e+02
-1.433881e+09 -1.233907e+09 -1.393872e+09 -1.141978e+03 5.865193e+03 -3.515748e+04
-1.520429e+09 -1.320460e+09 -1.480407e+09 -2.832473e+03 -8.087022e+03 -4.811522e+04
-1.465639e+09 -1.265664e+09 -1.425631e+09 -3.642778e+03 6.218985e+03 -3.520648e+04
-1.465626e+09 -1.265653e+09 -1.425595e+09 -2.452391e+03 -1.129965e+04 -4.915342e+04
-1.565929e+09 -1.365958e+09 -1.525907e+09 -2.786521e+03 -7.807155e+03 -4.839552e+04
-1.420117e+09 -1.220143e+09 -1.380063e+09 -5.410784e+03 2.496647e+04 -4.494549e+04
-1.420128e+09 -1.220156e+09 -1.380102e+09 -2.702491e+03 -1.098485e+04 -4.789628e+04
-1.565932e+09 -1.365956e+09 -1.525909e+09 -2.500259e+03 1.076456e+04 -2.884000e+04
-1.520428e+09 -1.320455e+09 -1.480409e+09 -4.192274e+03 1.657039e+04 -4.974484e+04
-1.445221e+09 -1.245246e+09 -1.405190e+09 -7.180958e+03 1.754931e+04 -3.063852e+04
-1.445099e+09 -1.245123e+09 -1.405075e+09 -4.261725e+03 1.674894e+04 -2.382293e+04
-1.445216e+09 -1.245244e+09 -1.405181e+09 -6.106240e+03 1.311494e+04 -3.465441e+04
-1.501925e+09 -1.301961e+09 -1.461915e+09 -1.065545e+04 1.722686e+04 -3.334409e+04
-1.617178e+09 -1.417224e+09 -1.577160e+09 -1.291508e+04 1.245030e+04 -2.850239e+04
-1.560471e+09 -1.360509e+09 -1.520436e+09 -9.215063e+03 2.141824e+04 -3.891620e+04
-1.445215e+09 -1.245244e+09 -1.405186e+09 -7.918492e+03 1.610449e+04 -3.504473e+04
-1.443804e+09 -1.243831e+09 -1.403771e+09 -1.279059e+04 1.749101e+04 -5.057357e+04
-1.458627e+09 -1.258666e+09 -1.418591e+09 -1.485544e+04 2.200178e+04 -6.236914e+04
-1.443803e+09 -1.243836e+09 -1.403766e+09 -1.428777e+04 2.503975e+04 -4.455712e+04
-1.514055e+09 -1.314100e+09 -1.474040e+09 -2.035077e+04 2.215216e+04 -4.608977e+04
-1.643999e+09 -1.444041e+09 -1.603994e+09 -3.517101e+04 2.738850e+04 -5.619815e+04
-1.573782e+09 -1.373800e+09 -1.533742e+09 -1.673358e+04 2.276312e+04 -4.917298e+04
-1.443809e+09 -1.243836e+09 -1.403776e+09 -1.222635e+04 2.171272e+04 -4.044958e+04
-1.499661e+09 -1.299701e+09 -1.459637e+09 -2.407625e+04 1.656184e+04 -4.454163e+04
-1.513467e+09 -1.313517e+09 -1.473442e+09 -2.501702e+04 2.483774e+04 -6.206211e+04
-1.569923e+09 -1.369979e+09 -1.529906e+09 -2.883609e+04 1.330237e+04 -4.202613e+04
-1.569339e+09 -1.369397e+09 -1.529311e+09 -2.694230e+04 2.491509e+04 -6.414838e+04
-1.668839e+09 -1.468902e+09 -1.628757e+09 -2.715893e+04 2.448851e+04 -5.923296e+04
-1.743958e+09 -1.544034e+09 -1.703956e+09 -3.024910e+04 2.268019e+04 -5.057588e+04
-1.699880e+09 -1.499943e+09 -1.659869e+09 -2.859652e+04 2.020505e+04 -5.561783e+04
-1.444242e+09 -1.244268e+09 -1.404201e+09 -1.067518e+04 2.202036e+04 -3.831358e+04
-1.443216e+09 -1.243249e+09 -1.403181e+09 -1.171326e+04 2.494410e+04 -4.792277e+04
-1.499075e+09 -1.299115e+09 -1.459050e+09 -1.715679e+04 2.290400e+04 -5.549502e+04
-1.443215e+09 -1.243244e+09 -1.403168e+09 -1.289907e+04 1.764855e+04 -5.159125e+04
-1.443217e+09 -1.243243e+09 -1.403159e+09 -9.063303e+03 7.264158e+03 -4.821441e+04
-1.542740e+09 -1.342776e+09 -1.502668e+09 -1.400288e+04 1.533952e+04 -4.778327e+04
-1.598589e+09 -1.398646e+09 -1.558542e+09 -2.052081e+04 9.498122e+03 -4.763409e+04
-1.530247e+09 -1.330256e+09 -1.490167e+09 -3.595549e+04 4.477511e+04 -9.186932e+04
-1.516868e+09 -1.316889e+09 -1.476800e+09 -2.685810e+04 3.913670e+04 -8.293013e+04
-1.588586e+09 -1.388620e+09 -1.548504e+09 -4.457546e+04 4.830255e+04 -1.001484e+05
-1.600988e+09 -1.401017e+09 -1.560909e+09 -3.947559e+04 3.465870e+04 -7.871981e+04
-1.745377e+09 -1.545414e+09 -1.705282e+09 -3.671932e+04 4.279579e+04 -9.113427e+04
-1.791081e+09 -1.591128e+09 -1.751014e+09 -4.866765e+04 4.729104e+04 -9.014588e+04
-1.704476e+09 -1.504516e+09 -1.664377e+09 -4.471043e+04 4.920655e+04 -9.724511e+04
-1.592855e+09 -1.392903e+09 -1.552797e+09 -3.210043e+04 2.652460e+04 -4.755669e+04
-1.737239e+09 -1.537289e+09 -1.697158e+09 -3.259185e+04 2.180385e+04 -5.771526e+04
-1.797028e+09 -1.597086e+09 -1.756987e+09 -4.220869e+04 2.838635e+04 -4.601919e+04
-1.858431e+09 -1.658494e+09 -1.818408e+09 -4.279474e+04 1.633519e+04 -4.283212e+04
-1.571715e+09 -1.371770e+09 -1.531634e+09 -4.038427e+04 3.957988e+04 -9.876700e+04
-1.716105e+09 -1.516156e+09 -1.676009e+09 -3.852294e+04 3.107154e+04 -1.096014e+05
-1.761813e+09 -1.561871e+09 -1.721738e+09 -5.037123e+04 3.435170e+04 -1.054985e+05
-1.802984e+09 -1.603060e+09 -1.762889e+09 -5.397081e+04 3.375170e+04 -1.142747e+05
-1.501552e+09 -1.301619e+09 -1.461431e+09 -2.608264e+04 4.470211e+04 -1.049498e+05
-1.617435e+09 -1.417487e+09 -1.577317e+09 -3.558218e+04 3.911275e+04 -1.028489e+05
-1.559089e+09 -1.359145e+09 -1.518973e+09 -4.764871e+04 1.105054e+05 -1.074523e+05
-1.658595e+09 -1.458682e+09 -1.618437e+09 -3.651639e+04 5.004081e+04 -1.232627e+05
-1.583645e+09 -1.383706e+09 -1.543598e+09 -3.625785e+04 3.238760e+04 -4.930456e+04
-1.728033e+09 -1.528088e+09 -1.687955e+09 -3.472989e+04 2.302698e+04 -5.839143e+04
-1.757382e+09 -1.557445e+09 -1.717265e+09 -4.317287e+04 1.584599e+04 -6.022428e+04
-1.832493e+09 -1.632572e+09 -1.792448e+09 -4.712054e+04 1.918773e+04 -4.000185e+04
-1.452431e+09 -1.252458e+09 -1.412405e+09 -1.909857e+04 4.200002e+04 -4.544825e+04
-1.452431e+09 -1.252450e+09 -1.412383e+09 -1.361050e+04 1.531335e+04 -3.553626e+04
-1.452429e+09 -1.252443e+09 -1.412377e+09 -1.918400e+04 4.564051e+04 -3.277011e+04
-1.584093e+09 -1.384113e+09 -1.544079e+09 -3.011418e+04 2.787125e+04 -3.268400e+04
-1.446407e+09 -1.246415e+09 -1.406324e+09 -2.215232e+04 3.435375e+04 -9.205083e+04
-1.425529e+09 -1.225549e+09 -1.385447e+09 -1.500135e+04 3.848503e+04 -8.767500e+04
-1.483581e+09 -1.283582e+09 -1.443502e+09 -2.827721e+04 3.469203e+04 -7.558663e+04
-1.425542e+09 -1.225547e+09 -1.385467e+09 -1.694189e+04 4.764589e+04 -7.618742e+04
-1.425550e+09 -1.225552e+09 -1.385472e+09 -1.120953e+04 4.011351e+04 -7.235752e+04
-1.507656e+09 -1.307652e+09 -1.467566e+09 -1.864075e+04 3.942677e+04 -8.117664e+04
-1.565661e+09 -1.365660e+09 -1.525590e+09 -3.750250e+04 2.891373e+04 -7.337704e+04
-1.530516e+09 -1.330533e+09 -1.490426e+09 -2.279290e+04 3.444359e+04 -8.776959e+04
-1.495703e+09 -1.295726e+09 -1.455627e+09 -1.545758e+04 4.273380e+04 -8.637681e+04
-1.600685e+09 -1.400707e+09 -1.560606e+09 -3.629197e+04 4.123590e+04 -8.117946e+04
-1.553752e+09 -1.353771e+09 -1.513654e+09 -2.609148e+04 3.962227e+04 -7.877405e+04
-1.635835e+09 -1.435855e+09 -1.595752e+09 -3.333376e+04 4.096268e+04 -8.184629e+04
-1.743063e+09 -1.543083e+09 -1.702963e+09 -3.241360e+04 4.218928e+04 -8.032408e+04
-1.745061e+09 -1.545080e+09 -1.704970e+09 -4.386644e+04 5.550148e+04 -9.448915e+04
-1.559750e+09 -1.359778e+09 -1.519704e+09 -2.631461e+04 3.016771e+04 -3.850751e+04
-1.641840e+09 -1.441867e+09 -1.601760e+09 -3.207069e+04 3.576860e+04 -4.076066e+04
-1.749072e+09 -1.549100e+09 -1.708992e+09 -3.228365e+04 3.794115e+04 -4.270464e+04
-1.810575e+09 -1.610607e+09 -1.770555e+09 -3.803500e+04 2.634331e+04 -2.470963e+04
-1.443193e+09 -1.243234e+09 -1.403130e+09 -3.254446e+03 2.795042e+04 -1.185835e+05
-1.443183e+09 -1.243214e+09 -1.403167e+09 -2.000701e+04 7.158843e+04 -1.346284e+05
-1.443160e+09 -1.243213e+09 -1.403081e+09 -7.518603e+03 1.374097e+04 -1.477345e+05
-1.542708e+09 -1.342780e+09 -1.502690e+09 -8.681517e+03 4.375779e+04 -1.477067e+05
-1.522696e+09 -1.322737e+09 -1.482641e+09 -2.560034e+04 2.991877e+04 -5.785572e+04
-1.652619e+09 -1.452690e+09 -1.612608e+09 -3.719238e+04 3.274019e+04 -4.703050e+04
-1.582397e+09 -1.382448e+09 -1.542356e+09 -1.895738e+04 2.585404e+04 -3.855280e+04
-1.714046e+09 -1.514105e+09 -1.674021e+09 -3.326373e+04 2.415554e+04 -4.755424e+04
-1.446140e+09 -1.246156e+09 -1.406017e+09 -2.197523e+04 5.553887e+04 -9.049571e+04
-1.446697e+09 -1.246725e+09 -1.406587e+09 -1.699750e+04 5.964384e+04 -8.975475e+04
-1.446134e+09 -1.246162e+09 -1.406007e+09 -2.144666e+04 4.369194e+04 -1.000961e+05
-1.504477e+09 -1.304510e+09 -1.464375e+09 -3.356590e+04 5.666522e+04 -9.517033e+04
-1.620372e+09 -1.420418e+09 -1.580262e+09 -3.354256e+04 5.022894e+04 -9.183175e+04
-1.562003e+09 -1.362060e+09 -1.521882e+09 -3.886231e+04 8.252674e+04 -1.271520e+05
-1.446123e+09 -1.246149e+09 -1.406030e+09 -3.657578e+04 7.530964e+04 -1.109848e+05
-1.489594e+09 -1.289620e+09 -1.449571e+09 -2.386147e+04 3.912704e+04 -4.796244e+04
-1.489592e+09 -1.289611e+09 -1.449570e+09 -2.440860e+04 4.437035e+04 -4.869350e+04
-1.571686e+09 -1.371707e+09 -1.531637e+09 -3.091185e+04 4.566016e+04 -5.198292e+04
-1.666173e+09 -1.466198e+09 -1.626152e+09 -4.171614e+04 1.905486e+04 -2.246792e+04
-1.494231e+09 -1.294231e+09 -1.454137e+09 -3.699389e+04 3.543801e+04 -8.625515e+04
-1.482189e+09 -1.282199e+09 -1.442088e+09 -2.531275e+04 4.297174e+04 -8.752694e+04
-1.554952e+09 -1.354957e+09 -1.514864e+09 -4.482936e+04 3.158202e+04 -8.904948e+04
-1.524481e+09 -1.324498e+09 -1.484370e+09 -2.968993e+04 3.331337e+04 -9.996741e+04
-1.604575e+09 -1.404595e+09 -1.564437e+09 -3.445235e+04 2.246303e+04 -8.958849e+04
-1.701303e+09 -1.501340e+09 -1.661222e+09 -5.391773e+04 4.265381e+04 -1.018645e+05
-1.684814e+09 -1.484832e+09 -1.644709e+09 -3.824335e+04 4.285239e+04 -1.033749e+05
-1.432904e+09 -1.232897e+09 -1.392818e+09 -2.627757e+04 3.593808e+04 -9.198719e+04
-1.452433e+09 -1.252420e+09 -1.412363e+09 -1.990084e+04 4.234605e+04 -8.835153e+04
-1.432902e+09 -1.232892e+09 -1.392828e+09 -2.292920e+04 5.222886e+04 -8.003611e+04
-1.496948e+09 -1.296944e+09 -1.456897e+09 -3.010196e+04 4.646816e+04 -8.403280e+04
-1.609527e+09 -1.409509e+09 -1.569493e+09 -4.488060e+04 3.998066e+04 -8.635493e+04
-1.545520e+09 -1.345495e+09 -1.505454e+09 -2.199376e+04 3.832048e+04 -8.487337e+04
-1.432912e+09 -1.232898e+09 -1.392839e+09 -1.791512e+04 4.029727e+04 -7.347570e+04
-1.496482e+09 -1.296484e+09 -1.456380e+09 -2.669800e+04 3.372714e+04 -8.623492e+04
-1.513148e+09 -1.313151e+09 -1.473056e+09 -2.020397e+04 2.453285e+04 -7.691655e+04
-1.560524e+09 -1.360541e+09 -1.520431e+09 -3.174778e+04 3.053015e+04 -8.450243e+04
-1.576711e+09 -1.376723e+09 -1.536624e+09 -3.733493e+04 3.405609e+04 -8.798223e+04
-1.706567e+09 -1.506581e+09 -1.666457e+09 -3.577592e+04 5.004582e+04 -1.017287e+05
-1.758445e+09 -1.558465e+09 -1.718358e+09 -3.524290e+04 3.424320e+04 -9.010950e+04
-1.673115e+09 -1.473132e+09 -1.633053e+09 -3.869939e+04 3.601068e+04 -9.247131e+04
-1.430650e+09 -1.230655e+09 -1.390532e+09 -2.889319e+04 3.807164e+04 -8.398982e+04
-1.421459e+09 -1.221461e+09 -1.381344e+09 -2.530309e+04 5.333341e+04 -8.569985e+04
-1.463754e+09 -1.263761e+09 -1.423644e+09 -2.652634e+04 3.906816e+04 -9.636650e+04
-1.421462e+09 -1.221470e+09 -1.381356e+09 -2.585090e+04 3.794778e+04 -9.534579e+04
-1.421442e+09 -1.221453e+09 -1.381324e+09 -3.522510e+04 -6.610879e+03 -7.383287e+04
-1.501567e+09 -1.301579e+09 -1.461478e+09 -3.616442e+04 2.301293e+03 -6.811615e+04
-1.543852e+09 -1.343862e+09 -1.503727e+09 -3.353257e+04 2.323589e+04 -8.892502e+04
-1.544659e+09 -1.344695e+09 -1.504607e+09 -5.120534e+04 2.495050e+04 -1.015843e+05
-1.624744e+09 -1.424792e+09 -1.584634e+09 -5.381563e+04 1.036471e+04 -8.852492e+04
-1.721506e+09 -1.521547e+09 -1.681441e+09 -6.297554e+04 3.539791e+04 -1.139349e+05
-1.791545e+09 -1.591571e+09 -1.751447e+09 -8.322671e+04 4.317449e+03 -9.956017e+04
-1.506379e+09 -1.306353e+09 -1.466134e+09 -3.070360e+04 4.534536e+04 -1.803261e+05
-1.637182e+09 -1.437131e+09 -1.596866e+09 -3.398108e+04 4.920878e+04 -1.603703e+05
-1.574691e+09 -1.374651e+09 -1.534457e+09 -4.529255e+04 1.194551e+05 -2.847944e+05
-1.695158e+09 -1.495119e+09 -1.654876e+09 -7.851847e+04 7.293541e+04 -2.476303e+05
-1.562753e+09 -1.362736e+09 -1.522711e+09 -5.476243e+04 7.842709e+04 -5.579028e+04
-1.671287e+09 -1.471263e+09 -1.631185e+09 -6.156019e+04 8.088762e+04 -8.126286e+04
-1.754219e+09 -1.554187e+09 -1.714090e+09 -6.710574e+04 7.566362e+04 -6.702608e+04
-1.804353e+09 -1.604322e+09 -1.764305e+09 -7.430968e+04 8.427201e+04 -4.251546e+04
-1.449948e+09 -1.249919e+09 -1.409784e+09 -9.026163e+03 8.446026e+04 -1.063805e+05
-1.436227e+09 -1.236210e+09 -1.396093e+09 -5.274920e+03 6.749239e+04 -1.128847e+05
-1.497824e+09 -1.297781e+09 -1.457660e+09 -1.877338e+04 8.765318e+04 -8.917467e+04
-1.436230e+09 -1.236205e+09 -1.396092e+09 -5.996200e+03 9.892507e+04 -9.007828e+04
-1.436250e+09 -1.236219e+09 -1.396147e+09 -2.891187e+03 6.889614e+04 -7.405107e+04
-1.544812e+09 -1.344758e+09 -1.504663e+09 -1.649557e+04 7.809622e+04 -9.244197e+04
-1.606340e+09 -1.406290e+09 -1.566221e+09 -4.500241e+04 7.396683e+04 -9.076403e+04
-1.511898e+09 -1.311867e+09 -1.471759e+09 -2.424804e+04 9.372536e+04 -1.052980e+05
-1.498694e+09 -1.298674e+09 -1.458588e+09 -2.636208e+04 6.809626e+04 -1.019830e+05
-1.574406e+09 -1.374363e+09 -1.534227e+09 -3.478815e+04 9.446200e+04 -1.100756e+05
-1.560289e+09 -1.360246e+09 -1.520110e+09 -3.717916e+04 6.784508e+04 -7.338383e+04
-1.668833e+09 -1.468796e+09 -1.628713e+09 -4.603684e+04 7.792599e+04 -8.878614e+04
-1.751733e+09 -1.551707e+09 -1.711611e+09 -5.472063e+04 6.918931e+04 -7.045958e+04
-1.705178e+09 -1.505134e+09 -1.664966e+09 -3.477420e+04 9.984271e+04 -1.101676e+05
-1.452433e+09 -1.252423e+09 -1.412367e+09 -1.965957e+04 8.225726e+04 -5.947337e+04
-1.564998e+09 -1.364966e+09 -1.524962e+09 -4.337211e+04 7.652119e+04 -6.105670e+04
-1.500982e+09 -1.300964e+09 -1.460923e+09 -1.761974e+04 7.034075e+04 -6.168261e+04
-1.500977e+09 -1.300956e+09 -1.460907e+09 -1.933820e+04 9.949776e+04 -5.903673e+04
-1.575609e+09 -1.375629e+09 -1.535566e+09 -5.057753e+04 1.349572e+04 -9.468616e+04
-1.705457e+09 -1.505481e+09 -1.665378e+09 -4.968248e+04 4.588867e+04 -1.151752e+05
-1.825641e+09 -1.625687e+09 -1.785589e+09 -6.216890e+04 3.169522e+03 -9.409495e+04
-1.775513e+09 -1.575575e+09 -1.735390e+09 -5.940341e+04 2.654600e+04 -1.044576e+05
-1.500301e+09 -1.300278e+09 -1.460224e+09 -3.074254e+04 7.654220e+04 -6.210117e+04
-1.673265e+09 -1.473224e+09 -1.633166e+09 -5.341725e+04 8.311931e+04 -6.258657e+04
-1.564022e+09 -1.364004e+09 -1.523951e+09 -4.774777e+04 8.263194e+04 -7.284258e+04
-1.628740e+09 -1.428717e+09 -1.588663e+09 -6.368917e+04 6.722061e+04 -4.381334e+04
-1.564715e+09 -1.364686e+09 -1.524629e+09 -4.387668e+04 7.804845e+04 -5.221657e+04
-1.672556e+09 -1.472526e+09 -1.632422e+09 -4.836177e+04 7.077589e+04 -7.930043e+04
-1.737311e+09 -1.537271e+09 -1.697212e+09 -5.716236e+04 7.046964e+04 -5.802819e+04
-1.499935e+09 -1.299941e+09 -1.459889e+09 -3.239813e+04 8.298445e+04 -7.327999e+04
-1.608518e+09 -1.408496e+09 -1.568411e+09 -4.863290e+04 8.825271e+04 -7.477375e+04
-1.476952e+09 -1.276971e+09 -1.436927e+09 -4.018420e+04 5.005145e+04 -1.659802e+05
-1.476958e+09 -1.276976e+09 -1.436936e+09 -4.744299e+04 -8.145739e+03 -1.774466e+05
-1.557081e+09 -1.357100e+09 -1.517080e+09 -4.864067e+04 -6.465471e+02 -1.720135e+05
-1.644458e+09 -1.444476e+09 -1.604546e+09 -9.015434e+04 4.489262e+04 -1.908820e+05
-1.443891e+09 -1.243854e+09 -1.403716e+09 -1.541691e+04 2.848209e+04 -1.853638e+05
-1.443809e+09 -1.243750e+09 -1.403463e+09 -1.865071e+04 2.001609e+05 -2.339939e+05
-1.443844e+09 -1.243806e+09 -1.403547e+09 -2.732526e+04 -2.302967e+04 -2.611421e+05
-1.564383e+09 -1.364331e+09 -1.524213e+09 -5.827426e+04 3.412962e+04 -2.601787e+05
-1.450307e+09 -1.250286e+09 -1.410056e+09 -4.211580e+03 1.728366e+05 -1.349315e+05
-1.450847e+09 -1.250821e+09 -1.410645e+09 1.786405e+03 1.460279e+05 -1.271670e+05
-1.450278e+09 -1.250258e+09 -1.410004e+09 5.683840e+03 1.266205e+05 -1.620202e+05
-1.512835e+09 -1.312791e+09 -1.472586e+09 -9.359806e+03 1.444957e+05 -1.184475e+05
-1.643628e+09 -1.443592e+09 -1.603368e+09 -2.889433e+03 1.452997e+05 -1.205158e+05
-1.581136e+09 -1.381110e+09 -1.540962e+09 -1.628861e+04 2.349879e+05 -2.252758e+05
-1.450361e+09 -1.250313e+09 -1.410296e+09 3.113589e+03 2.452797e+05 -2.217459e+05
-1.539397e+09 -1.339445e+09 -1.499235e+09 -3.274451e+04 5.567878e+04 -1.795849e+05
-1.619507e+09 -1.419555e+09 -1.579316e+09 -3.894666e+04 6.703318e+04 -1.775725e+05
-1.717185e+09 -1.517221e+09 -1.676935e+09 -4.161552e+04 5.577775e+04 -1.898732e+05
-1.775170e+09 -1.575230e+09 -1.735041e+09 -8.767568e+04 9.584825e+04 -1.968085e+05
-1.435586e+09 -1.235565e+09 -1.395412e+09 -1.538494e+03 9.525584e+04 -1.018285e+05
-1.434646e+09 -1.234648e+09 -1.394491e+09 1.997383e+03 1.039790e+05 -9.307804e+04
-1.435589e+09 -1.235573e+09 -1.395397e+09 -7.212209e+03 1.173293e+05 -8.548324e+04
-1.481891e+09 -1.281868e+09 -1.441709e+09 -1.488308e+04 1.116334e+05 -9.682555e+04
-1.589946e+09 -1.389900e+09 -1.549778e+09 -1.960431e+04 1.189108e+05 -9.871491e+04
-1.543665e+09 -1.343629e+09 -1.503482e+09 -6.583669e+03 9.507928e+04 -6.008797e+04
-1.435624e+09 -1.235601e+09 -1.395506e+09 -4.726554e+03 7.363348e+04 -6.238482e+04
-1.484843e+09 -1.284803e+09 -1.444712e+09 -1.558847e+04 1.150565e+05 -1.088672e+05
-1.481045e+09 -1.281017e+09 -1.440915e+09 9.132440e+02 1.441595e+05 -1.143550e+05
-1.531144e+09 -1.331102e+09 -1.490979e+09 -2.733505e+04 1.206469e+05 -9.514241e+04
-1.530337e+09 -1.330291e+09 -1.490150e+09 -1.465615e+04 1.356468e+05 -1.224379e+05
-1.636885e+09 -1.436837e+09 -1.596604e+09 -1.367222e+04 1.582515e+05 -1.160298e+05
-1.698563e+09 -1.498528e+09 -1.658385e+09 -2.264660e+04 1.351102e+05 -8.110244e+04
-1.639210e+09 -1.439166e+09 -1.599060e+09 -2.743364e+04 1.385901e+05 -9.976735e+04
-1.437625e+09 -1.237626e+09 -1.397382e+09 1.199156e+04 1.892149e+05 -1.400946e+05
-1.434708e+09 -1.234751e+09 -1.394374e+09 2.249650e+04 1.941510e+05 -1.494500e+05
-1.484030e+09 -1.284023e+09 -1.443753e+09 -1.408682e+02 1.914056e+05 -1.180844e+05
-1.434684e+09 -1.234686e+09 -1.394344e+09 3.629937e+04 1.458726e+05 -1.748994e+05
-1.434753e+09 -1.234755e+09 -1.394673e+09 1.195902e+04 2.983346e+05 -2.304659e+05
-1.541295e+09 -1.341372e+09 -1.501028e+09 -9.657352e+03 2.937512e+05 -2.620104e+05
-1.590609e+09 -1.390632e+09 -1.550282e+09 -1.051570e+02 1.815115e+05 -1.128650e+05
-1.543975e+09 -1.343927e+09 -1.503800e+09 -1.645182e+04 1.415361e+05 -1.241108e+05
-1.650532e+09 -1.450481e+09 -1.610220e+09 -2.721293e+04 1.576786e+05 -1.135456e+05
-1.712211e+09 -1.512170e+09 -1.671999e+09 -3.647660e+04 1.358271e+05 -7.475839e+04
-1.795160e+09 -1.595106e+09 -1.754941e+09 -4.231546e+04 1.315359e+05 -9.514337e+04
-1.497556e+09 -1.297546e+09 -1.457350e+09 -1.527141e+04 1.179782e+05 -9.291647e+04
-1.605633e+09 -1.405579e+09 -1.565417e+09 -3.304661e+04 1.355920e+05 -8.101061e+04
-1.559374e+09 -1.359361e+09 -1.519186e+09 -2.897729e+04 7.746246e+04 -7.058648e+04
-1.688559e+09 -1.488522e+09 -1.648324e+09 -4.358186e+04 1.167406e+05 -8.051973e+04
-1.567938e+09 -1.367891e+09 -1.527762e+09 -7.342737e+04 1.296659e+05 -9.647071e+04
-1.674500e+09 -1.474438e+09 -1.634176e+09 -8.275125e+04 1.330886e+05 -9.523012e+04
-1.757378e+09 -1.557290e+09 -1.717146e+09 -8.441976e+04 1.420370e+05 -1.345915e+05
-1.832880e+09 -1.632762e+09 -1.792605e+09 -1.003345e+05 1.085481e+05 -1.340534e+05
-1.451248e+09 -1.251254e+09 -1.411090e+09 -1.179031e+02 1.452818e+05 -7.913807e+04
-1.451271e+09 -1.251245e+09 -1.411147e+09 5.421419e+03 1.043532e+05 -5.319923e+04
-1.451278e+09 -1.251269e+09 -1.411148e+09 1.260295e+00 1.027892e+05 -5.555404e+04
-1.580453e+09 -1.380435e+09 -1.540296e+09 -1.473193e+04 1.292600e+05 -7.750557e+04
-1.506578e+09 -1.306494e+09 -1.466462e+09 -3.546106e+04 1.605160e+05 -6.112765e+04
-1.521501e+09 -1.321432e+09 -1.481364e+09 -3.317697e+04 1.421598e+05 -6.915762e+04
-1.576867e+09 -1.376779e+09 -1.536704e+09 -5.166083e+04 1.508689e+05 -8.059611e+04
-1.585003e+09 -1.384927e+09 -1.544841e+09 -3.904351e+04 1.459742e+05 -6.812502e+04
-1.714245e+09 -1.514165e+09 -1.674160e+09 -4.066029e+04 1.717322e+05 -7.444503e+04
-1.789759e+09 -1.589647e+09 -1.749637e+09 -6.063401e+04 1.405050e+05 -7.669191e+04
-1.715276e+09 -1.515179e+09 -1.675108e+09 -5.334825e+04 1.411055e+05 -1.024735e+05
-1.451836e+09 -1.251835e+09 -1.411684e+09 -1.945314e+04 1.395942e+05 -4.216661e+04
-1.451243e+09 -1.251245e+09 -1.411075e+09 -2.014124e+04 1.389833e+05 -5.640980e+04
-1.514754e+09 -1.314730e+09 -1.474571e+09 -2.475603e+04 1.432046e+05 -6.505386e+04
-1.451226e+09 -1.251223e+09 -1.411041e+09 -1.502235e+04 1.553787e+05 -4.514491e+04
-1.451256e+09 -1.251256e+09 -1.411122e+09 -1.016495e+04 9.712428e+04 -1.821466e+04
-1.580471e+09 -1.380442e+09 -1.540304e+09 -1.279786e+04 1.188270e+05 -3.224819e+04
-1.643951e+09 -1.443878e+09 -1.603810e+09 -4.092567e+04 1.305501e+05 -5.929248e+04
-1.505042e+09 -1.305068e+09 -1.464674e+09 -2.103616e+04 1.711343e+05 -1.631474e+05
-1.505073e+09 -1.305052e+09 -1.464865e+09 -4.594172e+04 2.863135e+05 -1.764786e+05
-1.611603e+09 -1.411651e+09 -1.571187e+09 -5.820943e+04 2.877096e+05 -1.948602e+05
-1.703622e+09 -1.503596e+09 -1.663091e+09 -6.709147e+04 2.391108e+05 -1.881794e+05
-1.443065e+09 -1.243060e+09 -1.402785e+09 -8.196656e+03 2.052444e+05 -9.127439e+04
-1.458588e+09 -1.258596e+09 -1.418304e+09 -1.241788e+04 2.124227e+05 -1.111041e+05
-1.443086e+09 -1.243091e+09 -1.402796e+09 -2.151128e+04 1.989299e+05 -9.495052e+04
-1.513359e+09 -1.313364e+09 -1.473050e+09 -3.213606e+04 2.045353e+05 -1.027092e+05
-1.651785e+09 -1.451765e+09 -1.611469e+09 -1.712657e+04 2.118472e+05 -1.195378e+05
-1.581439e+09 -1.381433e+09 -1.541129e+09 -5.334520e+04 2.526897e+05 -2.165689e+05
-1.443128e+09 -1.243041e+09 -1.403034e+09 -4.273665e+04 2.936599e+05 -1.521082e+05
-1.458606e+09 -1.258684e+09 -1.418334e+09 -2.504684e+04 1.892538e+05 -1.220989e+05
-1.567698e+09 -1.367693e+09 -1.527346e+09 -4.726890e+04 2.968151e+05 -1.850597e+05
-1.499575e+09 -1.299593e+09 -1.459384e+09 -4.036362e+04 2.465707e+05 -1.469257e+05
-1.499664e+09 -1.299671e+09 -1.459562e+09 -6.433403e+04 3.200223e+05 -8.694934e+04
-1.637961e+09 -1.437985e+09 -1.597625e+09 -3.843045e+04 2.643005e+05 -1.363471e+05
-1.429256e+09 -1.229218e+09 -1.388985e+09 -4.346347e+04 3.149008e+05 -1.591212e+05
-1.429299e+09 -1.229323e+09 -1.389020e+09 -7.423973e+04 3.226873e+05 -1.562972e+05
-1.638023e+09 -1.437961e+09 -1.597689e+09 -4.527146e+04 2.970479e+05 -8.622071e+04
-1.567696e+09 -1.367645e+09 -1.527361e+09 -7.819102e+04 3.233905e+05 -1.724574e+05
-1.522654e+09 -1.322546e+09 -1.482528e+09 -3.897197e+04 1.516147e+05 -4.098854e+04
-1.503301e+09 -1.303182e+09 -1.463167e+09 -1.611079e+04 1.477177e+05 -3.438270e+04
-1.589009e+09 -1.388873e+09 -1.548849e+09 -4.034006e+04 1.582295e+05 -4.100473e+04
-1.567772e+09 -1.367631e+09 -1.527609e+09 -2.987488e+04 1.491392e+05 -2.532668e+04
-1.681063e+09 -1.480918e+09 -1.640868e+09 -3.131689e+04 1.399542e+05 -2.391794e+04
-1.772240e+09 -1.572075e+09 -1.732062e+09 -5.446833e+04 1.741079e+05 -1.930728e+04
-1.728829e+09 -1.528697e+09 -1.688698e+09 -3.820647e+04 1.998605e+05 -3.947900e+04
-1.458252e+09 -1.258246e+09 -1.418087e+09 -1.429077e+04 1.239614e+05 -2.028821e+04
-1.454699e+09 -1.254682e+09 -1.414557e+09 -2.067117e+03 1.015870e+05 -9.821800e+03
-1.458251e+09 -1.258231e+09 -1.418087e+09 -1.103052e+04 1.225281e+05 -2.363361e+04
-1.524610e+09 -1.324563e+09 -1.484419e+09 -2.194018e+04 1.138159e+05 -2.989022e+04
-1.664391e+09 -1.464268e+09 -1.624215e+09 -2.744618e+04 1.361047e+05 -2.689635e+04
-1.598078e+09 -1.398030e+09 -1.557917e+09 1.683395e+03 1.142989e+05 -8.904398e+03
-1.458282e+09 -1.258274e+09 -1.418158e+09 -2.853441e+03 8.163352e+04 -4.919873e+03
-1.452761e+09 -1.252752e+09 -1.412500e+09 -1.133017e+04 1.761010e+05 -6.882392e+04
-1.436943e+09 -1.236931e+09 -1.396606e+09 1.385720e+04 1.743710e+05 -6.822302e+04
-1.501424e+09 -1.301380e+09 -1.461106e+09 -1.178590e+04 1.848979e+05 -4.665843e+04
-1.436953e+09 -1.236911e+09 -1.396599e+09 7.804874e+03 1.596457e+05 -7.439742e+04
-1.437043e+09 -1.236937e+09 -1.396964e+09 -6.352779e+03 3.129022e+05 -1.535370e+05
-1.550227e+09 -1.350183e+09 -1.509804e+09 -2.575008e+04 2.558637e+05 -2.154038e+05
-1.614731e+09 -1.414685e+09 -1.574406e+09 -8.071237e+03 1.828382e+05 -4.700721e+04
-1.525358e+09 -1.325264e+09 -1.485128e+09 -2.009129e+04 9.815545e+04 1.887388e+03
-1.580648e+09 -1.380523e+09 -1.540440e+09 -1.691128e+04 8.966538e+04 1.020450e+04
-1.662332e+09 -1.462200e+09 -1.622096e+09 -1.805596e+04 9.349530e+04 -4.319928e+02
-1.753800e+09 -1.553639e+09 -1.713506e+09 -3.006776e+04 1.331805e+05 7.754986e+03
-1.551714e+09 -1.351534e+09 -1.511493e+09 -2.651117e+04 1.553961e+05 -2.891248e+04
-1.664985e+09 -1.464819e+09 -1.624759e+09 -3.086026e+04 1.510030e+05 -3.607986e+03
-1.811798e+09 -1.611571e+09 -1.771557e+09 -4.775850e+04 1.935874e+05 -1.007229e+04
-1.720302e+09 -1.520110e+09 -1.680071e+09 -4.335846e+04 1.723690e+05 -3.273730e+04
-1.499465e+09 -1.299390e+09 -1.459036e+09 -1.102850e+03 1.782528e+05 -5.627166e+04
-1.499509e+09 -1.299348e+09 -1.459267e+09 -9.663683e+03 3.444258e+05 -4.753843e+04
-1.612707e+09 -1.412598e+09 -1.572154e+09 -2.246602e+04 3.136643e+05 -6.686781e+04
-1.699938e+09 -1.499757e+09 -1.659331e+09 -2.764437e+04 3.011194e+05 -8.477779e+04
-1.547829e+09 -1.347641e+09 -1.507597e+09 -2.658812e+04 1.586603e+05 -3.404313e+04
-1.661138e+09 -1.460939e+09 -1.620869e+09 -2.295559e+04 1.565630e+05 -1.029665e+04
-1.716477e+09 -1.516245e+09 -1.676183e+09 -2.233602e+04 1.747114e+05 -2.930658e+04
-1.803978e+09 -1.603697e+09 -1.763699e+09 -3.649821e+04 1.763136e+05 -7.016687e+04
-1.458998e+09 -1.258932e+09 -1.418757e+09 -8.851201e+03 8.320430e+04 -2.055425e+04
-1.514296e+09 -1.314205e+09 -1.474082e+09 -1.242969e+04 8.676307e+04 -8.953684e+03
-1.492050e+09 -1.292000e+09 -1.451874e+09 -2.363579e+04 5.451687e+04 -2.483922e+04
-1.595981e+09 -1.395899e+09 -1.555726e+09 -1.985735e+04 8.909895e+04 -2.444787e+04
-1.499084e+09 -1.298974e+09 -1.459000e+09 1.753122e+04 1.482074e+05 -2.434876e+04
-1.603068e+09 -1.402914e+09 -1.562950e+09 2.434726e+04 1.534756e+05 -2.360562e+04
-1.554708e+09 -1.354562e+09 -1.514600e+09 9.137598e+03 1.448324e+05 1.303604e+04
-1.690551e+09 -1.490379e+09 -1.650510e+09 9.706046e+03 1.618268e+05 -2.911962e+04
-1.450767e+09 -1.250812e+09 -1.410617e+09 -1.662080e+04 2.301755e+05 3.804113e+04
-1.450776e+09 -1.250809e+09 -1.410627e+09 -1.767395e+04 2.048784e+05 6.800668e+04
-1.450816e+09 -1.250777e+09 -1.410848e+09 -3.449785e+04 4.021284e+05 4.646574e+04
-1.586569e+09 -1.386521e+09 -1.546381e+09 -1.254699e+04 3.543366e+05 9.908464e+04
-1.476976e+09 -1.276920e+09 -1.436826e+09 -4.079977e+03 9.830552e+04 -2.137023e+04
-1.532261e+09 -1.332181e+09 -1.492127e+09 -2.329395e+03 9.651379e+04 -1.983582e+04
-1.649829e+09 -1.449707e+09 -1.609642e+09 -4.618773e+04 1.232953e+05 -3.911709e+04
-1.583515e+09 -1.383475e+09 -1.543346e+09 -1.788672e+04 9.921823e+04 -2.057763e+04
-1.410632e+09 -1.210605e+09 -1.370483e+09 -1.453192e+03 9.437294e+04 -3.402454e+04
-1.465921e+09 -1.265877e+09 -1.425792e+09 -4.957106e+03 1.020115e+05 -3.056277e+04
-1.443673e+09 -1.243642e+09 -1.403538e+09 3.528799e+03 9.919724e+04 -2.937896e+04
-1.443683e+09 -1.243668e+09 -1.403557e+09 5.332511e+03 7.560833e+04 -3.105565e+04
-1.435933e+09 -1.235932e+09 -1.395820e+09 -1.289797e+04 7.567679e+04 1.126681e+04
-1.436683e+09 -1.236667e+09 -1.396533e+09 -1.210398e+04 7.982405e+04 5.819815e+03
-1.484294e+09 -1.284271e+09 -1.444133e+09 -2.535597e+03 7.208181e+04 -1.713336e+03
-1.436678e+09 -1.236682e+09 -1.396550e+09 -8.832168e+03 6.834904e+04 6.157537e+03
-1.436708e+09 -1.236718e+09 -1.396647e+09 -7.543652e+03 3.930469e+04 1.740772e+04
-1.540644e+09 -1.340625e+09 -1.500520e+09 -1.057696e+04 6.923750e+04 2.639527e+03
-1.588230e+09 -1.388191e+09 -1.548078e+09 -9.967983e+03 8.449871e+04 -8.807792e+03
-1.435925e+09 -1.235911e+09 -1.395799e+09 -1.370433e+04 1.353963e+05 -1.485816e+04
-1.436685e+09 -1.236643e+09 -1.396558e+09 -1.559768e+04 1.550538e+05 -2.884823e+04
-1.435938e+09 -1.235895e+09 -1.395830e+09 -1.482161e+04 1.544258e+05 2.495740e+03
-1.484275e+09 -1.284221e+09 -1.444119e+09 -1.297845e+04 1.559983e+05 -2.412924e+04
-1.588244e+09 -1.388208e+09 -1.548105e+09 -3.739872e+03 1.788024e+05 -3.447933e+04
-1.539875e+09 -1.339832e+09 -1.499722e+09 -1.955840e+04 1.523794e+05 -3.887269e+03
-1.435935e+09 -1.235877e+09 -1.395819e+09 -1.401844e+04 1.451337e+05 -7.046495e+02
-1.446718e+09 -1.246712e+09 -1.406599e+09 -8.351266e+03 5.982240e+04 1.826185e+04
-1.445593e+09 -1.245562e+09 -1.405481e+09 -6.081686e+03 4.908938e+04 2.681788e+04
-1.446719e+09 -1.246703e+09 -1.406629e+09 -1.417466e+03 5.311790e+04 1.059986e+04
-1.503945e+09 -1.303909e+09 -1.463814e+09 -4.978165e+03 4.873287e+04 2.435854e+04
-1.623310e+09 -1.423251e+09 -1.583193e+09 -1.010166e+04 6.356717e+04 2.263532e+04
-1.566101e+09 -1.366075e+09 -1.525975e+09 8.064859e+02 5.417741e+04 1.366685e+04
-1.446743e+09 -1.246736e+09 -1.406685e+09 4.646195e+03 3.229450e+04 2.073602e+04
-1.446697e+09 -1.246679e+09 -1.406555e+09 -1.429069e+04 1.139502e+05 -5.698799e+03
-1.445565e+09 -1.245552e+09 -1.405412e+09 -1.285151e+04 9.488348e+04 8.439821e+02
-1.503922e+09 -1.303889e+09 -1.463749e+09 -1.005711e+04 1.149576e+05 2.851762e+03
-1.445565e+09 -1.245547e+09 -1.405438e+09 -6.908837e+03 1.095705e+05 8.365377e+03
-1.445577e+09 -1.245527e+09 -1.405511e+09 -1.437886e+04 1.520334e+05 -1.441040e+04
-1.564926e+09 -1.364899e+09 -1.524767e+09 -2.512761e+04 1.509439e+05 -2.174341e+04
-1.623307e+09 -1.423298e+09 -1.583137e+09 -3.997064e+03 1.271076e+05 5.136311e+02
-1.551845e+09 -1.351757e+09 -1.511759e+09 2.184111e+03 2.682362e+04 2.036341e+04
-1.661546e+09 -1.461458e+09 -1.621479e+09 1.344164e+04 6.055280e+04 1.931273e+04
-1.737760e+09 -1.537669e+09 -1.697683e+09 1.814577e+04 5.088693e+04 1.549604e+04
-1.823082e+09 -1.622975e+09 -1.783021e+09 1.379923e+04 5.375594e+04 3.065871e+04
-1.501183e+09 -1.301134e+09 -1.461100e+09 -1.572331e+03 4.074576e+04 2.541286e+04
-1.487748e+09 -1.287686e+09 -1.447663e+09 -4.473985e+03 4.228846e+04 2.519257e+04
-1.557391e+09 -1.357325e+09 -1.517309e+09 8.597282e+03 3.046211e+04 3.258936e+04
-1.544602e+09 -1.344532e+09 -1.504522e+09 -3.816927e+02 3.910284e+04 1.688661e+04
-1.654302e+09 -1.454225e+09 -1.614220e+09 -3.854160e+03 5.699930e+04 2.439123e+04
-1.731176e+09 -1.531088e+09 -1.691051e+09 4.811833e+03 5.628300e+04 2.622830e+04
-1.677392e+09 -1.477326e+09 -1.637288e+09 8.783886e+03 4.802060e+04 2.484816e+04
-1.508667e+09 -1.308592e+09 -1.468609e+09 1.979536e+04 2.363587e+04 2.584811e+02
-1.628057e+09 -1.427985e+09 -1.588001e+09 1.017972e+03 3.666552e+04 1.028610e+04
-1.570833e+09 -1.370781e+09 -1.530774e+09 2.281076e+04 3.101629e+04 -8.137177e+03
-1.713364e+09 -1.513278e+09 -1.673338e+09 9.667630e+03 4.935809e+04 1.214466e+04
-1.544981e+09 -1.344888e+09 -1.504886e+09 1.657096e+04 1.782089e+04 3.902551e+04
-1.654676e+09 -1.454570e+09 -1.614592e+09 1.306125e+04 5.274870e+04 3.989098e+04
-1.731536e+09 -1.531426e+09 -1.691414e+09 2.011430e+04 4.866051e+04 3.379551e+04
-1.794715e+09 -1.594594e+09 -1.754591e+09 2.543640e+04 3.665729e+04 4.068090e+04
-1.501802e+09 -1.301685e+09 -1.461704e+09 3.502392e+02 3.694160e+04 2.901675e+04
-1.621837e+09 -1.421755e+09 -1.581708e+09 2.279509e+04 5.304142e+04 2.513882e+04
-1.565605e+09 -1.365457e+09 -1.525466e+09 2.821045e+04 2.709980e+04 2.275641e+04
-1.685001e+09 -1.484873e+09 -1.644877e+09 1.529025e+04 4.886742e+04 3.401006e+04
-1.444319e+09 -1.244274e+09 -1.404223e+09 -6.147462e+03 5.246624e+04 1.700569e+04
-1.444590e+09 -1.244522e+09 -1.404500e+09 -8.339359e+03 5.360183e+04 1.993639e+04
-1.444320e+09 -1.244255e+09 -1.404242e+09 1.790784e+03 5.796957e+04 2.772173e+04
-1.500528e+09 -1.300454e+09 -1.460429e+09 5.110612e+03 5.478184e+04 2.775701e+04
-1.620546e+09 -1.420496e+09 -1.580433e+09 1.283474e+04 6.322756e+04 2.264940e+04
-1.564348e+09 -1.364265e+09 -1.524225e+09 5.116058e+03 5.712606e+04 2.734531e+04
-1.444329e+09 -1.244243e+09 -1.404228e+09 1.412155e+04 4.726425e+04 2.008822e+04
-1.451482e+09 -1.251447e+09 -1.411416e+09 4.186776e+02 3.746237e+04 4.509310e+02
-1.451489e+09 -1.251478e+09 -1.411429e+09 2.745582e+03 4.999842e+04 -4.080727e+03
-1.451497e+09 -1.251495e+09 -1.411448e+09 4.779550e+03 1.778191e+04 -6.891249e+03
-1.593995e+09 -1.393943e+09 -1.553943e+09 -1.132106e+03 3.942915e+04 -1.910503e+03
-1.445616e+09 -1.245561e+09 -1.405426e+09 -3.792194e+04 8.803428e+04 8.665820e+04
-1.445616e+09 -1.245565e+09 -1.405393e+09 -1.982119e+04 6.744006e+04 7.996803e+04
-1.445655e+09 -1.245548e+09 -1.405535e+09 -2.557768e+04 1.414548e+05 1.175854e+05
-1.564950e+09 -1.364868e+09 -1.524621e+09 -2.149999e+04 1.031230e+05 1.237540e+05
-1.494641e+09 -1.294591e+09 -1.454528e+09 7.035465e+03 3.828731e+04 2.233488e+04
-1.494658e+09 -1.294636e+09 -1.454556e+09 3.523130e+03 1.360347e+04 1.723357e+04
-1.604339e+09 -1.404290e+09 -1.564233e+09 1.545144e+04 4.187063e+04 1.974021e+04
-1.703706e+09 -1.503637e+09 -1.663598e+09 1.386085e+04 4.389740e+04 2.480797e+04
-1.445251e+09 -1.245220e+09 -1.405173e+09 -6.287935e+03 4.452647e+04 3.100509e+04
-1.431543e+09 -1.231499e+09 -1.391454e+09 -6.754864e+03 4.494638e+04 3.266611e+04
-1.488406e+09 -1.288369e+09 -1.448312e+09 -1.220988e+03 4.315043e+04 2.267859e+04
-1.431547e+09 -1.231513e+09 -1.391457e+09 -1.036834e+04 3.505821e+04 2.497964e+04
-1.431561e+09 -1.231547e+09 -1.391486e+09 -6.396955e+03 1.771439e+04 2.976775e+04
-1.541237e+09 -1.341200e+09 -1.501151e+09 5.118934e+03 4.559270e+04 3.556679e+04
-1.598102e+09 -1.398034e+09 -1.558005e+09 -1.773942e+03 4.772168e+04 2.742041e+04
-1.477389e+09 -1.277349e+09 -1.437312e+09 3.204382e+02 3.431994e+04 2.050206e+04
-1.474881e+09 -1.274851e+09 -1.434812e+09 -2.432582e+03 1.848060e+04 1.317890e+04
-1.526973e+09 -1.326927e+09 -1.486904e+09 3.433367e+03 3.348123e+04 1.206356e+04
-1.521233e+09 -1.321188e+09 -1.481174e+09 2.132835e+03 2.486314e+04 2.776300e+04
-1.619471e+09 -1.419424e+09 -1.579378e+09 5.933079e+03 3.342926e+04 1.845078e+04
-1.694894e+09 -1.494834e+09 -1.654775e+09 8.555967e+03 3.613780e+04 2.467884e+04
-1.639284e+09 -1.439236e+09 -1.599203e+09 2.204531e+03 4.384599e+04 1.511580e+04
-1.434736e+09 -1.234710e+09 -1.394645e+09 -2.652511e+03 4.111618e+04 1.149307e+04
-1.425293e+09 -1.225281e+09 -1.385207e+09 -5.365768e+03 1.588799e+04 1.172409e+03
-1.471644e+09 -1.271613e+09 -1.431543e+09 -1.682723e+03 4.058430e+04 2.411292e+04
-1.425294e+09 -1.225273e+09 -1.385217e+09 -1.880347e+03 4.020871e+04 2.275556e+04
-1.425317e+09 -1.225284e+09 -1.385258e+09 6.936033e+03 5.876269e+04 7.566398e+03
-1.523538e+09 -1.323513e+09 -1.483405e+09 3.670042e+02 5.823372e+04 1.306355e+03
-1.569896e+09 -1.369878e+09 -1.529779e+09 8.546319e+03 4.282087e+04 1.880345e+04
-1.431042e+09 -1.231023e+09 -1.390966e+09 -3.266756e+03 3.541528e+04 2.691260e+04
-1.437972e+09 -1.237963e+09 -1.397910e+09 -8.440131e+03 2.000735e+04 1.353432e+04
-1.431051e+09 -1.231035e+09 -1.390986e+09 -6.014875e+03 1.751308e+04 1.354031e+04
-1.480637e+09 -1.280614e+09 -1.440558e+09 -3.749792e+03 1.887077e+04 1.336994e+04
-1.592944e+09 -1.392907e+09 -1.552857e+09 -2.678941e+03 2.968350e+04 1.568093e+04
-1.543353e+09 -1.343337e+09 -1.503278e+09 -1.613801e+03 3.214564e+04 1.129132e+04
-1.431048e+09 -1.231043e+09 -1.390976e+09 -7.161453e+03 1.720098e+04 8.468570e+03
-1.555217e+09 -1.355174e+09 -1.515153e+09 7.691758e+03 2.878627e+04 5.097974e+03
-1.653441e+09 -1.453400e+09 -1.613371e+09 1.398957e+04 2.085671e+04 -5.016519e+03
-1.728873e+09 -1.528816e+09 -1.688785e+09 1.547123e+04 2.287603e+04 4.987691e+03
-1.842932e+09 -1.642869e+09 -1.802846e+09 2.040902e+04 3.560937e+04 3.330688e+03
-1.593932e+09 -1.393888e+09 -1.553872e+09 6.053076e+03 9.225471e+02 1.258197e+04
-1.757554e+09 -1.557505e+09 -1.717476e+09 9.652826e+03 1.613656e+04 1.824796e+04
-1.800765e+09 -1.600722e+09 -1.760712e+09 1.244753e+04 -4.409096e+03 -5.451453e+02
-1.871589e+09 -1.671531e+09 -1.831512e+09 1.843789e+04 -3.257158e+02 8.968132e+03
-1.569767e+09 -1.369720e+09 -1.529700e+09 4.775780e+03 2.866385e+04 5.164665e+03
-1.668011e+09 -1.467953e+09 -1.627928e+09 7.875046e+03 2.133164e+04 3.431555e+03
-1.794735e+09 -1.594676e+09 -1.754658e+09 1.270798e+04 3.593544e+04 1.146806e+04
-1.846293e+09 -1.646237e+09 -1.806213e+09 2.131332e+04 3.977727e+04 8.779802e+03
-1.579381e+09 -1.379339e+09 -1.539323e+09 9.084632e+03 1.131835e+03 1.164692e+04
-1.691695e+09 -1.491645e+09 -1.651599e+09 1.154809e+04 4.274604e+03 5.883611e+03
-1.848981e+09 -1.648921e+09 -1.808916e+09 1.949697e+04 -6.527647e+03 1.453040e+04
-1.805754e+09 -1.605697e+09 -1.765662e+09 1.628221e+04 1.621644e+04 3.617718e+03
-1.489430e+09 -1.289385e+09 -1.449393e+09 -4.897416e+03 2.409236e+04 1.342579e+04
-1.587672e+09 -1.387616e+09 -1.547617e+09 -2.667162e+03 1.467254e+04 1.374383e+04
-1.682645e+09 -1.482611e+09 -1.642602e+09 1.635942e+04 2.812220e+04 8.996645e+03
-1.618516e+09 -1.418447e+09 -1.578467e+09 8.256073e+03 1.903415e+04 1.580965e+04
-1.425291e+09 -1.225273e+09 -1.385182e+09 -1.621528e+04 1.009236e+04 2.224543e+04
-1.517797e+09 -1.317769e+09 -1.477678e+09 -4.502200e+03 6.805398e+04 3.036149e+04
-1.456469e+09 -1.256452e+09 -1.416368e+09 -9.288175e+03 2.194194e+04 1.313813e+04
-1.456460e+09 -1.256432e+09 -1.416380e+09 1.203803e+03 5.471058e+04 3.987092e+04
-1.554692e+09 -1.354674e+09 -1.514568e+09 -3.291396e+03 6.269221e+04 4.052341e+04
-1.419583e+09 -1.219560e+09 -1.379527e+09 -1.042205e+04 4.746018e+03 2.508241e+04
-1.419553e+09 -1.219518e+09 -1.379439e+09 -6.700419e+03 6.362168e+04 2.948932e+04
-1.554706e+09 -1.354682e+09 -1.514609e+09 -2.873641e+03 3.651963e+04 1.559731e+04
-1.517793e+09 -1.317764e+09 -1.477672e+09 -7.366966e+03 2.605051e+04 3.553182e+04
-1.450353e+09 -1.250329e+09 -1.410304e+09 -4.549548e+03 1.076486e+04 -8.643061e+02
-1.452525e+09 -1.252497e+09 -1.412472e+09 -9.809039e+03 1.669418e+04 4.353845e+03
-1.450364e+09 -1.250334e+09 -1.410336e+09 -4.545805e+03 2.609837e+04 1.183375e+04
-1.514474e+09 -1.314447e+09 -1.474424e+09 1.887544e+03 1.959745e+04 -1.223631e+03
-1.646354e+09 -1.446346e+09 -1.606290e+09 7.165093e+03 2.159230e+04 -1.321585e+03
-1.582230e+09 -1.382192e+09 -1.542162e+09 -3.919108e+03 1.656513e+04 7.103582e+03
-1.450363e+09 -1.250320e+09 -1.410322e+09 -1.096883e+03 1.672621e+04 1.108044e+04
-1.448222e+09 -1.248210e+09 -1.408195e+09 -8.478639e+03 5.819072e+03 1.226074e+04
-1.449464e+09 -1.249447e+09 -1.409419e+09 -1.226738e+04 5.905473e+03 2.035057e+04
-1.509290e+09 -1.309276e+09 -1.469256e+09 -2.426453e+03 4.783651e+03 7.477652e+03
-1.449470e+09 -1.249455e+09 -1.409435e+09 -1.333117e+04 -8.493344e+03 9.753330e+03
-1.449473e+09 -1.249471e+09 -1.409441e+09 -1.263041e+04 -1.276004e+04 1.105922e+04
-1.572991e+09 -1.372975e+09 -1.532963e+09 -1.275178e+03 5.088281e+03 1.805409e+04
-1.632828e+09 -1.432794e+09 -1.592789e+09 2.827899e+03 6.489137e+03 9.576015e+03
-1.449465e+09 -1.249451e+09 -1.409430e+09 -5.153664e+03 9.721694e+03 -2.309797e+03
-1.449469e+09 -1.249468e+09 -1.409431e+09 -2.160201e+03 1.863178e+04 -6.525487e+03
-1.449477e+09 -1.249477e+09 -1.409452e+09 -3.937919e+03 -8.870807e+03 -1.035859e+04
-1.573005e+09 -1.372977e+09 -1.532967e+09 -4.224398e+03 1.031086e+04 -5.532203e+03
-1.499039e+09 -1.299015e+09 -1.459023e+09 2.084864e+03 1.169668e+04 2.212332e+03
-1.611360e+09 -1.411325e+09 -1.571310e+09 5.880260e+03 1.726481e+04 -7.412932e+03
-1.561779e+09 -1.361759e+09 -1.521738e+09 3.026112e+03 1.039798e+04 -5.737304e+03
-1.685321e+09 -1.485276e+09 -1.645306e+09 5.085921e+03 5.616088e+03 2.009479e+03
-1.510180e+09 -1.310158e+09 -1.470135e+09 1.462434e+03 1.230199e+03 5.048264e+03
-1.513605e+09 -1.313583e+09 -1.473549e+09 1.573021e+00 8.216618e+03 9.232073e+03
-1.574301e+09 -1.374273e+09 -1.534262e+09 8.594049e+03 -4.571882e+03 6.665318e+03
-1.573421e+09 -1.373386e+09 -1.533380e+09 6.164757e+03 -6.233522e+02 -2.983394e+03
-1.696957e+09 -1.496922e+09 -1.656917e+09 6.550124e+03 7.680467e+03 5.461881e+03
-1.767769e+09 -1.567729e+09 -1.727699e+09 1.102322e+04 9.293574e+03 7.763354e+03
-1.706168e+09 -1.506138e+09 -1.666112e+09 8.675059e+03 8.044761e+03 3.943012e+03
-1.445300e+09 -1.245291e+09 -1.405263e+09 -1.182711e+03 9.472713e+03 -8.390194e+03
-1.437703e+09 -1.237698e+09 -1.397657e+09 -2.453302e+03 3.909224e+03 -1.216323e+04
-1.494596e+09 -1.294586e+09 -1.454557e+09 3.089211e+03 9.539731e+03 -8.068571e+03
-1.437709e+09 -1.237700e+09 -1.397690e+09 7.079696e+02 1.357498e+04 -5.121457e+03
-1.437709e+09 -1.237695e+09 -1.397686e+09 2.046554e+03 9.992483e+03 -5.003709e+03
-1.544303e+09 -1.344296e+09 -1.504249e+09 -1.298236e+03 1.383734e+04 -6.979943e+03
-1.601201e+09 -1.401208e+09 -1.561147e+09 6.646221e+03 9.025328e+03 -7.128245e+03
-1.438328e+09 -1.238323e+09 -1.398305e+09 -2.895627e+03 4.353277e+03 2.536020e+03
-1.434649e+09 -1.234643e+09 -1.394629e+09 -4.249924e+03 1.246870e+03 -3.455393e+03
-1.438332e+09 -1.238327e+09 -1.398310e+09 -4.618410e+03 -4.636273e+03 -4.425360e+03
-1.484568e+09 -1.284561e+09 -1.444543e+09 3.420509e+02 -1.068463e+03 -5.540000e+03
-1.589025e+09 -1.389012e+09 -1.548995e+09 4.830315e+03 3.205794e+03 -1.105227e+03
-1.542779e+09 -1.342778e+09 -1.502760e+09 2.156306e+03 3.686435e+03 -8.893900e+02
-1.438332e+09 -1.238335e+09 -1.398307e+09 -4.817339e+03 -4.671345e+03 -6.798384e+03
-1.495229e+09 -1.295215e+09 -1.455194e+09 5.324756e+03 1.064909e+03 -1.908470e+03
-1.483949e+09 -1.283939e+09 -1.443916e+09 2.751978e+03 -5.455516e+03 -3.024421e+03
-1.541462e+09 -1.341443e+09 -1.501432e+09 8.096602e+03 -4.168849e+03 -1.034567e+04
-1.540835e+09 -1.340820e+09 -1.500812e+09 8.136651e+03 -8.748208e+03 -3.143718e+03
-1.647427e+09 -1.447407e+09 -1.607384e+09 8.910602e+03 8.439120e+03 -3.587606e+03
-1.702602e+09 -1.502582e+09 -1.662549e+09 1.488145e+04 1.924644e+03 2.078284e+03
-1.645917e+09 -1.445897e+09 -1.605882e+09 9.331797e+03 -4.223530e+02 -3.346302e+03
-1.445618e+09 -1.245610e+09 -1.405608e+09 -2.298331e+03 -7.146187e+03 -7.460497e+03
-1.451683e+09 -1.251674e+09 -1.411668e+09 -3.334187e+03 -6.671969e+03 -7.813028e+03
-1.508874e+09 -1.308872e+09 -1.468867e+09 7.359149e+02 -9.051499e+03 -1.010025e+04
-1.451685e+09 -1.251677e+09 -1.411674e+09 -3.815885e+03 -1.337682e+04 -1.268467e+04
-1.451685e+09 -1.251683e+09 -1.411675e+09 -4.206116e+03 -1.359176e+04 -1.356846e+04
-1.575669e+09 -1.375663e+09 -1.535661e+09 3.651577e+03 -4.769482e+03 -6.120121e+03
-1.632876e+09 -1.432859e+09 -1.592861e+09 4.738645e+03 -4.392131e+03 -9.345885e+03
-1.437705e+09 -1.237700e+09 -1.397669e+09 -6.999850e+03 5.594468e+03 -2.518763e+03
-1.437704e+09 -1.237694e+09 -1.397658e+09 -4.972561e+03 -2.034609e+03 -1.106049e+03
-1.437712e+09 -1.237697e+09 -1.397692e+09 -3.586183e+03 1.233216e+04 4.967774e+02
-1.544303e+09 -1.344296e+09 -1.504253e+09 -2.989805e+03 1.194297e+04 5.362261e+03
-1.547205e+09 -1.347182e+09 -1.507189e+09 1.124050e+04 -1.349147e+04 -1.108548e+04
-1.653804e+09 -1.453784e+09 -1.613783e+09 1.072918e+04 -7.872301e+03 -1.510169e+04
-1.708977e+09 -1.508954e+09 -1.668940e+09 1.673371e+04 -1.342046e+04 -1.224844e+04
-1.786747e+09 -1.586721e+09 -1.746731e+09 1.994749e+04 -1.013303e+04 -1.185730e+04
-1.451677e+09 -1.251673e+09 -1.411664e+09 -1.588013e+03 -6.067372e+03 -1.512917e+04
-1.451676e+09 -1.251680e+09 -1.411661e+09 -2.567099e+03 -2.708317e+03 -1.788316e+04
-1.451678e+09 -1.251682e+09 -1.411671e+09 -1.964051e+03 -1.324830e+04 -1.920394e+04
-1.575675e+09 -1.375663e+09 -1.535659e+09 6.614172e+02 -2.813352e+03 -1.249659e+04
-1.497904e+09 -1.297886e+09 -1.457903e+09 5.360955e+03 -7.786880e+03 -1.212338e+04
-1.602370e+09 -1.402348e+09 -1.562353e+09 9.893025e+03 -7.461370e+03 -1.265364e+04
-1.556134e+09 -1.356117e+09 -1.516121e+09 2.029552e+03 -8.410450e+03 -1.369169e+04
-1.680131e+09 -1.480101e+09 -1.640128e+09 9.900568e+03 -1.170175e+04 -8.379247e+03
-1.448129e+09 -1.248119e+09 -1.408122e+09 -3.201717e+03 -1.377545e+04 -1.623050e+04
-1.437712e+09 -1.237701e+09 -1.397699e+09 -4.538914e+03 -1.528186e+04 -1.838236e+04
-1.497416e+09 -1.297401e+09 -1.457413e+09 1.531127e+03 -9.806704e+03 -1.330180e+04
-1.437711e+09 -1.237699e+09 -1.397692e+09 -3.134364e+03 -1.400674e+04 -1.600949e+04
-1.604020e+09 -1.403998e+09 -1.564009e+09 4.737548e+03 -1.448262e+04 -1.415246e+04
-1.544315e+09 -1.344297e+09 -1.504300e+09 5.549219e+02 -1.384347e+04 -1.654314e+04
-1.437709e+09 -1.237691e+09 -1.397684e+09 -2.023189e+03 -1.980614e+04 -1.536117e+04
-1.505330e+09 -1.305310e+09 -1.465314e+09 2.405226e+03 -1.036499e+04 -1.282004e+04
-1.500979e+09 -1.300955e+09 -1.460959e+09 5.390915e+02 -1.044222e+04 -1.209344e+04
-1.568588e+09 -1.368571e+09 -1.528573e+09 5.178969e+03 -1.245688e+04 -1.514353e+04
-1.560684e+09 -1.360663e+09 -1.520669e+09 5.851762e+03 -5.611709e+03 -1.237716e+04
-1.692582e+09 -1.492565e+09 -1.652560e+09 5.617799e+03 -7.305459e+03 -8.167994e+03
-1.741987e+09 -1.541967e+09 -1.701979e+09 1.009813e+04 -6.822150e+03 -1.085217e+04
-1.667283e+09 -1.467262e+09 -1.627260e+09 6.735398e+03 -8.182509e+03 -1.782567e+04
-1.425725e+09 -1.225717e+09 -1.385714e+09 -2.286047e+03 -1.255643e+04 -7.361364e+03
-1.432674e+09 -1.232665e+09 -1.392655e+09 -3.462511e+03 -1.545112e+04 -9.089320e+03
-1.425723e+09 -1.225715e+09 -1.385707e+09 -2.275169e+03 -1.971970e+04 -1.244360e+04
-1.469972e+09 -1.269968e+09 -1.429957e+09 3.696484e+02 -1.759933e+04 -9.564635e+03
-1.562454e+09 -1.362447e+09 -1.522439e+09 1.724639e+03 -1.798890e+04 -8.069940e+03
-1.518197e+09 -1.318191e+09 -1.478184e+09 6.049925e+02 -1.527756e+04 -1.135514e+04
-1.425722e+09 -1.225716e+09 -1.385702e+09 -2.814664e+03 -1.801500e+04 -1.427120e+04
-1.435138e+09 -1.235128e+09 -1.395120e+09 -2.391348e+03 -1.728303e+04 -1.356280e+04
-1.432076e+09 -1.232069e+09 -1.392063e+09 -2.789355e+03 -2.024409e+04 -1.612591e+04
-1.478787e+09 -1.278780e+09 -1.438773e+09 9.070738e+02 -1.548539e+04 -1.351973e+04
-1.432074e+09 -1.232064e+09 -1.392059e+09 -1.641087e+03 -1.367507e+04 -1.155131e+04
-1.432074e+09 -1.232064e+09 -1.392053e+09 1.838484e+02 -1.627792e+04 -1.173881e+04
-1.539052e+09 -1.339039e+09 -1.499038e+09 4.693195e+03 -2.035418e+04 -1.487989e+04
-1.585769e+09 -1.385758e+09 -1.545759e+09 4.554592e+03 -1.740222e+04 -1.761642e+04
-1.472444e+09 -1.272426e+09 -1.432423e+09 1.378361e+03 -1.817261e+04 -1.209799e+04
-1.476332e+09 -1.276314e+09 -1.436311e+09 5.152055e+02 -1.501419e+04 -1.250963e+04
-1.516689e+09 -1.316678e+09 -1.476681e+09 6.355305e+03 -1.604877e+04 -1.411746e+04
-1.523039e+09 -1.323029e+09 -1.483031e+09 6.133182e+03 -1.837342e+04 -1.161573e+04
-1.630025e+09 -1.430014e+09 -1.590018e+09 5.949174e+03 -2.258526e+04 -1.789683e+04
-1.678864e+09 -1.478836e+09 -1.638843e+09 8.287049e+03 -1.855322e+04 -1.586200e+04
-1.609170e+09 -1.409158e+09 -1.569161e+09 6.764565e+03 -1.435221e+04 -1.050151e+04
-1.478131e+09 -1.278116e+09 -1.438122e+09 -3.057096e+01 -2.063711e+04 -1.407984e+04
-1.570613e+09 -1.370602e+09 -1.530600e+09 2.788943e+03 -2.301328e+04 -1.509862e+04
-1.526356e+09 -1.326341e+09 -1.486343e+09 1.341257e+03 -2.012536e+04 -1.573696e+04
-1.617442e+09 -1.417419e+09 -1.577438e+09 6.130914e+03 -2.516992e+04 -1.392593e+04
-1.491594e+09 -1.291584e+09 -1.451571e+09 -3.080888e+03 -1.963296e+04 -1.398133e+04
-1.497847e+09 -1.297836e+09 -1.457822e+09 -4.331754e+03 -1.997194e+04 -1.385068e+04
-1.555551e+09 -1.355544e+09 -1.515537e+09 1.438378e+03 -2.019792e+04 -1.145605e+04
-1.549563e+09 -1.349552e+09 -1.509549e+09 1.043188e+02 -1.862151e+04 -1.457548e+04
-1.640651e+09 -1.440638e+09 -1.600638e+09 4.246992e+02 -1.651562e+04 -1.205852e+04
-1.720188e+09 -1.520175e+09 -1.680162e+09 2.034692e+03 -1.622401e+04 -9.373397e+03
-1.680546e+09 -1.480539e+09 -1.640523e+09 1.872745e+03 -1.714136e+04 -1.082646e+04
-1.440143e+09 -1.240138e+09 -1.400126e+09 -6.160372e+03 -1.729628e+04 -1.244307e+04
-1.433880e+09 -1.233875e+09 -1.393860e+09 -7.365625e+03 -1.847620e+04 -1.026727e+04
-1.485598e+09 -1.285596e+09 -1.445584e+09 -4.007096e+03 -1.779911e+04 -1.087165e+04
-1.433882e+09 -1.233877e+09 -1.393867e+09 -7.347908e+03 -2.286787e+04 -1.312691e+04
-1.433882e+09 -1.233879e+09 -1.393865e+09 -7.293495e+03 -2.165628e+04 -1.400956e+04
-1.524963e+09 -1.324957e+09 -1.484951e+09 -3.056419e+03 -1.479465e+04 -9.676489e+03
-1.576686e+09 -1.376677e+09 -1.536670e+09 -1.911724e+03 -1.609542e+04 -8.760219e+03
-1.439870e+09 -1.239865e+09 -1.399849e+09 -5.738842e+03 -1.843715e+04 -1.615835e+04
-1.452385e+09 -1.252379e+09 -1.412362e+09 -6.879444e+03 -1.789308e+04 -1.566979e+04
-1.439871e+09 -1.239865e+09 -1.399851e+09 -5.782429e+03 -1.231299e+04 -1.198962e+04
-1.503827e+09 -1.303826e+09 -1.463810e+09 -2.062731e+03 -1.427109e+04 -1.483516e+04
-1.628826e+09 -1.428830e+09 -1.588803e+09 -1.224030e+03 -1.454395e+04 -1.293505e+04
-1.564867e+09 -1.364860e+09 -1.524839e+09 -6.221339e+03 -1.587715e+04 -1.190655e+04
-1.439868e+09 -1.239858e+09 -1.399841e+09 -5.840538e+03 -1.701776e+04 -1.123940e+04
-1.542098e+09 -1.342085e+09 -1.502077e+09 4.399151e+03 -2.175071e+04 -1.152731e+04
-1.634577e+09 -1.434566e+09 -1.594551e+09 5.679337e+03 -2.582989e+04 -1.229326e+04
-1.681408e+09 -1.481396e+09 -1.641400e+09 1.022727e+04 -2.424414e+04 -1.176511e+04
-1.760943e+09 -1.560932e+09 -1.720919e+09 1.096636e+04 -2.445486e+04 -1.156471e+04
-1.496024e+09 -1.296026e+09 -1.456014e+09 6.760811e+03 -1.233059e+04 -8.714311e+03
-1.496029e+09 -1.296027e+09 -1.456024e+09 8.089931e+03 -9.629334e+03 -1.258062e+04
-1.603011e+09 -1.403002e+09 -1.563008e+09 1.043959e+04 -1.745293e+04 -1.852026e+04
-1.684347e+09 -1.484355e+09 -1.644351e+09 1.399818e+04 -1.018569e+04 -1.202962e+04
-1.433882e+09 -1.233876e+09 -1.393861e+09 -6.303736e+03 -1.816285e+04 -1.466308e+04
-1.433882e+09 -1.233880e+09 -1.393857e+09 -5.981173e+03 -1.578626e+04 -1.671418e+04
-1.433883e+09 -1.233880e+09 -1.393866e+09 -5.288882e+03 -2.138758e+04 -1.699004e+04
-1.524971e+09 -1.324957e+09 -1.484951e+09 -4.329834e+03 -1.326877e+04 -1.111045e+04
-1.540289e+09 -1.340274e+09 -1.500267e+09 7.723787e+03 -8.483381e+03 -8.845453e+03
-1.647268e+09 -1.447258e+09 -1.607262e+09 1.164937e+04 -1.921987e+04 -1.712715e+04
-1.696093e+09 -1.496074e+09 -1.656081e+09 1.704893e+04 -1.317462e+04 -1.056595e+04
-1.776835e+09 -1.576816e+09 -1.736828e+09 2.001618e+04 -6.398012e+03 -8.035613e+03
-1.452382e+09 -1.252376e+09 -1.412362e+09 -4.774341e+03 -8.752137e+03 -9.556778e+03
-1.547529e+09 -1.347520e+09 -1.507516e+09 -2.947197e+03 -1.720775e+03 -5.470820e+03
-1.486493e+09 -1.286494e+09 -1.446476e+09 -4.053673e+03 -4.666911e+03 -9.390614e+03
-1.611486e+09 -1.411488e+09 -1.571474e+09 1.107772e+03 -2.404410e+03 -9.397368e+03
-1.547527e+09 -1.347518e+09 -1.507509e+09 -3.982540e+03 -4.937334e+03 -4.681706e+03
-1.486487e+09 -1.286483e+09 -1.446480e+09 1.211277e+03 -7.530783e+03 -1.117844e+04
-1.611489e+09 -1.411494e+09 -1.571483e+09 -1.061068e+02 1.749674e+03 -6.726606e+03
-1.422530e+09 -1.222522e+09 -1.382517e+09 -4.412284e+03 -7.567492e+03 -6.523389e+03
-1.422532e+09 -1.222523e+09 -1.382525e+09 -3.035339e+03 -4.546590e+02 -6.315285e+03
-1.489134e+09 -1.289125e+09 -1.449125e+09 8.705210e+02 -1.716129e+04 -1.387174e+04
-1.498982e+09 -1.298970e+09 -1.458970e+09 -7.593844e+00 -1.825213e+04 -1.545391e+04
-1.553776e+09 -1.353770e+09 -1.513773e+09 3.734169e+03 -1.759675e+04 -1.338506e+04
-1.552644e+09 -1.352637e+09 -1.512641e+09 3.049640e+03 -1.646795e+04 -1.501675e+04
-1.656717e+09 -1.456709e+09 -1.616715e+09 3.205474e+03 -1.632742e+04 -1.412261e+04
-1.732674e+09 -1.532663e+09 -1.692665e+09 4.561967e+03 -1.714148e+04 -1.466452e+04
-1.675640e+09 -1.475633e+09 -1.635634e+09 3.816847e+03 -1.789614e+04 -1.632222e+04
-1.435463e+09 -1.235459e+09 -1.395457e+09 -1.131453e+03 -1.812226e+04 -1.591342e+04
-1.453071e+09 -1.253065e+09 -1.413062e+09 -1.846162e+03 -1.862627e+04 -1.628267e+04
-1.435463e+09 -1.235458e+09 -1.395456e+09 -8.423358e+02 -1.552812e+04 -1.423395e+04
-1.500108e+09 -1.300106e+09 -1.460103e+09 7.283903e+02 -1.659461e+04 -1.537782e+04
-1.621973e+09 -1.421968e+09 -1.581965e+09 2.943868e+03 -1.734438e+04 -1.697697e+04
-1.557321e+09 -1.357318e+09 -1.517315e+09 1.705786e+03 -1.804631e+04 -1.592301e+04
-1.435462e+09 -1.235458e+09 -1.395452e+09 -5.745693e+02 -1.689450e+04 -1.359453e+04
-1.442090e+09 -1.242086e+09 -1.402084e+09 -1.505225e+03 -1.608805e+04 -1.277622e+04
-1.434332e+09 -1.234325e+09 -1.394323e+09 -2.221386e+03 -1.610979e+04 -1.251710e+04
-1.487997e+09 -1.287994e+09 -1.447992e+09 -6.579523e+02 -1.629457e+04 -1.278582e+04
-1.434332e+09 -1.234326e+09 -1.394324e+09 -2.541325e+03 -1.844971e+04 -1.405097e+04
-1.434331e+09 -1.234328e+09 -1.394323e+09 -3.039476e+03 -1.785716e+04 -1.485458e+04
-1.538400e+09 -1.338395e+09 -1.498396e+09 -2.379114e+02 -1.573236e+04 -1.234826e+04
-1.592069e+09 -1.392064e+09 -1.552065e+09 4.051180e+02 -1.617324e+04 -1.176514e+04
-1.499088e+09 -1.299075e+09 -1.459071e+09 -5.413056e+02 -1.943067e+04 -1.431060e+04
-1.475822e+09 -1.275811e+09 -1.435807e+09 -4.093320e+02 -1.814138e+04 -1.485916e+04
-1.548360e+09 -1.348351e+09 -1.508352e+09 2.935590e+03 -1.679268e+04 -1.452858e+04
-1.527710e+09 -1.327705e+09 -1.487705e+09 1.678326e+03 -1.802635e+04 -1.313460e+04
-1.625907e+09 -1.425899e+09 -1.585899e+09 1.563573e+03 -2.103548e+04 -1.639009e+04
-1.696677e+09 -1.496660e+09 -1.656661e+09 2.734354e+03 -1.904834e+04 -1.312275e+04
-1.657242e+09 -1.457234e+09 -1.617233e+09 2.819925e+03 -1.651891e+04 -1.251862e+04
-1.447189e+09 -1.247184e+09 -1.407177e+09 -4.096377e+03 -1.706883e+04 -1.226055e+04
-1.437700e+09 -1.237693e+09 -1.397688e+09 -2.725798e+03 -1.752141e+04 -1.433913e+04
-1.447189e+09 -1.247183e+09 -1.407180e+09 -3.499875e+03 -1.983775e+04 -1.452881e+04
-1.496462e+09 -1.296459e+09 -1.456455e+09 -1.641828e+03 -1.811739e+04 -1.254840e+04
-1.605344e+09 -1.405340e+09 -1.565336e+09 -4.301903e+01 -1.735897e+04 -1.079728e+04
-1.556066e+09 -1.356062e+09 -1.516057e+09 -4.221628e+02 -1.509003e+04 -1.288793e+04
-1.447188e+09 -1.247185e+09 -1.407176e+09 -3.497530e+03 -1.801284e+04 -1.613987e+04
-1.440318e+09 -1.240313e+09 -1.400304e+09 -3.834280e+03 -1.999119e+04 -1.739167e+04
-1.426544e+09 -1.226535e+09 -1.386534e+09 -2.246295e+03 -1.976940e+04 -1.637459e+04
-1.478432e+09 -1.278431e+09 -1.438424e+09 -1.165833e+03 -1.789918e+04 -1.634979e+04
-1.426545e+09 -1.226539e+09 -1.386532e+09 -3.921947e+03 -1.596690e+04 -1.360871e+04
-1.426544e+09 -1.226532e+09 -1.386526e+09 -2.878584e+03 -1.989568e+04 -1.446894e+04
-1.524738e+09 -1.324725e+09 -1.484723e+09 -1.104859e+03 -2.051835e+04 -1.596227e+04
-1.576629e+09 -1.376623e+09 -1.536618e+09 -1.093298e+01 -1.960289e+04 -1.793977e+04
-1.540467e+09 -1.340460e+09 -1.500457e+09 3.979814e+03 -1.384983e+04 -1.405449e+04
-1.638659e+09 -1.438651e+09 -1.598655e+09 6.934079e+03 -1.925416e+04 -1.984782e+04
-1.709423e+09 -1.509411e+09 -1.669416e+09 8.922613e+03 -1.680403e+04 -1.554648e+04
-1.782005e+09 -1.581995e+09 -1.741998e+09 1.101258e+04 -1.222609e+04 -1.276550e+04
-1.548256e+09 -1.348248e+09 -1.508248e+09 3.243074e+03 -1.939688e+04 -1.406431e+04
-1.657138e+09 -1.457132e+09 -1.617127e+09 3.857819e+03 -2.168440e+04 -1.456175e+04
-1.711930e+09 -1.511924e+09 -1.671931e+09 7.396704e+03 -1.804396e+04 -1.349706e+04
-1.787885e+09 -1.587876e+09 -1.747878e+09 8.177608e+03 -2.035487e+04 -1.562049e+04
-1.485234e+09 -1.285229e+09 -1.445226e+09 7.525148e+02 -1.717604e+04 -1.429691e+04
-1.485236e+09 -1.285232e+09 -1.445228e+09 -5.039388e+02 -1.879602e+04 -1.499562e+04
-1.589305e+09 -1.389300e+09 -1.549301e+09 2.011571e+03 -1.669102e+04 -1.225993e+04
-1.648103e+09 -1.448102e+09 -1.608099e+09 2.143319e+03 -1.619362e+04 -1.385641e+04
-1.488603e+09 -1.288596e+09 -1.448598e+09 -7.335323e+02 -1.960236e+04 -1.565704e+04
-1.597487e+09 -1.397479e+09 -1.557480e+09 1.287617e+03 -2.027281e+04 -1.741197e+04
-1.548207e+09 -1.348200e+09 -1.508201e+09 -4.882426e+01 -2.038996e+04 -1.712653e+04
-1.652917e+09 -1.452909e+09 -1.612913e+09 5.931035e+02 -2.107687e+04 -1.600950e+04
-1.453068e+09 -1.253061e+09 -1.413060e+09 3.308404e+02 -1.477211e+04 -1.379035e+04
-1.574933e+09 -1.374931e+09 -1.534926e+09 1.756432e+03 -1.235594e+04 -1.426527e+04
-1.510283e+09 -1.310279e+09 -1.470276e+09 3.550367e+02 -1.420920e+04 -1.339527e+04
-1.510282e+09 -1.310275e+09 -1.470278e+09 2.558526e+03 -1.114529e+04 -1.382053e+04
-1.439329e+09 -1.239321e+09 -1.399317e+09 -3.176624e+03 -2.050704e+04 -1.526576e+04
-1.439329e+09 -1.239323e+09 -1.399320e+09 -3.441993e+03 -1.892473e+04 -1.558479e+04
-1.439329e+09 -1.239324e+09 -1.399320e+09 -3.847832e+03 -2.161310e+04 -1.586731e+04
-1.544039e+09 -1.344031e+09 -1.504027e+09 -3.072211e+03 -2.059692e+04 -1.512892e+04
-1.491185e+09 -1.291181e+09 -1.451180e+09 1.997380e+03 -1.522950e+04 -1.334182e+04
-1.668863e+09 -1.468862e+09 -1.628865e+09 8.948199e+03 -1.456968e+04 -1.737906e+04
-1.551582e+09 -1.351572e+09 -1.511577e+09 3.833366e+03 -1.568356e+04 -1.606476e+04
-1.649773e+09 -1.449768e+09 -1.609772e+09 5.883186e+03 -2.019066e+04 -1.933464e+04
-1.733511e+09 -1.533512e+09 -1.693513e+09 8.411960e+03 -1.608816e+04 -1.645566e+04
-1.486936e+09 -1.286928e+09 -1.446929e+09 2.199023e+03 -1.448004e+04 -1.557577e+04
-1.585122e+09 -1.385113e+09 -1.545120e+09 7.375780e+03 -1.773239e+04 -1.827459e+04
-1.635319e+09 -1.435318e+09 -1.595318e+09 8.250126e+03 -1.566535e+04 -1.537730e+04
-1.570669e+09 -1.370667e+09 -1.530669e+09 7.762413e+03 -1.418997e+04 -1.626291e+04
-1.534512e+09 -1.334506e+09 -1.494510e+09 2.645407e+03 -1.626672e+04 -1.621609e+04
-1.643393e+09 -1.443387e+09 -1.603387e+09 2.382489e+03 -1.979020e+04 -1.614362e+04
-1.756983e+09 -1.556978e+09 -1.716985e+09 5.686277e+03 -1.798934e+04 -1.615988e+04
-1.698185e+09 -1.498175e+09 -1.658187e+09 5.586025e+03 -1.779627e+04 -1.448904e+04
-1.553145e+09 -1.353140e+09 -1.513145e+09 4.224937e+03 -1.455642e+04 -1.299782e+04
-1.675006e+09 -1.475001e+09 -1.635006e+09 5.409988e+03 -1.814124e+04 -1.882958e+04
-1.732038e+09 -1.532031e+09 -1.692036e+09 6.355958e+03 -1.727353e+04 -1.710625e+04
-1.805889e+09 -1.605884e+09 -1.765895e+09 8.788122e+03 -1.413153e+04 -1.311536e+04
-1.556733e+09 -1.356727e+09 -1.516732e+09 4.074043e+03 -1.563684e+04 -1.121037e+04
-1.678594e+09 -1.478588e+09 -1.638593e+09 5.262832e+03 -1.919400e+04 -1.701730e+04
-1.759067e+09 -1.559069e+09 -1.719079e+09 8.225097e+03 -1.535102e+04 -1.250316e+04
-1.786754e+09 -1.586753e+09 -1.746764e+09 8.233783e+03 -1.591833e+04 -1.327743e+04
-1.492712e+09 -1.292713e+09 -1.452711e+09 1.734359e+03 -1.586079e+04 -1.443165e+04
-1.492713e+09 -1.292714e+09 -1.452713e+09 2.007025e+03 -1.485732e+04 -1.478553e+04
-1.614575e+09 -1.414573e+09 -1.574574e+09 3.876749e+03 -1.759799e+04 -1.854316e+04
-1.659230e+09 -1.459235e+09 -1.619235e+09 3.877399e+03 -1.607685e+04 -1.741722e+04
-1.445676e+09 -1.245673e+09 -1.405671e+09 -3.121920e+02 -1.490420e+04 -1.391268e+04
-1.512022e+09 -1.312020e+09 -1.472021e+09 -3.395951e+02 -1.317294e+04 -1.251034e+04
-1.477575e+09 -1.277574e+09 -1.437571e+09 -1.869733e+02 -1.404932e+04 -1.404407e+04
-1.420320e+09 -1.220318e+09 -1.380319e+09 -8.877072e+01 -1.478968e+04 -1.308430e+04
-1.420321e+09 -1.220318e+09 -1.380319e+09 -3.927933e+01 -1.300969e+04 -1.290639e+04
-1.569276e+09 -1.369276e+09 -1.529274e+09 4.945286e+02 -1.396840e+04 -1.443175e+04
-1.512022e+09 -1.312020e+09 -1.472020e+09 7.846139e+01 -1.466392e+04 -1.265425e+04
-1.477574e+09 -1.277573e+09 -1.437572e+09 6.352597e+02 -1.421613e+04 -1.420829e+04
-1.569277e+09 -1.369277e+09 -1.529276e+09 1.485958e+02 -1.289503e+04 -1.317266e+04
-1.442090e+09 -1.242085e+09 -1.402087e+09 -7.569723e+02 -1.767695e+04 -1.381040e+04
-1.546162e+09 -1.346157e+09 -1.506157e+09 -1.974055e+02 -1.719746e+04 -1.362329e+04
-1.492492e+09 -1.292487e+09 -1.452488e+09 -1.002976e+03 -1.736339e+04 -1.348384e+04
-1.492493e+09 -1.292487e+09 -1.452489e+09 -1.273775e+03 -1.791718e+04 -1.362102e+04
-1.506101e+09 -1.306101e+09 -1.466102e+09 1.638438e+03 -1.513884e+04 -1.140832e+04
-1.610173e+09 -1.410173e+09 -1.570173e+09 2.123611e+03 -1.493884e+04 -1.153979e+04
-1.556506e+09 -1.356504e+09 -1.516505e+09 1.808032e+03 -1.511612e+04 -1.216683e+04
-1.684028e+09 -1.484027e+09 -1.644033e+09 3.142931e+03 -1.497796e+04 -1.133983e+04
-1.523820e+09 -1.323831e+09 -1.483832e+09 1.336555e+03 4.254595e+02 2.305219e+03
-1.634631e+09 -1.434642e+09 -1.594643e+09 1.364478e+03 4.470033e+02 2.610547e+03
-1.665190e+09 -1.465201e+09 -1.625202e+09 1.419028e+03 4.594343e+02 2.577636e+03
-1.755026e+09 -1.555037e+09 -1.715038e+09 1.472475e+03 4.434563e+02 2.417369e+03
-1.535544e+09 -1.335555e+09 -1.495556e+09 1.254417e+03 4.675829e+02 2.213844e+03
-1.646355e+09 -1.446366e+09 -1.606367e+09 1.307435e+03 4.859565e+02 2.547179e+03
-1.734187e+09 -1.534198e+09 -1.694199e+09 1.325698e+03 4.863562e+02 2.368837e+03
-1.762182e+09 -1.562193e+09 -1.722194e+09 1.278032e+03 4.468508e+02 2.319638e+03
-1.426997e+09 -1.227008e+09 -1.387009e+09 1.436489e+03 4.416665e+02 2.450227e+03
-1.498153e+09 -1.298164e+09 -1.458165e+09 1.344943e+03 5.744098e+02 2.556223e+03
-1.459560e+09 -1.259571e+09 -1.419572e+09 1.601933e+03 5.277445e+02 2.654611e+03
-1.459560e+09 -1.259571e+09 -1.419572e+09 1.630313e+03 5.214163e+02 2.645639e+03
-1.483223e+09 -1.283234e+09 -1.443235e+09 1.399381e+03 4.872731e+02 2.359262e+03
-1.554379e+09 -1.354390e+09 -1.514391e+09 1.305309e+03 5.980757e+02 2.422419e+03
-1.515785e+09 -1.315796e+09 -1.475797e+09 1.669461e+03 4.537257e+02 2.199875e+03
-1.644215e+09 -1.444226e+09 -1.604227e+09 1.534581e+03 5.377177e+02 2.435782e+03
-1.438721e+09 -1.238732e+09 -1.398733e+09 1.192018e+03 4.214962e+02 2.196797e+03
-1.522942e+09 -1.322953e+09 -1.482954e+09 1.177253e+03 3.874616e+02 2.198068e+03
-1.472624e+09 -1.272636e+09 -1.432636e+09 1.067200e+03 4.628536e+02 2.188912e+03
-1.472624e+09 -1.272636e+09 -1.432636e+09 1.071477e+03 3.999149e+02 2.185080e+03
-1.479318e+09 -1.279329e+09 -1.439330e+09 1.230440e+03 4.449522e+02 2.286388e+03
-1.644045e+09 -1.444057e+09 -1.604058e+09 1.279991e+03 3.769860e+02 2.461887e+03
-1.539928e+09 -1.339939e+09 -1.499940e+09 1.291009e+03 3.835042e+02 2.363824e+03
-1.650739e+09 -1.450751e+09 -1.610752e+09 1.185287e+03 4.379794e+02 2.564728e+03
-1.694363e+09 -1.494374e+09 -1.654375e+09 1.163588e+03 4.496466e+02 2.449115e+03
-1.489611e+09 -1.289622e+09 -1.449623e+09 1.108277e+03 4.430279e+02 2.394867e+03
-1.600422e+09 -1.400433e+09 -1.560434e+09 1.295708e+03 3.745086e+02 2.503759e+03
-1.583552e+09 -1.383563e+09 -1.543564e+09 1.235059e+03 4.165431e+02 2.306071e+03
-1.533234e+09 -1.333246e+09 -1.493246e+09 1.127942e+03 4.429109e+02 2.302861e+03
-1.435938e+09 -1.235947e+09 -1.395865e+09 -9.250093e+03 5.838432e+04 4.622528e+03
-1.539859e+09 -1.339861e+09 -1.499734e+09 -1.005835e+04 8.050221e+04 -1.292421e+03
-1.492297e+09 -1.292321e+09 -1.452200e+09 -7.936172e+03 5.382929e+04 6.008545e+03
-1.492307e+09 -1.292318e+09 -1.452255e+09 -1.485850e+02 4.005817e+04 1.067834e+04
-1.494314e+09 -1.294295e+09 -1.454177e+09 -4.594439e+03 5.855084e+04 1.742083e+04
-1.598246e+09 -1.398217e+09 -1.558067e+09 -2.978835e+03 7.595917e+04 1.570309e+04
-1.550702e+09 -1.350678e+09 -1.510608e+09 -1.352982e+03 3.774295e+04 7.111800e+03
-1.670052e+09 -1.470009e+09 -1.629880e+09 -2.227687e+03 6.469953e+04 7.734698e+03
-1.494292e+09 -1.294260e+09 -1.454128e+09 -1.071360e+04 1.361068e+05 -8.671735e+03
-1.494296e+09 -1.294232e+09 -1.454182e+09 -1.727848e+04 1.429141e+05 -8.136267e+03
-1.598231e+09 -1.398184e+09 -1.558075e+09 -1.888507e+04 1.527020e+05 -5.704373e+03
-1.670035e+09 -1.469988e+09 -1.629828e+09 -4.150172e+03 1.522188e+05 -5.398190e+03
-1.446704e+09 -1.246684e+09 -1.406574e+09 -1.478446e+04 1.365162e+05 7.178737e+03
-1.539499e+09 -1.339459e+09 -1.499347e+09 -9.713335e+03 1.654666e+05 -1.100029e+04
-1.478485e+09 -1.278458e+09 -1.438372e+09 -1.558862e+04 1.444843e+05 1.874220e+03
-1.420125e+09 -1.220089e+09 -1.380000e+09 -1.840676e+04 1.599221e+05 -4.252839e+03
-1.420118e+09 -1.220064e+09 -1.379993e+09 -2.208073e+04 1.570672e+05 -2.607620e+03
-1.597874e+09 -1.397820e+09 -1.557728e+09 -9.772589e+02 1.551367e+05 1.635426e+04
-1.539495e+09 -1.339436e+09 -1.499356e+09 -1.966257e+04 1.707817e+05 -5.955491e+03
-1.478498e+09 -1.278440e+09 -1.438418e+09 -1.206900e+04 1.378639e+05 1.632900e+04
-1.597855e+09 -1.397826e+09 -1.557703e+09 -2.281306e+03 1.546409e+05 1.585964e+03
-1.449943e+09 -1.249922e+09 -1.409778e+09 -8.144170e+03 1.087595e+05 -8.834917e+04
-1.449956e+09 -1.249941e+09 -1.409811e+09 -5.948381e+03 8.808099e+04 -7.950646e+04
-1.558462e+09 -1.358441e+09 -1.518356e+09 -3.383109e+04 9.353736e+04 -7.597803e+04
-1.496930e+09 -1.296911e+09 -1.456798e+09 -6.249586e+03 9.632081e+04 -7.623195e+04
-1.497181e+09 -1.297145e+09 -1.457003e+09 -1.710546e+04 1.031207e+05 -9.282654e+04
-1.497195e+09 -1.297165e+09 -1.457044e+09 -1.568843e+04 8.247803e+04 -8.837771e+04
-1.605239e+09 -1.405205e+09 -1.565046e+09 -2.007802e+04 9.440079e+04 -9.713000e+04
-1.666547e+09 -1.466505e+09 -1.626403e+09 -4.079274e+04 8.840199e+04 -7.975809e+04
-1.546816e+09 -1.346776e+09 -1.506626e+09 -3.273974e+04 1.192192e+05 -1.204053e+05
-1.654887e+09 -1.454842e+09 -1.614705e+09 -3.455746e+04 1.188982e+05 -1.369988e+05
-1.714239e+09 -1.514205e+09 -1.674019e+09 -3.220439e+04 1.114476e+05 -1.231232e+05
-1.795771e+09 -1.595727e+09 -1.755519e+09 -3.756808e+04 1.123158e+05 -1.119504e+05
-1.559118e+09 -1.359091e+09 -1.518955e+09 -3.525742e+04 9.946537e+04 -8.231585e+04
-1.667183e+09 -1.467151e+09 -1.627008e+09 -3.639729e+04 1.003267e+05 -9.602913e+04
-1.750748e+09 -1.550701e+09 -1.710486e+09 -4.397816e+04 1.005526e+05 -9.602396e+04
-1.797309e+09 -1.597276e+09 -1.757142e+09 -6.397207e+04 6.856527e+04 -5.844332e+04
-1.437599e+09 -1.237556e+09 -1.397291e+09 1.295172e+04 1.295144e+05 -1.622275e+05
-1.544189e+09 -1.344168e+09 -1.503841e+09 2.365214e+04 1.302928e+05 -1.615385e+05
-1.494906e+09 -1.294908e+09 -1.454635e+09 -8.045912e+03 3.195918e+05 -2.419122e+05
-1.494827e+09 -1.294778e+09 -1.454469e+09 3.506049e+04 2.115032e+05 -2.730838e+05
-1.499593e+09 -1.299564e+09 -1.459330e+09 -1.728776e+04 1.685165e+05 -1.399736e+05
-1.606179e+09 -1.406151e+09 -1.565868e+09 -8.588608e+03 1.519575e+05 -1.290333e+05
-1.556957e+09 -1.356883e+09 -1.516793e+09 -1.447870e+03 2.740439e+05 -1.121189e+05
-1.687689e+09 -1.487640e+09 -1.647334e+09 -1.698911e+04 2.339661e+05 -1.354887e+05
-1.576498e+09 -1.376398e+09 -1.536340e+09 -5.093484e+04 1.576803e+05 -6.086538e+04
-1.714876e+09 -1.514778e+09 -1.674677e+09 -5.021080e+04 1.599436e+05 -6.724945e+04
-1.789349e+09 -1.589230e+09 -1.749193e+09 -5.217633e+04 1.629597e+05 -5.507707e+04
-1.865661e+09 -1.665523e+09 -1.825485e+09 -4.838703e+04 1.842716e+05 -6.212217e+04
-1.577449e+09 -1.377330e+09 -1.537284e+09 -5.992725e+04 1.527680e+05 -4.462353e+04
-1.715826e+09 -1.515710e+09 -1.675623e+09 -5.975749e+04 1.563487e+05 -5.191956e+04
-1.800888e+09 -1.600751e+09 -1.760706e+09 -4.150978e+04 1.836778e+05 -6.454601e+04
-1.844296e+09 -1.644128e+09 -1.804062e+09 -5.886469e+04 1.569843e+05 -3.627253e+04
-1.451826e+09 -1.251841e+09 -1.411680e+09 -1.597594e+04 1.398261e+05 -3.756629e+04
-1.451853e+09 -1.251868e+09 -1.411754e+09 -1.207021e+04 9.861276e+04 -1.759873e+04
-1.581040e+09 -1.381019e+09 -1.540911e+09 -3.550867e+04 1.315709e+05 -4.517429e+04
-1.517554e+09 -1.317573e+09 -1.477398e+09 -6.890185e+03 1.227893e+05 -1.590048e+04
-1.521772e+09 -1.321739e+09 -1.481568e+09 -2.447046e+04 1.298415e+05 -4.991376e+04
-1.521798e+09 -1.321766e+09 -1.481642e+09 -2.054201e+04 8.859183e+04 -2.947909e+04
-1.727284e+09 -1.527206e+09 -1.687069e+09 -3.290264e+04 1.411028e+05 -5.407563e+04
-1.650962e+09 -1.450899e+09 -1.610737e+09 -3.201752e+04 1.374297e+05 -4.550022e+04
-1.507540e+09 -1.307509e+09 -1.467200e+09 -3.062849e+04 2.005057e+05 -7.926526e+04
-1.507569e+09 -1.307460e+09 -1.467394e+09 -4.785178e+04 3.051642e+05 -1.082980e+05
-1.645884e+09 -1.445827e+09 -1.605462e+09 -3.969017e+04 2.987057e+05 -1.166678e+05
-1.704435e+09 -1.504362e+09 -1.663947e+09 -3.356697e+04 2.837390e+05 -8.396245e+04
-1.452762e+09 -1.252751e+09 -1.412500e+09 -1.190498e+04 1.974024e+05 -5.614997e+04
-1.452776e+09 -1.252692e+09 -1.412647e+09 -3.575905e+04 3.017341e+05 -1.081756e+05
-1.566093e+09 -1.365993e+09 -1.525800e+09 1.807234e+03 2.771130e+05 -1.837949e+04
-1.501597e+09 -1.301505e+09 -1.461223e+09 -9.448202e+03 3.386544e+05 -1.627545e+05
-1.436257e+09 -1.236269e+09 -1.396269e+09 1.442907e+03 7.008942e+02 3.762707e+03
-1.554715e+09 -1.354726e+09 -1.514726e+09 1.475325e+03 7.267179e+02 3.856038e+03
-1.506862e+09 -1.306873e+09 -1.466873e+09 1.281954e+03 7.848597e+02 3.696216e+03
-1.506862e+09 -1.306873e+09 -1.466874e+09 1.367893e+03 6.778572e+02 3.765819e+03
-1.484190e+09 -1.284202e+09 -1.444202e+09 1.551203e+03 7.312845e+02 3.972836e+03
-1.602648e+09 -1.402660e+09 -1.562660e+09 1.564314e+03 7.468539e+02 4.073047e+03
-1.554795e+09 -1.354807e+09 -1.514807e+09 1.465983e+03 7.019792e+02 3.992442e+03
-1.667949e+09 -1.467961e+09 -1.627962e+09 1.759844e+03 6.809467e+02 4.353537e+03
-1.436258e+09 -1.236268e+09 -1.396269e+09 1.676917e+03 8.261008e+02 3.883574e+03
-1.436258e+09 -1.236269e+09 -1.396269e+09 1.640320e+03 9.433358e+02 3.917676e+03
-1.506863e+09 -1.306873e+09 -1.466874e+09 1.679786e+03 8.445453e+02 3.879569e+03
-1.554715e+09 -1.354726e+09 -1.514726e+09 1.674024e+03 8.907953e+02 3.884469e+03
-1.484192e+09 -1.284202e+09 -1.444203e+09 1.835332e+03 7.606446e+02 3.981244e+03
-1.683900e+09 -1.483911e+09 -1.643912e+09 2.170236e+03 8.027721e+02 4.099750e+03
-1.548076e+09 -1.348087e+09 -1.508087e+09 1.735021e+03 9.190538e+02 4.249815e+03
-1.500142e+09 -1.300153e+09 -1.460153e+09 2.025511e+03 8.745339e+02 4.107929e+03
-1.618599e+09 -1.418610e+09 -1.578611e+09 2.186067e+03 8.048937e+02 3.955039e+03
-1.613376e+09 -1.413388e+09 -1.573388e+09 1.820837e+03 9.104686e+02 4.241025e+03
-1.565443e+09 -1.365454e+09 -1.525454e+09 2.279010e+03 7.824511e+02 3.976278e+03
-1.666533e+09 -1.466544e+09 -1.626545e+09 1.659646e+03 8.544626e+02 3.928959e+03
-1.731833e+09 -1.531846e+09 -1.691846e+09 1.860535e+03 8.751617e+02 4.290865e+03
-1.442899e+09 -1.242910e+09 -1.402910e+09 1.527280e+03 9.866754e+02 6.075512e+03
-1.442899e+09 -1.242910e+09 -1.402910e+09 1.525427e+03 9.390438e+02 6.065025e+03
-1.549053e+09 -1.349065e+09 -1.509065e+09 1.363441e+03 8.804052e+02 5.922979e+03
-1.494560e+09 -1.294572e+09 -1.454572e+09 1.383383e+03 1.037643e+03 5.698309e+03
-1.488732e+09 -1.288745e+09 -1.448744e+09 1.597117e+03 1.040531e+03 6.210967e+03
-1.488732e+09 -1.288745e+09 -1.448744e+09 1.588772e+03 9.890637e+02 6.195026e+03
-1.595494e+09 -1.395506e+09 -1.555506e+09 1.827665e+03 1.038227e+03 6.869927e+03
-1.655814e+09 -1.455827e+09 -1.615827e+09 1.505997e+03 9.735448e+02 6.257263e+03
-1.488733e+09 -1.288744e+09 -1.448744e+09 1.920212e+03 1.046474e+03 6.155475e+03
-1.595494e+09 -1.395506e+09 -1.555506e+09 1.545884e+03 1.225873e+03 6.733108e+03
-1.549659e+09 -1.349671e+09 -1.509671e+09 1.981739e+03 1.089480e+03 6.279394e+03
-1.655814e+09 -1.455826e+09 -1.615827e+09 2.041216e+03 1.195919e+03 6.205881e+03
-1.434241e+09 -1.234251e+09 -1.394251e+09 2.007521e+03 1.025030e+03 6.480959e+03
-1.541002e+09 -1.341013e+09 -1.501013e+09 1.705116e+03 1.217260e+03 6.987929e+03
-1.495169e+09 -1.295179e+09 -1.455179e+09 2.239150e+03 1.030285e+03 6.769766e+03
-1.495169e+09 -1.295179e+09 -1.455179e+09 2.051301e+03 1.106333e+03 6.939450e+03
-1.501132e+09 -1.301145e+09 -1.461144e+09 1.288004e+03 1.197258e+03 9.704017e+03
-1.501132e+09 -1.301145e+09 -1.461144e+09 1.300613e+03 1.164806e+03 9.719804e+03
-1.621030e+09 -1.421043e+09 -1.581042e+09 1.706287e+03 1.161303e+03 1.063290e+04
-1.694959e+09 -1.494974e+09 -1.654973e+09 1.279754e+03 1.004245e+03 9.887164e+03
-1.449222e+09 -1.249233e+09 -1.409232e+09 1.344948e+03 1.197339e+03 9.262430e+03
-1.547398e+09 -1.347410e+09 -1.507409e+09 1.095545e+03 1.087463e+03 8.841151e+03
-1.482368e+09 -1.282380e+09 -1.442379e+09 1.123645e+03 1.100125e+03 9.105145e+03
-1.421554e+09 -1.221565e+09 -1.381565e+09 1.116500e+03 1.160538e+03 8.966892e+03
-1.421554e+09 -1.221566e+09 -1.381565e+09 1.245938e+03 9.612432e+02 9.003679e+03
-1.608211e+09 -1.408224e+09 -1.568223e+09 1.255927e+03 1.100830e+03 9.181556e+03
-1.547398e+09 -1.347409e+09 -1.507409e+09 1.147627e+03 1.235799e+03 8.871242e+03
-1.482368e+09 -1.282380e+09 -1.442379e+09 1.360628e+03 1.171773e+03 9.473267e+03
-1.608212e+09 -1.408224e+09 -1.568223e+09 1.123856e+03 9.385984e+02 8.950608e+03
-1.440320e+09 -1.240331e+09 -1.400331e+09 2.206367e+03 1.293794e+03 9.602207e+03
-1.560217e+09 -1.360229e+09 -1.520229e+09 1.487194e+03 1.557912e+03 1.085148e+04
-1.508305e+09 -1.308316e+09 -1.468315e+09 2.162128e+03 1.321565e+03 1.042605e+04
-1.508305e+09 -1.308317e+09 -1.468316e+09 2.473296e+03 1.475483e+03 1.006606e+04
-1.501133e+09 -1.301145e+09 -1.461145e+09 2.185636e+03 1.285353e+03 9.283715e+03
-1.621030e+09 -1.421043e+09 -1.581042e+09 1.413615e+03 1.555536e+03 1.048940e+04
-1.569116e+09 -1.369130e+09 -1.529129e+09 2.391990e+03 1.481161e+03 9.206918e+03
-1.694960e+09 -1.494974e+09 -1.654974e+09 2.444045e+03 1.397737e+03 9.339349e+03
-1.534862e+09 -1.334877e+09 -1.494874e+09 2.034264e+03 1.260317e+03 1.350632e+04
-1.642772e+09 -1.442788e+09 -1.602785e+09 1.939029e+03 1.985580e+03 1.336012e+04
-1.690805e+09 -1.490821e+09 -1.650818e+09 1.807950e+03 1.443406e+03 1.269150e+04
-1.774693e+09 -1.574712e+09 -1.734708e+09 2.317299e+03 1.074951e+03 1.445981e+04
-1.536811e+09 -1.336826e+09 -1.496823e+09 1.456333e+03 1.425002e+03 1.338296e+04
-1.644722e+09 -1.444737e+09 -1.604734e+09 1.563138e+03 2.010091e+03 1.318079e+04
-1.728556e+09 -1.528573e+09 -1.688571e+09 1.545189e+03 1.564478e+03 1.423280e+04
-1.758166e+09 -1.558185e+09 -1.718182e+09 1.575497e+03 1.827230e+03 1.423956e+04
-1.432156e+09 -1.232168e+09 -1.392166e+09 1.909423e+03 1.284370e+03 1.249804e+04
-1.523990e+09 -1.324003e+09 -1.484001e+09 1.425533e+03 8.555761e+02 1.192606e+04
-1.480243e+09 -1.280255e+09 -1.440253e+09 1.869724e+03 1.373224e+03 1.174017e+04
-1.480243e+09 -1.280255e+09 -1.440253e+09 2.379201e+03 1.386864e+03 1.200888e+04
-1.491060e+09 -1.291074e+09 -1.451072e+09 1.714650e+03 1.196610e+03 1.347361e+04
-1.582893e+09 -1.382909e+09 -1.542907e+09 1.142782e+03 8.115733e+02 1.309650e+04
-1.539144e+09 -1.339161e+09 -1.499158e+09 2.355280e+03 1.443992e+03 1.385731e+04
-1.666782e+09 -1.466799e+09 -1.626798e+09 2.722554e+03 1.074123e+03 1.424419e+04
-1.432211e+09 -1.232221e+09 -1.392219e+09 1.471074e+03 2.178978e+03 1.361010e+04
-1.432211e+09 -1.232221e+09 -1.392219e+09 1.071669e+03 2.357405e+03 1.377923e+04
-1.496320e+09 -1.296330e+09 -1.456329e+09 1.339452e+03 2.520766e+03 1.318951e+04
-1.540121e+09 -1.340132e+09 -1.500130e+09 1.893001e+03 2.563713e+03 1.320804e+04
-1.477906e+09 -1.277919e+09 -1.437916e+09 2.260979e+03 1.765306e+03 1.453802e+04
-1.632072e+09 -1.432087e+09 -1.592086e+09 3.968573e+03 2.127126e+03 1.493054e+04
-1.525144e+09 -1.325159e+09 -1.485156e+09 1.778280e+03 2.255981e+03 1.513559e+04
-1.479446e+09 -1.279459e+09 -1.439458e+09 2.690208e+03 2.178898e+03 1.518099e+04
-1.587357e+09 -1.387370e+09 -1.547369e+09 3.909469e+03 2.342594e+03 1.425738e+04
-1.569857e+09 -1.369874e+09 -1.529872e+09 2.002445e+03 2.191912e+03 1.470547e+04
-1.524161e+09 -1.324176e+09 -1.484175e+09 3.782246e+03 1.679030e+03 1.496100e+04
-1.633055e+09 -1.433069e+09 -1.593066e+09 1.724179e+03 2.164719e+03 1.316478e+04
-1.677767e+09 -1.477785e+09 -1.637783e+09 2.047242e+03 2.172534e+03 1.475506e+04
-1.531922e+09 -1.331937e+09 -1.491930e+09 1.917653e+03 1.307344e+03 1.848750e+04
-1.625558e+09 -1.425574e+09 -1.585569e+09 2.199779e+03 2.389181e+03 1.562573e+04
-1.676813e+09 -1.476832e+09 -1.636827e+09 1.713021e+03 1.457159e+03 1.462765e+04
-1.749832e+09 -1.549852e+09 -1.709847e+09 1.997225e+03 1.205759e+03 1.710551e+04
-1.541969e+09 -1.341984e+09 -1.501978e+09 1.887225e+03 1.329506e+03 1.837133e+04
-1.635605e+09 -1.435621e+09 -1.595616e+09 2.111718e+03 2.392806e+03 1.556560e+04
-1.710695e+09 -1.510712e+09 -1.670708e+09 1.938368e+03 1.643128e+03 1.663111e+04
-1.742527e+09 -1.542547e+09 -1.702542e+09 1.571464e+03 2.414892e+03 1.807860e+04
-1.490285e+09 -1.290297e+09 -1.450293e+09 3.392372e+03 1.846815e+03 1.671022e+04
-1.490285e+09 -1.290297e+09 -1.450292e+09 3.677842e+03 2.142723e+03 1.677018e+04
-1.656200e+09 -1.456214e+09 -1.616212e+09 4.814353e+03 2.269533e+03 1.536915e+04
-1.583178e+09 -1.383193e+09 -1.543192e+09 2.497439e+03 1.805112e+03 1.323722e+04
-1.446579e+09 -1.246587e+09 -1.406583e+09 1.311895e+03 4.540954e+02 1.695944e+04
-1.446579e+09 -1.246587e+09 -1.406582e+09 1.722428e+03 8.276642e+02 1.702583e+04
-1.446579e+09 -1.246587e+09 -1.406582e+09 1.377377e+03 8.459327e+02 1.680639e+04
-1.563311e+09 -1.363318e+09 -1.523315e+09 1.570452e+03 6.224881e+02 1.729601e+04
-1.483802e+09 -1.283817e+09 -1.443812e+09 1.124950e+03 1.445779e+03 1.824428e+04
-1.483803e+09 -1.283817e+09 -1.443812e+09 1.253506e+03 1.575054e+03 1.812140e+04
-1.577439e+09 -1.377454e+09 -1.537450e+09 2.327704e+03 2.450419e+03 1.576115e+04
-1.625795e+09 -1.425814e+09 -1.585810e+09 1.170139e+03 3.132469e+03 1.772072e+04
-1.442171e+09 -1.242179e+09 -1.402173e+09 1.519161e+03 1.590723e+03 1.775233e+04
-1.507491e+09 -1.307498e+09 -1.467494e+09 7.550232e+02 2.960877e+03 2.047226e+04
-1.471247e+09 -1.271256e+09 -1.431250e+09 9.053609e+02 1.765162e+03 1.823363e+04
-1.417491e+09 -1.217497e+09 -1.377492e+09 2.157196e+03 2.971443e+03 1.986216e+04
-1.417492e+09 -1.217499e+09 -1.377493e+09 1.306181e+03 3.135039e+03 1.990247e+04
-1.561241e+09 -1.361255e+09 -1.521248e+09 1.870124e+03 2.222962e+03 1.961651e+04
-1.507491e+09 -1.307498e+09 -1.467493e+09 2.237204e+03 2.486668e+03 2.017211e+04
-1.471245e+09 -1.271255e+09 -1.431249e+09 2.058388e+03 1.499424e+03 1.746520e+04
-1.561245e+09 -1.361256e+09 -1.521250e+09 6.703346e+02 2.568382e+03 2.043295e+04
-1.560189e+09 -1.360208e+09 -1.520198e+09 3.021267e+03 2.156470e+02 1.763218e+04
-1.686087e+09 -1.486107e+09 -1.646097e+09 2.865199e+03 -8.478038e+02 1.372415e+04
-1.744490e+09 -1.544516e+09 -1.704505e+09 -2.203509e+02 9.091276e+02 1.907845e+04
-1.787799e+09 -1.587828e+09 -1.747816e+09 2.335894e+03 1.546017e+03 1.523122e+04
-1.549763e+09 -1.349781e+09 -1.509772e+09 1.140804e+03 1.713346e+03 1.897031e+04
-1.675662e+09 -1.475681e+09 -1.635671e+09 3.288295e+02 7.420401e+02 1.514334e+04
-1.718583e+09 -1.518611e+09 -1.678598e+09 -7.765445e+02 -1.516843e+03 1.909678e+04
-1.782575e+09 -1.582609e+09 -1.742593e+09 6.168752e+02 3.068262e+03 1.969949e+04
-1.507557e+09 -1.307571e+09 -1.467565e+09 2.947815e+03 -1.320429e+02 1.913420e+04
-1.618592e+09 -1.418615e+09 -1.578608e+09 -4.623828e+01 2.315650e+03 2.125867e+04
-1.556914e+09 -1.356935e+09 -1.516929e+09 4.057153e+03 8.820749e+02 1.915785e+04
-1.661901e+09 -1.461924e+09 -1.621918e+09 4.583923e+03 2.042530e+03 1.774914e+04
-1.450087e+09 -1.250095e+09 -1.410087e+09 3.264800e+03 2.344454e+01 1.969746e+04
-1.561123e+09 -1.361140e+09 -1.521129e+09 -1.226043e+03 2.324599e+03 2.400102e+04
-1.499452e+09 -1.299459e+09 -1.459453e+09 3.155362e+03 2.491582e+03 2.467213e+04
-1.499452e+09 -1.299461e+09 -1.459454e+09 3.151749e+03 2.759739e+03 2.462176e+04
-1.441050e+09 -1.241055e+09 -1.401046e+09 1.221442e+03 -8.213795e+02 1.860102e+04
-1.441049e+09 -1.241054e+09 -1.401044e+09 8.618015e+02 -2.497339e+01 1.804328e+04
-1.566945e+09 -1.366954e+09 -1.526945e+09 6.752437e+01 -1.203469e+03 1.752256e+04
-1.514316e+09 -1.314321e+09 -1.474313e+09 6.361614e+02 -1.114930e+03 1.778041e+04
-1.488087e+09 -1.288101e+09 -1.448093e+09 7.829924e+02 -6.425726e+02 1.914331e+04
-1.488086e+09 -1.288100e+09 -1.448092e+09 4.144186e+02 1.646997e+02 1.849114e+04
-1.656907e+09 -1.456933e+09 -1.616921e+09 -2.400692e+02 -2.428045e+03 1.912311e+04
-1.613984e+09 -1.414000e+09 -1.573993e+09 -9.762236e+02 -7.340575e+02 1.578629e+04
-1.555253e+09 -1.355277e+09 -1.515258e+09 -1.271596e+03 -1.013484e+03 1.469112e+04
-1.683210e+09 -1.483235e+09 -1.643214e+09 -2.053944e+03 2.174335e+03 1.318618e+04
-1.720467e+09 -1.520497e+09 -1.680474e+09 -3.540441e+03 1.092908e+03 1.078276e+04
-1.790913e+09 -1.590949e+09 -1.750924e+09 -4.038226e+03 -2.956793e+03 1.432148e+04
-1.573337e+09 -1.373364e+09 -1.533343e+09 -7.389339e+02 -3.745203e+02 1.348943e+04
-1.701294e+09 -1.501322e+09 -1.661300e+09 -1.290901e+03 2.767908e+03 1.201776e+04
-1.763485e+09 -1.563518e+09 -1.723493e+09 -4.260935e+03 -1.518295e+03 1.425346e+04
-1.809080e+09 -1.609119e+09 -1.769088e+09 -1.330365e+03 3.100756e+02 1.516449e+04
-1.437239e+09 -1.237247e+09 -1.397230e+09 1.387587e+03 4.242280e+02 1.171607e+04
-1.531577e+09 -1.331590e+09 -1.491571e+09 -9.984284e+02 -7.023768e+02 9.395012e+03
-1.482756e+09 -1.282764e+09 -1.442745e+09 3.598614e+03 -1.758473e+03 8.586236e+03
-1.482756e+09 -1.282763e+09 -1.442744e+09 1.258868e+03 1.158758e+03 8.577172e+03
-1.498171e+09 -1.298190e+09 -1.458177e+09 -1.543439e+03 -1.247932e+03 1.386228e+04
-1.592507e+09 -1.392531e+09 -1.552517e+09 -4.732249e+03 -1.762557e+03 1.121509e+04
-1.543677e+09 -1.343702e+09 -1.503687e+09 -1.689365e+03 1.295501e+02 1.268660e+04
-1.662953e+09 -1.462984e+09 -1.622967e+09 -2.559600e+03 -3.286443e+03 1.290359e+04
-1.512389e+09 -1.312409e+09 -1.472397e+09 1.170765e+02 2.414413e+02 1.526081e+04
-1.512390e+09 -1.312409e+09 -1.472398e+09 2.440614e+03 4.643823e+02 1.403085e+04
-1.640348e+09 -1.440369e+09 -1.600353e+09 2.633440e+03 1.059862e+03 1.354779e+04
-1.689800e+09 -1.489830e+09 -1.649811e+09 1.089298e+03 2.087746e+03 1.590231e+04
-1.455320e+09 -1.255331e+09 -1.415315e+09 5.938687e+02 5.353857e+02 1.549019e+04
-1.527964e+09 -1.327978e+09 -1.487957e+09 8.764641e+02 3.231840e+03 2.109214e+04
-1.488339e+09 -1.288354e+09 -1.448334e+09 -4.063179e+02 -5.190704e+02 1.650571e+04
-1.421427e+09 -1.221437e+09 -1.381419e+09 1.132519e+03 2.192024e+03 1.835577e+04
-1.421427e+09 -1.221437e+09 -1.381419e+09 2.828095e+03 2.827723e+03 1.835097e+04
-1.594865e+09 -1.394889e+09 -1.554870e+09 2.200892e+03 8.086276e+01 1.882766e+04
-1.527962e+09 -1.327974e+09 -1.487956e+09 3.519355e+03 3.371387e+03 2.082844e+04
-1.488332e+09 -1.288349e+09 -1.448336e+09 4.118605e+03 -5.254940e+02 1.354873e+04
-1.594869e+09 -1.394892e+09 -1.554871e+09 5.202907e+02 7.006515e+02 1.983973e+04
-1.489883e+09 -1.289909e+09 -1.449884e+09 7.267436e+02 3.495362e+03 -6.942930e+03
-1.489892e+09 -1.289916e+09 -1.449890e+09 6.221266e+03 1.090551e+03 -4.010932e+03
-1.596590e+09 -1.396615e+09 -1.556587e+09 2.380327e+03 3.293203e+03 -1.050617e+04
-1.668811e+09 -1.468846e+09 -1.628826e+09 1.304714e+02 4.636299e+03 -1.204245e+04
-1.435444e+09 -1.235456e+09 -1.395436e+09 -2.884848e+03 -3.096833e+02 -8.997281e+02
-1.435453e+09 -1.235464e+09 -1.395441e+09 3.005245e+03 -2.691778e+03 1.277767e+03
-1.435450e+09 -1.235457e+09 -1.395431e+09 9.625337e+01 5.501759e+03 8.491403e+02
-1.542152e+09 -1.342161e+09 -1.502145e+09 -3.933251e+03 4.666448e+03 -4.436421e+03
-1.493720e+09 -1.293749e+09 -1.453734e+09 -2.854413e+03 2.715941e+02 4.166832e+03
-1.493719e+09 -1.293747e+09 -1.453730e+09 -2.367131e+03 -2.036449e+03 4.042376e+03
-1.573331e+09 -1.373367e+09 -1.533343e+09 9.963148e+02 3.756361e+03 -4.815271e+03
-1.658489e+09 -1.458536e+09 -1.618520e+09 -4.050714e+03 5.270524e+03 -1.016703e+03
-1.453000e+09 -1.253022e+09 -1.413004e+09 -3.175305e+03 1.360290e+03 -5.880471e+03
-1.554324e+09 -1.354348e+09 -1.514326e+09 -3.922064e+03 1.389900e+03 -6.130397e+02
-1.493037e+09 -1.293064e+09 -1.453038e+09 -4.731945e+03 -7.750283e+02 -2.805596e+03
-1.428425e+09 -1.228446e+09 -1.388425e+09 -4.183372e+03 -1.716090e+02 -1.885879e+03
-1.428425e+09 -1.228448e+09 -1.388426e+09 -2.969086e+03 1.338092e+03 -2.028093e+03
-1.618930e+09 -1.418961e+09 -1.578936e+09 -2.151980e+03 3.813632e+02 -1.200088e+03
-1.554324e+09 -1.354346e+09 -1.514325e+09 -3.271577e+03 1.941133e+02 -8.828634e+02
-1.493031e+09 -1.293059e+09 -1.453038e+09 -1.003178e+03 -1.453885e+03 -4.623024e+03
-1.618933e+09 -1.418963e+09 -1.578938e+09 -3.230930e+03 1.321447e+03 -3.014052e+02
-1.548163e+09 -1.348203e+09 -1.508180e+09 -5.403408e+03 9.439975e+02 1.313013e+03
-1.667435e+09 -1.467483e+09 -1.627473e+09 -2.085244e+03 5.087548e+03 -1.180107e+04
-1.777763e+09 -1.577823e+09 -1.737808e+09 -4.279167e+03 -2.302910e+03 -7.256768e+02
-1.692598e+09 -1.492650e+09 -1.652627e+09 -2.318027e+03 -2.631439e+03 -9.706342e+03
-1.554478e+09 -1.354518e+09 -1.514492e+09 -6.425903e+03 4.845215e+03 2.774997e+03
-1.661181e+09 -1.461222e+09 -1.621195e+09 -8.132563e+03 4.406807e+03 -5.057418e+03
-1.804852e+09 -1.604910e+09 -1.764891e+09 -8.409080e+03 1.045931e+04 -6.868559e+02
-1.733410e+09 -1.533458e+09 -1.693438e+09 -4.949299e+03 8.474546e+03 -1.271058e+04
-1.511926e+09 -1.311963e+09 -1.471921e+09 -1.878619e+04 1.842875e+04 -3.754895e+04
-1.511926e+09 -1.311965e+09 -1.471912e+09 -1.570690e+04 2.236506e+04 -3.670470e+04
-1.641887e+09 -1.441926e+09 -1.601869e+09 -1.917505e+04 2.374764e+04 -4.345627e+04
-1.715915e+09 -1.515964e+09 -1.675926e+09 -2.493951e+04 1.520277e+04 -3.573400e+04
-1.456519e+09 -1.256540e+09 -1.416491e+09 -9.496536e+03 2.313073e+04 -4.003529e+04
-1.456521e+09 -1.256542e+09 -1.416485e+09 -6.090705e+03 2.733747e+04 -4.059643e+04
-1.585956e+09 -1.385997e+09 -1.545960e+09 -2.095217e+04 2.266260e+04 -3.843142e+04
-1.517865e+09 -1.317888e+09 -1.477843e+09 -5.502424e+03 2.364800e+04 -4.108821e+04
-1.556493e+09 -1.356548e+09 -1.516478e+09 -2.497352e+04 2.024569e+04 -5.036894e+04
-1.686456e+09 -1.486512e+09 -1.646443e+09 -2.508128e+04 1.818853e+04 -5.691350e+04
-1.730538e+09 -1.530603e+09 -1.690530e+09 -3.026792e+04 1.957065e+04 -5.032721e+04
-1.789922e+09 -1.589997e+09 -1.749908e+09 -3.025590e+04 2.335056e+04 -5.517044e+04
-1.568761e+09 -1.368814e+09 -1.528754e+09 -2.432695e+04 1.069017e+04 -2.980864e+04
-1.698724e+09 -1.498774e+09 -1.658705e+09 -2.420809e+04 8.297016e+03 -3.569851e+04
-1.758557e+09 -1.558612e+09 -1.718529e+09 -3.021532e+04 1.536382e+04 -3.338060e+04
-1.831173e+09 -1.631247e+09 -1.791184e+09 -2.668410e+04 6.182723e+03 -3.012483e+04
-1.444236e+09 -1.244261e+09 -1.404182e+09 -9.960564e+03 1.181318e+04 -4.555047e+04
-1.543747e+09 -1.343784e+09 -1.503701e+09 -1.902109e+04 1.254763e+04 -3.866485e+04
-1.487886e+09 -1.287906e+09 -1.447824e+09 -8.576482e+03 2.293989e+04 -3.987003e+04
-1.487883e+09 -1.287906e+09 -1.447812e+09 -1.097261e+04 1.310987e+04 -3.995560e+04
-1.501075e+09 -1.301110e+09 -1.461057e+09 -1.662224e+04 1.786271e+04 -4.064530e+04
-1.600587e+09 -1.400638e+09 -1.560580e+09 -2.367276e+04 2.142459e+04 -3.646714e+04
-1.544708e+09 -1.344756e+09 -1.504700e+09 -1.523958e+04 1.631230e+04 -4.176417e+04
-1.659965e+09 -1.460021e+09 -1.619951e+09 -1.645719e+04 2.148373e+04 -4.483121e+04
-1.552010e+09 -1.352033e+09 -1.511924e+09 -4.280014e+04 4.333310e+04 -9.203595e+04
-1.681881e+09 -1.481898e+09 -1.641776e+09 -3.867775e+04 4.452163e+04 -9.886516e+04
-1.698378e+09 -1.498408e+09 -1.658292e+09 -5.616806e+04 4.548631e+04 -9.750439e+04
-1.771983e+09 -1.572040e+09 -1.731882e+09 -5.784180e+04 4.955967e+04 -1.026402e+05
-1.593824e+09 -1.393847e+09 -1.553748e+09 -4.835185e+04 4.154698e+04 -8.605709e+04
-1.723697e+09 -1.523713e+09 -1.683603e+09 -4.387656e+04 4.335640e+04 -9.330993e+04
-1.776011e+09 -1.576040e+09 -1.735893e+09 -5.244357e+04 4.633819e+04 -9.496734e+04
-1.862618e+09 -1.662656e+09 -1.822535e+09 -5.569725e+04 4.194131e+04 -9.688017e+04
-1.446414e+09 -1.246410e+09 -1.406336e+09 -2.234554e+04 4.888336e+04 -7.974141e+04
-1.446420e+09 -1.246404e+09 -1.406334e+09 -1.708722e+04 5.651871e+04 -8.252806e+04
-1.528490e+09 -1.328482e+09 -1.488433e+09 -2.937058e+04 4.309269e+04 -6.407783e+04
-1.470483e+09 -1.270476e+09 -1.430407e+09 -1.036558e+04 5.358122e+04 -7.119814e+04
-1.490934e+09 -1.290934e+09 -1.450870e+09 -3.601964e+04 3.880562e+04 -8.094287e+04
-1.490936e+09 -1.290927e+09 -1.450865e+09 -3.047065e+04 4.663576e+04 -8.187465e+04
-1.603536e+09 -1.403527e+09 -1.563484e+09 -3.544258e+04 4.221535e+04 -9.034302e+04
-1.641102e+09 -1.441095e+09 -1.601067e+09 -3.682309e+04 2.900328e+04 -7.522721e+04
-1.580574e+09 -1.380592e+09 -1.540493e+09 -4.234344e+04 4.390878e+04 -8.776082e+04
-1.693178e+09 -1.493196e+09 -1.653114e+09 -4.462687e+04 3.815662e+04 -9.340865e+04
-1.778509e+09 -1.578528e+09 -1.738420e+09 -4.115843e+04 3.582874e+04 -9.022167e+04
-1.859309e+09 -1.659331e+09 -1.819224e+09 -4.850068e+04 4.928868e+04 -9.607930e+04
-1.575044e+09 -1.375065e+09 -1.534944e+09 -2.813463e+04 3.859347e+04 -7.431579e+04
-1.687647e+09 -1.487671e+09 -1.647569e+09 -3.034085e+04 3.067491e+04 -7.877803e+04
-1.787485e+09 -1.587511e+09 -1.747397e+09 -4.647992e+04 5.040599e+04 -9.447333e+04
-1.785486e+09 -1.585513e+09 -1.745392e+09 -3.597735e+04 3.616080e+04 -8.100035e+04
-1.430642e+09 -1.230663e+09 -1.390535e+09 -2.521509e+04 4.305991e+04 -8.393382e+04
-1.510738e+09 -1.310767e+09 -1.470630e+09 -3.404934e+04 3.573832e+04 -7.527254e+04
-1.468457e+09 -1.268488e+09 -1.428375e+09 -3.429316e+04 8.610335e+03 -6.380829e+04
-1.468463e+09 -1.268488e+09 -1.428404e+09 -3.369443e+04 6.091955e+04 -5.840906e+04
-1.488424e+09 -1.288445e+09 -1.448306e+09 -3.399310e+04 5.491718e+04 -8.878581e+04
-1.568516e+09 -1.368547e+09 -1.528405e+09 -4.342816e+04 4.761862e+04 -8.114610e+04
-1.526229e+09 -1.326257e+09 -1.486135e+09 -4.347244e+04 7.380130e+04 -7.614918e+04
-1.642105e+09 -1.442160e+09 -1.601964e+09 -4.303202e+04 7.482510e+04 -9.241705e+04
-1.533332e+09 -1.333278e+09 -1.493266e+09 8.578555e+03 2.703674e+04 3.281322e+04
-1.645640e+09 -1.445582e+09 -1.605565e+09 1.074876e+04 4.818093e+04 3.275782e+04
-1.701241e+09 -1.501172e+09 -1.661137e+09 1.633603e+04 3.801198e+04 3.167328e+04
-1.774908e+09 -1.574827e+09 -1.734804e+09 1.895624e+04 2.616170e+04 3.565859e+04
-1.543833e+09 -1.343776e+09 -1.503757e+09 3.900991e+03 3.764740e+04 1.212769e+04
-1.656144e+09 -1.456084e+09 -1.616065e+09 7.838990e+03 5.762908e+04 1.204810e+04
-1.733503e+09 -1.533438e+09 -1.693423e+09 1.630619e+04 4.401389e+04 9.504911e+03
-1.787286e+09 -1.587197e+09 -1.747192e+09 1.349335e+04 5.268003e+04 1.602315e+04
-1.434742e+09 -1.234700e+09 -1.394677e+09 3.078420e+03 5.381106e+04 2.729554e+04
-1.532990e+09 -1.332959e+09 -1.492885e+09 1.598285e+04 4.588986e+04 2.635692e+04
-1.486634e+09 -1.286585e+09 -1.446524e+09 1.043920e+04 6.876320e+04 1.669036e+04
-1.486620e+09 -1.286546e+09 -1.446514e+09 1.947114e+04 6.154143e+04 1.272764e+04
-1.490668e+09 -1.290619e+09 -1.450568e+09 4.717938e+03 5.273095e+04 2.025051e+04
-1.588922e+09 -1.388881e+09 -1.548784e+09 1.869016e+04 4.215368e+04 2.426939e+04
-1.542570e+09 -1.342487e+09 -1.502470e+09 3.040047e+04 4.762334e+04 2.596558e+04
-1.662589e+09 -1.462513e+09 -1.622464e+09 2.015526e+04 6.122703e+04 3.313275e+04
-1.445251e+09 -1.245230e+09 -1.405175e+09 -7.669343e+03 2.477411e+04 1.590465e+04
-1.445259e+09 -1.245255e+09 -1.405203e+09 -8.746076e+03 5.956011e+03 2.026178e+04
-1.554972e+09 -1.354937e+09 -1.514883e+09 -1.047017e+04 1.941182e+04 1.676901e+04
-1.498108e+09 -1.298096e+09 -1.458030e+09 -7.083556e+03 2.069623e+04 1.892023e+04
-1.487901e+09 -1.287875e+09 -1.447808e+09 4.462893e+03 3.155142e+04 2.198069e+04
-1.487916e+09 -1.287904e+09 -1.447847e+09 9.024628e+02 1.158123e+04 1.971638e+04
-1.600219e+09 -1.400193e+09 -1.560138e+09 3.097853e+03 3.153475e+04 2.079781e+04
-1.667287e+09 -1.467244e+09 -1.627177e+09 7.763252e+03 3.874480e+04 2.125563e+04
-1.445299e+09 -1.245284e+09 -1.405293e+09 6.087680e+03 1.915940e+04 -1.339280e+03
-1.551908e+09 -1.351914e+09 -1.511887e+09 1.327404e+04 2.156333e+04 1.533027e+02
-1.495007e+09 -1.294990e+09 -1.454986e+09 8.222954e+03 2.290994e+04 1.729628e+02
-1.495012e+09 -1.294983e+09 -1.455017e+09 1.057904e+04 3.652668e+04 1.064485e+03
-1.507238e+09 -1.307221e+09 -1.467195e+09 1.336101e+04 1.134993e+04 -1.409006e+04
-1.613843e+09 -1.413841e+09 -1.573782e+09 2.004514e+04 5.267459e+03 -7.884917e+03
-1.556951e+09 -1.356920e+09 -1.516921e+09 2.368540e+04 1.754621e+04 -7.500523e+03
-1.688821e+09 -1.488799e+09 -1.648768e+09 2.073784e+04 2.136771e+04 -8.659344e+03
-1.498146e+09 -1.298139e+09 -1.458115e+09 3.922348e+03 1.180603e+03 -9.184586e+02
-1.498153e+09 -1.298155e+09 -1.458131e+09 1.771008e+03 -8.740360e+03 -1.590923e+03
-1.602605e+09 -1.402596e+09 -1.562581e+09 5.234697e+03 3.017468e+03 4.636005e+03
-1.676229e+09 -1.476216e+09 -1.636192e+09 8.598864e+03 6.503220e+03 3.291756e+03
-1.448224e+09 -1.248216e+09 -1.408195e+09 -1.014742e+04 -9.887421e+03 7.748465e+01
-1.448226e+09 -1.248230e+09 -1.408204e+09 -1.085986e+04 -1.887321e+04 2.698209e+03
-1.571781e+09 -1.371765e+09 -1.531739e+09 -8.073736e+03 -1.282896e+04 -9.448778e+02
-1.511947e+09 -1.311944e+09 -1.471917e+09 -1.275244e+04 -1.313050e+04 4.489385e+03
-1.557171e+09 -1.357149e+09 -1.517146e+09 1.698619e+04 -1.024858e+04 -8.395912e+02
-1.661631e+09 -1.461605e+09 -1.621613e+09 1.801903e+04 1.930578e+03 6.816141e+03
-1.718316e+09 -1.518292e+09 -1.678284e+09 2.137948e+04 2.931505e+03 5.143512e+03
-1.793289e+09 -1.593261e+09 -1.753252e+09 2.554904e+04 -8.898030e+03 -1.209676e+03
-1.560096e+09 -1.360063e+09 -1.520063e+09 1.110576e+04 -4.559900e+03 -9.648521e+03
-1.664556e+09 -1.464523e+09 -1.624536e+09 1.303269e+04 5.991698e+03 -3.197110e+03
-1.746493e+09 -1.546464e+09 -1.706462e+09 1.760723e+04 -2.882489e+03 -1.591896e+04
-1.808098e+09 -1.608056e+09 -1.768060e+09 1.994432e+04 -2.371451e+03 -7.353661e+03
-1.445618e+09 -1.245608e+09 -1.405598e+09 -3.585267e+03 -1.663383e+04 -1.392923e+04
-1.445618e+09 -1.245612e+09 -1.405604e+09 -4.485166e+03 -2.250489e+04 -1.188819e+04
-1.569620e+09 -1.369610e+09 -1.529600e+09 -3.363512e+03 -2.112995e+04 -1.253384e+04
-1.512421e+09 -1.312415e+09 -1.472408e+09 -4.360302e+03 -1.794711e+04 -1.601988e+04
-1.482914e+09 -1.282910e+09 -1.442899e+09 3.093299e+02 -1.462851e+04 -1.248261e+04
-1.482916e+09 -1.282914e+09 -1.442906e+09 -7.535020e+02 -2.044724e+04 -1.190396e+04
-1.575393e+09 -1.375387e+09 -1.535384e+09 2.048219e+03 -1.548728e+04 -7.413945e+03
-1.662089e+09 -1.462084e+09 -1.622077e+09 2.902802e+03 -1.531205e+04 -8.640160e+03
-1.448128e+09 -1.248118e+09 -1.408118e+09 -1.158676e+03 -1.306460e+04 -1.300921e+04
-1.448129e+09 -1.248119e+09 -1.408114e+09 6.606448e+02 -1.548437e+04 -1.259235e+04
-1.495021e+09 -1.295004e+09 -1.455006e+09 1.834178e+03 -1.250992e+04 -1.630502e+04
-1.554727e+09 -1.354708e+09 -1.514717e+09 5.829699e+03 -1.359430e+04 -1.395124e+04
-1.494841e+09 -1.294830e+09 -1.454839e+09 2.966809e+03 -1.297436e+04 -1.168650e+04
-1.601824e+09 -1.401814e+09 -1.561815e+09 4.076027e+03 -1.330242e+04 -1.007148e+04
-1.555107e+09 -1.355096e+09 -1.515098e+09 5.213184e+03 -1.365515e+04 -1.042890e+04
-1.661710e+09 -1.461692e+09 -1.621708e+09 7.346188e+03 -1.110693e+04 -1.211292e+04
-1.552043e+09 -1.352026e+09 -1.512031e+09 6.784744e+03 -8.642276e+03 -1.303858e+04
-1.659024e+09 -1.459006e+09 -1.619002e+09 7.076874e+03 -6.758217e+03 -1.249497e+04
-1.785714e+09 -1.585690e+09 -1.745701e+09 1.147497e+04 -5.434611e+03 -1.394977e+04
-1.736309e+09 -1.536288e+09 -1.696282e+09 6.703932e+03 -5.991797e+03 -1.003384e+04
-1.529637e+09 -1.329620e+09 -1.489610e+09 3.514964e+03 -1.959632e+04 -1.575303e+04
-1.622116e+09 -1.422100e+09 -1.582103e+09 6.313728e+03 -1.414797e+04 -1.008083e+04
-1.691793e+09 -1.491773e+09 -1.651780e+09 1.113291e+04 -1.955943e+04 -1.819278e+04
-1.769078e+09 -1.569054e+09 -1.729060e+09 1.119214e+04 -1.864687e+04 -1.543551e+04
-1.550354e+09 -1.350348e+09 -1.510346e+09 1.668890e+03 -1.699556e+04 -1.522622e+04
-1.675348e+09 -1.475343e+09 -1.635333e+09 2.038148e+03 -1.996387e+04 -1.958867e+04
-1.714990e+09 -1.514980e+09 -1.674977e+09 3.171615e+03 -2.052771e+04 -1.676761e+04
-1.772151e+09 -1.572140e+09 -1.732147e+09 5.894884e+03 -1.838928e+04 -1.383868e+04
-1.550533e+09 -1.350522e+09 -1.510521e+09 1.670916e+03 -1.955929e+04 -1.219663e+04
-1.675529e+09 -1.475517e+09 -1.635509e+09 2.004716e+03 -2.261486e+04 -1.588845e+04
-1.732955e+09 -1.532952e+09 -1.692955e+09 5.788964e+03 -1.858849e+04 -1.498736e+04
-1.772390e+09 -1.572379e+09 -1.732383e+09 5.660999e+03 -2.101273e+04 -1.523314e+04
-1.440144e+09 -1.240139e+09 -1.400133e+09 -5.245512e+03 -2.191526e+04 -1.545302e+04
-1.531232e+09 -1.331224e+09 -1.491219e+09 -3.973286e+03 -2.081739e+04 -1.446235e+04
-1.479510e+09 -1.279505e+09 -1.439499e+09 -5.682538e+03 -2.084481e+04 -1.394704e+04
-1.479511e+09 -1.279507e+09 -1.439500e+09 -6.078471e+03 -2.211576e+04 -1.419392e+04
-1.498902e+09 -1.298903e+09 -1.458895e+09 -1.503511e+03 -1.767831e+04 -1.220663e+04
-1.589990e+09 -1.389987e+09 -1.549981e+09 -2.547777e+02 -1.648566e+04 -1.129803e+04
-1.538273e+09 -1.338272e+09 -1.498265e+09 -2.854348e+03 -1.837281e+04 -1.282148e+04
-1.647154e+09 -1.447151e+09 -1.607150e+09 -1.830496e+02 -1.641337e+04 -1.021637e+04
-1.491763e+09 -1.291761e+09 -1.451747e+09 -2.579830e+03 -1.595494e+04 -1.669619e+04
-1.491764e+09 -1.291758e+09 -1.451754e+09 -2.603802e+03 -1.451230e+04 -1.790561e+04
-1.616760e+09 -1.416754e+09 -1.576740e+09 -1.991920e+03 -1.626308e+04 -1.876475e+04
-1.663505e+09 -1.463503e+09 -1.623490e+09 -1.193102e+03 -1.404054e+04 -1.923710e+04
-1.440319e+09 -1.240314e+09 -1.400303e+09 -4.870986e+03 -1.476607e+04 -1.388936e+04
-1.515673e+09 -1.315661e+09 -1.475659e+09 -5.137333e+03 -1.180603e+04 -1.120365e+04
-1.469369e+09 -1.269363e+09 -1.429354e+09 -4.523071e+03 -1.394255e+04 -1.471188e+04
-1.417476e+09 -1.217465e+09 -1.377464e+09 -3.304611e+03 -1.511712e+04 -1.177495e+04
-1.417479e+09 -1.217467e+09 -1.377468e+09 -5.474107e+03 -1.023989e+04 -1.063530e+04
-1.567562e+09 -1.367557e+09 -1.527550e+09 -2.691379e+03 -1.320611e+04 -1.487719e+04
-1.515672e+09 -1.315660e+09 -1.475656e+09 -4.197417e+03 -1.439665e+04 -1.177741e+04
-1.469370e+09 -1.269361e+09 -1.429361e+09 -3.517411e+03 -1.402422e+04 -1.337581e+04
-1.567566e+09 -1.367560e+09 -1.527556e+09 -3.948846e+03 -1.098830e+04 -1.187367e+04
