# vtk DataFile Version 2.0
Simplicial Mesh Example
ASCII
DATASET UNSTRUCTURED_GRID
POINTS 9288 double
3.000000e+05 -9.891990e+04 0.000000e+00
3.328749e+05 -8.356390e+04 0.000000e+00
3.236712e+05 -1.028000e+05 -2.481669e+04
3.234412e+05 -7.797130e+04 -2.292780e+04
3.000000e+05 -8.047108e+04 -2.500930e+04
3.330442e+05 -8.129153e+04 -5.000000e+04
3.500484e+05 -6.067306e+04 -2.480784e+04
3.216408e+05 -5.436978e+04 -2.411338e+04
3.000000e+05 -6.175270e+04 -5.000000e+04
3.000000e+05 -9.578803e+04 -5.000000e+04
3.500876e+05 -9.335705e+04 -2.490082e+04
-2.434777e+05 4.000000e+05 -2.599219e+04
-2.260870e+05 4.000000e+05 0.000000e+00
-2.608696e+05 4.000000e+05 0.000000e+00
-2.490625e+05 3.760838e+05 -2.473779e+04
-2.608696e+05 4.000000e+05 -5.000000e+04
-2.774387e+05 3.778182e+05 -2.091093e+04
-2.260870e+05 4.000000e+05 -5.000000e+04
-2.212397e+05 3.763711e+05 -2.515780e+04
-2.403655e+05 3.668276e+05 -5.000000e+04
-2.291712e+05 3.501689e+05 -2.503383e+04
3.000000e+05 -1.333400e+04 -2.594210e+04
3.000000e+05 1.620150e+03 0.000000e+00
3.223155e+05 -2.465755e+04 -2.313145e+04
3.208476e+05 4.362999e+03 -2.503082e+04
3.328345e+05 -1.263243e+04 -5.000000e+04
3.000000e+05 6.317960e+03 -5.000000e+04
3.329349e+05 -1.580352e+04 0.000000e+00
3.461572e+05 8.854694e+03 -2.503927e+04
3.333333e+04 -3.000000e+05 0.000000e+00
4.999999e+04 -3.000000e+05 -2.423892e+04
5.063514e+04 -3.328415e+05 0.000000e+00
3.468405e+04 -3.243713e+05 -2.478056e+04
-4.000000e+05 5.217391e+04 -5.000000e+04
-3.761490e+05 4.671498e+04 -2.533271e+04
-3.670913e+05 6.486035e+04 -5.000000e+04
-3.763451e+05 7.152968e+04 -2.659205e+04
-3.494435e+05 5.906246e+04 -2.495554e+04
-4.000000e+05 5.217391e+04 0.000000e+00
-3.672143e+05 6.907536e+04 0.000000e+00
-4.000000e+05 6.956522e+04 -2.479812e+04
-4.000000e+05 8.695652e+04 0.000000e+00
-3.773092e+05 9.370598e+04 -2.310057e+04
-1.029831e+05 3.668976e+05 -5.000000e+04
-1.285999e+05 3.481523e+05 -2.500799e+04
-9.430320e+04 3.496698e+05 -2.496278e+04
-1.196698e+05 3.754179e+05 -2.520742e+04
-4.000000e+05 1.043478e+05 -2.585127e+04
-4.000000e+05 1.217391e+05 0.000000e+00
-3.670445e+05 1.033589e+05 0.000000e+00
-3.784472e+05 1.216223e+05 -2.525066e+04
-3.671504e+05 9.984722e+04 -5.000000e+04
-4.000000e+05 1.217391e+05 -5.000000e+04
-3.518150e+05 1.239039e+05 -2.498195e+04
-1.854909e+05 3.326000e+05 -5.000000e+04
-1.715782e+05 3.667876e+05 -5.000000e+04
-2.059594e+05 3.668651e+05 -5.000000e+04
-1.949159e+05 3.518119e+05 -2.501748e+04
-3.685344e+05 -4.001205e+04 -5.000000e+04
-3.777980e+05 -4.402723e+04 -2.479253e+04
-3.513514e+05 -1.505841e+04 -2.514033e+04
-3.785245e+05 -1.648428e+04 -2.451245e+04
-4.000000e+05 -1.739130e+04 -5.000000e+04
-4.000000e+05 -3.478260e+04 -2.395986e+04
-3.670480e+05 -3.383533e+04 0.000000e+00
3.000000e+05 -1.143902e+05 -2.548291e+04
-4.000000e+05 -1.739130e+04 0.000000e+00
3.000000e+05 2.345935e+05 0.000000e+00
3.000000e+05 2.185827e+05 -2.423034e+04
3.237695e+05 2.403593e+05 -2.538032e+04
3.234880e+05 2.159433e+05 -2.715449e+04
3.328230e+05 2.204181e+05 0.000000e+00
3.000000e+05 2.018902e+05 0.000000e+00
3.222234e+05 1.912696e+05 -2.760593e+04
3.000000e+05 2.033094e+05 -5.000000e+04
3.329554e+05 1.883818e+05 -5.000000e+04
3.330197e+05 2.213769e+05 -5.000000e+04
3.000000e+05 2.355396e+05 -5.000000e+04
5.217391e+04 -4.000000e+05 -5.000000e+04
4.822279e+04 -3.761835e+05 -2.489046e+04
6.956522e+04 -4.000000e+05 -2.442176e+04
7.467376e+04 -3.751436e+05 -2.486351e+04
6.867436e+04 -3.670376e+05 -5.000000e+04
-3.680676e+05 -3.102454e+05 -5.000000e+04
-4.000000e+05 -2.956522e+05 -5.000000e+04
-4.000000e+05 -3.129450e+05 -2.471081e+04
-3.754651e+05 -2.988011e+05 -2.507448e+04
8.695652e+04 -4.000000e+05 -5.000000e+04
9.729544e+04 -3.774926e+05 -2.509494e+04
5.217391e+04 -4.000000e+05 0.000000e+00
6.874576e+04 -3.672032e+05 0.000000e+00
8.695652e+04 -4.000000e+05 0.000000e+00
5.891567e+04 -3.495321e+05 -2.495272e+04
3.672741e+05 -3.117788e+05 -5.000000e+04
4.000000e+05 -3.304348e+05 -5.000000e+04
4.000000e+05 -3.129826e+05 -2.495879e+04
3.738516e+05 -3.384516e+05 -2.239978e+04
-2.404610e+05 3.670426e+05 0.000000e+00
-1.333333e+05 3.000000e+05 0.000000e+00
-1.499994e+05 3.000000e+05 -2.403026e+04
-1.666667e+05 3.000000e+05 0.000000e+00
-1.519264e+05 3.329197e+05 0.000000e+00
-2.165723e+05 3.000000e+05 -2.560660e+04
-2.333333e+05 3.000000e+05 0.000000e+00
-2.000000e+05 3.000000e+05 0.000000e+00
-2.194203e+05 3.328736e+05 0.000000e+00
-4.000000e+05 -2.956522e+05 0.000000e+00
-3.670276e+05 -3.094409e+05 0.000000e+00
-1.517754e+05 3.326262e+05 -5.000000e+04
-1.180619e+05 3.326449e+05 -5.000000e+04
-1.340593e+05 3.221917e+05 -2.469176e+04
3.509225e+05 -3.669935e+05 0.000000e+00
3.319809e+05 -3.696896e+05 -2.602382e+04
3.448278e+05 -3.336564e+05 -2.377938e+04
4.000000e+05 -3.652174e+05 0.000000e+00
3.682669e+05 -3.723090e+05 -1.961320e+04
3.739662e+05 -2.951367e+05 -2.511275e+04
3.510512e+05 -3.693023e+05 -5.000000e+04
4.000000e+05 -3.470156e+05 -2.573153e+04
3.700520e+05 -3.432737e+05 -5.000000e+04
-3.000000e+05 1.341874e+05 0.000000e+00
-3.240811e+05 1.346462e+05 -2.508813e+04
-3.000000e+05 1.119133e+05 -2.512501e+04
-3.236189e+05 1.094018e+05 -2.287729e+04
-2.752133e+05 -3.666945e+05 0.000000e+00
-2.782548e+05 -4.000000e+05 -2.529878e+04
-2.956522e+05 -4.000000e+05 0.000000e+00
-2.961803e+05 -3.756864e+05 -2.338151e+04
-3.330014e+05 1.110677e+05 -5.000000e+04
-3.499452e+05 9.076670e+04 -2.474735e+04
-3.220639e+05 8.379236e+04 -2.241387e+04
3.328626e+05 1.553867e+05 -5.000000e+04
3.272780e+05 1.280625e+05 -1.788009e+04
3.492109e+05 1.657230e+05 -2.503498e+04
3.244617e+05 1.678413e+05 -2.496162e+04
-3.000000e+05 8.882203e+04 -5.000000e+04
-3.000000e+05 1.240184e+05 -5.000000e+04
3.327422e+05 1.535051e+05 0.000000e+00
3.670646e+05 1.380831e+05 0.000000e+00
3.327972e+05 1.197111e+05 0.000000e+00
3.516785e+05 1.309250e+05 -2.350011e+04
-3.328711e+05 1.188120e+05 0.000000e+00
-2.774301e+05 -3.000000e+05 -2.400592e+04
-2.666667e+05 -3.000000e+05 0.000000e+00
-3.000000e+05 -3.000000e+05 0.000000e+00
-2.887527e+05 -3.313076e+05 0.000000e+00
1.000000e+05 3.000000e+05 -5.000000e+04
1.166667e+05 3.000000e+05 -2.575187e+04
1.180714e+05 3.327255e+05 -5.000000e+04
9.951220e+04 3.220112e+05 -2.500087e+04
1.314601e+05 3.241679e+05 -2.354016e+04
9.364581e+04 3.501202e+05 -2.499158e+04
1.180711e+05 3.327220e+05 0.000000e+00
1.000000e+05 3.000000e+05 0.000000e+00
8.333333e+04 3.000000e+05 -2.488230e+04
6.666667e+04 3.000000e+05 0.000000e+00
8.437333e+04 3.328426e+05 0.000000e+00
-2.193729e+05 -3.327614e+05 0.000000e+00
-1.984489e+05 -3.487084e+05 -2.498389e+04
-2.255637e+05 -3.220916e+05 -2.480774e+04
-1.997150e+05 -3.216678e+05 -2.494973e+04
-2.166083e+05 -3.000000e+05 -2.432669e+04
-2.000000e+05 -3.000000e+05 0.000000e+00
1.181012e+05 -3.327393e+05 -5.000000e+04
1.181198e+05 -3.328215e+05 0.000000e+00
1.267692e+05 -3.500325e+05 -2.501203e+04
1.378469e+05 -3.238640e+05 -2.479444e+04
-2.194361e+05 -3.328434e+05 -5.000000e+04
3.000000e+05 -6.540655e+04 0.000000e+00
3.000000e+05 -4.704409e+04 -2.587389e+04
-2.000000e+05 -3.000000e+05 -5.000000e+04
-1.181761e+05 -3.329602e+05 -5.000000e+04
-1.256518e+05 -3.487565e+05 -2.501145e+04
-1.021642e+05 -3.239975e+05 -2.515764e+04
-1.357323e+05 -3.240118e+05 -2.507957e+04
8.695652e+04 4.000000e+05 -5.000000e+04
6.956522e+04 4.000000e+05 -2.479812e+04
6.873608e+04 3.672727e+05 -5.000000e+04
8.852908e+04 3.783599e+05 -2.511466e+04
-3.000000e+05 -3.000000e+05 -5.000000e+04
-3.334151e+05 -3.298278e+05 -5.000000e+04
-2.898053e+05 -3.326046e+05 -5.000000e+04
-3.144439e+05 -3.130012e+05 -2.491379e+04
6.182965e+04 3.779997e+05 -2.496700e+04
4.000000e+05 1.913043e+05 0.000000e+00
3.671396e+05 2.066670e+05 0.000000e+00
4.000000e+05 2.086957e+05 -2.620830e+04
3.759771e+05 1.891692e+05 -2.534471e+04
8.695652e+04 4.000000e+05 0.000000e+00
6.873267e+04 3.672065e+05 0.000000e+00
-3.435887e+04 -3.670248e+05 0.000000e+00
-3.478260e+04 -4.000000e+05 -2.451623e+04
-5.217391e+04 -4.000000e+05 0.000000e+00
-5.048147e+04 -3.761822e+05 -2.485406e+04
3.436651e+04 3.672768e+05 -5.000000e+04
1.739130e+04 4.000000e+05 -5.000000e+04
1.393202e+04 3.758346e+05 -2.491244e+04
4.003765e+04 3.757249e+05 -2.497885e+04
3.478260e+04 4.000000e+05 -2.504496e+04
5.217391e+04 4.000000e+05 0.000000e+00
3.435410e+04 3.670437e+05 0.000000e+00
2.755712e+04 3.505303e+05 -2.500575e+04
1.739130e+04 4.000000e+05 0.000000e+00
3.670891e+05 1.862933e+03 -5.000000e+04
3.742761e+05 1.677027e+04 -2.493456e+04
3.512355e+05 -2.497308e+04 -2.483192e+04
3.781086e+05 -1.765023e+04 -2.493225e+04
4.000000e+05 -1.739130e+04 -5.000000e+04
4.000000e+05 -1.192804e-02 -2.530346e+04
-3.328715e+05 -1.848068e+05 0.000000e+00
-3.671287e+05 -2.058668e+05 0.000000e+00
-3.671292e+05 -1.714095e+05 0.000000e+00
-3.501225e+05 -1.946877e+05 -2.524820e+04
3.672778e+05 4.586450e+02 0.000000e+00
-4.000000e+05 -2.260870e+05 -5.000000e+04
-4.000000e+05 -2.608696e+05 -5.000000e+04
-3.668871e+05 -2.388668e+05 -5.000000e+04
-4.000000e+05 -2.434777e+05 -2.599219e+04
4.000000e+05 -1.739130e+04 0.000000e+00
-3.000000e+05 1.842938e+04 -5.000000e+04
-3.329296e+05 5.601896e+03 -5.000000e+04
-3.225187e+05 -4.403791e+03 -2.678657e+04
-3.199464e+05 2.467194e+04 -2.281215e+04
-3.480737e+05 2.395723e+04 -2.492980e+04
-3.000000e+05 3.469979e+04 0.000000e+00
-3.328742e+05 5.154336e+04 0.000000e+00
-3.216158e+05 5.471200e+04 -2.444254e+04
-4.000000e+05 3.478260e+04 -2.504496e+04
-3.670456e+05 3.476383e+04 0.000000e+00
-4.000000e+05 1.739130e+04 0.000000e+00
-3.756042e+05 1.458470e+04 -2.490399e+04
-1.000000e+05 3.000000e+05 -5.000000e+04
-8.333335e+04 3.000000e+05 -2.367065e+04
-6.666667e+04 3.000000e+05 -5.000000e+04
-7.584987e+04 3.234585e+05 -2.456040e+04
-5.058931e+04 3.327252e+05 0.000000e+00
-6.107262e+04 3.493397e+05 -2.491598e+04
-4.618311e+04 3.199143e+05 -2.473589e+04
-8.432500e+04 3.326142e+05 -5.000000e+04
-1.035769e+05 3.235841e+05 -2.475576e+04
-6.666667e+04 3.000000e+05 0.000000e+00
-1.000000e+05 3.000000e+05 0.000000e+00
-8.439335e+04 3.328531e+05 0.000000e+00
-2.333333e+05 -3.000000e+05 0.000000e+00
-2.470395e+05 -3.242065e+05 -2.469221e+04
-2.534095e+05 -3.327230e+05 -5.000000e+04
-2.666667e+05 -3.000000e+05 -5.000000e+04
-2.726537e+05 -3.236221e+05 -2.475858e+04
-2.323564e+05 -3.500322e+05 -2.495207e+04
-2.492233e+05 -3.000000e+05 -2.405479e+04
-2.532232e+05 -3.324896e+05 0.000000e+00
-2.532445e+05 3.323685e+05 -5.000000e+04
-2.333333e+05 3.000000e+05 -5.000000e+04
-2.192620e+05 3.325812e+05 -5.000000e+04
-2.364934e+05 3.241019e+05 -2.518488e+04
-2.629405e+05 3.500053e+05 -2.493571e+04
-2.699876e+05 3.240961e+05 -2.509066e+04
-2.532897e+05 3.328415e+05 0.000000e+00
-3.000000e+05 -2.105115e+05 -2.644145e+04
-3.328701e+05 -2.188027e+05 0.000000e+00
-3.000000e+05 -1.989752e+05 0.000000e+00
-3.219544e+05 -1.972263e+05 -2.613925e+04
-3.238842e+05 -2.337582e+05 -2.518064e+04
-3.500929e+05 -2.273081e+05 -2.497154e+04
-3.325192e+05 -2.148069e+05 -5.000000e+04
-3.755995e+05 -2.540174e+05 -2.526931e+04
-4.000000e+05 -2.608696e+05 0.000000e+00
-3.671247e+05 -2.403228e+05 0.000000e+00
-3.670725e+05 -2.747880e+05 0.000000e+00
-3.773457e+05 -2.166100e+05 -2.320286e+04
-3.483676e+05 -2.607002e+05 -2.508128e+04
-3.520283e+05 -3.680530e+05 -5.000000e+04
-3.329646e+05 -3.673398e+05 -2.499955e+04
-3.479512e+05 -3.310377e+05 -2.503432e+04
-3.753519e+05 -3.404486e+05 -2.532318e+04
-1.031030e+05 -3.671959e+05 0.000000e+00
-8.695652e+04 -4.000000e+05 0.000000e+00
-1.217391e+05 -4.000000e+05 0.000000e+00
-1.043478e+05 -4.000000e+05 -2.528072e+04
-4.000000e+05 -3.470156e+05 -2.553754e+04
-4.000000e+05 -3.304348e+05 0.000000e+00
-3.508884e+05 -3.669673e+05 0.000000e+00
-3.748178e+05 -3.721387e+05 -2.039183e+04
-3.697599e+05 -3.404129e+05 0.000000e+00
-4.000000e+05 -3.652174e+05 0.000000e+00
3.000000e+05 -1.298234e+05 -5.000000e+04
3.329844e+05 -1.497579e+05 -5.000000e+04
3.329417e+05 -1.154679e+05 -5.000000e+04
3.240832e+05 -1.345014e+05 -2.507433e+04
3.240609e+05 -1.682390e+05 -2.510967e+04
3.500474e+05 -1.608838e+05 -2.501178e+04
3.500641e+05 -1.267943e+05 -2.500876e+04
3.000000e+05 -1.480083e+05 -2.499471e+04
3.328711e+05 -1.513286e+05 0.000000e+00
3.328730e+05 -1.174440e+05 0.000000e+00
3.000000e+05 -1.324332e+05 0.000000e+00
-1.374946e+05 -3.672664e+05 -5.000000e+04
-1.391304e+05 -4.000000e+05 -2.436406e+04
-1.374821e+05 -3.672340e+05 0.000000e+00
-1.615082e+05 -3.541231e+05 -2.497561e+04
3.652174e+05 4.000000e+05 0.000000e+00
3.678847e+05 3.496334e+05 0.000000e+00
3.419933e+05 3.684151e+05 0.000000e+00
3.365049e+05 3.749821e+05 -2.227444e+04
3.105531e+05 3.659338e+05 0.000000e+00
3.392787e+05 3.454250e+05 -2.494178e+04
3.020023e+05 3.472970e+05 -2.514552e+04
2.933367e+05 3.751805e+05 -2.517719e+04
3.520537e+05 3.680986e+05 -5.000000e+04
3.470156e+05 4.000000e+05 -2.423581e+04
3.304348e+05 4.000000e+05 -5.000000e+04
3.129450e+05 4.000000e+05 -2.456488e+04
3.304348e+05 4.000000e+05 0.000000e+00
-3.670265e+05 -2.040124e+05 -5.000000e+04
-3.703177e+05 -1.770983e+05 -2.528625e+04
3.759357e+05 1.548377e+05 -2.527491e+04
3.759008e+05 1.200973e+05 -2.508650e+04
4.000000e+05 1.391304e+05 -2.598887e+04
4.000000e+05 1.217391e+05 0.000000e+00
3.670551e+05 1.390500e+05 -5.000000e+04
3.671523e+05 1.049899e+05 -5.000000e+04
3.341467e+05 1.000860e+05 -2.010406e+04
3.756816e+05 8.810903e+04 -2.499250e+04
4.000000e+05 1.217391e+05 -5.000000e+04
4.000000e+05 1.043478e+05 -2.563966e+04
3.327662e+05 2.164933e+04 -5.000000e+04
3.497878e+05 4.380454e+04 -2.491289e+04
3.242010e+05 3.463896e+04 -2.491264e+04
3.000000e+05 1.985721e+04 -2.527405e+04
3.000000e+05 4.035329e+04 -5.000000e+04
3.000000e+05 3.513350e+04 0.000000e+00
3.328480e+05 5.196342e+04 0.000000e+00
3.330000e+05 1.806128e+04 0.000000e+00
-2.658911e+05 -3.495762e+05 -2.493997e+04
-2.578532e+05 -3.758230e+05 -2.502559e+04
-1.499998e+05 -3.000000e+05 -2.497236e+04
-1.666667e+05 -3.000000e+05 0.000000e+00
-1.833275e+05 -3.000000e+05 -2.537288e+04
-1.691935e+05 -3.249143e+05 -2.504825e+04
-2.755517e+05 -3.670745e+05 -5.000000e+04
-2.956522e+05 -4.000000e+05 -5.000000e+04
-3.304348e+05 -4.000000e+05 0.000000e+00
-3.129826e+05 -4.000000e+05 -2.495879e+04
-3.117485e+05 -3.655247e+05 0.000000e+00
-3.130930e+05 -3.668925e+05 -5.000000e+04
-3.328368e+05 -2.528083e+05 0.000000e+00
-3.304348e+05 -4.000000e+05 -5.000000e+04
-3.672145e+05 4.299700e+02 0.000000e+00
-4.000000e+05 -1.192804e-02 -2.425370e+04
-3.673687e+05 -4.829246e+03 -5.000000e+04
-4.000000e+05 1.739130e+04 -5.000000e+04
-3.670415e+05 2.984354e+04 -5.000000e+04
3.670491e+05 3.487383e+04 0.000000e+00
4.000000e+05 3.478260e+04 -2.437429e+04
3.760607e+05 5.355496e+04 -2.482710e+04
4.000000e+05 -3.304348e+05 0.000000e+00
3.670684e+05 6.928796e+04 0.000000e+00
3.508508e+05 7.514102e+04 -2.403857e+04
-3.327911e+05 -2.506705e+05 -5.000000e+04
3.671667e+05 7.078715e+04 -5.000000e+04
4.000000e+05 6.956522e+04 -2.442176e+04
4.000000e+05 5.217391e+04 -5.000000e+04
-3.328730e+05 8.517471e+04 0.000000e+00
-3.000000e+05 1.010248e+05 0.000000e+00
-3.000000e+05 7.771880e+04 -2.491237e+04
-3.327697e+05 7.566446e+04 -5.000000e+04
-3.000000e+05 6.786232e+04 0.000000e+00
1.374019e+05 -3.670628e+05 0.000000e+00
1.043478e+05 -4.000000e+05 -2.563966e+04
1.030249e+05 -3.670155e+05 0.000000e+00
1.397930e+05 -3.718608e+05 -2.522743e+04
3.671294e+05 -3.095808e+05 0.000000e+00
3.449280e+05 -2.984526e+05 -2.495716e+04
3.669521e+05 -2.747914e+05 0.000000e+00
1.565217e+05 -4.000000e+05 0.000000e+00
1.716883e+05 -3.669668e+05 0.000000e+00
1.391304e+05 -4.000000e+05 -2.598887e+04
1.374741e+05 -3.671811e+05 -5.000000e+04
1.716911e+05 -3.669862e+05 -5.000000e+04
1.030114e+05 -3.669854e+05 -5.000000e+04
1.602409e+05 -3.492223e+05 -2.498497e+04
3.672064e+05 -1.716388e+05 0.000000e+00
4.000000e+05 -1.565217e+05 0.000000e+00
4.000000e+05 -1.739130e+05 -2.434919e+04
3.760089e+05 -1.533158e+05 -2.483500e+04
4.000000e+05 -1.565217e+05 -5.000000e+04
4.000000e+05 -1.391304e+05 -2.436406e+04
3.671820e+05 -1.364594e+05 -5.000000e+04
3.670445e+05 -1.371306e+05 0.000000e+00
3.760554e+05 -1.188209e+05 -2.496166e+04
2.666667e+05 -3.000000e+05 -5.000000e+04
2.764576e+05 -3.000000e+05 -2.458208e+04
2.489823e+05 -3.000000e+05 -2.399896e+04
2.699790e+05 -3.240490e+05 -2.475701e+04
2.887210e+05 -3.313936e+05 0.000000e+00
2.666667e+05 -3.000000e+05 0.000000e+00
2.887970e+05 -3.334032e+05 -5.000000e+04
3.138674e+05 -3.133503e+05 -2.500191e+04
3.023561e+05 -3.461235e+05 -2.514138e+04
2.646310e+05 -3.496252e+05 -2.495861e+04
-1.717520e+05 -3.670508e+05 -5.000000e+04
-1.565217e+05 -4.000000e+05 -5.000000e+04
-1.739130e+05 -4.000000e+05 -2.434919e+04
2.533126e+05 -3.328200e+05 -5.000000e+04
2.366047e+05 -3.240764e+05 -2.473556e+04
2.534041e+05 -3.325633e+05 0.000000e+00
2.298439e+05 -3.499144e+05 -2.498704e+04
2.333333e+05 -3.000000e+05 0.000000e+00
2.165322e+05 -3.000000e+05 -2.395577e+04
1.374092e+05 3.670663e+05 -5.000000e+04
1.290186e+05 3.519747e+05 -2.484885e+04
1.538111e+05 3.761384e+05 -2.529945e+04
1.196511e+05 3.764156e+05 -2.523118e+04
1.030281e+05 3.669960e+05 0.000000e+00
1.391304e+05 4.000000e+05 -2.602244e+04
1.374090e+05 3.670656e+05 0.000000e+00
1.217391e+05 4.000000e+05 0.000000e+00
-3.671573e+05 2.045656e+05 -5.000000e+04
-4.000000e+05 2.086956e+05 -2.618848e+04
-3.757601e+05 1.876570e+05 -2.533832e+04
-3.743513e+05 2.226787e+05 -2.528505e+04
-4.000000e+05 2.434770e+05 -2.599777e+04
-3.672580e+05 2.586018e+05 -2.513632e+04
-3.669051e+05 2.405341e+05 0.000000e+00
-4.000000e+05 2.260870e+05 0.000000e+00
-4.000000e+05 2.260870e+05 -5.000000e+04
-3.671552e+05 2.394739e+05 -5.000000e+04
-3.431997e+05 2.299532e+05 -2.515042e+04
1.333333e+05 3.000000e+05 -5.000000e+04
1.518781e+05 3.328238e+05 -5.000000e+04
1.500000e+05 3.000000e+05 -2.616341e+04
1.333333e+05 3.000000e+05 0.000000e+00
1.518766e+05 3.328223e+05 0.000000e+00
-2.062189e+05 -3.672070e+05 -5.000000e+04
-2.260870e+05 -4.000000e+05 -5.000000e+04
-2.086956e+05 -4.000000e+05 -2.519477e+04
-2.232565e+05 -3.759193e+05 -2.498701e+04
-2.061074e+05 -3.670548e+05 0.000000e+00
-1.910119e+05 -3.764625e+05 -2.497892e+04
-2.260870e+05 -4.000000e+05 0.000000e+00
-2.434777e+05 -4.000000e+05 -2.473683e+04
1.134357e+01 3.670240e+05 -5.000000e+04
-1.192804e-02 4.000000e+05 -2.425370e+04
-1.739130e+04 4.000000e+05 -5.000000e+04
-1.658163e+04 3.749987e+05 -2.479674e+04
-3.432872e+04 3.669981e+05 0.000000e+00
-2.839476e+04 3.471364e+05 -2.494646e+04
-5.057069e+04 3.757032e+05 -2.477693e+04
-3.478260e+04 4.000000e+05 -2.395986e+04
-1.739130e+04 4.000000e+05 0.000000e+00
1.431124e+03 3.361404e+05 -2.501868e+04
-3.590340e+00 3.672078e+05 0.000000e+00
2.666667e+05 3.000000e+05 -5.000000e+04
2.774301e+05 3.000000e+05 -2.522062e+04
2.898985e+05 3.327293e+05 -5.000000e+04
2.704683e+05 3.240180e+05 -2.493538e+04
3.143221e+05 3.141255e+05 -2.498746e+04
2.884798e+05 3.314621e+05 0.000000e+00
2.648082e+05 3.497170e+05 -2.502981e+04
2.492233e+05 3.000000e+05 -2.433407e+04
2.531877e+05 3.324795e+05 0.000000e+00
2.666667e+05 3.000000e+05 0.000000e+00
1.666667e+05 -3.000000e+05 0.000000e+00
1.499990e+05 -3.000000e+05 -2.400535e+04
1.833231e+05 -3.000000e+05 -2.371452e+04
1.695297e+05 -3.238868e+05 -2.470139e+04
1.855948e+05 -3.327894e+05 -5.000000e+04
1.666667e+05 -3.000000e+05 -5.000000e+04
1.856049e+05 -3.327889e+05 0.000000e+00
1.954949e+05 -3.499295e+05 -2.498969e+04
2.030790e+05 -3.240293e+05 -2.470434e+04
3.000000e+05 -2.664866e+05 0.000000e+00
3.327702e+05 -2.529933e+05 0.000000e+00
3.325352e+05 -2.874344e+05 0.000000e+00
3.239646e+05 -2.693299e+05 -2.518433e+04
3.327516e+05 -2.893294e+05 -5.000000e+04
3.495240e+05 -2.639110e+05 -2.507965e+04
3.000000e+05 -2.761628e+05 -2.522420e+04
3.000000e+05 -2.659647e+05 -5.000000e+04
3.000000e+05 -2.483905e+05 -2.586120e+04
3.328857e+05 -4.967812e+04 0.000000e+00
3.000000e+05 -3.189320e+04 0.000000e+00
3.328939e+05 -4.692430e+04 -5.000000e+04
-4.000000e+05 1.565217e+05 0.000000e+00
-3.669945e+05 1.719199e+05 0.000000e+00
-3.672065e+05 1.377150e+05 0.000000e+00
-3.760611e+05 1.531866e+05 -2.533659e+04
-3.672782e+05 1.349245e+05 -5.000000e+04
-3.671829e+05 1.696982e+05 -5.000000e+04
-4.000000e+05 1.565217e+05 -5.000000e+04
-4.000000e+05 1.391304e+05 -2.602244e+04
-2.333333e+05 -3.000000e+05 -5.000000e+04
-3.501515e+05 1.598496e+05 -2.510314e+04
3.336546e+05 2.891001e+05 -5.000000e+04
3.000000e+05 2.677698e+05 -5.000000e+04
3.331343e+05 2.545205e+05 -5.000000e+04
3.242067e+05 2.710109e+05 -2.488228e+04
3.324227e+05 2.879511e+05 0.000000e+00
3.468013e+05 3.017841e+05 -2.500205e+04
3.498412e+05 2.651767e+05 -2.500176e+04
3.000000e+05 2.780183e+05 -2.446027e+04
3.000000e+05 2.506980e+05 -2.515658e+04
3.000000e+05 2.672967e+05 0.000000e+00
3.327533e+05 2.537014e+05 0.000000e+00
2.956522e+05 -4.000000e+05 0.000000e+00
2.752640e+05 -3.667277e+05 0.000000e+00
3.119520e+05 -3.656352e+05 0.000000e+00
2.931814e+05 -3.749004e+05 -2.505139e+04
3.129104e+05 -4.000000e+05 -2.466106e+04
3.120582e+05 -3.679558e+05 -5.000000e+04
2.752725e+05 -3.673223e+05 -5.000000e+04
2.956522e+05 -4.000000e+05 -5.000000e+04
-1.913043e+05 -4.000000e+05 -5.000000e+04
-1.333333e+05 3.000000e+05 -5.000000e+04
-1.166667e+05 3.000000e+05 -2.381225e+04
-1.677176e+05 3.319500e+05 -2.489581e+04
-1.182350e+05 3.330168e+05 0.000000e+00
-1.913043e+05 4.000000e+05 -5.000000e+04
-2.086957e+05 4.000000e+05 -2.629013e+04
-1.901200e+05 3.778120e+05 -2.533648e+04
-1.556047e+05 3.680174e+05 -2.515973e+04
-1.913043e+05 4.000000e+05 0.000000e+00
-2.062347e+05 3.672173e+05 0.000000e+00
-1.739130e+05 4.000000e+05 -2.608580e+04
-1.717544e+05 3.670745e+05 0.000000e+00
3.670080e+05 1.723656e+05 0.000000e+00
4.000000e+05 1.739130e+05 -2.630756e+04
4.000000e+05 1.913043e+05 -5.000000e+04
3.671068e+05 2.070918e+05 -5.000000e+04
3.760677e+05 2.233393e+05 -2.531369e+04
3.499916e+05 1.996029e+05 -2.533290e+04
3.673055e+05 -1.019945e+05 -5.000000e+04
4.000000e+05 -1.217391e+05 -5.000000e+04
4.000000e+05 -1.043478e+05 -2.528072e+04
3.672145e+05 -1.028017e+05 0.000000e+00
4.000000e+05 -1.217391e+05 0.000000e+00
3.760834e+05 -8.443004e+04 -2.493883e+04
3.670560e+05 -2.403570e+05 0.000000e+00
4.000000e+05 -2.260870e+05 0.000000e+00
4.000000e+05 -2.434777e+05 -2.473683e+04
3.759515e+05 -2.224433e+05 -2.500287e+04
3.671274e+05 -2.055520e+05 -5.000000e+04
4.000000e+05 -2.260870e+05 -5.000000e+04
4.000000e+05 -2.086956e+05 -2.519477e+04
3.669945e+05 -2.058917e+05 0.000000e+00
3.759890e+05 -1.878579e+05 -2.495378e+04
3.500042e+05 -1.950909e+05 -2.505165e+04
3.499738e+05 -2.293971e+05 -2.505201e+04
-1.518804e+05 -3.328503e+05 0.000000e+00
-1.855416e+05 -3.327175e+05 0.000000e+00
-1.666667e+05 -3.000000e+05 -5.000000e+04
-1.519063e+05 -3.328887e+05 -5.000000e+04
-1.856605e+05 -3.328720e+05 -5.000000e+04
-5.060164e+04 3.326537e+05 -5.000000e+04
1.913043e+05 4.000000e+05 -5.000000e+04
2.062418e+05 3.672192e+05 -5.000000e+04
2.086956e+05 4.000000e+05 -2.618848e+04
1.882071e+05 3.759982e+05 -2.532197e+04
1.913043e+05 4.000000e+05 0.000000e+00
2.062117e+05 3.671955e+05 0.000000e+00
1.717360e+05 3.670148e+05 0.000000e+00
1.739130e+05 4.000000e+05 -2.630978e+04
1.717402e+05 3.670181e+05 -5.000000e+04
1.617937e+05 3.501547e+05 -2.504278e+04
1.958488e+05 3.500570e+05 -2.503764e+04
1.043478e+05 4.000000e+05 -2.585127e+04
3.697864e+05 -3.404567e+05 0.000000e+00
3.312024e+05 -3.274634e+05 0.000000e+00
5.217391e+04 4.000000e+05 -5.000000e+04
5.796634e+04 3.498934e+05 -2.500514e+04
-4.000000e+05 2.956522e+05 -5.000000e+04
-4.000000e+05 3.129450e+05 -2.456488e+04
-4.000000e+05 2.782496e+05 -2.580883e+04
-3.770077e+05 2.947057e+05 -2.505978e+04
-3.667113e+05 2.751633e+05 0.000000e+00
-3.493363e+05 3.003864e+05 -2.502346e+04
-3.672319e+05 2.745560e+05 -5.000000e+04
-4.000000e+05 2.956522e+05 0.000000e+00
-1.333333e+05 -3.000000e+05 -5.000000e+04
-1.166667e+05 -3.000000e+05 -2.567125e+04
-1.333333e+05 -3.000000e+05 0.000000e+00
-1.181629e+05 -3.329166e+05 0.000000e+00
-2.956522e+05 4.000000e+05 0.000000e+00
-2.751595e+05 3.671921e+05 0.000000e+00
-3.106869e+05 3.669419e+05 0.000000e+00
-3.108278e+05 3.658074e+05 -5.000000e+04
-2.750767e+05 3.665332e+05 -5.000000e+04
-2.956522e+05 4.000000e+05 -5.000000e+04
-2.782548e+05 4.000000e+05 -2.568673e+04
-3.129450e+05 4.000000e+05 -2.471081e+04
-1.030751e+05 3.670669e+05 0.000000e+00
-1.375643e+05 3.673619e+05 0.000000e+00
-3.009058e+05 3.490585e+05 -2.460596e+04
9.234744e+04 -3.456057e+05 -2.494823e+04
3.478260e+04 -4.000000e+05 -2.437429e+04
3.438402e+04 -3.673164e+05 -5.000000e+04
2.809024e+04 -3.505470e+05 -2.495500e+04
3.434189e+04 -3.669957e+05 0.000000e+00
1.594460e+04 -3.757169e+05 -2.495856e+04
-3.439967e+04 -3.673710e+05 -5.000000e+04
-1.739130e+04 -4.000000e+05 -5.000000e+04
-3.876613e+00 -3.674801e+05 -5.000000e+04
-1.619981e+04 -3.757494e+05 -2.497519e+04
-2.842344e+04 -3.506832e+05 -2.496325e+04
-2.564528e+00 -3.670661e+05 0.000000e+00
-1.739130e+04 -4.000000e+05 0.000000e+00
-1.192804e-02 -4.000000e+05 -2.530346e+04
1.913043e+05 -4.000000e+05 -5.000000e+04
2.059922e+05 -3.669355e+05 -5.000000e+04
1.874538e+05 -3.759638e+05 -2.529563e+04
1.913043e+05 -4.000000e+05 0.000000e+00
2.061032e+05 -3.670526e+05 0.000000e+00
3.000000e+05 -2.771737e+04 -5.000000e+04
2.404356e+05 -3.669112e+05 0.000000e+00
2.260870e+05 -4.000000e+05 0.000000e+00
2.225752e+05 -3.759140e+05 -2.529198e+04
2.260870e+05 -4.000000e+05 -5.000000e+04
2.086957e+05 -4.000000e+05 -2.620830e+04
-5.000001e+04 3.000000e+05 -2.388537e+04
-3.000000e+05 -1.676695e+04 -5.000000e+04
-3.337295e+05 -3.010705e+04 -5.000000e+04
-3.238029e+05 -4.177206e+04 -2.663310e+04
-3.328745e+05 -1.572825e+04 0.000000e+00
-3.490782e+05 -5.141921e+04 -2.266875e+04
4.000000e+05 3.652174e+05 -5.000000e+04
4.000000e+05 3.468072e+05 -2.535446e+04
4.000000e+05 3.755280e+05 -2.512463e+04
3.697722e+05 3.660479e+05 -3.176825e+04
-3.328929e+05 -8.305011e+04 0.000000e+00
-3.213179e+05 -9.561535e+04 -2.513737e+04
-3.000000e+05 -5.990937e+04 -2.503703e+04
-3.000000e+05 -3.162526e+04 0.000000e+00
-3.000000e+05 -2.568339e+04 -2.495305e+04
-3.328779e+05 -4.937584e+04 0.000000e+00
-3.000000e+05 4.342769e+04 -2.478601e+04
-3.328394e+05 4.067219e+04 -5.000000e+04
-3.000000e+05 5.362570e+04 -5.000000e+04
3.669682e+05 2.750075e+05 0.000000e+00
4.000000e+05 2.782510e+05 -2.556022e+04
4.000000e+05 2.608696e+05 0.000000e+00
3.759828e+05 2.576557e+05 -2.521728e+04
-3.000000e+05 -6.478778e+04 0.000000e+00
3.673211e+05 2.412377e+05 -5.000000e+04
4.000000e+05 2.434779e+05 -2.609815e+04
4.000000e+05 2.608696e+05 -5.000000e+04
3.671154e+05 2.408341e+05 0.000000e+00
3.500725e+05 2.318172e+05 -2.515374e+04
2.956522e+05 4.000000e+05 0.000000e+00
2.750320e+05 3.665971e+05 0.000000e+00
-2.492233e+05 3.000000e+05 -2.578977e+04
-2.774301e+05 3.000000e+05 -2.480518e+04
-2.666667e+05 3.000000e+05 0.000000e+00
-2.884729e+05 3.312359e+05 -5.000000e+04
-3.142492e+05 3.139336e+05 -2.502831e+04
-2.666667e+05 3.000000e+05 -5.000000e+04
-3.000000e+05 1.537267e+03 0.000000e+00
-3.328734e+05 1.790426e+04 0.000000e+00
-3.036709e+05 -3.457218e+05 -2.485761e+04
-8.333335e+04 -3.000000e+05 -2.556273e+04
-8.444588e+04 -3.330216e+05 0.000000e+00
-6.866245e+04 -3.241577e+05 -2.497919e+04
-1.000000e+05 -3.000000e+05 0.000000e+00
-8.448226e+04 -3.331634e+05 -5.000000e+04
-1.000000e+05 -3.000000e+05 -5.000000e+04
-9.337879e+04 -3.499918e+05 -2.500843e+04
3.669694e+05 1.036703e+05 0.000000e+00
4.000000e+05 8.695652e+04 0.000000e+00
4.000000e+05 8.695652e+04 -5.000000e+04
3.000000e+05 -1.819152e+05 -2.577826e+04
3.328420e+05 -1.851831e+05 0.000000e+00
3.000000e+05 -1.994599e+05 0.000000e+00
3.240642e+05 -2.021832e+05 -2.528595e+04
3.000000e+05 -1.978940e+05 -5.000000e+04
3.000000e+05 -2.156344e+05 -2.621791e+04
3.329529e+05 -2.182880e+05 -5.000000e+04
3.327172e+05 -2.189571e+05 0.000000e+00
3.241030e+05 -2.359595e+05 -2.527660e+04
-5.000001e+04 -3.000000e+05 -2.421120e+04
-3.499584e+04 -3.244597e+05 -2.480349e+04
-5.064585e+04 -3.328913e+05 0.000000e+00
-3.671215e+05 -2.741993e+05 -5.000000e+04
-4.000000e+05 -2.782548e+05 -2.568673e+04
-3.462895e+05 -2.972928e+05 -2.508283e+04
-3.657865e+05 3.104953e+05 0.000000e+00
-3.749898e+05 3.300624e+05 -2.521014e+04
-3.669011e+05 3.105131e+05 -5.000000e+04
-3.477539e+05 3.392292e+05 -2.498082e+04
-4.000000e+05 3.304348e+05 -5.000000e+04
-3.680262e+05 3.495768e+05 -5.000000e+04
-4.000000e+05 3.470156e+05 -2.423581e+04
-4.000000e+05 -5.217391e+04 -5.000000e+04
-4.000000e+05 -6.956522e+04 -2.435755e+04
-3.696767e+05 -6.277924e+04 -3.060622e+04
-3.742558e+05 -6.964521e+04 -5.000000e+04
-4.000000e+05 -5.217391e+04 0.000000e+00
-3.672341e+05 -6.823904e+04 0.000000e+00
2.000000e+05 3.000000e+05 0.000000e+00
1.833314e+05 3.000000e+05 -2.550543e+04
1.856552e+05 3.328617e+05 0.000000e+00
2.031722e+05 3.241051e+05 -2.497113e+04
2.000000e+05 3.000000e+05 -5.000000e+04
2.166083e+05 3.000000e+05 -2.425239e+04
2.195232e+05 3.329018e+05 -5.000000e+04
2.194018e+05 3.328033e+05 0.000000e+00
2.367935e+05 3.241133e+05 -2.484265e+04
2.300227e+05 3.499946e+05 -2.502161e+04
4.000000e+05 1.565217e+05 -5.000000e+04
4.000000e+05 1.565217e+05 0.000000e+00
-6.666667e+04 -3.000000e+05 0.000000e+00
-6.666667e+04 -3.000000e+05 -5.000000e+04
-5.999878e+04 -3.501830e+05 -2.497764e+04
2.956522e+05 4.000000e+05 -5.000000e+04
2.782496e+05 4.000000e+05 -2.580883e+04
2.760022e+05 3.673582e+05 -5.000000e+04
2.574954e+05 3.758413e+05 -2.526318e+04
1.666666e+04 3.000000e+05 -2.560066e+04
1.687733e+04 3.328695e+05 0.000000e+00
3.333333e+04 3.000000e+05 0.000000e+00
3.488428e+04 3.243679e+05 -2.514328e+04
5.064480e+04 3.330345e+05 -5.000000e+04
3.333333e+04 3.000000e+05 -5.000000e+04
4.999999e+04 3.000000e+05 -2.565536e+04
5.063456e+04 3.328710e+05 0.000000e+00
6.821747e+04 3.240760e+05 -2.506325e+04
-3.684255e+05 -9.949243e+04 -5.000000e+04
-4.000000e+05 -1.217391e+05 -5.000000e+04
-3.673545e+05 -1.342546e+05 -5.000000e+04
-4.000000e+05 -1.043478e+05 -2.567807e+04
-4.000000e+05 -8.695652e+04 0.000000e+00
-3.782348e+05 -8.730773e+04 -2.495482e+04
-3.521442e+05 -8.707114e+04 -2.534338e+04
-4.000000e+05 -8.695652e+04 -5.000000e+04
-3.540938e+05 -1.190751e+05 -2.515232e+04
3.671210e+05 -2.752852e+05 -5.000000e+04
4.000000e+05 -2.956522e+05 -5.000000e+04
4.000000e+05 -2.782548e+05 -2.529878e+04
4.000000e+05 -2.956522e+05 0.000000e+00
3.000000e+05 -1.659466e+05 0.000000e+00
2.000000e+05 -3.000000e+05 -5.000000e+04
2.000000e+05 -3.000000e+05 0.000000e+00
2.193067e+05 -3.326910e+05 0.000000e+00
4.000000e+05 2.260870e+05 -5.000000e+04
4.000000e+05 2.260870e+05 0.000000e+00
6.605563e+04 -3.231774e+05 -2.487780e+04
8.333333e+04 -3.000000e+05 -2.511094e+04
6.666667e+04 -3.000000e+05 0.000000e+00
5.063754e+04 -3.330073e+05 -5.000000e+04
8.436627e+04 -3.328343e+05 -5.000000e+04
6.666667e+04 -3.000000e+05 -5.000000e+04
1.739130e+04 -4.000000e+05 -5.000000e+04
1.739130e+04 -4.000000e+05 0.000000e+00
-2.404411e+05 -3.669029e+05 0.000000e+00
-2.608696e+05 -4.000000e+05 -5.000000e+04
-2.405188e+05 -3.669980e+05 -5.000000e+04
-3.000000e+05 1.460844e+05 -2.530935e+04
-3.328420e+05 1.524231e+05 0.000000e+00
-3.329368e+05 1.460523e+05 -5.000000e+04
-3.240774e+05 1.668638e+05 -2.517035e+04
2.404328e+05 3.669052e+05 0.000000e+00
2.434770e+05 4.000000e+05 -2.599777e+04
2.227307e+05 3.759881e+05 -2.528810e+04
2.608696e+05 4.000000e+05 -5.000000e+04
2.406655e+05 3.670943e+05 -5.000000e+04
2.333333e+05 3.000000e+05 0.000000e+00
-3.000000e+05 2.143070e+05 -2.544532e+04
-3.327623e+05 2.196748e+05 0.000000e+00
-3.229325e+05 1.987626e+05 -2.531795e+04
-3.328991e+05 2.161463e+05 -5.000000e+04
-3.492358e+05 1.943425e+05 -2.515717e+04
-3.000000e+05 1.944110e+05 -5.000000e+04
-3.330049e+05 1.812156e+05 -5.000000e+04
-3.000000e+05 1.802259e+05 -2.545836e+04
4.000000e+05 -2.608696e+05 -5.000000e+04
3.671241e+05 -2.401469e+05 -5.000000e+04
3.757981e+05 -2.573526e+05 -2.503711e+04
-3.327171e+05 1.859721e+05 0.000000e+00
-2.000000e+05 3.000000e+05 -5.000000e+04
-1.833275e+05 3.000000e+05 -2.436541e+04
-2.026943e+05 3.246104e+05 -2.501462e+04
-3.000000e+05 1.592147e+05 -5.000000e+04
3.683064e+05 3.108037e+05 -5.000000e+04
3.697619e+05 3.279826e+05 -2.453870e+04
3.751994e+05 2.926920e+05 -2.502279e+04
4.000000e+05 2.956522e+05 -5.000000e+04
4.000000e+05 3.129104e+05 -2.466106e+04
3.667841e+05 3.105226e+05 0.000000e+00
4.000000e+05 2.956522e+05 0.000000e+00
2.403968e+05 -3.669732e+05 -5.000000e+04
2.608696e+05 -4.000000e+05 -5.000000e+04
2.573901e+05 -3.758055e+05 -2.520647e+04
-1.217391e+05 -4.000000e+05 -5.000000e+04
-1.031395e+05 -3.673314e+05 -5.000000e+04
-1.170420e+05 -3.758951e+05 -2.500027e+04
-8.461415e+04 -3.760803e+05 -2.495482e+04
-3.380813e+05 -6.962321e+04 -5.000000e+04
-3.000000e+05 -9.420904e+04 -2.410731e+04
-3.328769e+05 -1.168548e+05 0.000000e+00
-3.000000e+05 -8.715961e+04 -5.000000e+04
-3.334309e+05 -1.092952e+05 -5.000000e+04
-3.434253e+04 3.670339e+05 -5.000000e+04
-6.870638e+04 3.670734e+05 0.000000e+00
-8.493225e+04 3.758524e+05 -2.499209e+04
-5.217391e+04 4.000000e+05 0.000000e+00
-6.956522e+04 4.000000e+05 -2.435755e+04
2.260870e+05 4.000000e+05 -5.000000e+04
3.672770e+05 -6.739374e+04 -5.000000e+04
3.670511e+05 -6.832630e+04 0.000000e+00
3.760867e+05 -5.016389e+04 -2.484968e+04
4.000000e+05 -6.956522e+04 -2.439311e+04
4.000000e+05 -8.695652e+04 -5.000000e+04
3.328741e+05 1.871163e+05 0.000000e+00
3.000000e+05 1.710792e+05 -5.000000e+04
3.000000e+05 1.841058e+05 -2.283810e+04
-3.000000e+05 -2.763304e+05 -2.429098e+04
-3.325388e+05 -2.873491e+05 0.000000e+00
-3.000000e+05 -2.663251e+05 0.000000e+00
-3.237578e+05 -2.683069e+05 -2.485060e+04
-3.000000e+05 -2.468426e+05 -2.444042e+04
-3.000000e+05 -2.642495e+05 -5.000000e+04
-3.332918e+05 -2.873579e+05 -5.000000e+04
6.666667e+04 3.000000e+05 -5.000000e+04
-6.863269e+04 3.667969e+05 -5.000000e+04
-8.695652e+04 4.000000e+05 0.000000e+00
-1.043478e+05 4.000000e+05 -2.567807e+04
1.565217e+05 4.000000e+05 0.000000e+00
1.565217e+05 4.000000e+05 -5.000000e+04
1.666667e+05 3.000000e+05 -5.000000e+04
1.692452e+05 3.241311e+05 -2.522464e+04
1.666667e+05 3.000000e+05 0.000000e+00
-5.065887e+04 -3.329969e+05 -5.000000e+04
-1.666668e+04 -3.000000e+05 -2.399388e+04
-6.264596e+01 -3.358669e+05 -2.485836e+04
-1.687948e+04 -3.328265e+05 0.000000e+00
-3.333333e+04 -3.000000e+05 0.000000e+00
-3.671469e+05 -1.691778e+05 -5.000000e+04
-4.000000e+05 -1.565217e+05 -5.000000e+04
-4.000000e+05 -1.391304e+05 -2.624082e+04
-3.671322e+05 -1.369625e+05 0.000000e+00
-4.000000e+05 -1.565217e+05 0.000000e+00
-4.000000e+05 -1.739130e+05 -2.608580e+04
-3.395056e+05 -1.619104e+05 -2.649461e+04
-4.000000e+05 1.739130e+05 -2.630978e+04
-4.000000e+05 1.913043e+05 0.000000e+00
-3.670547e+05 2.062598e+05 0.000000e+00
1.687487e+04 -3.327221e+05 0.000000e+00
1.666666e+04 -3.000000e+05 -2.375905e+04
1.688072e+04 -3.330074e+05 -5.000000e+04
3.333333e+04 -3.000000e+05 -5.000000e+04
1.333333e+05 -3.000000e+05 0.000000e+00
1.518147e+05 -3.327143e+05 0.000000e+00
3.652174e+05 -4.000000e+05 -5.000000e+04
3.755280e+05 -4.000000e+05 -2.512463e+04
3.468072e+05 -4.000000e+05 -2.535446e+04
1.518838e+05 -3.328394e+05 -5.000000e+04
3.671337e+05 -1.709835e+05 -5.000000e+04
4.000000e+05 -1.913043e+05 -5.000000e+04
3.671300e+05 3.637049e+04 -5.000000e+04
4.000000e+05 1.739130e+04 -5.000000e+04
4.000000e+05 1.739130e+04 0.000000e+00
-6.875361e+04 -3.672578e+05 0.000000e+00
-6.956522e+04 -4.000000e+05 -2.439311e+04
-6.875178e+04 -3.672525e+05 -5.000000e+04
4.000000e+05 -3.652174e+05 -5.000000e+04
-8.695652e+04 -4.000000e+05 -5.000000e+04
3.672599e+05 -3.396107e+04 0.000000e+00
4.000000e+05 -5.217391e+04 -5.000000e+04
3.670298e+05 -3.266578e+04 -5.000000e+04
3.000000e+05 -2.319293e+05 -5.000000e+04
3.327685e+05 -2.526447e+05 -5.000000e+04
-1.666667e+05 3.000000e+05 -5.000000e+04
-4.000000e+05 8.695652e+04 -5.000000e+04
-1.856666e+05 3.328823e+05 0.000000e+00
-1.391304e+05 4.000000e+05 -2.624082e+04
-1.217391e+05 4.000000e+05 0.000000e+00
-1.217391e+05 4.000000e+05 -5.000000e+04
-1.373737e+05 3.670031e+05 -5.000000e+04
-3.000000e+05 -2.284991e+05 -5.000000e+04
-3.000000e+05 -2.326501e+05 0.000000e+00
3.000000e+05 1.388490e+05 -5.000000e+04
3.329227e+05 1.224267e+05 -5.000000e+04
3.000000e+05 1.356736e+05 0.000000e+00
3.000000e+05 1.021602e+05 0.000000e+00
-3.000000e+05 -5.196328e+04 -5.000000e+04
1.030288e+05 3.670070e+05 -5.000000e+04
2.608696e+05 -4.000000e+05 0.000000e+00
2.192906e+05 -3.326862e+05 -5.000000e+04
4.000000e+05 -3.764488e+05 -2.594791e+04
-3.000000e+05 2.479297e+05 -2.487673e+04
-3.328895e+05 2.512391e+05 -5.000000e+04
-3.313469e+05 2.697625e+05 -2.502109e+04
-3.000000e+05 2.648037e+05 -5.000000e+04
-3.326378e+05 2.869711e+05 -5.000000e+04
3.671575e+05 1.730755e+05 -5.000000e+04
3.764488e+05 4.000000e+05 -2.519640e+04
3.763432e+05 3.768957e+05 -1.369609e+04
3.329770e+05 5.567270e+04 -5.000000e+04
3.256881e+05 7.011145e+04 -2.293559e+04
-2.878179e+05 3.325967e+05 0.000000e+00
3.328667e+05 8.936896e+04 -5.000000e+04
3.000000e+05 6.864685e+04 0.000000e+00
3.000000e+05 4.819058e+04 -2.422118e+04
3.710930e+05 3.421603e+05 -5.000000e+04
4.000000e+05 3.652174e+05 0.000000e+00
3.314505e+05 -3.321039e+05 -5.000000e+04
1.166666e+05 -3.000000e+05 -2.428629e+04
-1.686962e+04 3.328141e+05 -5.000000e+04
-1.666668e+04 3.000000e+05 -2.448125e+04
2.538063e+05 3.330094e+05 -5.000000e+04
-1.565217e+05 4.000000e+05 -5.000000e+04
3.000000e+05 -3.000000e+05 -5.000000e+04
3.000000e+05 -3.000000e+05 0.000000e+00
3.327180e+05 8.583740e+04 0.000000e+00
4.000000e+05 5.217391e+04 0.000000e+00
3.335273e+05 3.301478e+05 -5.000000e+04
3.297820e+05 3.288430e+05 0.000000e+00
3.000000e+05 3.000000e+05 -5.000000e+04
3.131890e+05 3.669841e+05 -5.000000e+04
-3.311653e+05 -3.273909e+05 0.000000e+00
3.673923e+05 2.754895e+05 -5.000000e+04
1.856664e+05 3.328700e+05 -5.000000e+04
1.217391e+05 4.000000e+05 -5.000000e+04
-3.299679e+05 3.284968e+05 -5.000000e+04
-3.496269e+05 3.679218e+05 0.000000e+00
-3.287755e+05 3.298471e+05 0.000000e+00
-3.319718e+05 3.690942e+05 -2.445116e+04
-4.000000e+05 2.608696e+05 0.000000e+00
-3.324968e+05 2.533854e+05 0.000000e+00
8.437538e+04 3.328764e+05 -5.000000e+04
-3.000000e+05 8.731003e+03 -2.479332e+04
-3.333333e+04 3.000000e+05 0.000000e+00
-1.686834e+04 3.328483e+05 0.000000e+00
-1.455192e-10 3.000000e+05 -5.000000e+04
1.688215e+04 3.328938e+05 -5.000000e+04
-3.333333e+04 3.000000e+05 -5.000000e+04
3.304348e+05 -4.000000e+05 -5.000000e+04
3.304348e+05 -4.000000e+05 0.000000e+00
-3.671497e+05 -1.025569e+05 0.000000e+00
-4.000000e+05 -1.217391e+05 0.000000e+00
-3.328725e+05 -1.508153e+05 0.000000e+00
-3.330505e+05 -1.449316e+05 -5.000000e+04
-3.681551e+05 3.678766e+05 -3.452972e+04
-4.000000e+05 3.764488e+05 -2.519640e+04
-3.695234e+05 3.667114e+05 -1.539360e+04
-3.764488e+05 4.000000e+05 -2.590922e+04
-3.652174e+05 4.000000e+05 0.000000e+00
-4.000000e+05 4.000000e+05 0.000000e+00
-4.000000e+05 3.652174e+05 0.000000e+00
-3.470156e+05 4.000000e+05 -2.553754e+04
-8.695652e+04 4.000000e+05 -5.000000e+04
-4.000000e+05 -3.652174e+05 -5.000000e+04
-3.710400e+05 -3.420563e+05 -5.000000e+04
-4.000000e+05 -3.304348e+05 -5.000000e+04
4.000000e+05 -5.217391e+04 0.000000e+00
4.000000e+05 -3.478260e+04 -2.451623e+04
-3.683563e+05 3.419964e+05 0.000000e+00
-3.314403e+05 2.885669e+05 0.000000e+00
3.000000e+05 -1.638587e+05 -5.000000e+04
3.327890e+05 -1.838439e+05 -5.000000e+04
-3.304348e+05 4.000000e+05 -5.000000e+04
-3.420145e+05 3.681392e+05 -5.000000e+04
4.000000e+05 3.304348e+05 -5.000000e+04
-3.304348e+05 4.000000e+05 0.000000e+00
-4.000000e+05 3.652174e+05 -5.000000e+04
-3.652174e+05 4.000000e+05 -5.000000e+04
-4.000000e+05 -2.086957e+05 -2.629013e+04
-4.000000e+05 -1.913043e+05 0.000000e+00
-3.328272e+05 -1.798669e+05 -5.000000e+04
-1.690138e+04 -3.332071e+05 -5.000000e+04
2.910383e-11 -3.000000e+05 -5.000000e+04
8.438526e+04 -3.328636e+05 0.000000e+00
3.000000e+05 -2.329733e+05 0.000000e+00
-5.093170e-11 3.000000e+05 0.000000e+00
3.000000e+05 3.000000e+05 0.000000e+00
4.000000e+05 -2.608696e+05 0.000000e+00
4.000000e+05 3.304348e+05 0.000000e+00
-1.717135e+05 -3.669978e+05 0.000000e+00
1.739130e+05 -4.000000e+05 -2.630756e+04
4.000000e+05 -8.695652e+04 0.000000e+00
2.260870e+05 4.000000e+05 0.000000e+00
-4.000000e+05 1.913043e+05 -5.000000e+04
-2.608696e+05 -4.000000e+05 0.000000e+00
4.000000e+05 -1.913043e+05 0.000000e+00
-3.000000e+05 3.000000e+05 0.000000e+00
-3.000000e+05 2.768580e+05 -2.549762e+04
-3.000000e+05 3.000000e+05 -5.000000e+04
2.608696e+05 4.000000e+05 0.000000e+00
3.652174e+05 4.000000e+05 -5.000000e+04
2.333333e+05 3.000000e+05 -5.000000e+04
-3.333333e+04 -3.000000e+05 -5.000000e+04
-4.000000e+05 3.304348e+05 0.000000e+00
5.093170e-11 -3.000000e+05 0.000000e+00
-1.913043e+05 -4.000000e+05 0.000000e+00
1.000000e+05 -3.000000e+05 -5.000000e+04
1.000000e+05 -3.000000e+05 0.000000e+00
1.565217e+05 -4.000000e+05 -5.000000e+04
1.217391e+05 -4.000000e+05 -5.000000e+04
-4.000000e+05 -2.260870e+05 0.000000e+00
1.333333e+05 -3.000000e+05 -5.000000e+04
-5.217391e+04 -4.000000e+05 -5.000000e+04
4.000000e+05 4.000000e+05 -5.000000e+04
4.000000e+05 4.000000e+05 0.000000e+00
-4.000000e+05 4.000000e+05 -5.000000e+04
-4.000000e+05 2.608696e+05 -5.000000e+04
-3.470156e+05 -4.000000e+05 -2.573153e+04
-4.000000e+05 -3.764488e+05 -2.590922e+04
-3.000000e+05 2.668375e+05 0.000000e+00
2.434779e+05 -4.000000e+05 -2.609815e+04
-3.652174e+05 -4.000000e+05 0.000000e+00
-5.217391e+04 4.000000e+05 -5.000000e+04
-3.000000e+05 -1.223559e+05 -5.000000e+04
1.217391e+05 -4.000000e+05 0.000000e+00
2.782510e+05 -4.000000e+05 -2.556022e+04
3.652174e+05 -4.000000e+05 0.000000e+00
4.000000e+05 -4.000000e+05 0.000000e+00
-3.000000e+05 2.336749e+05 0.000000e+00
-3.000000e+05 2.005124e+05 0.000000e+00
4.000000e+05 -4.000000e+05 -5.000000e+04
-1.565217e+05 4.000000e+05 0.000000e+00
2.333333e+05 -3.000000e+05 -5.000000e+04
-1.565217e+05 -4.000000e+05 0.000000e+00
-4.000000e+05 -1.913043e+05 -5.000000e+04
-3.764488e+05 -4.000000e+05 -2.594791e+04
-3.000000e+05 1.673499e+05 0.000000e+00
-4.000000e+05 -4.000000e+05 -5.000000e+04
-3.000000e+05 2.296073e+05 -5.000000e+04
-4.000000e+05 -4.000000e+05 0.000000e+00
-3.652174e+05 -4.000000e+05 -5.000000e+04
-3.000000e+05 -2.016300e+05 -3.822073e+04
-3.000000e+05 -1.858303e+05 -2.988739e+04
-3.107090e+05 -1.938634e+05 -3.787560e+04
-3.116756e+05 -1.789680e+05 -3.193263e+04
-3.162596e+05 -2.037777e+05 -5.000000e+04
-3.164136e+05 -1.863078e+05 -5.000000e+04
-3.140256e+05 -1.686037e+05 -4.131560e+04
-3.000000e+05 -1.751504e+05 -5.000000e+04
-3.000000e+05 -1.575523e+05 -5.000000e+04
-3.000000e+05 -1.593507e+05 -4.166667e+04
-3.000000e+05 -2.106238e+05 -5.000000e+04
-3.128744e+05 -1.157380e+05 -1.846317e+04
-3.099898e+05 -9.969692e+04 -1.268739e+04
-3.000000e+05 -1.118794e+05 -2.038699e+04
-3.000000e+05 -9.607967e+04 -1.205365e+04
-3.000000e+05 -8.136905e+04 0.000000e+00
-3.164385e+05 -1.074026e+05 0.000000e+00
-3.103863e+05 -1.239995e+05 -7.544511e+03
-3.000000e+05 -1.147878e+05 0.000000e+00
-3.000000e+05 -1.316253e+05 0.000000e+00
-3.000000e+05 -1.305875e+05 -8.333333e+03
-3.164465e+05 -9.050021e+04 0.000000e+00
3.137852e+05 1.440981e+05 -1.228903e+04
3.163711e+05 1.613460e+05 0.000000e+00
3.000000e+05 1.366305e+05 -8.333333e+03
3.000000e+05 1.524302e+05 0.000000e+00
3.119853e+05 1.696736e+05 -8.480007e+03
3.164371e+05 1.781516e+05 0.000000e+00
3.000000e+05 1.608466e+05 -1.975239e+04
3.000000e+05 1.766464e+05 -1.141905e+04
3.134171e+05 1.516754e+05 -2.355124e+04
3.000000e+05 1.855385e+05 0.000000e+00
3.164333e+05 8.187879e+04 -5.000000e+04
3.166570e+05 9.660264e+04 -3.757011e+04
3.144041e+05 7.496596e+04 -3.744731e+04
3.125419e+05 8.824011e+04 -2.365343e+04
3.000000e+05 7.151773e+04 -2.500000e+04
3.000000e+05 6.128960e+04 -3.711059e+04
3.164885e+05 6.503066e+04 -5.000000e+04
3.000000e+05 5.737095e+04 -5.000000e+04
3.000000e+05 9.050372e+04 -5.000000e+04
3.000000e+05 1.063034e+05 -4.166667e+04
3.000000e+05 1.066188e+05 -5.000000e+04
3.000000e+05 8.731745e+04 -1.666667e+04
-3.000000e+05 -1.800622e+05 -1.666667e+04
-3.195815e+05 -1.730638e+05 -1.771905e+04
-3.140268e+05 -1.609482e+05 -2.926636e+04
-3.115685e+05 -1.556334e+05 -1.810096e+04
-3.144401e+05 -1.504230e+05 -3.392401e+04
-3.108514e+05 -1.348511e+05 -3.169298e+04
-3.000000e+05 -1.417526e+05 -4.166667e+04
-3.000000e+05 -1.259528e+05 -3.333333e+04
-3.000000e+05 -1.632247e+05 -1.666667e+04
-3.000000e+05 -1.653002e+05 0.000000e+00
-3.139936e+05 -1.374459e+05 -1.618868e+04
-3.000000e+05 -1.474250e+05 -8.333333e+03
-3.286766e+05 -1.255103e+05 -2.202920e+04
-3.178474e+05 -1.215380e+05 -3.405490e+04
-3.182704e+05 -1.321624e+05 -4.720775e+03
3.133288e+05 1.332771e+05 -1.819896e+04
3.000000e+05 1.382182e+05 -3.333333e+04
3.000000e+05 1.543333e+05 -3.333333e+04
3.000000e+05 1.198738e+05 -8.333333e+03
3.000000e+05 1.040741e+05 -1.666667e+04
3.124193e+05 1.188945e+05 -2.610476e+04
3.000000e+05 1.224185e+05 -4.166667e+04
3.158565e+05 1.054947e+05 -2.659196e+04
3.203160e+05 1.150511e+05 -4.127624e+04
3.168995e+05 1.101194e+05 -1.636259e+04
-3.000000e+05 -1.848487e+05 -4.583333e+04
-3.063325e+05 -1.852394e+05 -3.963633e+04
-3.000000e+05 -1.892895e+05 -3.994370e+04
-3.000000e+05 -1.769489e+05 -4.166667e+04
-3.000000e+05 -1.971893e+05 -4.411036e+04
-3.050091e+05 -1.925143e+05 -4.388491e+04
-3.000000e+05 -1.927486e+05 -5.000000e+04
-3.081298e+05 -1.982632e+05 -5.000000e+04
-3.082068e+05 -1.895282e+05 -5.000000e+04
-3.000000e+05 -1.760497e+05 -4.583333e+04
-3.076415e+05 -1.798990e+05 -4.402253e+04
-3.000000e+05 -1.839495e+05 -5.000000e+04
-3.000000e+05 -2.016862e+05 -5.000000e+04
-3.000000e+05 -1.058502e+05 -4.166667e+03
-3.057245e+05 -1.067575e+05 -8.026302e+03
-3.000000e+05 -1.049148e+05 -1.019349e+04
-3.000000e+05 -1.137500e+05 -8.333333e+03
-3.000000e+05 -9.701499e+04 -6.026827e+03
-3.046901e+05 -9.952623e+04 -5.567467e+03
-3.000000e+05 -9.795031e+04 0.000000e+00
-3.000000e+05 -8.965968e+04 0.000000e+00
-3.074390e+05 -1.125152e+05 -5.497052e+03
-3.082192e+05 -1.026764e+05 0.000000e+00
-3.000000e+05 -1.142689e+05 -4.166667e+03
-3.000000e+05 -1.063690e+05 0.000000e+00
-3.082232e+05 -9.422526e+04 0.000000e+00
3.000000e+05 1.612870e+05 -4.166667e+03
3.062783e+05 1.566594e+05 -6.446020e+03
3.000000e+05 1.529087e+05 -4.166667e+03
3.000000e+05 1.533872e+05 -8.333333e+03
3.000000e+05 1.608086e+05 0.000000e+00
3.081855e+05 1.652664e+05 0.000000e+00
3.000000e+05 1.691869e+05 0.000000e+00
3.082185e+05 1.736692e+05 0.000000e+00
3.050015e+05 1.684998e+05 -3.461087e+03
3.000000e+05 1.650168e+05 -9.876193e+03
3.060324e+05 1.639994e+05 -7.741506e+03
3.000000e+05 1.729166e+05 -5.709526e+03
3.000000e+05 1.773627e+05 0.000000e+00
3.000000e+05 8.228847e+04 -4.583333e+04
3.076214e+05 8.331727e+04 -3.636169e+04
3.087095e+05 8.866368e+04 -4.329562e+04
3.000000e+05 9.018833e+04 -4.166667e+04
3.082167e+05 7.813370e+04 -5.000000e+04
3.070122e+05 7.696056e+04 -4.344686e+04
3.000000e+05 7.438862e+04 -5.000000e+04
3.000000e+05 7.295318e+04 -3.750000e+04
3.000000e+05 6.783911e+04 -4.355529e+04
3.082443e+05 6.970964e+04 -5.000000e+04
3.000000e+05 6.587979e+04 -5.000000e+04
3.000000e+05 9.034602e+04 -4.583333e+04
3.000000e+05 8.244617e+04 -5.000000e+04
3.000000e+05 8.085303e+04 -3.333333e+04
-3.000000e+05 -1.690490e+05 -3.750000e+04
-3.000000e+05 -1.813896e+05 -3.577703e+04
-3.047023e+05 -1.775286e+05 -3.594630e+04
-3.060774e+05 -1.702064e+05 -3.302782e+04
-3.000000e+05 -1.734897e+05 -3.161036e+04
-3.000000e+05 -1.611492e+05 -3.333333e+04
-3.063022e+05 -1.726667e+05 -3.951565e+04
-3.000000e+05 -1.681498e+05 -4.166667e+04
-3.000000e+05 -1.602499e+05 -3.750000e+04
-3.073246e+05 -1.637354e+05 -3.622639e+04
-3.000000e+05 -1.706057e+05 -2.500000e+04
-3.085526e+05 -1.673940e+05 -2.594492e+04
-3.049028e+05 -1.588437e+05 -2.487045e+04
-3.066564e+05 -1.614711e+05 -3.026120e+04
-3.060413e+05 -1.555000e+05 -3.145753e+04
-3.000000e+05 -1.532493e+05 -2.916667e+04
-3.000000e+05 -1.435510e+05 -3.333333e+04
-3.056187e+05 -1.463975e+05 -3.110922e+04
-3.000000e+05 -1.453495e+05 -2.500000e+04
-3.000000e+05 -1.514509e+05 -3.750000e+04
-3.000000e+05 -1.621869e+05 -2.500000e+04
-3.050465e+05 -1.508134e+05 -2.450231e+04
-3.000000e+05 -1.542871e+05 -2.083333e+04
-3.000000e+05 -1.216499e+05 -1.250000e+04
-3.000000e+05 -1.128147e+05 -1.436016e+04
-3.053738e+05 -1.140849e+05 -1.409574e+04
-3.060327e+05 -1.227457e+05 -1.612389e+04
-3.000000e+05 -1.207146e+05 -1.852683e+04
-3.000000e+05 -1.295497e+05 -1.666667e+04
-3.053775e+05 -1.190768e+05 -1.000404e+04
-3.028105e+05 -1.257177e+05 -1.171446e+04
-3.000000e+05 -1.221688e+05 -8.333333e+03
-3.000000e+05 -1.300686e+05 -1.250000e+04
-3.000000e+05 -1.374496e+05 -2.083333e+04
-3.046089e+05 -1.388295e+05 -2.512605e+04
-3.000000e+05 -1.356511e+05 -2.916667e+04
-3.000000e+05 -1.277513e+05 -2.500000e+04
-3.038401e+05 -1.310709e+05 -2.546274e+04
-3.000000e+05 -1.463872e+05 -1.666667e+04
-3.073096e+05 -1.439036e+05 -2.026449e+04
-3.058615e+05 -1.315674e+05 -1.783281e+04
-3.000000e+05 -1.384874e+05 -1.250000e+04
-3.122532e+05 -1.279420e+05 -1.902556e+04
-3.087058e+05 -1.261403e+05 -2.526913e+04
-3.056308e+05 -1.280722e+05 -1.072973e+04
3.000000e+05 1.454873e+05 -1.250000e+04
3.000000e+05 1.450088e+05 -8.333333e+03
3.070684e+05 1.475657e+05 -1.044106e+04
3.067905e+05 1.438948e+05 -1.492926e+04
3.000000e+05 1.371090e+05 -1.250000e+04
3.000000e+05 1.375875e+05 -1.666667e+04
3.082945e+05 1.559194e+05 -1.373494e+04
3.000000e+05 1.571169e+05 -1.404286e+04
3.000000e+05 1.492171e+05 -1.820953e+04
3.049616e+05 1.473539e+05 -1.931997e+04
3.057893e+05 1.367319e+05 -1.839771e+04
3.000000e+05 1.379029e+05 -2.500000e+04
3.000000e+05 1.459604e+05 -2.500000e+04
3.000000e+05 1.287307e+05 -1.250000e+04
3.000000e+05 1.296876e+05 -2.083333e+04
3.060943e+05 1.279169e+05 -2.143236e+04
3.000000e+05 1.208308e+05 -1.666667e+04
3.000000e+05 1.217878e+05 -2.500000e+04
3.000000e+05 1.300030e+05 -2.916667e+04
3.000000e+05 9.808819e+04 -3.750000e+04
3.062084e+05 9.570750e+04 -3.823985e+04
3.059384e+05 9.143165e+04 -3.280129e+04
3.061090e+05 9.786587e+04 -2.657423e+04
3.083571e+05 1.005126e+05 -3.312740e+04
3.000000e+05 1.059880e+05 -3.333333e+04
3.000000e+05 9.824588e+04 -4.166667e+04
3.000000e+05 1.061457e+05 -3.750000e+04
3.000000e+05 8.875289e+04 -2.916667e+04
3.000000e+05 9.665275e+04 -2.500000e+04
3.000000e+05 1.138879e+05 -2.916667e+04
3.000000e+05 1.129309e+05 -2.083333e+04
3.050242e+05 1.177371e+05 -2.517681e+04
3.050912e+05 1.138908e+05 -3.199561e+04
3.000000e+05 1.050311e+05 -2.500000e+04
3.000000e+05 1.221031e+05 -3.333333e+04
3.000000e+05 1.142033e+05 -3.750000e+04
3.074820e+05 1.068769e+05 -2.993520e+04
3.099164e+05 1.107217e+05 -3.647062e+04
-3.105037e+05 -1.088279e+05 -1.012780e+04
-3.100024e+05 -1.416793e+05 -2.693895e+04
-2.698385e+05 5.096055e+04 0.000000e+00
-2.774114e+05 5.893413e+04 -2.514195e+04
-2.517726e+05 3.457474e+04 -2.461423e+04
-2.784359e+05 2.273817e+04 -2.293744e+04
-2.696827e+05 3.918807e+02 -5.000000e+04
-2.780532e+05 -1.423493e+04 -2.211430e+04
-2.518068e+05 1.912511e+02 -2.468765e+04
-1.519779e+05 -5.811054e+04 -5.000000e+04
-1.426259e+05 -4.025644e+04 -3.992867e+04
-1.689934e+05 -2.863986e+04 -5.000000e+04
-1.677502e+05 -5.257508e+04 -4.012402e+04
4.997817e+04 2.114393e+05 -5.000000e+04
3.283471e+04 1.812640e+05 -5.000000e+04
5.303565e+04 1.808812e+05 -2.439139e+04
2.934182e+04 2.018067e+05 -2.473703e+04
1.661797e+04 2.114356e+05 -5.000000e+04
8.965352e+03 2.271405e+05 -2.454804e+04
-3.881101e+03 1.984003e+05 -2.319259e+04
1.561144e+04 1.760565e+05 -2.465939e+04
1.632483e+04 2.089927e+05 0.000000e+00
3.481443e+04 1.801836e+05 0.000000e+00
4.938676e+04 2.112398e+05 0.000000e+00
4.481805e+04 2.304341e+05 -2.392316e+04
2.415947e+05 1.357745e+05 -5.000000e+04
2.043600e+05 1.494587e+05 -5.000000e+04
2.157758e+05 1.367124e+05 -3.337692e+04
2.230443e+05 1.657220e+05 -2.677081e+04
2.404461e+05 1.703394e+05 -5.000000e+04
2.272949e+05 1.916705e+05 -2.462887e+04
2.107425e+05 1.883183e+05 -5.000000e+04
-2.100988e+05 1.417485e+05 -5.000000e+04
-2.401956e+05 1.240175e+05 -5.000000e+04
-2.099010e+05 1.060251e+05 -5.000000e+04
-2.226786e+05 1.142428e+05 -2.520952e+04
1.926883e+05 1.784552e+05 -2.659313e+04
-2.706209e+05 1.508059e+05 0.000000e+00
-2.705513e+05 1.175945e+05 0.000000e+00
-2.775137e+05 1.301388e+05 -2.506876e+04
2.096777e+05 1.619538e+05 0.000000e+00
1.848580e+05 1.428044e+05 -2.516588e+04
2.414027e+05 1.753068e+05 0.000000e+00
-1.500849e+05 2.114885e+05 -5.000000e+04
-1.688301e+05 1.988699e+05 -2.473968e+04
-1.394952e+05 1.954987e+05 -2.481460e+04
-1.529017e+05 2.258143e+05 -2.486894e+04
-1.247933e+05 2.276229e+05 -2.494335e+04
-1.333372e+05 2.410712e+05 -5.000000e+04
-1.511263e+05 2.108182e+05 0.000000e+00
-1.575342e+05 2.530633e+05 -2.478829e+04
-1.334246e+05 2.410391e+05 0.000000e+00
1.976293e+05 1.239055e+05 -4.082388e+04
1.191035e+05 1.869703e+05 0.000000e+00
1.054754e+05 2.133413e+05 -2.604671e+04
1.378805e+05 2.091585e+05 -2.347149e+04
1.272536e+05 1.733326e+05 -2.494042e+04
2.148753e+05 1.058504e+05 -5.000000e+04
-1.149455e+05 1.254182e+05 -5.000000e+04
-1.157069e+05 8.827206e+04 -5.000000e+04
-8.519663e+04 1.064232e+05 -5.000000e+04
-1.018023e+05 1.073409e+05 -2.332955e+04
-2.057871e+05 1.796976e+05 -5.000000e+04
-2.227358e+05 1.724173e+05 -2.490355e+04
-1.971353e+05 1.386036e+05 -2.686712e+04
-1.883232e+05 1.697369e+05 -2.362456e+04
-2.105827e+05 1.872900e+05 0.000000e+00
-1.975670e+05 1.987324e+05 -2.483780e+04
-1.736304e+05 1.764792e+05 0.000000e+00
-1.556985e+05 1.719616e+05 -2.564724e+04
-1.792056e+05 1.360068e+05 0.000000e+00
-1.682677e+05 1.504012e+05 -2.701476e+04
-2.039514e+05 -2.141557e+04 0.000000e+00
-1.933349e+05 -3.849651e+04 -3.044915e+04
-1.846146e+05 6.615971e+03 -2.510858e+04
-1.727034e+05 -2.770251e+04 -2.832040e+04
-1.557450e+05 -1.035333e+04 -1.968776e+04
-1.630850e+05 4.873419e+03 -5.000000e+04
-1.500037e+05 2.705866e+05 -5.000000e+04
-1.667401e+05 2.409742e+05 -5.000000e+04
-2.029572e+05 -5.733698e+03 -5.000000e+04
-2.261777e+04 1.297171e+05 -5.000000e+04
-5.497918e+04 1.210181e+05 -5.000000e+04
-2.993435e+04 9.602964e+04 -5.000000e+04
-4.653140e+04 1.052544e+05 -2.460107e+04
-2.696532e+05 3.562355e+04 -5.000000e+04
-2.699172e+05 7.104488e+04 -5.000000e+04
-2.521730e+05 6.692616e+04 -2.536471e+04
-2.697259e+05 9.441409e+04 -2.528523e+04
-2.702520e+05 8.430947e+04 0.000000e+00
8.226126e+04 1.518574e+05 -5.000000e+04
1.162460e+05 1.496213e+05 -5.000000e+04
1.009912e+05 1.546250e+05 -2.547224e+04
1.015539e+05 1.289732e+05 -2.566141e+04
1.178567e+05 1.531060e+05 0.000000e+00
8.646968e+04 1.389719e+05 0.000000e+00
8.296321e+04 1.049956e+05 0.000000e+00
1.145881e+05 1.190832e+05 0.000000e+00
1.014506e+05 9.471685e+04 -3.169795e+04
6.740820e+04 1.476234e+05 -2.507851e+04
7.477296e+04 1.166762e+05 -2.531103e+04
5.000001e+04 2.706090e+05 -5.000000e+04
3.333374e+04 2.410682e+05 -5.000000e+04
7.136040e+04 2.608062e+05 -2.582371e+04
4.523313e+04 2.772003e+05 -2.732932e+04
-8.333329e+04 2.706036e+05 -5.000000e+04
-7.574978e+04 2.536420e+05 -2.493839e+04
-6.547760e+04 2.781190e+05 -2.467178e+04
-9.875210e+04 2.780827e+05 -2.468251e+04
-1.166688e+05 2.706034e+05 0.000000e+00
-1.070757e+05 2.537620e+05 -2.492367e+04
-1.329628e+05 2.703469e+05 -2.479922e+04
-1.166664e+05 2.706090e+05 -5.000000e+04
-3.352876e+04 1.840063e+05 0.000000e+00
-2.391851e+04 1.694805e+05 -2.604035e+04
-3.069497e+04 1.993258e+05 -2.699865e+04
-1.668951e+04 2.114859e+05 -5.000000e+04
-1.692184e+04 2.094810e+05 0.000000e+00
-2.375462e+04 2.262993e+05 -2.502529e+04
-1.544147e+03 1.720442e+05 0.000000e+00
-9.007624e+04 1.533003e+05 0.000000e+00
-1.019781e+05 1.378815e+05 -2.507849e+04
-8.408647e+04 1.710979e+05 -2.498784e+04
-6.278539e+04 1.529994e+05 -2.523208e+04
-1.839529e+05 2.112090e+05 -5.000000e+04
-1.830971e+05 2.263057e+05 -2.476536e+04
-1.670936e+05 1.818749e+05 -5.000000e+04
-1.820662e+05 1.559884e+05 -5.000000e+04
-2.681300e+05 -5.024767e+04 0.000000e+00
-2.787216e+05 -6.902198e+04 -3.289139e+04
-2.696360e+05 1.756507e+04 0.000000e+00
-2.700349e+05 -3.461252e+04 -5.000000e+04
-2.528674e+05 -3.484544e+04 -2.583661e+04
-1.435922e+03 2.790921e+05 -2.490363e+04
1.666668e+04 2.705986e+05 -5.000000e+04
-9.859978e+03 2.544202e+05 -2.475396e+04
2.225272e+04 2.591759e+05 -2.298678e+04
-1.667065e+04 2.705742e+05 0.000000e+00
-3.240656e+04 2.781554e+05 -2.477286e+04
1.665489e+04 2.705682e+05 0.000000e+00
2.461175e+05 2.717347e+05 0.000000e+00
2.282927e+05 2.790271e+05 -2.479337e+04
2.173193e+05 2.696264e+05 0.000000e+00
2.125552e+05 2.490257e+05 -2.592701e+04
1.840785e+05 2.737965e+05 -2.514128e+04
2.451914e+05 2.726784e+05 -5.000000e+04
2.455282e+05 2.586966e+05 -2.500364e+04
2.742302e+05 2.752982e+05 -3.447995e+04
2.165689e+05 2.706314e+05 -5.000000e+04
-6.552352e+04 1.766752e+05 0.000000e+00
-5.144578e+04 1.833141e+05 -2.513614e+04
-3.408261e+04 1.527403e+05 0.000000e+00
-3.607514e+04 1.364378e+05 -2.476890e+04
-8.320808e+04 1.472530e+05 -5.000000e+04
-6.633466e+04 1.814973e+05 -5.000000e+04
-4.699216e+04 1.530497e+05 -5.000000e+04
-2.517150e+05 1.197315e+05 -2.469659e+04
-2.700776e+05 1.064006e+05 -5.000000e+04
-2.700669e+05 1.416483e+05 -5.000000e+04
-2.533573e+05 1.544072e+05 -2.504626e+04
-2.779049e+05 1.646472e+05 -2.521545e+04
2.707870e+05 1.546874e+05 -5.000000e+04
2.486162e+05 1.512056e+05 -3.277706e+04
2.606417e+05 1.751074e+05 -2.295765e+04
2.715507e+05 1.879976e+05 0.000000e+00
2.564705e+05 1.967006e+05 -2.491016e+04
-1.460381e+05 6.849310e+04 -5.000000e+04
-1.369053e+05 9.648222e+04 -2.350520e+04
-1.468731e+05 1.065598e+05 -5.000000e+04
-1.617802e+05 8.092123e+04 -2.635623e+04
-1.727756e+05 4.658077e+04 -5.000000e+04
-1.897441e+05 6.941822e+04 -2.324734e+04
-1.542123e+05 4.546483e+04 -2.571797e+04
-1.311555e+05 6.665525e+04 -2.469792e+04
-2.023768e+05 1.293411e+04 0.000000e+00
-2.201321e+05 1.628347e+04 -2.492611e+04
-1.908322e+05 3.908573e+04 -2.342363e+04
-2.024253e+05 4.734363e+04 0.000000e+00
-2.215314e+05 5.062696e+04 -2.483826e+04
-1.700563e+05 6.276598e+04 0.000000e+00
1.747671e+05 1.803018e+05 -5.000000e+04
-2.077826e+05 6.867578e+04 -5.000000e+04
8.336317e+04 2.705794e+05 0.000000e+00
1.167618e+05 2.704482e+05 0.000000e+00
1.008436e+05 2.779862e+05 -2.499895e+04
1.166775e+05 2.705950e+05 -5.000000e+04
1.082608e+05 2.503347e+05 -2.420907e+04
1.315242e+05 2.707750e+05 -2.503316e+04
8.333335e+04 2.706038e+05 -5.000000e+04
-2.705057e+05 1.841095e+05 0.000000e+00
-2.526751e+05 1.880372e+05 -2.538834e+04
-2.774636e+05 1.990546e+05 -2.527546e+04
-2.696988e+05 2.184032e+05 0.000000e+00
-2.737542e+05 2.349708e+05 -2.346414e+04
-2.502564e+05 2.204680e+05 -2.708052e+04
-2.694589e+05 2.129522e+05 -5.000000e+04
-2.364726e+05 2.389905e+05 0.000000e+00
-2.157327e+05 2.336481e+05 -2.344060e+04
-2.260912e+05 2.052869e+05 -2.522790e+04
-2.370244e+05 2.359991e+05 -5.000000e+04
-2.394641e+05 1.961035e+05 -5.000000e+04
-2.712437e+05 2.436015e+05 -5.000000e+04
-2.430299e+05 2.491547e+05 -2.868282e+04
-1.652588e+05 2.785497e+05 -2.475938e+04
-1.833713e+05 2.705230e+05 -5.000000e+04
-1.908073e+05 2.583600e+05 -2.345534e+04
-1.500098e+05 2.706049e+05 0.000000e+00
-2.402372e+05 1.007649e+05 0.000000e+00
-2.068494e+05 8.267284e+04 0.000000e+00
-2.261071e+05 8.353544e+04 -2.631394e+04
-2.275744e+05 1.422611e+05 -2.321175e+04
-2.406845e+05 1.344317e+05 0.000000e+00
-2.398933e+05 8.839421e+04 -5.000000e+04
2.698487e+05 2.204228e+05 -5.000000e+04
2.709298e+05 2.394330e+05 -2.494478e+04
2.391176e+05 2.216905e+05 -2.418094e+04
2.783764e+05 2.080675e+05 -2.477962e+04
2.714024e+05 2.197984e+05 0.000000e+00
2.705910e+05 1.872602e+05 -5.000000e+04
-7.349814e+04 1.218822e+05 -2.521518e+04
-1.329054e+05 1.819841e+05 -5.000000e+04
-1.342788e+05 1.542334e+05 -2.635535e+04
-1.480897e+05 1.480871e+05 -5.000000e+04
-1.514969e+05 1.515331e+05 0.000000e+00
-8.532005e+04 6.689037e+04 -5.000000e+04
-7.841121e+04 8.756295e+04 -2.508487e+04
-1.060728e+05 7.705472e+04 -2.387747e+04
-1.182330e+05 5.582649e+04 -5.000000e+04
-1.186058e+05 4.055158e+04 -2.499843e+04
-8.947880e+04 4.804188e+04 -2.527090e+04
-1.036925e+05 5.527398e+04 0.000000e+00
-1.362337e+05 8.127193e+04 0.000000e+00
-7.153482e+04 6.879743e+04 0.000000e+00
-9.938209e+04 8.959047e+04 0.000000e+00
-2.697558e+05 2.544651e+05 0.000000e+00
-2.585565e+05 2.716639e+05 -2.468205e+04
-2.534511e+05 2.696623e+05 -5.000000e+04
-2.808935e+05 2.691318e+05 -3.112051e+04
-2.451408e+05 2.723832e+05 0.000000e+00
-2.246795e+05 2.669660e+05 -2.496913e+04
-2.172721e+05 2.700705e+05 -5.000000e+04
-8.333363e+04 2.706016e+05 0.000000e+00
-5.000105e+04 2.705816e+05 0.000000e+00
-4.275078e+04 2.535774e+05 -2.492711e+04
-4.999999e+04 2.705981e+05 -5.000000e+04
-1.375309e+05 -2.999243e+04 -5.000000e+04
-1.666666e+04 2.706083e+05 -5.000000e+04
-2.694833e+05 -7.007667e+04 -5.000000e+04
-2.685510e+05 -1.063642e+05 -5.000000e+04
-2.504994e+05 -6.521107e+04 -3.109660e+04
-1.200000e+05 -6.974937e+04 -5.000000e+04
-1.025810e+05 -3.003447e+04 -5.000000e+04
-2.699247e+05 1.771114e+05 -5.000000e+04
-1.869043e+05 -6.261846e+04 -5.000000e+04
-2.165269e+05 2.705352e+05 0.000000e+00
-1.833397e+05 2.706013e+05 0.000000e+00
-2.003137e+05 2.412074e+05 0.000000e+00
-2.000351e+05 2.405691e+05 -5.000000e+04
1.673188e+05 2.398500e+05 0.000000e+00
1.595871e+05 2.608500e+05 -2.504372e+04
1.672443e+05 2.154952e+05 -2.643475e+04
1.349233e+05 2.370931e+05 -2.403886e+04
-2.381445e+05 6.676347e+04 0.000000e+00
1.835965e+05 2.701279e+05 0.000000e+00
1.842353e+05 2.412053e+05 -2.515867e+04
1.335768e+05 2.409978e+05 -5.000000e+04
1.339048e+05 2.402560e+05 0.000000e+00
1.501493e+05 2.703540e+05 0.000000e+00
1.500346e+05 2.706022e+05 -5.000000e+04
1.833926e+05 2.705977e+05 -5.000000e+04
1.530048e+05 1.059548e+05 -5.000000e+04
1.279844e+05 1.219983e+05 -5.000000e+04
1.217993e+05 9.226061e+04 -5.000000e+04
1.287204e+05 1.117844e+05 -2.632817e+04
1.521389e+05 2.109519e+05 -5.000000e+04
-1.795340e+05 1.245728e+05 -5.000000e+04
-1.625732e+05 1.210999e+05 -2.553845e+04
-1.930760e+05 1.023853e+05 -2.532107e+04
-1.210759e+05 1.452117e+05 0.000000e+00
-1.115803e+05 1.679045e+05 -2.494927e+04
-1.352560e+05 1.799086e+05 0.000000e+00
-9.978236e+04 1.818306e+05 -5.000000e+04
-1.070577e+05 1.969480e+05 -2.493411e+04
-8.330486e+04 2.114574e+05 -5.000000e+04
-7.623069e+04 1.973825e+05 -2.476843e+04
-1.170627e+05 2.111315e+05 0.000000e+00
-9.152184e+04 2.257642e+05 -2.494376e+04
-8.344782e+04 2.107531e+05 0.000000e+00
-1.166238e+05 2.114939e+05 -5.000000e+04
-1.361562e+05 4.140705e+04 0.000000e+00
-1.686495e+05 2.690614e+04 0.000000e+00
-1.375268e+05 1.486621e+04 -2.718818e+04
-1.069565e+05 2.053988e+04 0.000000e+00
-1.028641e+05 9.241933e+03 -2.952420e+04
-1.243556e+05 -1.203178e+04 -3.065299e+04
-1.029870e+05 2.674995e+04 -5.000000e+04
-1.370171e+05 2.674844e+04 -5.000000e+04
-1.200189e+05 2.533647e+02 -5.000000e+04
-1.709431e+05 -7.549403e+03 0.000000e+00
1.004961e+05 2.409950e+05 0.000000e+00
7.802410e+04 2.285580e+05 -2.484361e+04
6.681316e+04 2.407371e+05 0.000000e+00
8.339765e+04 2.113970e+05 -5.000000e+04
7.342433e+04 2.007426e+05 -2.505203e+04
1.000304e+05 2.410559e+05 -5.000000e+04
2.743927e+05 2.750450e+05 -1.542038e+04
-6.484947e+04 1.380268e+05 0.000000e+00
-6.779182e+04 1.030338e+05 0.000000e+00
-5.985725e+04 9.039874e+04 -5.000000e+04
1.778915e+05 1.474138e+05 0.000000e+00
1.589908e+05 1.758532e+05 -2.461520e+04
1.564843e+05 1.434501e+05 -5.000000e+04
-5.770148e+04 6.501252e+04 -2.448134e+04
-4.261780e+04 6.027998e+04 -5.000000e+04
-2.379732e+04 7.779456e+04 -2.648440e+04
-4.359324e+04 4.865782e+04 0.000000e+00
-2.548972e+04 3.960276e+04 -3.246356e+04
-7.002242e+04 3.708726e+04 -5.000000e+04
-6.080884e+04 2.452524e+04 -3.194073e+04
-7.525528e+04 3.459196e+04 0.000000e+00
-2.132258e+05 2.128121e+05 -5.000000e+04
3.317963e+04 2.407797e+05 0.000000e+00
-8.098841e+01 2.405464e+05 0.000000e+00
2.698509e+05 2.554602e+05 -5.000000e+04
-2.148828e+05 2.153262e+05 0.000000e+00
-1.778231e+05 8.687318e+04 -5.000000e+04
-1.312302e+05 1.236426e+05 -2.553947e+04
-1.763040e+05 9.979896e+04 0.000000e+00
5.869138e+04 1.581736e+05 0.000000e+00
3.650146e+04 1.500389e+05 -2.527751e+04
-1.495946e+05 1.193468e+05 0.000000e+00
-2.406829e+05 2.013875e+05 0.000000e+00
-2.037058e+05 3.010390e+04 -5.000000e+04
-4.125629e+04 2.261546e+04 -5.000000e+04
1.260638e+05 1.403212e+05 -2.506937e+04
8.597230e+04 2.082746e+05 0.000000e+00
9.341499e+04 1.790738e+05 -2.377118e+04
6.650893e+04 1.817093e+05 -5.000000e+04
1.002114e+05 1.812614e+05 -5.000000e+04
6.258827e+04 1.862466e+05 0.000000e+00
2.708679e+05 2.542421e+05 0.000000e+00
2.386545e+05 2.365981e+05 0.000000e+00
2.365583e+05 2.397820e+05 -5.000000e+04
1.494306e+05 1.677293e+05 0.000000e+00
1.509056e+05 2.059013e+05 0.000000e+00
1.462168e+05 1.332056e+05 0.000000e+00
6.520087e+04 1.282434e+05 -5.000000e+04
4.471090e+04 1.067106e+05 -2.543357e+04
5.133236e+04 9.091224e+04 0.000000e+00
1.969391e+04 7.682824e+04 0.000000e+00
3.841273e+04 6.693743e+04 -3.258507e+04
3.071311e+04 8.473306e+04 -5.000000e+04
1.156443e+04 9.040244e+04 -2.558233e+04
6.240397e+04 9.849753e+04 -5.000000e+04
7.008761e+04 8.430224e+04 -3.049459e+04
-2.397660e+05 1.596991e+05 -5.000000e+04
-2.407562e+05 1.679454e+05 0.000000e+00
-2.369738e+05 3.280835e+04 0.000000e+00
-2.389341e+05 -1.865622e+04 -5.000000e+04
-2.214939e+05 -1.833252e+04 -2.589362e+04
-2.385431e+05 5.196753e+04 -5.000000e+04
-2.376264e+05 1.600995e+04 -5.000000e+04
-6.240840e+02 1.817571e+05 -5.000000e+04
-7.691725e+04 4.877240e+03 -5.000000e+04
-3.325145e+04 1.823987e+05 -5.000000e+04
-6.666838e+04 2.409952e+05 0.000000e+00
-5.757474e+04 2.241328e+05 -2.494867e+04
-1.000260e+05 2.410214e+05 0.000000e+00
6.134187e+03 5.114510e+04 -3.341148e+04
3.700216e+04 1.194505e+05 -5.000000e+04
5.833669e+04 6.424238e+04 -5.000000e+04
-2.365688e+05 -3.559422e+04 0.000000e+00
-9.999871e+04 2.410707e+05 -5.000000e+04
-2.405835e+05 -5.271307e+04 -5.000000e+04
-2.248947e+05 -4.922323e+04 -2.851345e+04
1.672711e+05 2.410706e+05 -5.000000e+04
2.006080e+05 2.413557e+05 -5.000000e+04
2.152137e+05 2.161829e+05 -5.000000e+04
2.012329e+05 2.138689e+05 -2.487617e+04
2.007945e+05 2.386475e+05 0.000000e+00
-1.019803e+05 1.800960e+05 0.000000e+00
-1.155595e+05 1.566420e+05 -5.000000e+04
4.999720e+04 2.705700e+05 0.000000e+00
8.946030e-03 2.410706e+05 -5.000000e+04
8.852600e+04 1.724024e+05 0.000000e+00
9.492402e+04 1.169898e+05 -5.000000e+04
1.813642e+05 1.824228e+05 0.000000e+00
-1.409470e+04 1.114299e+05 -2.239624e+04
-3.984863e+04 8.281040e+04 0.000000e+00
-4.669926e+03 1.318341e+05 0.000000e+00
-2.886197e+03 1.466009e+05 -2.559792e+04
-2.371541e+05 -1.091587e+03 0.000000e+00
3.856302e+03 1.071177e+05 -5.000000e+04
1.886395e+04 1.245714e+05 -2.335329e+04
5.502800e+04 1.249482e+05 0.000000e+00
1.222959e+04 1.470200e+05 -5.000000e+04
1.823261e+05 1.183533e+05 -5.000000e+04
6.667164e+04 2.410686e+05 -5.000000e+04
4.953188e+04 1.518217e+05 -5.000000e+04
2.344390e+04 1.109939e+05 0.000000e+00
-8.204377e+03 9.690675e+04 0.000000e+00
2.742093e+04 1.456912e+05 0.000000e+00
2.473085e+05 2.043619e+05 0.000000e+00
2.408368e+05 2.033944e+05 -5.000000e+04
2.146145e+05 2.010335e+05 0.000000e+00
-1.669289e+05 2.410941e+05 0.000000e+00
-8.862708e+04 -2.264984e+04 -4.182283e+04
-2.096816e+05 -3.890395e+04 -5.000000e+04
-2.898862e+03 7.186987e+04 -5.000000e+04
-3.635596e+04 1.172807e+05 0.000000e+00
-6.666654e+04 2.410725e+05 -5.000000e+04
-3.333334e+04 2.410710e+05 -5.000000e+04
-4.998541e+04 2.114782e+05 -5.000000e+04
-3.335515e+04 2.407539e+05 0.000000e+00
-4.992998e+04 2.108540e+05 0.000000e+00
-8.801871e+04 -5.810771e+04 -5.000000e+04
-7.100584e+04 -2.863551e+04 -5.000000e+04
-2.094356e+05 1.529549e+05 0.000000e+00
-2.097565e+05 1.176856e+05 0.000000e+00
-1.810538e+04 1.577088e+05 -5.000000e+04
-1.194765e+04 6.274188e+04 0.000000e+00
1.864784e+05 2.123665e+05 -5.000000e+04
1.180964e+05 2.157599e+05 0.000000e+00
2.711810e+05 1.227501e+05 -5.000000e+04
9.002108e+04 7.866214e+04 -5.000000e+04
1.358197e+05 1.797897e+05 -5.000000e+04
1.559193e+05 1.183492e+05 -2.905091e+04
-9.481960e+04 1.231905e+05 0.000000e+00
-1.214526e+05 1.108625e+05 0.000000e+00
1.171446e+05 2.111686e+05 -5.000000e+04
5.451831e+04 3.010553e+04 -5.000000e+04
2.620669e+04 5.045247e+04 -5.000000e+04
1.834849e+05 2.134574e+05 0.000000e+00
-2.155756e+05 -6.654704e+04 -5.000000e+04
-1.387700e+05 6.469061e+03 0.000000e+00
-1.854816e+05 2.119064e+05 0.000000e+00
-2.691015e+05 -1.617033e+04 0.000000e+00
-2.347507e+05 -8.934120e+04 -5.000000e+04
-7.544052e+03 3.719683e+04 -5.000000e+04
-1.711585e+05 -9.714067e+04 -5.000000e+04
8.616013e+04 4.409490e+04 -5.000000e+04
2.245751e+04 1.630916e+04 -5.000000e+04
-1.035939e+04 2.770791e+03 -5.000000e+04
-4.314728e+04 -1.160482e+04 -5.000000e+04
1.176961e+05 5.812589e+04 -5.000000e+04
-2.839033e+05 -1.679837e+05 -5.000000e+04
-2.840420e+05 -1.072828e+05 -2.651549e+04
-2.861302e+05 -8.405802e+04 -1.461160e+04
-2.844252e+05 -7.443471e+04 0.000000e+00
2.857754e+05 1.785922e+05 0.000000e+00
2.820658e+05 1.703324e+05 -1.323340e+04
2.703081e+05 1.717058e+05 0.000000e+00
2.852075e+05 8.306000e+04 -5.000000e+04
2.704151e+05 9.173138e+04 -5.000000e+04
2.691109e+05 7.589333e+04 -5.000000e+04
2.708241e+05 9.548072e+04 -4.511384e+04
2.888983e+05 9.837458e+04 -4.611333e+04
-2.823506e+05 -1.373702e+05 -4.303115e+04
-2.781931e+05 -1.531108e+05 -4.638687e+04
-2.800419e+05 -1.202991e+05 -3.519191e+04
2.858206e+05 1.505145e+05 -3.794984e+04
2.569807e+05 1.352248e+05 -2.623506e+04
2.587223e+05 1.543121e+05 -1.718093e+04
2.761282e+05 1.428196e+05 -2.935690e+04
2.784676e+05 1.581215e+05 -2.410703e+04
2.722751e+05 1.243846e+05 -3.605203e+04
2.865364e+05 1.137020e+05 -4.277098e+04
2.872647e+05 1.322456e+05 -3.548078e+04
2.671521e+05 1.649569e+05 -1.276517e+04
2.699443e+05 1.085984e+05 -4.034748e+04
2.918914e+05 1.187906e+05 -4.733385e+04
-1.758066e+05 -6.299874e+04 -2.941573e+04
-1.607276e+05 -7.036682e+04 -3.579069e+04
-1.741712e+05 -8.450152e+04 -3.775978e+04
-1.556876e+05 -8.875962e+04 -4.364724e+04
-1.482878e+05 -7.223649e+04 -4.137364e+04
-1.299129e+05 -8.404665e+04 -4.409795e+04
-1.414922e+05 -8.639094e+04 -4.393734e+04
-1.340604e+05 -7.375776e+04 -4.336249e+04
-1.393490e+05 -9.204240e+04 -5.000000e+04
-1.248111e+05 -1.001596e+05 -5.000000e+04
-1.673015e+05 -5.055943e+04 -2.155376e+04
-1.558743e+05 -4.921870e+04 -2.510804e+04
-1.740782e+05 -1.009627e+05 -4.489675e+04
-1.564693e+05 -1.097226e+05 -5.000000e+04
-1.474647e+05 -5.990051e+04 -3.375924e+04
-1.405645e+05 -1.071734e+05 -5.000000e+04
-1.323944e+05 -5.702731e+04 -3.600787e+04
-1.425881e+05 -4.084215e+04 -2.468782e+04
-1.517131e+05 -8.266765e+04 -4.765623e+04
-8.009611e+04 -4.064102e+04 -3.738288e+04
-7.280209e+04 -2.105748e+04 -2.989316e+04
-6.971459e+04 -3.893909e+04 -4.150422e+04
-6.124044e+04 -2.601045e+04 -3.825420e+04
-4.609061e+04 -4.579590e+04 -5.000000e+04
-5.751636e+04 -4.734615e+04 -4.444230e+04
-4.667528e+04 -6.300868e+04 -5.000000e+04
-4.363018e+04 -4.727134e+04 -4.554472e+04
-8.897141e+04 -1.694900e+04 -2.487690e+04
-9.333425e+04 -3.859762e+04 -3.558895e+04
-8.979558e+04 -5.839012e+04 -4.392342e+04
-7.304295e+04 -5.462340e+04 -4.578284e+04
-8.339266e+04 -7.617842e+04 -5.000000e+04
-5.065193e+04 -3.198329e+04 -3.815901e+04
-6.763932e+04 -6.916459e+04 -5.000000e+04
-7.922955e+04 -4.031592e+04 -4.475116e+04
-1.597696e+05 -3.884981e+04 -1.891935e+04
-1.681965e+05 -4.304183e+04 -1.503971e+04
-1.798578e+05 -4.669143e+04 -1.801352e+04
-1.889903e+05 -5.937309e+04 -2.518132e+04
-1.723232e+05 -3.209856e+04 -1.331503e+04
-1.844224e+05 -3.999146e+04 -1.136841e+04
-1.972291e+05 -4.677748e+04 -1.604568e+04
-1.041021e+05 -2.037378e+04 -2.254926e+04
-1.127406e+05 -9.499243e+03 -1.236587e+04
-9.844179e+04 -6.649557e+03 -1.592163e+04
-1.057237e+05 -3.653819e+03 -8.995964e+03
-8.898191e+04 6.132935e+03 -1.648035e+04
-7.868996e+04 -6.421064e+03 -2.267364e+04
-1.047724e+05 -4.038808e+04 -3.344923e+04
-1.026135e+05 -1.048663e+04 -2.877499e+04
-1.217569e+05 -2.211197e+04 -1.927619e+04
-1.232498e+05 -7.207425e+04 -4.505099e+04
-1.279570e+05 -3.985042e+04 -2.668806e+04
-1.184698e+05 -4.728412e+04 -3.788497e+04
-1.151366e+05 -8.901310e+04 -5.000000e+04
-1.055064e+05 -7.064306e+04 -4.574823e+04
-9.938331e+04 -8.199926e+04 -5.000000e+04
-1.035969e+05 -4.575157e+04 -4.389595e+04
-1.408906e+05 -2.989122e+04 -1.679367e+04
-1.374493e+05 -1.811087e+04 -1.193116e+04
-1.546366e+05 -2.828840e+04 -1.511179e+04
-1.495222e+05 -2.010340e+04 -7.800217e+03
-1.642208e+05 -2.596178e+04 -7.371537e+03
2.539991e+05 6.972900e+04 -5.000000e+04
2.563997e+05 8.676860e+04 -4.607376e+04
2.401915e+05 7.940271e+04 -5.000000e+04
2.418505e+05 7.758341e+04 -4.576572e+04
2.382458e+05 6.271516e+04 -5.000000e+04
2.264753e+05 6.994402e+04 -4.640576e+04
2.087392e+05 6.659624e+04 -5.000000e+04
2.225197e+05 5.631193e+04 -5.000000e+04
2.067663e+05 4.929809e+04 -5.000000e+04
2.087484e+05 6.824161e+04 -4.518909e+04
1.908969e+05 4.205096e+04 -5.000000e+04
1.770003e+05 5.210199e+04 -5.000000e+04
1.751436e+05 3.503713e+04 -5.000000e+04
1.760259e+05 4.968440e+04 -4.563113e+04
1.935463e+05 5.821824e+04 -4.636732e+04
1.638157e+05 4.278810e+04 -4.641994e+04
1.454805e+05 3.803869e+04 -5.000000e+04
1.593836e+05 2.800548e+04 -5.000000e+04
1.476099e+05 3.916820e+04 -4.532935e+04
1.436303e+05 2.099164e+04 -5.000000e+04
1.139708e+05 2.400705e+04 -5.000000e+04
1.121221e+05 6.961983e+03 -5.000000e+04
1.278754e+05 1.397582e+04 -5.000000e+04
1.125796e+05 2.400195e+04 -4.524974e+04
1.340652e+05 2.955546e+04 -4.614904e+04
9.636256e+04 -4.981639e+01 -5.000000e+04
8.245168e+04 9.983456e+03 -5.000000e+04
8.060922e+04 -7.063654e+03 -5.000000e+04
8.138205e+04 7.677040e+03 -4.556587e+04
9.867682e+04 1.554998e+04 -4.634884e+04
6.480059e+04 -1.405442e+04 -5.000000e+04
6.898009e+04 9.556922e+02 -4.636385e+04
5.083441e+04 -3.998079e+03 -5.000000e+04
5.235158e+04 -2.512822e+03 -4.506472e+04
4.904725e+04 -2.106826e+04 -5.000000e+04
1.892945e+04 -1.785256e+04 -5.000000e+04
1.734143e+04 -3.500934e+04 -5.000000e+04
3.309477e+04 -2.799550e+04 -5.000000e+04
2.064781e+04 -1.696179e+04 -4.514231e+04
3.868292e+04 -1.322297e+04 -4.623091e+04
1.271778e+03 -4.187112e+04 -5.000000e+04
-1.320986e+04 -3.157613e+04 -5.000000e+04
-1.448156e+04 -4.888496e+04 -5.000000e+04
-1.264297e+04 -2.813336e+04 -4.437757e+04
5.449605e+03 -2.691551e+04 -4.636933e+04
-3.092194e+04 -5.599484e+04 -5.000000e+04
-3.156784e+04 -3.637151e+04 -4.546628e+04
-1.722226e+05 -1.167364e+05 -5.000000e+04
-1.884429e+05 -1.257990e+05 -5.000000e+04
-2.035991e+05 -1.152658e+05 -5.000000e+04
-2.031353e+05 -1.138130e+05 -4.446535e+04
-1.837738e+05 -1.114914e+05 -4.609902e+04
-2.041962e+05 -1.328128e+05 -5.000000e+04
-2.202495e+05 -1.241356e+05 -4.383921e+04
-2.328588e+05 -1.299477e+05 -4.589525e+04
-2.358326e+05 -1.283093e+05 -5.000000e+04
-2.203130e+05 -1.393346e+05 -5.000000e+04
-2.360663e+05 -1.463484e+05 -5.000000e+04
-2.680127e+05 -1.430048e+05 -5.000000e+04
-2.679097e+05 -1.607100e+05 -5.000000e+04
-2.521564e+05 -1.536962e+05 -5.000000e+04
-2.640484e+05 -1.414165e+05 -4.469218e+04
-2.467446e+05 -1.390767e+05 -4.617045e+04
-2.576454e+05 -7.486922e+04 -1.483657e+04
-2.634277e+05 -9.164245e+04 -2.405180e+04
-2.714839e+05 -7.647988e+04 -1.835622e+04
-2.747638e+05 -9.545302e+04 -2.486469e+04
-2.833674e+05 -6.717003e+04 -1.243750e+04
-2.684902e+05 -6.716466e+04 0.000000e+00
-2.408742e+05 -6.759439e+04 -1.633535e+04
-2.526692e+05 -6.012067e+04 0.000000e+00
-2.448427e+05 -8.770712e+04 -2.790922e+04
-2.304560e+05 -6.073267e+04 -1.285979e+04
-2.209197e+05 -6.863990e+04 -2.069480e+04
-2.285328e+05 -7.959110e+04 -2.282198e+04
-2.368886e+05 -5.279395e+04 0.000000e+00
-2.167003e+05 -5.154348e+04 -1.287370e+04
-2.210675e+05 -4.574996e+04 0.000000e+00
-2.047588e+05 -3.866063e+04 0.000000e+00
-2.047635e+05 -6.386147e+04 -2.535066e+04
-1.889378e+05 -3.161664e+04 0.000000e+00
-1.724336e+05 -2.468356e+04 0.000000e+00
-1.566126e+05 -1.763957e+04 0.000000e+00
-1.405260e+05 -1.063034e+04 0.000000e+00
-1.247049e+05 -3.586347e+03 0.000000e+00
-1.087982e+05 3.449061e+03 0.000000e+00
-9.297715e+04 1.049305e+04 0.000000e+00
-7.712652e+04 1.751909e+04 0.000000e+00
-6.937558e+04 8.856503e+03 -1.496128e+04
-7.210530e+04 1.875448e+03 -2.078727e+04
-6.556231e+04 -9.327465e+03 -3.299486e+04
-6.130546e+04 2.456308e+04 0.000000e+00
-5.417659e+04 1.929761e+04 -1.668530e+04
-5.445883e+04 1.155671e+03 -2.567590e+04
-3.566295e+04 2.405573e+04 -1.650932e+04
-2.197673e+04 1.305978e+04 -2.873252e+04
-3.554455e+04 2.221885e+03 -3.017730e+04
-2.029973e+04 3.276468e+04 -1.691021e+04
-4.547444e+04 3.159601e+04 0.000000e+00
-2.965339e+04 3.864000e+04 0.000000e+00
7.855968e+03 2.942473e+04 -2.508097e+04
-3.708305e+03 3.815282e+04 -1.540208e+04
1.118603e+04 4.887145e+04 -1.675871e+04
-1.383059e+04 4.568203e+04 0.000000e+00
-4.077591e+03 2.041094e+04 -2.540478e+04
1.990471e+03 5.272602e+04 0.000000e+00
2.735514e+04 3.160725e+04 -3.079400e+04
2.445748e+04 5.757867e+04 -1.228327e+04
4.235824e+04 6.131511e+04 -1.691244e+04
3.870938e+04 4.584555e+04 -2.442827e+04
3.363231e+04 6.681319e+04 0.000000e+00
1.781125e+04 5.976920e+04 0.000000e+00
5.844150e+04 4.557979e+04 -2.791253e+04
5.678878e+04 7.151129e+04 -1.337074e+04
7.016329e+04 5.854885e+04 -2.539302e+04
7.614541e+04 7.620384e+04 -1.613961e+04
4.945153e+04 7.385519e+04 0.000000e+00
6.527259e+04 8.089918e+04 0.000000e+00
9.212133e+04 8.388537e+04 -1.347402e+04
1.044800e+05 7.258087e+04 -2.430483e+04
9.257640e+04 6.262864e+04 -2.571903e+04
1.064716e+05 9.058465e+04 -1.547630e+04
8.108802e+04 8.794086e+04 0.000000e+00
9.690908e+04 9.498485e+04 0.000000e+00
8.428387e+04 9.037879e+04 -1.665117e+04
1.208728e+05 9.931410e+04 -1.077168e+04
1.295494e+05 8.816987e+04 -2.217455e+04
1.226692e+05 7.400569e+04 -2.884997e+04
1.354062e+05 1.035964e+05 -1.356995e+04
1.127215e+05 1.020287e+05 0.000000e+00
1.285426e+05 1.090726e+05 0.000000e+00
1.489882e+05 1.055624e+05 -1.456646e+04
1.440914e+05 9.286073e+04 -2.102644e+04
1.443569e+05 1.161338e+05 0.000000e+00
1.626618e+05 9.847130e+04 -2.457656e+04
1.640028e+05 1.172955e+05 -1.495255e+04
1.601780e+05 1.231778e+05 0.000000e+00
1.804058e+05 1.285064e+05 -1.191382e+04
1.808732e+05 1.073981e+05 -2.359520e+04
1.924478e+05 1.191579e+05 -2.194693e+04
1.760153e+05 1.302819e+05 0.000000e+00
1.964993e+05 1.322081e+05 -1.147039e+04
1.918364e+05 1.373259e+05 0.000000e+00
2.077295e+05 1.445959e+05 0.000000e+00
2.098839e+05 1.341522e+05 -1.632944e+04
2.274034e+05 1.378092e+05 -1.764901e+04
2.235506e+05 1.516399e+05 0.000000e+00
2.250258e+05 1.201549e+05 -2.766299e+04
2.100643e+05 1.171757e+05 -2.467237e+04
2.422636e+05 1.443235e+05 -1.634519e+04
2.393285e+05 1.307244e+05 -2.349875e+04
2.311614e+05 1.527240e+05 -1.441139e+04
2.394131e+05 1.583164e+05 0.000000e+00
2.552341e+05 1.653604e+05 0.000000e+00
3.490855e+04 2.131572e+03 -4.333505e+04
4.902755e+04 1.185066e+04 -4.021046e+04
6.583729e+04 1.666779e+04 -4.347578e+04
5.086969e+04 2.835036e+04 -3.552974e+04
3.603433e+04 2.022292e+04 -3.599621e+04
1.682278e+04 1.303064e+04 -3.706429e+04
2.019944e+04 -4.417606e+03 -4.105602e+04
4.304481e+04 1.019002e+04 -4.688669e+04
8.201900e+04 4.107604e+04 -3.516819e+04
8.367431e+04 2.470101e+04 -4.256587e+04
9.648988e+04 3.257739e+04 -4.074898e+04
6.832041e+04 3.373537e+04 -3.606149e+04
-4.410701e+04 -1.484750e+04 -3.923871e+04
-2.532670e+04 -2.190960e+04 -4.075723e+04
-2.641950e+04 -9.148572e+03 -3.497006e+04
-2.650207e+05 -1.070551e+05 -3.606488e+04
-2.450469e+05 -1.052490e+05 -3.581126e+04
-2.674153e+05 -1.279067e+05 -3.918684e+04
-2.488565e+05 -1.224247e+05 -4.142551e+04
-2.830655e+05 -1.098963e+05 -3.949954e+04
2.085794e+05 9.896080e+04 -3.833065e+04
2.104990e+05 8.050784e+04 -4.057168e+04
2.249597e+05 8.716453e+04 -4.372412e+04
2.445789e+05 1.089866e+05 -3.531640e+04
2.424078e+05 9.463851e+04 -4.177921e+04
2.286182e+05 1.054705e+05 -3.632968e+04
2.465270e+05 1.071622e+05 -5.000000e+04
2.565939e+05 1.022175e+05 -4.051538e+04
1.870741e+05 1.037937e+05 -3.498579e+04
1.996835e+05 1.116792e+05 -3.220790e+04
1.726765e+05 9.288801e+04 -3.171868e+04
1.927519e+05 8.920062e+04 -3.495019e+04
1.776436e+05 8.380743e+04 -3.603317e+04
1.808050e+05 8.657798e+04 -5.000000e+04
1.954087e+05 7.845845e+04 -4.141676e+04
2.431226e+05 1.231625e+05 -3.467983e+04
2.576450e+05 1.253623e+05 -3.110898e+04
2.576734e+05 1.157933e+05 -3.594624e+04
1.613492e+05 5.718209e+04 -4.430474e+04
1.492139e+05 7.216196e+04 -5.000000e+04
1.781049e+05 6.743447e+04 -4.254027e+04
1.473571e+05 5.238017e+04 -4.078557e+04
1.647407e+05 7.459507e+04 -3.630431e+04
1.466104e+05 6.756697e+04 -3.788431e+04
9.653447e+04 4.961059e+04 -3.592555e+04
1.303648e+05 4.709769e+04 -4.354533e+04
1.143425e+05 5.854659e+04 -3.490458e+04
1.141358e+05 4.166083e+04 -4.125626e+04
1.301987e+05 6.354034e+04 -3.409378e+04
1.297842e+05 8.298746e+04 -3.976420e+04
1.449325e+05 8.789374e+04 -3.304749e+04
1.623898e+05 8.569884e+04 -3.211550e+04
3.393832e+04 3.766960e+04 -4.056562e+04
9.935594e+04 6.682845e+04 -3.692137e+04
1.632164e+05 8.541318e+04 -4.428931e+04
-1.400186e+04 -2.022859e+03 -3.420237e+04
-1.399456e+04 -1.593643e+04 -3.941851e+04
1.781763e+03 -7.559365e+03 -4.336447e+04
-2.297092e+03 7.603868e+03 -3.500507e+04
-2.287106e+05 -1.119874e+05 -4.261992e+04
-2.331517e+05 -9.865608e+04 -3.369019e+04
-2.173401e+05 -1.035173e+05 -3.920306e+04
-2.530628e+05 -1.286028e+05 -4.749468e+04
-2.758918e+05 -1.285464e+05 -4.663219e+04
6.520731e+04 5.057925e+04 -4.012142e+04
2.717867e+03 2.459679e+04 -3.667754e+04
3.114782e+03 1.712577e+04 -4.498213e+04
-2.088656e+04 -1.715117e+04 -4.719521e+04
-2.911627e+04 4.754104e+03 -4.107396e+04
-2.204392e+05 -8.660206e+04 -3.272017e+04
-2.028199e+05 -8.677356e+04 -5.000000e+04
-1.908026e+05 -8.776398e+04 -3.718853e+04
-2.028870e+05 -9.783963e+04 -3.973831e+04
-1.868334e+05 -9.938898e+04 -4.131584e+04
-2.044982e+05 -8.630241e+04 -3.295141e+04
-1.964085e+05 -7.507679e+04 -3.360223e+04
-2.095740e+05 -7.588084e+04 -2.939395e+04
-1.896416e+05 -1.018996e+05 -4.736741e+04
-1.876498e+05 -7.004871e+04 -4.126840e+04
-2.839033e+05 -1.855819e+05 -5.000000e+04
-2.919517e+05 -1.803662e+05 -5.000000e+04
-2.919517e+05 -1.891652e+05 -5.000000e+04
-2.919517e+05 -1.812654e+05 -4.583333e+04
-2.920814e+05 -1.100677e+05 -8.250660e+03
-2.920814e+05 -1.021678e+05 -4.083994e+03
-2.841627e+05 -1.063853e+05 -8.167988e+03
-2.921816e+05 -1.027514e+05 -1.087329e+04
-2.842940e+05 -9.870065e+04 -4.083994e+03
-2.922126e+05 -9.448314e+04 -3.637979e-12
-2.844252e+05 -9.101598e+04 -3.637979e-12
-2.918813e+05 -9.260014e+04 -6.537441e+03
-2.922126e+05 -8.619251e+04 0.000000e+00
2.928877e+05 1.738896e+05 0.000000e+00
2.922664e+05 1.657437e+05 -3.637979e-12
2.851541e+05 1.704463e+05 0.000000e+00
2.921617e+05 1.684199e+05 -4.653319e+03
2.845328e+05 1.623004e+05 -3.637979e-12
2.922664e+05 1.578438e+05 -4.166667e+03
2.926038e+05 7.872431e+04 -5.000000e+04
2.919517e+05 7.080529e+04 -5.000000e+04
2.922804e+05 7.867718e+04 -4.592528e+04
2.845555e+05 7.514098e+04 -5.000000e+04
2.867994e+05 8.393504e+04 -4.558590e+04
2.839034e+05 6.722195e+04 -5.000000e+04
2.842321e+05 7.509384e+04 -4.592528e+04
2.845609e+05 8.296573e+04 -4.185056e+04
2.945823e+05 8.568362e+04 -4.644775e+04
2.922804e+05 8.657703e+04 -4.175861e+04
-2.839033e+05 -1.697822e+05 -4.166667e+04
-2.908407e+05 -1.664674e+05 -4.345153e+04
-2.919517e+05 -1.733655e+05 -4.166667e+04
-2.919517e+05 -1.654657e+05 -3.750000e+04
-2.914024e+05 -1.504347e+05 -3.598099e+04
-2.918091e+05 -1.575901e+05 -3.337965e+04
-2.836181e+05 -1.540311e+05 -3.342596e+04
-2.918091e+05 -1.496903e+05 -2.921298e+04
-2.837607e+05 -1.619066e+05 -3.754631e+04
-2.878623e+05 -1.574606e+05 -3.862332e+04
-2.920814e+05 -1.258674e+05 -1.658399e+04
-2.920814e+05 -1.179675e+05 -1.241733e+04
-2.841627e+05 -1.221850e+05 -1.650132e+04
-2.916206e+05 -1.166287e+05 -1.995022e+04
-2.910380e+05 -1.342352e+05 -2.998898e+04
-2.918091e+05 -1.417904e+05 -2.504631e+04
-2.836181e+05 -1.382314e+05 -2.509263e+04
-2.918091e+05 -1.338906e+05 -2.087965e+04
-2.888756e+05 -1.235457e+05 -2.475684e+04
-2.838904e+05 -1.302082e+05 -2.079697e+04
2.922664e+05 1.420441e+05 -1.250000e+04
2.845328e+05 1.465007e+05 -8.333333e+03
2.922664e+05 1.499440e+05 -8.333333e+03
2.915636e+05 1.518357e+05 -1.555539e+04
2.927061e+05 1.439154e+05 -2.767347e+04
2.845460e+05 1.302540e+05 -1.690556e+04
2.845394e+05 1.383774e+05 -1.261945e+04
2.922730e+05 1.339207e+05 -1.678611e+04
2.783662e+05 1.365828e+05 -2.098053e+04
2.807274e+05 1.437595e+05 -1.758625e+04
2.877319e+05 1.396196e+05 -2.221921e+04
2.885656e+05 1.484568e+05 -2.234977e+04
2.864387e+05 1.310804e+05 -2.487543e+04
2.929858e+05 1.252205e+05 -3.044851e+04
2.937993e+05 1.339064e+05 -2.550604e+04
2.922730e+05 1.260209e+05 -2.095278e+04
2.831819e+05 1.503611e+05 -1.595169e+04
2.935100e+05 9.241209e+04 -4.387032e+04
2.922804e+05 9.447689e+04 -3.759195e+04
2.864176e+05 9.858467e+04 -4.034102e+04
2.944775e+05 1.010836e+05 -3.912181e+04
2.845609e+05 9.876545e+04 -3.351723e+04
2.922804e+05 1.023767e+05 -3.342528e+04
2.859201e+05 1.161390e+05 -3.306380e+04
2.927568e+05 1.083543e+05 -3.688963e+04
2.942716e+05 1.171562e+05 -3.326275e+04
2.845460e+05 1.144543e+05 -2.523889e+04
2.922730e+05 1.102212e+05 -2.928611e+04
2.922730e+05 1.181210e+05 -2.511945e+04
2.837443e+05 1.061020e+05 -3.752692e+04
2.845534e+05 1.066099e+05 -2.937806e+04
2.956767e+05 1.114998e+05 -4.039482e+04
-1.581166e+05 -8.661783e+04 -2.734125e+04
-1.625345e+05 -7.848071e+04 -2.844246e+04
-1.602490e+05 -8.576939e+04 -3.319745e+04
-1.668957e+05 -8.548564e+04 -2.468250e+04
-1.517151e+05 -8.896123e+04 -3.651757e+04
-1.554738e+05 -7.880553e+04 -3.103741e+04
-1.493375e+05 -8.775002e+04 -3.000000e+04
-1.500755e+05 -7.900024e+04 -3.554259e+04
-1.427082e+05 -8.479848e+04 -3.000000e+04
-1.382076e+05 -8.526699e+04 -3.652972e+04
-1.418184e+05 -7.885497e+04 -3.551495e+04
-1.360790e+05 -8.184694e+04 -3.000000e+04
-1.443235e+05 -8.648468e+04 -3.654913e+04
-1.298054e+05 -9.801342e+04 -4.000000e+04
-1.329422e+05 -8.993018e+04 -3.500000e+04
-1.357793e+05 -9.325336e+04 -4.253034e+04
-1.395715e+05 -9.288172e+04 -3.500000e+04
-1.547800e+05 -7.832338e+04 -2.375000e+04
-1.635591e+05 -7.719119e+04 -2.109125e+04
-1.602225e+05 -6.889674e+04 -1.750000e+04
-1.612896e+05 -6.713993e+04 -2.543774e+04
-1.481507e+05 -7.537184e+04 -2.375000e+04
-1.535932e+05 -6.594520e+04 -1.750000e+04
-1.469639e+05 -6.299366e+04 -1.750000e+04
-1.529088e+05 -6.793223e+04 -2.610886e+04
-1.605835e+05 -9.301970e+04 -3.813445e+04
-1.544011e+05 -9.290288e+04 -3.152872e+04
-1.631802e+05 -9.177069e+04 -2.886997e+04
-1.594647e+05 -9.805574e+04 -3.305745e+04
-1.455587e+05 -1.050273e+05 -4.000000e+04
-1.474481e+05 -9.638864e+04 -3.500000e+04
-1.511604e+05 -9.846169e+04 -4.204370e+04
-1.525117e+05 -1.015415e+05 -3.652872e+04
-1.487767e+05 -7.313425e+04 -2.995098e+04
-1.445887e+05 -9.445986e+04 -3.962006e+04
-1.415215e+05 -7.242030e+04 -2.375000e+04
-1.421990e+05 -7.181022e+04 -3.095288e+04
-1.452801e+05 -6.162125e+04 -2.485171e+04
-1.376821e+05 -1.015203e+05 -4.000000e+04
-1.486687e+05 -8.365772e+04 -4.037216e+04
-6.629945e+04 -4.451938e+04 -2.669841e+04
-6.632711e+04 -3.665043e+04 -3.377702e+04
-7.225285e+04 -3.716149e+04 -2.953690e+04
-6.281254e+04 -3.670720e+04 -2.339681e+04
-7.506891e+04 -4.722054e+04 -3.268083e+04
-6.984092e+04 -4.401804e+04 -3.420863e+04
-6.978636e+04 -5.233156e+04 -3.000000e+04
-6.399508e+04 -4.911006e+04 -3.646893e+04
-6.008001e+04 -5.737809e+04 -4.046356e+04
-5.568142e+04 -5.048755e+04 -3.882130e+04
-6.415475e+04 -5.930404e+04 -3.500000e+04
-6.258664e+04 -5.198232e+04 -3.150650e+04
-5.852315e+04 -6.627651e+04 -4.000000e+04
-5.695504e+04 -5.895479e+04 -3.650650e+04
-5.538693e+04 -5.163307e+04 -3.301300e+04
-7.174192e+04 -3.509274e+04 -2.044841e+04
-7.522883e+04 -4.290492e+04 -2.375000e+04
-8.067130e+04 -3.347828e+04 -1.750000e+04
-7.875919e+04 -3.833683e+04 -2.695029e+04
-7.641562e+04 -5.528310e+04 -3.000000e+04
-8.152235e+04 -4.743393e+04 -3.168256e+04
-7.731300e+04 -5.557244e+04 -3.672563e+04
-8.304488e+04 -5.823464e+04 -3.000000e+04
-6.922045e+04 -5.344215e+04 -3.835640e+04
-7.561632e+04 -6.421329e+04 -4.146323e+04
-7.866068e+04 -6.576250e+04 -3.500000e+04
-7.427648e+04 -7.329035e+04 -4.000000e+04
-7.203142e+04 -6.281096e+04 -3.500000e+04
-6.025794e+04 -4.038428e+04 -3.415559e+04
-5.909974e+04 -4.417014e+04 -2.820491e+04
-6.487477e+04 -6.307710e+04 -4.367156e+04
-6.639982e+04 -6.978343e+04 -4.000000e+04
-8.185809e+04 -4.585646e+04 -2.375000e+04
-7.316154e+04 -4.580795e+04 -3.879099e+04
-1.690016e+05 -6.776455e+04 -1.484125e+04
-1.656649e+05 -5.947010e+04 -1.125000e+04
-1.655469e+05 -6.011244e+04 -1.862916e+04
-1.777807e+05 -6.663236e+04 -1.218250e+04
-1.744440e+05 -5.833791e+04 -8.591249e+03
-1.722815e+05 -5.750184e+04 -1.521284e+04
-1.711074e+05 -5.004346e+04 -5.000000e+03
-1.679284e+05 -5.202811e+04 -1.218122e+04
-1.590357e+05 -5.651856e+04 -1.125000e+04
-1.644781e+05 -4.709192e+04 -5.000000e+03
-1.578489e+05 -4.414038e+04 -5.000000e+03
-1.614860e+05 -5.146781e+04 -1.418964e+04
-1.638499e+05 -4.533066e+04 -9.906766e+03
-1.686258e+05 -4.722851e+04 -8.823178e+03
-1.796227e+05 -5.745085e+04 -1.515197e+04
-1.741791e+05 -5.023747e+04 -1.115336e+04
-1.718116e+05 -4.798702e+04 -3.750000e+03
-1.699062e+05 -4.343240e+04 -8.800919e+03
-1.763584e+05 -4.709022e+04 -8.143251e+03
-1.725158e+05 -4.593058e+04 -2.500000e+03
-1.830588e+05 -5.980347e+04 -7.341249e+03
-1.883368e+05 -5.297457e+04 -2.500000e+03
-1.797221e+05 -5.150901e+04 -3.750000e+03
-1.825845e+05 -5.033916e+04 -9.507077e+03
-1.804263e+05 -4.945258e+04 -2.500000e+03
-1.651823e+05 -4.503548e+04 -3.750000e+03
-7.369749e+04 -1.785392e+04 -1.089681e+04
-7.718440e+04 -2.566610e+04 -1.419841e+04
-8.262687e+04 -1.623946e+04 -7.948406e+03
-8.131055e+04 -1.943609e+04 -1.688958e+04
-8.611378e+04 -2.405164e+04 -1.125000e+04
-8.476237e+04 -2.896233e+04 -2.287397e+04
-9.155625e+04 -1.462500e+04 -5.000000e+03
-8.935239e+04 -1.653350e+04 -1.368885e+04
-9.392983e+04 -3.938136e+04 -1.750000e+04
-9.274304e+04 -2.700318e+04 -1.125000e+04
-8.730057e+04 -3.642982e+04 -1.750000e+04
-9.221134e+04 -2.687882e+04 -1.908056e+04
-9.632716e+04 -1.437919e+04 -3.750000e+03
-9.974022e+04 -1.024108e+04 -8.131016e+03
-1.019886e+05 -1.508849e+04 -1.077858e+04
-1.010981e+05 -1.413338e+04 -2.500000e+03
-9.644776e+04 -2.016407e+04 -1.340290e+04
-9.540891e+04 -1.277656e+04 -1.051802e+04
-8.841663e+04 -1.085720e+04 -3.750000e+03
-8.544089e+04 -1.017202e+04 -1.298787e+04
-9.147295e+04 -7.184180e+03 -9.826671e+03
-8.527701e+04 -7.089390e+03 -2.500000e+03
-9.926093e+04 -3.257801e+04 -2.055386e+04
-9.547792e+04 -1.530672e+04 -1.788015e+04
-7.948725e+04 -1.247166e+04 -6.698406e+03
-1.048148e+05 -2.052808e+04 -5.000000e+03
-1.029564e+05 -1.733073e+04 -3.750000e+03
-9.818551e+04 -1.757654e+04 -5.000000e+03
-1.043394e+05 -2.261103e+04 -1.339268e+04
-9.937230e+04 -2.995472e+04 -1.125000e+04
-9.318754e+04 -1.061138e+04 -2.500000e+03
-1.294497e+05 -7.889540e+04 -3.000000e+04
-1.360070e+05 -7.613676e+04 -3.724126e+04
-1.324366e+05 -8.376971e+04 -3.824136e+04
-1.261718e+05 -8.131761e+04 -3.662976e+04
-1.293098e+05 -7.672933e+04 -3.682289e+04
-1.228205e+05 -7.594386e+04 -3.000000e+04
-1.165469e+05 -9.211034e+04 -4.000000e+04
-1.196837e+05 -8.402710e+04 -3.500000e+04
-1.240852e+05 -8.720147e+04 -4.118862e+04
-1.263129e+05 -8.697864e+04 -3.500000e+04
-1.282629e+05 -6.651722e+04 -2.375000e+04
-1.276120e+05 -6.847527e+04 -3.230050e+04
-1.348922e+05 -6.946876e+04 -2.375000e+04
-1.358277e+05 -6.869498e+04 -3.211935e+04
-1.337054e+05 -5.709058e+04 -1.750000e+04
-1.311784e+05 -5.650618e+04 -2.549274e+04
-1.234155e+05 -7.533197e+04 -3.835444e+04
-1.216337e+05 -6.356569e+04 -2.375000e+04
-1.161912e+05 -7.299233e+04 -3.000000e+04
-1.204469e+05 -5.118751e+04 -1.750000e+04
-1.150044e+05 -6.061415e+04 -2.375000e+04
-1.232383e+05 -5.692478e+04 -2.775486e+04
-1.095619e+05 -7.004079e+04 -3.000000e+04
-1.201296e+05 -6.544795e+04 -3.287415e+04
-1.180061e+05 -8.166925e+04 -4.312546e+04
-1.130544e+05 -8.107557e+04 -3.500000e+04
-1.163585e+05 -7.326070e+04 -3.713969e+04
-1.270761e+05 -5.413905e+04 -1.750000e+04
-8.967414e+04 -6.118618e+04 -3.000000e+04
-8.379399e+04 -5.831343e+04 -3.767680e+04
-8.826086e+04 -5.044073e+04 -3.149915e+04
-9.500246e+04 -4.982632e+04 -3.091821e+04
-9.232753e+04 -6.019826e+04 -3.631049e+04
-9.630341e+04 -6.413771e+04 -3.000000e+04
-9.011021e+04 -6.907520e+04 -3.994196e+04
-9.191921e+04 -7.166557e+04 -3.500000e+04
-8.753501e+04 -7.919343e+04 -4.000000e+04
-8.528995e+04 -6.871403e+04 -3.500000e+04
-9.511662e+04 -5.175954e+04 -2.375000e+04
-8.848736e+04 -4.880800e+04 -2.375000e+04
-9.188941e+04 -3.841723e+04 -2.520929e+04
-9.880727e+04 -4.328212e+04 -2.580211e+04
-1.009511e+05 -5.112957e+04 -3.003152e+04
-1.071884e+05 -4.528443e+04 -1.750000e+04
-1.005591e+05 -4.233290e+04 -1.750000e+04
-1.017459e+05 -5.471107e+04 -2.375000e+04
-1.061706e+05 -4.268328e+04 -2.566573e+04
-1.083751e+05 -5.766261e+04 -2.375000e+04
-1.029327e+05 -6.708925e+04 -3.000000e+04
-1.148211e+05 -5.973782e+04 -3.337098e+04
-1.113301e+05 -4.925158e+04 -2.690618e+04
-1.067257e+05 -5.595880e+04 -3.408373e+04
-1.032883e+05 -8.620727e+04 -4.000000e+04
-1.043465e+05 -8.053123e+04 -4.228681e+04
-1.064251e+05 -7.812403e+04 -3.500000e+04
-9.979588e+04 -7.517249e+04 -3.500000e+04
-1.100602e+05 -7.086441e+04 -3.899020e+04
-1.001847e+05 -6.800658e+04 -3.813856e+04
-9.517692e+04 -7.661905e+04 -4.292266e+04
-9.940979e+04 -5.417106e+04 -3.830007e+04
-9.541168e+04 -8.270035e+04 -4.000000e+04
-1.180733e+05 -2.643115e+04 -5.000000e+03
-1.162149e+05 -2.323380e+04 -3.750000e+03
-1.114440e+05 -2.347962e+04 -5.000000e+03
-1.195055e+05 -2.566916e+04 -1.040012e+04
-1.143566e+05 -2.003645e+04 -2.500000e+03
-1.095857e+05 -2.028227e+04 -3.750000e+03
-1.172282e+05 -2.000928e+04 -8.545815e+03
-1.114921e+05 -2.398393e+04 -1.133802e+04
-1.126308e+05 -3.585779e+04 -1.125000e+04
-1.060016e+05 -3.290626e+04 -1.125000e+04
-1.135573e+05 -3.333834e+04 -2.060731e+04
-1.192601e+05 -3.880933e+04 -1.125000e+04
-1.138176e+05 -4.823597e+04 -1.750000e+04
-1.241090e+05 -4.627013e+04 -2.132449e+04
-1.218590e+05 -3.388665e+04 -1.556048e+04
-1.171296e+05 -4.142647e+04 -2.149134e+04
-1.258894e+05 -4.176087e+04 -1.125000e+04
-1.313318e+05 -3.233423e+04 -5.000000e+03
-1.247026e+05 -2.938269e+04 -5.000000e+03
-1.287319e+05 -3.772663e+04 -1.507626e+04
-1.297716e+05 -2.953953e+04 -1.327643e+04
-1.241255e+05 -2.675580e+04 -3.750000e+03
-1.307547e+05 -2.970734e+04 -3.750000e+03
-1.301777e+05 -2.708044e+04 -2.500000e+03
-1.265023e+05 -2.513221e+04 -7.963318e+03
-1.222671e+05 -2.355845e+04 -2.500000e+03
-1.524064e+05 -5.356702e+04 -1.125000e+04
-1.457771e+05 -5.061548e+04 -1.125000e+04
-1.520429e+05 -5.728096e+04 -2.151416e+04
-1.512196e+05 -4.118884e+04 -5.000000e+03
-1.550675e+05 -4.804867e+04 -1.474891e+04
-1.445903e+05 -3.823730e+04 -5.000000e+03
-1.490419e+05 -4.659692e+04 -1.541475e+04
-1.403347e+05 -6.004212e+04 -1.750000e+04
-1.391479e+05 -4.766394e+04 -1.125000e+04
-1.382569e+05 -5.133261e+04 -2.203119e+04
-1.451148e+05 -5.134109e+04 -1.919315e+04
-1.424372e+05 -4.127479e+04 -1.398710e+04
-1.586600e+05 -4.287459e+04 -1.181340e+04
-1.514768e+05 -4.035399e+04 -1.352542e+04
-1.585531e+05 -4.208394e+04 -3.750000e+03
-1.592572e+05 -4.002751e+04 -2.500000e+03
-1.519238e+05 -3.913241e+04 -3.750000e+03
-1.571535e+05 -3.829679e+04 -9.970893e+03
-1.325186e+05 -4.471241e+04 -1.125000e+04
-1.379611e+05 -3.528577e+04 -5.000000e+03
-1.353463e+05 -4.001437e+04 -1.533737e+04
-1.368553e+05 -3.358663e+04 -1.145125e+04
-1.424358e+05 -3.546915e+04 -1.027741e+04
-1.373840e+05 -3.265887e+04 -3.750000e+03
-1.440133e+05 -3.561041e+04 -3.750000e+03
-1.434362e+05 -3.298352e+04 -2.500000e+03
-1.420312e+05 -3.094026e+04 -9.578462e+03
-1.489603e+05 -3.490362e+04 -1.114611e+04
-1.491191e+05 -3.050750e+04 -8.117780e+03
-1.513467e+05 -3.650551e+04 -2.500000e+03
-1.583517e+05 -3.372260e+04 -8.416353e+03
2.765072e+05 7.155764e+04 -5.000000e+04
2.758551e+05 6.363862e+04 -5.000000e+04
2.761838e+05 7.151051e+04 -4.592528e+04
2.684589e+05 6.797431e+04 -5.000000e+04
2.710598e+05 7.733233e+04 -4.544057e+04
2.678068e+05 6.005529e+04 -5.000000e+04
2.681355e+05 6.792718e+04 -4.592528e+04
2.684643e+05 7.579907e+04 -4.185056e+04
2.609030e+05 6.489215e+04 -5.000000e+04
2.601899e+05 6.443039e+04 -4.590373e+04
2.631558e+05 7.191321e+04 -4.636780e+04
2.605186e+05 7.230228e+04 -4.182901e+04
2.543076e+05 7.050979e+04 -4.576132e+04
2.525729e+05 6.880549e+04 -4.180746e+04
2.520535e+05 5.304145e+04 -5.000000e+04
2.599301e+05 5.654837e+04 -5.000000e+04
2.530263e+05 6.138523e+04 -5.000000e+04
2.523132e+05 6.092347e+04 -4.590373e+04
2.363001e+05 4.602761e+04 -5.000000e+04
2.441768e+05 4.953453e+04 -5.000000e+04
2.372730e+05 5.437139e+04 -5.000000e+04
2.365598e+05 5.390963e+04 -4.590373e+04
2.451496e+05 5.787831e+04 -5.000000e+04
2.444365e+05 5.741655e+04 -4.590373e+04
2.392056e+05 6.123856e+04 -4.624285e+04
2.368196e+05 6.179165e+04 -4.180746e+04
2.319256e+05 5.768129e+04 -4.653215e+04
2.294099e+05 5.116977e+04 -5.000000e+04
2.284235e+05 4.252070e+04 -5.000000e+04
2.286550e+05 5.040997e+04 -4.589328e+04
2.215332e+05 4.766285e+04 -5.000000e+04
2.239166e+05 5.609129e+04 -4.571298e+04
2.205468e+05 3.901378e+04 -5.000000e+04
2.207783e+05 4.690305e+04 -4.589328e+04
2.210098e+05 5.479232e+04 -4.178655e+04
2.289147e+05 5.829199e+04 -4.179700e+04
2.136566e+05 4.415593e+04 -5.000000e+04
2.126701e+05 3.550686e+04 -5.000000e+04
2.129016e+05 4.339613e+04 -4.589328e+04
2.057799e+05 4.064901e+04 -5.000000e+04
2.081716e+05 4.962247e+04 -4.548440e+04
2.047935e+05 3.199994e+04 -5.000000e+04
2.050250e+05 3.988921e+04 -4.589328e+04
2.052564e+05 4.777849e+04 -4.178655e+04
1.978452e+05 3.702545e+04 -5.000000e+04
1.969168e+05 2.849302e+04 -5.000000e+04
1.971321e+05 3.638125e+04 -4.589004e+04
1.899685e+05 3.351853e+04 -5.000000e+04
1.921642e+05 4.202923e+04 -4.570702e+04
1.890401e+05 2.498610e+04 -5.000000e+04
1.892555e+05 3.287433e+04 -4.589004e+04
1.894708e+05 4.076255e+04 -4.178007e+04
2.002969e+05 4.402157e+04 -4.645903e+04
1.973636e+05 4.427052e+04 -4.178331e+04
1.820918e+05 3.001161e+04 -5.000000e+04
1.811635e+05 2.147918e+04 -5.000000e+04
1.813788e+05 2.936741e+04 -4.589004e+04
1.742152e+05 2.650469e+04 -5.000000e+04
1.765915e+05 3.533924e+04 -4.551383e+04
1.732868e+05 1.797226e+04 -5.000000e+04
1.735021e+05 2.586049e+04 -4.589004e+04
1.737175e+05 3.374871e+04 -4.178007e+04
1.687139e+05 2.994870e+04 -4.639255e+04
1.663352e+05 2.298887e+04 -5.000000e+04
1.656003e+05 2.235271e+04 -4.588458e+04
1.658156e+05 3.024094e+04 -4.177461e+04
1.597344e+05 2.868642e+04 -4.552040e+04
1.579138e+05 2.673316e+04 -4.176916e+04
1.654101e+05 1.446534e+04 -5.000000e+04
1.584585e+05 1.948195e+04 -5.000000e+04
1.575335e+05 1.095843e+04 -5.000000e+04
1.577236e+05 1.884579e+04 -4.588458e+04
1.505819e+05 1.597503e+04 -5.000000e+04
1.496568e+05 7.451506e+03 -5.000000e+04
1.498470e+05 1.533887e+04 -4.588458e+04
1.427052e+05 1.246811e+04 -5.000000e+04
1.439705e+05 2.170045e+04 -4.562694e+04
1.417801e+05 3.944587e+03 -5.000000e+04
1.419703e+05 1.183195e+04 -4.588458e+04
1.421605e+05 1.971932e+04 -4.176916e+04
1.269511e+05 5.453285e+03 -5.000000e+04
1.348278e+05 8.960204e+03 -5.000000e+04
1.287583e+05 1.241730e+04 -4.618396e+04
1.260268e+05 -3.069251e+03 -5.000000e+04
1.339034e+05 4.376683e+02 -5.000000e+04
1.261671e+05 4.822630e+03 -4.587050e+04
1.340438e+05 8.329549e+03 -4.587050e+04
1.263075e+05 1.271451e+04 -4.174100e+04
1.360953e+05 1.713987e+04 -4.632871e+04
1.342340e+05 1.621692e+04 -4.175508e+04
1.111978e+05 -1.560553e+03 -5.000000e+04
1.190744e+05 1.946366e+03 -5.000000e+04
1.133926e+05 7.277259e+03 -4.549767e+04
1.102734e+05 -1.008309e+04 -5.000000e+04
1.181501e+05 -6.576170e+03 -5.000000e+04
1.104138e+05 -2.191208e+03 -4.587050e+04
1.182905e+05 1.315711e+03 -4.587050e+04
1.105542e+05 5.700672e+03 -4.174100e+04
1.033180e+05 -5.066452e+03 -5.000000e+04
1.023968e+05 -1.359001e+04 -5.000000e+04
1.025129e+05 -5.699716e+03 -4.586564e+04
9.544133e+04 -8.573371e+03 -5.000000e+04
9.753389e+04 -9.979772e+01 -4.569594e+04
9.452010e+04 -1.709693e+04 -5.000000e+04
9.463619e+04 -9.206635e+03 -4.586564e+04
9.475227e+04 -1.316343e+03 -4.173128e+04
1.056471e+05 1.840921e+03 -4.644258e+04
1.026532e+05 2.192164e+03 -4.173614e+04
8.756466e+04 -1.208029e+04 -5.000000e+04
8.664343e+04 -2.060385e+04 -5.000000e+04
8.675952e+04 -1.271355e+04 -4.586564e+04
7.968799e+04 -1.558721e+04 -5.000000e+04
8.194777e+04 -6.734962e+03 -4.548072e+04
7.876677e+04 -2.411076e+04 -5.000000e+04
7.888285e+04 -1.622047e+04 -4.586564e+04
7.899894e+04 -8.330181e+03 -4.173128e+04
7.178368e+04 -1.908259e+04 -5.000000e+04
7.102475e+04 -1.974096e+04 -4.587716e+04
7.408333e+04 -1.212381e+04 -4.637910e+04
7.114084e+04 -1.185067e+04 -4.174279e+04
6.510911e+04 -1.338604e+04 -4.550938e+04
6.328273e+04 -1.537115e+04 -4.175431e+04
7.089010e+04 -2.761768e+04 -5.000000e+04
6.390701e+04 -2.258951e+04 -5.000000e+04
6.301343e+04 -3.112460e+04 -5.000000e+04
6.314808e+04 -2.324788e+04 -4.587716e+04
5.603034e+04 -2.609643e+04 -5.000000e+04
5.513676e+04 -3.463152e+04 -5.000000e+04
5.527141e+04 -2.675480e+04 -4.587716e+04
4.815367e+04 -2.960335e+04 -5.000000e+04
4.931344e+04 -2.047366e+04 -4.566226e+04
4.726009e+04 -3.813844e+04 -5.000000e+04
4.739474e+04 -3.026172e+04 -4.587716e+04
4.752940e+04 -2.238499e+04 -4.175431e+04
3.230076e+04 -3.657389e+04 -5.000000e+04
4.017743e+04 -3.306697e+04 -5.000000e+04
3.415855e+04 -2.971047e+04 -4.620225e+04
3.150675e+04 -4.515228e+04 -5.000000e+04
3.938342e+04 -4.164536e+04 -5.000000e+04
3.156862e+04 -3.731186e+04 -4.587921e+04
3.944529e+04 -3.380494e+04 -4.587921e+04
3.163049e+04 -2.947144e+04 -4.175842e+04
4.141027e+04 -2.501257e+04 -4.633504e+04
3.957994e+04 -2.592822e+04 -4.175637e+04
1.654742e+04 -4.358773e+04 -5.000000e+04
2.442409e+04 -4.008081e+04 -5.000000e+04
1.886475e+04 -3.485538e+04 -4.547479e+04
1.575341e+04 -5.216612e+04 -5.000000e+04
2.363008e+04 -4.865920e+04 -5.000000e+04
1.581528e+04 -4.432570e+04 -4.587921e+04
2.369195e+04 -4.081878e+04 -4.587921e+04
1.587715e+04 -3.648528e+04 -4.175842e+04
8.512596e+03 -4.701862e+04 -5.000000e+04
7.876746e+03 -5.567303e+04 -5.000000e+04
7.853749e+03 -4.803936e+04 -4.596833e+04
6.359275e+02 -5.052554e+04 -5.000000e+04
2.786253e+03 -4.216152e+04 -4.570390e+04
7.718536e-02 -5.917995e+04 -5.000000e+04
-2.291968e+01 -5.154628e+04 -4.596833e+04
-4.591655e+01 -4.391260e+04 -4.193665e+04
1.101935e+04 -4.027245e+04 -4.645937e+04
7.915617e+03 -4.019894e+04 -4.184754e+04
-7.240741e+03 -5.403246e+04 -5.000000e+04
-7.876592e+03 -6.268687e+04 -5.000000e+04
-7.899589e+03 -5.505319e+04 -4.596833e+04
-1.511741e+04 -5.753938e+04 -5.000000e+04
-1.397401e+04 -4.829092e+04 -4.585288e+04
-1.575326e+04 -6.619379e+04 -5.000000e+04
-1.577626e+04 -5.856011e+04 -4.596833e+04
-1.579925e+04 -5.092644e+04 -4.193665e+04
-2.201739e+04 -5.329039e+04 -4.681769e+04
-2.333760e+04 -6.109432e+04 -5.000000e+04
-2.891068e+04 -5.822133e+04 -4.664463e+04
-2.206182e+04 -6.237899e+04 -4.650650e+04
-2.208482e+04 -5.474531e+04 -4.247483e+04
-2.837038e+04 -5.856419e+04 -4.301300e+04
-3.121427e+04 -6.460124e+04 -5.000000e+04
-3.150660e+04 -7.320763e+04 -5.000000e+04
-2.362993e+04 -6.970071e+04 -5.000000e+04
-2.993849e+04 -6.588591e+04 -4.650650e+04
-5.337966e+04 -6.446393e+04 -4.457381e+04
-4.696761e+04 -7.161507e+04 -5.000000e+04
-4.360830e+04 -6.426846e+04 -4.670636e+04
-5.289154e+04 -7.324899e+04 -4.500000e+04
-5.132343e+04 -6.592727e+04 -4.150650e+04
-4.725994e+04 -8.022147e+04 -5.000000e+04
-4.569183e+04 -7.289975e+04 -4.650650e+04
-4.412372e+04 -6.557802e+04 -4.301300e+04
-6.532630e+04 -7.819995e+04 -5.000000e+04
-5.744963e+04 -7.469303e+04 -5.000000e+04
-6.013660e+04 -6.978806e+04 -4.591487e+04
-6.301327e+04 -8.723530e+04 -5.000000e+04
-5.513660e+04 -8.372839e+04 -5.000000e+04
-6.076821e+04 -7.675591e+04 -4.500000e+04
-3.909094e+04 -6.810816e+04 -5.000000e+04
-3.938327e+04 -7.671455e+04 -5.000000e+04
-3.781516e+04 -6.939283e+04 -4.650650e+04
-8.482020e+04 -7.644982e+04 -4.431185e+04
-8.107964e+04 -8.521378e+04 -5.000000e+04
-7.571534e+04 -7.542894e+04 -4.539173e+04
-8.315081e+04 -8.672129e+04 -4.500000e+04
-8.090575e+04 -7.624189e+04 -4.000000e+04
-7.876661e+04 -9.424914e+04 -5.000000e+04
-7.652155e+04 -8.376975e+04 -4.500000e+04
-7.320297e+04 -8.170686e+04 -5.000000e+04
-7.088994e+04 -9.074222e+04 -5.000000e+04
-6.864488e+04 -8.026283e+04 -4.500000e+04
-9.100816e+04 -8.289592e+04 -4.577194e+04
-8.907496e+04 -8.812420e+04 -5.000000e+04
-9.451995e+04 -1.012630e+05 -5.000000e+04
-8.664328e+04 -9.775606e+04 -5.000000e+04
-9.695163e+04 -9.163112e+04 -5.000000e+04
-9.102748e+04 -9.022820e+04 -4.500000e+04
-1.102733e+05 -1.082768e+05 -5.000000e+04
-1.134101e+05 -1.001936e+05 -4.500000e+04
-1.175422e+05 -1.042182e+05 -5.000000e+04
-1.200393e+05 -1.031451e+05 -4.500000e+04
-1.186306e+05 -9.505220e+04 -4.548671e+04
-1.231761e+05 -9.506188e+04 -4.000000e+04
-1.263241e+05 -9.802500e+04 -4.464474e+04
-1.181500e+05 -1.117837e+05 -5.000000e+04
-1.254189e+05 -1.077251e+05 -5.000000e+04
-1.260266e+05 -1.152907e+05 -5.000000e+04
-1.279160e+05 -1.066520e+05 -4.500000e+04
-1.127050e+05 -9.864496e+04 -5.000000e+04
-1.067808e+05 -9.724204e+04 -4.500000e+04
-1.134017e+05 -8.837372e+04 -4.434780e+04
-1.075997e+05 -9.087995e+04 -4.577203e+04
-1.099176e+05 -8.915880e+04 -4.000000e+04
-1.023966e+05 -1.047699e+05 -5.000000e+04
-1.048283e+05 -9.513804e+04 -5.000000e+04
-9.890415e+04 -9.373512e+04 -4.500000e+04
-1.417800e+05 -1.223045e+05 -5.000000e+04
-1.436693e+05 -1.136659e+05 -4.500000e+04
-1.491246e+05 -1.160135e+05 -5.000000e+04
-1.487329e+05 -1.188187e+05 -4.652872e+04
-1.500748e+05 -1.070931e+05 -4.475229e+04
-1.506223e+05 -1.101801e+05 -4.152872e+04
-1.554235e+05 -1.125064e+05 -4.610799e+04
-1.556859e+05 -1.153330e+05 -4.305745e+04
-1.412814e+05 -1.035868e+05 -4.398053e+04
-1.411722e+05 -1.147390e+05 -5.000000e+04
-1.332955e+05 -1.112321e+05 -5.000000e+04
-1.339033e+05 -1.187976e+05 -5.000000e+04
-1.357927e+05 -1.101590e+05 -4.500000e+04
-1.496566e+05 -1.258114e+05 -5.000000e+04
-1.570013e+05 -1.195205e+05 -5.000000e+04
-1.575333e+05 -1.293183e+05 -5.000000e+04
-1.566096e+05 -1.223257e+05 -4.652872e+04
-1.648779e+05 -1.230274e+05 -5.000000e+04
-1.654100e+05 -1.328253e+05 -5.000000e+04
-1.644863e+05 -1.258326e+05 -4.652872e+04
-1.727546e+05 -1.265343e+05 -5.000000e+04
-1.698185e+05 -1.187653e+05 -4.624412e+04
-1.732866e+05 -1.363322e+05 -5.000000e+04
-1.723629e+05 -1.293395e+05 -4.652872e+04
-1.714393e+05 -1.223468e+05 -4.305745e+04
-1.808648e+05 -1.310656e+05 -5.000000e+04
-1.804234e+05 -1.308448e+05 -4.542986e+04
-1.864999e+05 -1.255392e+05 -4.543439e+04
-1.777542e+05 -1.242220e+05 -4.666220e+04
-1.875602e+05 -1.253575e+05 -4.085972e+04
-1.794997e+05 -1.238522e+05 -4.195858e+04
-1.811633e+05 -1.398391e+05 -5.000000e+04
-1.887414e+05 -1.345725e+05 -5.000000e+04
-1.890400e+05 -1.433460e+05 -5.000000e+04
-1.883001e+05 -1.343518e+05 -4.542986e+04
-1.966181e+05 -1.380794e+05 -5.000000e+04
-1.969166e+05 -1.468529e+05 -5.000000e+04
-1.961768e+05 -1.378587e+05 -4.542986e+04
-2.044948e+05 -1.415863e+05 -5.000000e+04
-2.023801e+05 -1.324375e+05 -4.609734e+04
-2.047933e+05 -1.503598e+05 -5.000000e+04
-2.040534e+05 -1.413656e+05 -4.542986e+04
-2.033135e+05 -1.323714e+05 -4.085972e+04
-2.124122e+05 -1.458782e+05 -4.584712e+04
-2.129625e+05 -1.362016e+05 -4.433002e+04
-2.170880e+05 -1.421983e+05 -4.658413e+04
-2.200310e+05 -1.413967e+05 -4.169423e+04
-2.125531e+05 -1.448472e+05 -5.000000e+04
-2.116723e+05 -1.368840e+05 -4.127698e+04
-2.126700e+05 -1.538668e+05 -5.000000e+04
-2.204298e+05 -1.483541e+05 -5.000000e+04
-2.205467e+05 -1.573737e+05 -5.000000e+04
-2.202888e+05 -1.493852e+05 -4.584712e+04
-2.283065e+05 -1.518610e+05 -5.000000e+04
-2.284233e+05 -1.608806e+05 -5.000000e+04
-2.281655e+05 -1.528921e+05 -4.584712e+04
-2.361832e+05 -1.553680e+05 -5.000000e+04
-2.346066e+05 -1.465177e+05 -4.568233e+04
-2.363000e+05 -1.643875e+05 -5.000000e+04
-2.360422e+05 -1.563990e+05 -4.584712e+04
-2.357843e+05 -1.484105e+05 -4.169423e+04
-2.521048e+05 -1.625488e+05 -5.000000e+04
-2.442282e+05 -1.590419e+05 -5.000000e+04
-2.498825e+05 -1.535849e+05 -4.523424e+04
-2.520533e+05 -1.714014e+05 -5.000000e+04
-2.441767e+05 -1.678944e+05 -5.000000e+04
-2.519107e+05 -1.635258e+05 -4.587965e+04
-2.440340e+05 -1.600189e+05 -4.587965e+04
-2.517681e+05 -1.556503e+05 -4.175930e+04
-2.413143e+05 -1.522930e+05 -4.621986e+04
-2.437762e+05 -1.520304e+05 -4.172676e+04
-2.678067e+05 -1.784152e+05 -5.000000e+04
-2.758550e+05 -1.731995e+05 -5.000000e+04
-2.758550e+05 -1.819985e+05 -5.000000e+04
-2.758550e+05 -1.740987e+05 -4.583333e+04
-2.839033e+05 -1.767828e+05 -5.000000e+04
-2.818859e+05 -1.699180e+05 -4.619322e+04
-2.839033e+05 -1.776820e+05 -4.583333e+04
-2.676641e+05 -1.705397e+05 -4.587965e+04
-2.675214e+05 -1.626641e+05 -4.175930e+04
-2.744140e+05 -1.651405e+05 -4.629106e+04
-2.757124e+05 -1.662231e+05 -4.171298e+04
-2.678582e+05 -1.695626e+05 -5.000000e+04
-2.599815e+05 -1.660557e+05 -5.000000e+04
-2.662525e+05 -1.605417e+05 -4.568072e+04
-2.599300e+05 -1.749083e+05 -5.000000e+04
-2.597874e+05 -1.670327e+05 -4.587965e+04
-2.685879e+05 -9.945098e+04 -8.167988e+03
-2.765066e+05 -9.523348e+04 -4.083994e+03
-2.687192e+05 -9.176631e+04 -4.083994e+03
-2.773313e+05 -9.478543e+04 -1.330110e+04
-2.766378e+05 -8.754881e+04 -3.637979e-12
-2.832128e+05 -8.786136e+04 -6.319152e+03
-2.688505e+05 -8.408164e+04 -3.637979e-12
-2.753744e+05 -8.576750e+04 -8.115551e+03
-2.844252e+05 -8.272535e+04 0.000000e+00
-2.766378e+05 -7.925818e+04 0.000000e+00
-2.710381e+05 -8.975520e+04 -1.513142e+04
-2.637729e+05 -8.787704e+04 -1.257303e+04
-2.623508e+05 -8.048452e+04 -6.426993e+03
-2.687144e+05 -8.017386e+04 -9.176066e+03
-2.759197e+05 -7.612736e+04 -7.572451e+03
-2.686703e+05 -7.562315e+04 0.000000e+00
-2.609399e+05 -8.055965e+04 -3.637979e-12
-2.544614e+05 -7.759035e+04 -6.449852e+03
-2.607598e+05 -7.210116e+04 0.000000e+00
-2.530294e+05 -7.703766e+04 -3.637979e-12
-2.532996e+05 -9.227789e+04 -7.974785e+03
-2.610751e+05 -8.817977e+04 -3.987393e+03
-2.531645e+05 -8.465777e+04 -3.987393e+03
-2.557655e+05 -8.576537e+04 -1.033635e+04
-2.609438e+05 -9.586444e+04 -8.071386e+03
-2.451189e+05 -7.351566e+04 -3.637979e-12
-2.528493e+05 -6.857916e+04 0.000000e+00
-2.469147e+05 -7.272051e+04 -7.328914e+03
-2.380139e+05 -7.000217e+04 -7.105693e+03
-2.449388e+05 -6.505717e+04 0.000000e+00
-2.372084e+05 -6.999367e+04 -3.637979e-12
-2.374786e+05 -8.523390e+04 -7.974785e+03
-2.452540e+05 -8.113578e+04 -3.987393e+03
-2.373435e+05 -7.761379e+04 -3.987393e+03
-2.395776e+05 -7.798662e+04 -1.158885e+04
-2.311202e+05 -7.373119e+04 -3.400984e+03
-2.314213e+05 -7.464284e+04 -1.208026e+04
-2.284033e+05 -6.903469e+04 -9.149054e+03
-2.250320e+05 -7.746872e+04 -6.801967e+03
-2.330203e+05 -6.668841e+04 -4.731750e+03
-2.370485e+05 -6.139381e+04 0.000000e+00
-2.312553e+05 -8.135131e+04 -7.388376e+03
-2.232097e+05 -7.020920e+04 -3.400984e+03
-2.292978e+05 -6.647168e+04 -3.637979e-12
-2.213873e+05 -6.294968e+04 -3.637979e-12
-2.280161e+05 -6.283178e+04 -5.097485e+03
-2.291379e+05 -5.787181e+04 0.000000e+00
-1.950101e+05 -6.956348e+04 -9.682497e+03
-2.002882e+05 -6.273459e+04 -4.841249e+03
-1.916735e+05 -6.126903e+04 -6.091249e+03
-1.967616e+05 -5.866854e+04 -1.012642e+04
-2.055662e+05 -5.590569e+04 -3.637979e-12
-1.969515e+05 -5.444013e+04 -1.250000e+03
-2.014397e+05 -5.128662e+04 -7.077485e+03
-1.913726e+05 -5.250202e+04 -1.003038e+04
-1.890410e+05 -5.091814e+04 -1.250000e+03
-1.976557e+05 -5.238370e+04 -3.637979e-12
-1.897452e+05 -4.886170e+04 -3.637979e-12
-1.931278e+05 -4.654055e+04 -5.995498e+03
-2.092110e+05 -7.042473e+04 -6.801967e+03
-2.152991e+05 -6.668720e+04 -3.400984e+03
-2.073886e+05 -6.316521e+04 -3.400984e+03
-2.123789e+05 -6.297663e+04 -9.017043e+03
-2.134768e+05 -5.942769e+04 -3.637979e-12
-2.193254e+05 -5.854084e+04 -5.932783e+03
-2.091468e+05 -5.600104e+04 -5.823476e+03
-2.212274e+05 -5.434982e+04 0.000000e+00
-2.133169e+05 -5.082782e+04 0.000000e+00
-2.051625e+05 -4.728316e+04 0.000000e+00
-2.039336e+05 -6.007377e+04 -1.192445e+04
-1.972520e+05 -4.376117e+04 0.000000e+00
-2.021105e+05 -6.999410e+04 -8.242232e+03
-1.732199e+05 -4.387415e+04 -1.250000e+03
-1.798008e+05 -4.462231e+04 -6.925352e+03
-1.733773e+05 -4.071906e+04 -7.622227e+03
-1.724500e+05 -3.554130e+04 -5.431388e+03
-1.790506e+05 -4.064162e+04 -4.511293e+03
-1.739241e+05 -4.181771e+04 -3.637979e-12
-1.811305e+05 -4.739614e+04 -1.250000e+03
-1.818346e+05 -4.533971e+04 -3.637979e-12
-1.856648e+05 -4.316520e+04 -4.393371e+03
-1.658865e+05 -4.297905e+04 -2.500000e+03
-1.665907e+05 -4.092261e+04 -1.250000e+03
-1.658361e+05 -3.789138e+04 -7.569866e+03
-1.581031e+05 -3.477372e+04 -3.637979e-12
-1.586801e+05 -3.740062e+04 -1.250000e+03
-1.660136e+05 -3.829572e+04 -3.637979e-12
-1.607983e+05 -3.118805e+04 -3.630997e+03
-1.645354e+05 -3.465377e+04 -5.851702e+03
-1.683975e+05 -3.330656e+04 -2.886501e+03
-1.893415e+05 -4.023917e+04 0.000000e+00
-1.814309e+05 -3.671718e+04 0.000000e+00
-1.652683e+05 -2.972864e+04 0.000000e+00
-1.731789e+05 -3.325064e+04 0.000000e+00
-1.368069e+05 -3.003198e+04 -2.500000e+03
-1.362298e+05 -2.740509e+04 -1.250000e+03
-1.331028e+05 -2.450285e+04 -6.603974e+03
-1.428591e+05 -3.035663e+04 -1.250000e+03
-1.412820e+05 -2.754119e+04 -6.296483e+03
-1.422820e+05 -2.772973e+04 -3.637979e-12
-1.382857e+05 -2.287335e+04 -4.095542e+03
-1.283193e+05 -2.388309e+04 -1.250000e+03
-1.343715e+05 -2.420774e+04 -3.637979e-12
-1.264609e+05 -2.068574e+04 -3.637979e-12
-1.310965e+05 -1.944265e+04 -4.015103e+03
-1.474494e+05 -2.875156e+04 -4.625352e+03
-1.451941e+05 -2.433308e+04 -3.367192e+03
-1.501925e+05 -3.125173e+04 -3.637979e-12
-1.507696e+05 -3.387862e+04 -1.250000e+03
-1.538202e+05 -2.705792e+04 -4.100536e+03
-1.573578e+05 -2.620665e+04 0.000000e+00
-1.494473e+05 -2.268465e+04 0.000000e+00
-1.414040e+05 -1.918004e+04 0.000000e+00
-1.334935e+05 -1.565804e+04 0.000000e+00
-1.419622e+05 -1.852583e+04 -5.374292e+03
-1.058690e+05 -1.388757e+04 -1.250000e+03
-1.064763e+05 -1.393169e+04 -6.786379e+03
-1.042280e+05 -1.003418e+04 -5.206389e+03
-1.069537e+05 -8.583968e+03 -2.767615e+03
-1.114496e+05 -1.169670e+04 -4.425021e+03
-1.106399e+05 -1.364176e+04 -3.637979e-12
-1.124982e+05 -1.683910e+04 -1.250000e+03
-1.077273e+05 -1.708492e+04 -2.500000e+03
-1.139080e+05 -1.609380e+04 -6.067136e+03
-1.027294e+05 -1.011976e+04 -3.637979e-12
-9.481882e+04 -6.597766e+03 -3.637979e-12
-9.795845e+04 -1.036557e+04 -1.250000e+03
-1.014845e+05 -5.008028e+03 -4.370692e+03
-1.204088e+05 -2.036110e+04 -1.250000e+03
-1.185504e+05 -1.716375e+04 -3.637979e-12
-1.220102e+05 -1.421350e+04 -6.237695e+03
-1.255829e+05 -1.213605e+04 0.000000e+00
-1.176724e+05 -8.614051e+03 0.000000e+00
-1.097190e+05 -5.096347e+03 0.000000e+00
-1.018085e+05 -1.574352e+03 0.000000e+00
-8.213739e+04 -3.321583e+03 -1.250000e+03
-8.703982e+04 -2.908896e+03 -7.388146e+03
-8.144606e+04 -6.109011e+03 -1.065040e+04
-7.709673e+04 -3.256286e+03 -1.042247e+04
-8.176539e+04 2.905871e+03 -8.356105e+03
-7.899777e+04 4.462235e+02 -3.637979e-12
-6.741824e+04 -1.031831e+04 -8.396812e+03
-7.634763e+04 -8.703849e+03 -5.448406e+03
-7.320800e+04 -4.936042e+03 -4.198406e+03
-7.331823e+04 -9.656941e+03 -1.455307e+04
-8.690830e+04 -3.075771e+03 -3.637979e-12
-9.004792e+04 -6.843578e+03 -1.250000e+03
-9.413386e+04 3.619452e+02 -6.149206e+03
-9.389799e+04 1.947642e+03 0.000000e+00
-8.598746e+04 5.469637e+03 0.000000e+00
-7.806214e+04 8.982658e+03 0.000000e+00
-7.365140e+04 7.038401e+02 -1.010187e+04
-7.255228e+04 3.590988e+03 -5.781881e+03
-7.066569e+04 -4.379226e+03 -1.403276e+04
-7.108724e+04 3.968218e+03 -3.637979e-12
-6.598497e+04 7.455068e+03 -7.346565e+03
-7.015161e+04 1.250465e+04 0.000000e+00
-6.317671e+04 7.490213e+03 -3.637979e-12
-6.529748e+04 -1.414048e+03 -4.198406e+03
-6.718781e+04 -6.241449e+02 -1.044211e+04
-5.526618e+04 1.101221e+04 -3.637979e-12
-6.224108e+04 1.602665e+04 0.000000e+00
-5.808756e+04 1.264953e+04 -6.320145e+03
-4.813895e+04 1.486626e+04 -7.868418e+03
-5.433056e+04 1.954864e+04 0.000000e+00
-4.735565e+04 1.453420e+04 -3.637979e-12
-5.159719e+04 -3.274319e+03 -8.396812e+03
-5.738695e+04 2.107947e+03 -4.198406e+03
-4.947642e+04 5.629942e+03 -4.198406e+03
-5.187241e+04 6.625727e+03 -1.224348e+04
-3.995649e+04 9.998042e+03 -4.130073e+03
-3.965949e+04 9.490466e+03 -1.559845e+04
-3.394141e+04 1.415987e+04 -1.293484e+04
-3.255734e+04 5.461881e+03 -8.260145e+03
-4.020294e+04 1.719219e+04 -6.419269e+03
-4.207726e+04 1.093781e+03 -8.328479e+03
-3.153459e+04 2.157819e+04 -3.637979e-12
-3.204596e+04 1.352004e+04 -4.130073e+03
-3.944512e+04 1.805620e+04 -3.637979e-12
-3.351690e+04 2.176645e+04 -7.703401e+03
-4.641505e+04 2.306511e+04 0.000000e+00
-3.850452e+04 2.658710e+04 0.000000e+00
-1.571353e+04 2.862218e+04 -3.637979e-12
-1.622491e+04 2.056403e+04 -4.130073e+03
-2.362406e+04 2.510019e+04 -3.637979e-12
-1.572052e+04 2.899049e+04 -7.648419e+03
-1.673628e+04 1.250587e+04 -8.260145e+03
-2.413543e+04 1.704203e+04 -4.130073e+03
-1.966810e+04 2.127967e+04 -1.130095e+04
-2.577522e+04 2.676220e+04 -6.204597e+03
-3.059399e+04 3.010910e+04 0.000000e+00
-2.268346e+04 3.363109e+04 0.000000e+00
-4.865775e+02 1.990299e+04 -8.174550e+03
-8.100053e+03 2.426259e+04 -4.087275e+03
-1.895238e+02 2.778458e+04 -4.087275e+03
-2.678668e+03 2.845745e+04 -1.004687e+04
-7.803000e+03 3.214418e+04 -3.637979e-12
-8.489794e+03 3.149664e+04 -5.777762e+03
1.075299e+02 3.566617e+04 -3.637979e-12
-1.756554e+03 3.617762e+04 -7.417944e+03
-1.477206e+04 3.715210e+04 0.000000e+00
-7.809347e+03 2.332226e+04 -1.364345e+04
-6.861529e+03 4.067410e+04 0.000000e+00
-8.611429e+03 1.620443e+04 -8.217348e+03
1.533448e+04 2.694698e+04 -8.174550e+03
7.721006e+03 3.130658e+04 -4.087275e+03
1.563154e+04 3.482857e+04 -4.087275e+03
1.283291e+04 3.611178e+04 -1.190119e+04
8.018059e+03 3.918816e+04 -3.637979e-12
5.805452e+03 4.130663e+04 -6.192560e+03
1.592859e+04 4.271016e+04 -3.637979e-12
1.492489e+04 4.550118e+04 -7.299413e+03
1.049001e+03 4.419609e+04 0.000000e+00
8.959530e+03 4.771809e+04 0.000000e+00
2.323018e+04 3.049424e+04 -8.157740e+03
2.352723e+04 3.837583e+04 -4.070466e+03
3.112588e+04 3.404150e+04 -8.140931e+03
2.223885e+04 3.846429e+04 -1.186276e+04
2.383912e+04 4.623215e+04 -3.637979e-12
2.130671e+04 4.950488e+04 -4.981116e+03
3.174965e+04 4.975415e+04 -3.637979e-12
3.143776e+04 4.189783e+04 -4.070466e+03
3.038984e+04 5.133932e+04 -8.089995e+03
2.534983e+04 4.481305e+04 -9.179024e+03
2.478045e+04 5.476167e+04 0.000000e+00
1.686992e+04 5.123968e+04 0.000000e+00
3.966018e+04 5.327614e+04 -3.637979e-12
3.934829e+04 4.541982e+04 -4.070466e+03
3.807420e+04 5.533936e+04 -6.129629e+03
4.757071e+04 5.679814e+04 -3.637979e-12
4.725882e+04 4.894181e+04 -4.070466e+03
4.686851e+04 5.934343e+04 -7.709452e+03
4.694693e+04 4.108549e+04 -8.140931e+03
4.484404e+04 4.979409e+04 -1.093703e+04
3.269098e+04 5.828367e+04 0.000000e+00
4.060151e+04 6.180566e+04 0.000000e+00
6.289328e+04 4.809082e+04 -8.190740e+03
5.492011e+04 4.458816e+04 -8.165836e+03
5.523199e+04 5.244448e+04 -4.095370e+03
5.470537e+04 5.273351e+04 -1.395321e+04
5.840542e+04 5.944535e+04 -1.107350e+04
5.318945e+04 6.355168e+04 -5.468934e+03
6.339177e+04 6.384213e+04 -3.637979e-12
6.314252e+04 5.596648e+04 -4.095370e+03
5.548124e+04 6.032013e+04 -3.637979e-12
6.114198e+04 6.754989e+04 -6.921847e+03
5.642165e+04 6.884866e+04 0.000000e+00
4.851112e+04 6.532666e+04 0.000000e+00
7.921283e+04 7.088612e+04 -3.637979e-12
7.896358e+04 6.301047e+04 -4.095370e+03
7.130230e+04 6.736412e+04 -3.637979e-12
8.051450e+04 7.175096e+04 -7.948482e+03
7.871434e+04 5.513481e+04 -8.190740e+03
7.105305e+04 5.948847e+04 -4.095370e+03
7.672333e+04 6.387042e+04 -1.128935e+04
6.961088e+04 6.956802e+04 -6.397016e+03
6.433218e+04 7.237065e+04 0.000000e+00
7.224271e+04 7.589265e+04 0.000000e+00
8.688172e+04 6.652412e+04 -4.101554e+03
8.762969e+04 6.654231e+04 -1.371338e+04
9.424410e+04 7.189259e+04 -1.136258e+04
9.455062e+04 6.216213e+04 -8.203108e+03
8.723903e+04 7.650631e+04 -5.517012e+03
8.663248e+04 5.864847e+04 -8.196924e+03
9.479225e+04 7.004612e+04 -4.101554e+03
8.712335e+04 7.440811e+04 -3.637979e-12
9.503388e+04 7.793011e+04 -3.637979e-12
9.608858e+04 7.934645e+04 -6.565751e+03
8.015042e+04 7.941349e+04 0.000000e+00
8.806095e+04 8.293548e+04 0.000000e+00
8.295894e+04 8.010599e+04 -7.864589e+03
1.103717e+05 6.920612e+04 -8.203108e+03
1.027028e+05 7.356811e+04 -4.101554e+03
1.106133e+05 7.709011e+04 -4.101554e+03
1.082852e+05 7.905784e+04 -1.038349e+04
1.029444e+05 8.145210e+04 -3.637979e-12
1.026788e+05 8.369345e+04 -5.335479e+03
1.108549e+05 8.497410e+04 -3.637979e-12
1.103772e+05 8.782112e+04 -7.139602e+03
9.597148e+04 8.645748e+04 0.000000e+00
1.038820e+05 8.997947e+04 0.000000e+00
1.184967e+05 8.061242e+04 -4.095017e+03
1.169876e+05 8.104609e+04 -1.493214e+04
1.211190e+05 8.727869e+04 -1.036468e+04
1.261385e+05 7.625074e+04 -8.190034e+03
1.164739e+05 9.157958e+04 -4.850005e+03
1.264072e+05 8.413441e+04 -4.095017e+03
1.187655e+05 8.849609e+04 -3.637979e-12
1.266760e+05 9.201808e+04 -3.637979e-12
1.234012e+05 9.307600e+04 -5.253428e+03
1.196988e+05 9.702337e+04 0.000000e+00
1.117882e+05 9.350138e+04 0.000000e+00
1.182551e+05 7.272843e+04 -8.196571e+03
1.419595e+05 8.329473e+04 -8.190034e+03
1.343178e+05 8.765641e+04 -4.095017e+03
1.422283e+05 9.117840e+04 -4.095017e+03
1.375330e+05 9.238629e+04 -1.076223e+04
1.345865e+05 9.554008e+04 -3.637979e-12
1.310048e+05 9.776448e+04 -6.202335e+03
1.424971e+05 9.906207e+04 -3.637979e-12
1.395354e+05 9.954665e+04 -6.440990e+03
1.276093e+05 1.005454e+05 0.000000e+00
1.355198e+05 1.040674e+05 0.000000e+00
1.452153e+05 9.423035e+04 -1.111267e+04
1.464296e+05 1.000910e+05 -6.079504e+03
1.434270e+05 1.075980e+05 0.000000e+00
1.578955e+05 9.029454e+04 -8.240309e+03
1.499275e+05 8.679464e+04 -8.215171e+03
1.501963e+05 9.467831e+04 -4.120155e+03
1.531031e+05 9.764307e+04 -9.920960e+03
1.581068e+05 9.820030e+04 -4.120155e+03
1.504076e+05 1.025841e+05 -3.637979e-12
1.583181e+05 1.061061e+05 -3.637979e-12
1.521109e+05 1.053658e+05 -5.817528e+03
1.513375e+05 1.111200e+05 0.000000e+00
1.737165e+05 9.733853e+04 -8.240309e+03
1.660173e+05 1.017223e+05 -4.120155e+03
1.739279e+05 1.052443e+05 -4.120155e+03
1.692343e+05 1.059290e+05 -1.022806e+04
1.662287e+05 1.096281e+05 -3.637979e-12
1.612090e+05 1.102539e+05 -6.800069e+03
1.741392e+05 1.131501e+05 -3.637979e-12
1.711480e+05 1.128322e+05 -6.588764e+03
1.592480e+05 1.146419e+05 0.000000e+00
1.671586e+05 1.181639e+05 0.000000e+00
1.759026e+05 1.198776e+05 -6.392621e+03
1.817860e+05 1.087629e+05 -4.109618e+03
1.792532e+05 1.113668e+05 -1.255344e+04
1.839897e+05 1.148641e+05 -8.066642e+03
1.894328e+05 1.043758e+05 -8.219236e+03
1.750773e+05 1.217160e+05 0.000000e+00
1.815746e+05 1.008572e+05 -8.229773e+03
1.820497e+05 1.166720e+05 -3.637979e-12
1.899602e+05 1.201940e+05 -3.637979e-12
1.896965e+05 1.122849e+05 -4.109618e+03
1.878075e+05 1.223615e+05 -7.221899e+03
1.829878e+05 1.252380e+05 0.000000e+00
1.978708e+05 1.237160e+05 -3.637979e-12
1.976070e+05 1.158069e+05 -4.109618e+03
1.951379e+05 1.262288e+05 -4.932316e+03
2.057813e+05 1.272380e+05 -3.637979e-12
2.055176e+05 1.193289e+05 -4.109618e+03
2.018342e+05 1.281139e+05 -4.711434e+03
2.052538e+05 1.114198e+05 -8.219236e+03
2.009632e+05 1.229031e+05 -9.594779e+03
1.908983e+05 1.287600e+05 0.000000e+00
1.988088e+05 1.322820e+05 0.000000e+00
2.067554e+05 1.359170e+05 0.000000e+00
2.086977e+05 1.301603e+05 -7.162527e+03
2.136918e+05 1.307600e+05 -3.637979e-12
2.166886e+05 1.322422e+05 -6.435914e+03
2.146659e+05 1.394390e+05 0.000000e+00
2.216024e+05 1.342820e+05 -3.637979e-12
2.135525e+05 1.227559e+05 -4.188970e+03
2.214630e+05 1.262778e+05 -4.188970e+03
2.213237e+05 1.182737e+05 -8.377940e+03
2.164137e+05 1.251477e+05 -1.319567e+04
2.132888e+05 1.148467e+05 -8.298588e+03
2.085364e+05 1.211626e+05 -1.038141e+04
2.295129e+05 1.378040e+05 -3.637979e-12
2.225765e+05 1.429610e+05 0.000000e+00
2.245180e+05 1.359170e+05 -8.290617e+03
2.333689e+05 1.377792e+05 -8.036732e+03
2.304870e+05 1.464829e+05 0.000000e+00
2.374234e+05 1.413260e+05 -3.637979e-12
2.293736e+05 1.297998e+05 -4.188970e+03
2.372841e+05 1.333218e+05 -4.188970e+03
2.371448e+05 1.253177e+05 -8.377940e+03
2.318711e+05 1.296687e+05 -1.324822e+04
2.398177e+05 1.341216e+05 -1.234926e+04
2.409736e+05 1.411872e+05 -7.047229e+03
2.348262e+05 1.451747e+05 -8.541569e+03
2.384182e+05 1.498212e+05 0.000000e+00
2.532577e+05 1.321233e+05 -8.572227e+03
2.452012e+05 1.287205e+05 -8.475083e+03
2.453406e+05 1.367246e+05 -4.286113e+03
2.481791e+05 1.377681e+05 -1.178519e+04
2.532511e+05 1.402466e+05 -4.286113e+03
2.453339e+05 1.448480e+05 -3.637979e-12
2.532445e+05 1.483700e+05 -3.637979e-12
2.476079e+05 1.464844e+05 -7.712457e+03
2.463288e+05 1.533432e+05 0.000000e+00
2.767991e+05 1.588572e+05 -3.637979e-12
2.859183e+05 1.642013e+05 -6.771163e+03
2.774204e+05 1.670031e+05 0.000000e+00
2.696868e+05 1.635599e+05 0.000000e+00
2.771994e+05 1.615886e+05 -5.319649e+03
2.690655e+05 1.554140e+05 -3.637979e-12
2.767991e+05 1.509574e+05 -4.166667e+03
2.845328e+05 1.544006e+05 -4.166667e+03
2.839523e+05 1.574774e+05 -1.237988e+04
2.690788e+05 1.391672e+05 -8.572227e+03
2.690721e+05 1.472906e+05 -4.286113e+03
2.768058e+05 1.428340e+05 -8.452780e+03
2.650748e+05 1.451823e+05 -1.115037e+04
2.660965e+05 1.532525e+05 -7.775575e+03
2.734719e+05 1.489372e+05 -1.429223e+04
2.745356e+05 1.553472e+05 -1.331842e+04
2.719375e+05 1.590864e+05 -7.682360e+03
2.611616e+05 1.437686e+05 -4.286113e+03
2.611550e+05 1.518920e+05 -3.637979e-12
2.566688e+05 1.513044e+05 -6.921298e+03
2.542393e+05 1.568652e+05 0.000000e+00
2.621498e+05 1.603872e+05 0.000000e+00
2.726545e+05 1.659598e+05 -6.907897e+03
6.339882e+04 -7.480864e+03 -3.761995e+04
5.687379e+04 -1.153580e+04 -4.274101e+04
5.554072e+04 -1.100135e+04 -3.763147e+04
6.351490e+04 4.094279e+02 -3.348559e+04
5.970947e+04 -2.228785e+03 -3.936044e+04
5.565680e+04 -3.111059e+03 -3.349710e+04
5.126775e+04 -4.223702e+03 -3.863274e+04
4.779870e+04 -6.631546e+03 -3.350862e+04
5.540606e+04 -1.887807e+04 -4.175431e+04
4.915658e+04 -1.315406e+04 -4.214604e+04
4.766405e+04 -1.450827e+04 -3.763147e+04
4.214539e+04 -1.763843e+04 -4.253740e+04
4.357795e+04 -1.035000e+04 -3.966395e+04
3.642736e+04 -1.259611e+04 -3.921525e+04
3.971459e+04 -1.805149e+04 -3.763352e+04
3.984925e+04 -1.017477e+04 -3.351068e+04
3.189979e+04 -1.371799e+04 -3.351273e+04
4.151958e+04 -3.528082e+03 -3.760968e+04
4.816038e+04 2.725288e+03 -3.494370e+04
5.601882e+04 4.404403e+03 -3.589845e+04
5.018324e+04 1.126713e+04 -3.159771e+04
4.742982e+04 1.369552e+03 -2.920193e+04
5.528792e+04 4.890039e+03 -2.919041e+04
4.706093e+04 9.370649e+03 -2.489524e+04
4.245201e+04 5.427058e+03 -3.259798e+04
3.451236e+04 3.575075e+03 -3.248507e+04
3.170273e+04 -6.426357e+03 -3.681854e+04
3.953412e+04 -2.177709e+03 -2.921874e+04
3.126954e+04 2.276127e+03 -2.492886e+04
3.158467e+04 -5.720934e+03 -2.922080e+04
3.916523e+04 5.823388e+03 -2.491205e+04
4.596973e+04 1.607518e+03 -4.063753e+04
8.913489e+04 3.476301e+03 -4.402235e+04
8.687561e+04 -4.823262e+03 -4.173128e+04
8.699169e+04 3.067029e+03 -3.759692e+04
8.021851e+04 3.095845e+02 -4.194966e+04
8.168517e+04 6.979626e+03 -3.915143e+04
7.911502e+04 -4.398898e+02 -3.759692e+04
7.923111e+04 7.450402e+03 -3.346256e+04
9.489264e+04 6.575537e+03 -3.760178e+04
8.809634e+04 1.157696e+04 -3.910363e+04
8.713205e+04 1.095891e+04 -3.346742e+04
9.503300e+04 1.446742e+04 -3.347228e+04
7.334011e+04 -5.102862e+03 -4.382709e+04
7.125692e+04 -3.960377e+03 -3.760843e+04
7.467303e+04 3.177748e+03 -3.975640e+04
7.137301e+04 3.929915e+03 -3.347407e+04
6.753931e+04 1.562274e+03 -3.922684e+04
6.288731e+04 8.091638e+03 -3.714765e+04
7.297257e+04 1.054964e+04 -3.787149e+04
6.602940e+04 1.774457e+04 -3.235606e+04
6.314602e+04 8.410525e+03 -2.917890e+04
7.100412e+04 1.193101e+04 -2.916738e+04
6.277714e+04 1.641162e+04 -2.487221e+04
8.139209e+04 2.550982e+04 -3.278729e+04
8.111114e+04 1.550453e+04 -3.732390e+04
8.890934e+04 1.918708e+04 -3.576420e+04
7.872348e+04 2.341696e+04 -2.492202e+04
7.897729e+04 1.543368e+04 -2.919229e+04
8.687824e+04 1.894219e+04 -2.919715e+04
7.453758e+04 1.901489e+04 -3.343399e+04
7.075031e+04 1.991429e+04 -2.489711e+04
-5.932563e+04 -2.889502e+04 -2.009522e+04
-6.848300e+04 -2.901919e+04 -2.473025e+04
-6.303829e+04 -2.979710e+04 -2.905967e+04
-5.791331e+04 -2.453735e+04 -2.831900e+04
-6.431478e+04 -2.196402e+04 -2.277878e+04
-5.583872e+04 -2.108284e+04 -1.679362e+04
-6.476810e+04 -1.946838e+04 -1.384522e+04
-6.825501e+04 -2.728056e+04 -1.714681e+04
-7.314957e+04 -1.926567e+04 -1.868430e+04
-5.283566e+04 -2.654496e+04 -2.723032e+04
-5.692244e+04 -3.422964e+04 -3.038621e+04
-4.979465e+04 -3.376831e+04 -3.106129e+04
-5.212592e+04 -2.854578e+04 -2.160172e+04
-5.561283e+04 -3.635796e+04 -2.490331e+04
-4.841311e+04 -3.600871e+04 -2.640981e+04
-6.162848e+04 -1.570057e+04 -1.259522e+04
-7.055787e+04 -1.408611e+04 -9.646812e+03
-6.722129e+04 -1.480004e+04 -1.945797e+04
-6.582270e+04 -7.542614e+03 -2.064687e+04
-6.076189e+04 -1.595588e+04 -2.546136e+04
-5.371795e+04 -1.217858e+04 -1.259522e+04
-5.472615e+04 -1.050479e+04 -2.056010e+04
-5.950771e+04 -6.796313e+03 -8.396812e+03
-6.164489e+04 -4.379491e+03 -1.593062e+04
-5.204274e+04 -2.887096e+03 -1.547553e+04
-4.631880e+04 -1.671474e+04 -1.672529e+04
-4.419803e+04 -7.810479e+03 -1.252688e+04
-3.679888e+04 -1.234664e+04 -1.665696e+04
-4.523922e+04 -7.472724e+03 -2.066933e+04
-5.069096e+04 -1.753607e+04 -2.895561e+04
-3.981838e+04 -2.255638e+04 -3.099693e+04
-3.922833e+04 -1.309624e+04 -2.657455e+04
-4.584035e+04 -2.472690e+04 -2.106354e+04
-3.584199e+04 -2.837096e+04 -2.533346e+04
-3.632043e+04 -2.035880e+04 -2.099521e+04
-4.458929e+04 -2.775020e+04 -3.162506e+04
-4.212755e+04 -3.218984e+04 -2.587164e+04
-2.841627e+05 -1.142852e+05 -1.233465e+04
-2.762441e+05 -1.185027e+05 -1.641865e+04
-2.830161e+05 -1.147403e+05 -1.929638e+04
-2.762441e+05 -1.106028e+05 -1.225198e+04
-2.852682e+05 -1.052365e+05 -1.696745e+04
-2.683254e+05 -1.148203e+05 -1.633598e+04
-2.763854e+05 -1.122460e+05 -2.069898e+04
-2.684567e+05 -1.071357e+05 -1.225198e+04
-2.763753e+05 -1.029182e+05 -8.167988e+03
-2.759385e+05 -1.034170e+05 -1.600574e+04
-2.804829e+05 -1.209832e+05 -2.419920e+04
-2.740125e+05 -1.270846e+05 -2.990931e+04
-2.725671e+05 -1.186834e+05 -2.555901e+04
-2.759718e+05 -1.265259e+05 -2.071430e+04
-2.677808e+05 -1.308667e+05 -2.492728e+04
-2.680531e+05 -1.228435e+05 -2.063163e+04
-2.633934e+05 -9.724193e+04 -1.503193e+04
-2.703627e+05 -9.847816e+04 -1.671751e+04
-2.720803e+05 -1.056532e+05 -2.053873e+04
-2.656138e+05 -1.037040e+05 -1.906962e+04
-2.530371e+05 -1.076472e+05 -1.614277e+04
-2.606813e+05 -1.112338e+05 -1.623937e+04
-2.608125e+05 -1.035491e+05 -1.215538e+04
-2.589410e+05 -1.021169e+05 -2.011669e+04
-2.666034e+05 -1.099471e+05 -2.515584e+04
-2.558625e+05 -1.076071e+05 -2.551594e+04
-2.660162e+05 -1.217155e+05 -2.963865e+04
-2.576686e+05 -1.179304e+05 -2.886209e+04
-2.597889e+05 -1.272468e+05 -2.489475e+04
-2.517971e+05 -1.236269e+05 -2.486222e+04
-2.600612e+05 -1.192236e+05 -2.059910e+04
-2.524171e+05 -1.156371e+05 -2.050250e+04
-2.746931e+05 -1.124880e+05 -2.924925e+04
2.529016e+05 7.667738e+04 -3.773274e+04
2.467872e+05 7.334918e+04 -4.241682e+04
2.449559e+05 7.318059e+04 -3.771118e+04
2.532303e+05 8.454927e+04 -3.365801e+04
2.473155e+05 8.196823e+04 -3.998522e+04
2.452847e+05 8.105248e+04 -3.363646e+04
2.403037e+05 7.693254e+04 -3.947274e+04
2.373390e+05 7.755569e+04 -3.361491e+04
2.446962e+05 6.529857e+04 -4.180746e+04
2.391487e+05 6.932683e+04 -4.375550e+04
2.370793e+05 6.967367e+04 -3.771118e+04
2.313881e+05 6.457865e+04 -4.435035e+04
2.328346e+05 7.287019e+04 -4.036207e+04
2.291744e+05 6.617401e+04 -3.770073e+04
2.238928e+05 7.045736e+04 -4.057347e+04
2.215292e+05 7.055636e+04 -3.359401e+04
2.294341e+05 7.405603e+04 -3.360446e+04
2.247886e+05 8.804545e+04 -3.285703e+04
2.217562e+05 7.793071e+04 -3.775480e+04
2.313425e+05 8.063701e+04 -3.844840e+04
2.210326e+05 8.657862e+04 -2.502669e+04
2.212809e+05 7.856749e+04 -2.931035e+04
2.291858e+05 8.206716e+04 -2.932080e+04
2.372208e+05 8.549410e+04 -2.940015e+04
2.406841e+05 9.300054e+04 -3.247838e+04
2.330448e+05 8.930577e+04 -3.370572e+04
2.371025e+05 9.343250e+04 -2.518540e+04
2.397744e+05 8.543189e+04 -3.751930e+04
2.290676e+05 9.000556e+04 -2.510604e+04
2.474818e+05 8.926667e+04 -3.576905e+04
2.451664e+05 8.899089e+04 -2.942171e+04
1.970795e+05 9.998868e+04 -1.232885e+04
1.904689e+05 1.124794e+05 -1.290327e+04
1.867826e+05 1.050914e+05 -1.522707e+04
1.925331e+05 1.004261e+05 -1.835415e+04
1.968465e+05 1.069301e+05 -1.777578e+04
2.047263e+05 9.560155e+04 -1.643847e+04
1.890101e+05 8.856428e+04 -1.645955e+04
1.892214e+05 9.647004e+04 -1.233939e+04
1.968682e+05 9.208292e+04 -1.644901e+04
1.834865e+05 9.826698e+04 -1.942432e+04
1.973433e+05 1.078978e+05 -8.219236e+03
2.049901e+05 1.035107e+05 -1.232885e+04
2.008058e+05 1.150608e+05 -1.471493e+04
2.127613e+05 9.902849e+04 -1.651782e+04
2.064248e+05 1.075923e+05 -1.934107e+04
2.130250e+05 1.069376e+05 -1.240821e+04
2.093167e+05 1.146685e+05 -1.541649e+04
2.207962e+05 1.024554e+05 -1.659718e+04
2.151357e+05 1.094392e+05 -2.089517e+04
2.056724e+05 9.831925e+04 -2.723444e+04
2.060881e+05 8.721170e+04 -2.914133e+04
2.151430e+05 9.049393e+04 -3.094723e+04
2.049746e+05 8.759042e+04 -2.072213e+04
2.128795e+05 9.109009e+04 -2.073258e+04
2.052229e+05 7.957929e+04 -2.500579e+04
2.131278e+05 8.307896e+04 -2.501624e+04
2.171209e+05 1.016579e+05 -2.617674e+04
2.209144e+05 9.451703e+04 -2.081193e+04
1.939147e+05 1.003692e+05 -2.561389e+04
2.005734e+05 1.068784e+05 -2.440190e+04
1.840027e+05 9.437401e+04 -2.636530e+04
1.904101e+05 8.825469e+04 -2.647707e+04
1.983338e+05 9.192455e+04 -2.443312e+04
1.987102e+05 8.494068e+04 -2.904634e+04
1.971165e+05 8.407179e+04 -2.073267e+04
2.292342e+05 1.217957e+05 -8.377940e+03
2.290949e+05 1.137915e+05 -1.256691e+04
2.235539e+05 1.193147e+05 -1.690135e+04
2.370055e+05 1.173135e+05 -1.256691e+04
2.323323e+05 1.217771e+05 -1.644727e+04
2.368661e+05 1.093093e+05 -1.675588e+04
2.308213e+05 1.135695e+05 -2.118232e+04
2.210600e+05 1.103646e+05 -1.248756e+04
2.288312e+05 1.058824e+05 -1.667653e+04
2.234809e+05 1.105464e+05 -1.986667e+04
2.398375e+05 1.259522e+05 -1.521231e+04
2.382279e+05 1.192685e+05 -1.967916e+04
2.529791e+05 1.161149e+05 -1.695017e+04
2.449226e+05 1.127121e+05 -1.685302e+04
2.450619e+05 1.207163e+05 -1.266405e+04
2.452775e+05 1.224381e+05 -2.006367e+04
2.369843e+05 1.013709e+05 -2.097064e+04
2.322313e+05 9.737139e+04 -3.078560e+04
2.404510e+05 1.012092e+05 -2.994261e+04
2.414647e+05 1.082889e+05 -2.522219e+04
2.338776e+05 1.061171e+05 -2.590824e+04
2.257364e+05 1.041769e+05 -2.495343e+04
2.289494e+05 9.794397e+04 -2.089129e+04
2.484976e+05 1.042494e+05 -2.910806e+04
2.450482e+05 9.692929e+04 -2.520695e+04
2.529939e+05 1.004261e+05 -2.522850e+04
2.449300e+05 1.048677e+05 -2.099219e+04
2.390912e+05 1.157188e+05 -2.666247e+04
2.501034e+05 1.210485e+05 -2.498953e+04
2.481155e+05 1.126305e+05 -2.645827e+04
2.529865e+05 1.082705e+05 -2.108933e+04
1.838274e+05 4.557303e+04 -4.407844e+04
1.815941e+05 3.725563e+04 -4.178007e+04
1.818095e+05 4.514386e+04 -3.767011e+04
1.749938e+05 4.234323e+04 -4.200291e+04
1.765068e+05 4.903410e+04 -3.924107e+04
1.739328e+05 4.163694e+04 -3.767011e+04
1.741481e+05 4.952517e+04 -3.356014e+04
1.897023e+05 4.865183e+04 -3.767335e+04
1.829343e+05 5.371944e+04 -3.922531e+04
1.820410e+05 5.303313e+04 -3.356338e+04
1.899338e+05 5.654110e+04 -3.356662e+04
1.680887e+05 3.692604e+04 -4.384206e+04
1.695510e+05 4.515265e+04 -3.980902e+04
1.660310e+05 3.812916e+04 -3.766465e+04
1.662463e+05 4.601739e+04 -3.355469e+04
1.624902e+05 4.347866e+04 -3.923501e+04
1.583445e+05 4.250961e+04 -3.354923e+04
1.678938e+05 5.237895e+04 -3.798934e+04
1.779336e+05 6.729075e+04 -3.253087e+04
1.759895e+05 5.760378e+04 -3.741982e+04
1.839895e+05 6.153575e+04 -3.586117e+04
1.737210e+05 6.552609e+04 -2.502038e+04
1.739346e+05 5.752563e+04 -2.929026e+04
1.818274e+05 6.103359e+04 -2.929350e+04
1.581778e+05 4.968907e+04 -3.707981e+04
1.696166e+05 6.105627e+04 -3.361497e+04
1.604575e+05 6.008888e+04 -3.341480e+04
1.657530e+05 6.202618e+04 -2.499524e+04
1.577851e+05 5.852628e+04 -2.497010e+04
1.659666e+05 5.402572e+04 -2.926512e+04
1.580648e+05 5.051794e+04 -2.925967e+04
1.115114e+05 1.465893e+04 -4.186740e+04
1.201109e+05 1.635355e+04 -4.411338e+04
1.132895e+05 2.173530e+04 -3.922966e+04
1.184308e+05 9.207591e+03 -4.174100e+04
1.106945e+05 1.359255e+04 -3.761151e+04
1.185712e+05 1.709947e+04 -3.761151e+04
1.108349e+05 2.148443e+04 -3.348201e+04
1.214031e+05 2.792603e+04 -4.000835e+04
1.264977e+05 2.060188e+04 -3.762558e+04
1.266879e+05 2.848924e+04 -3.351016e+04
1.187614e+05 2.498684e+04 -3.349608e+04
1.046182e+05 8.903699e+03 -4.393881e+04
1.027936e+05 1.008404e+04 -3.760664e+04
9.594828e+04 1.565316e+04 -4.028496e+04
1.055574e+05 1.755357e+04 -3.968486e+04
1.029339e+05 1.797593e+04 -3.347714e+04
9.733694e+04 3.036008e+04 -3.206329e+04
9.608057e+04 2.325406e+04 -3.580384e+04
1.041675e+05 2.532179e+04 -3.750218e+04
9.452537e+04 3.043397e+04 -2.493174e+04
9.477919e+04 2.245069e+04 -2.920201e+04
1.026801e+05 2.595920e+04 -2.920688e+04
1.042887e+05 3.520625e+04 -3.329249e+04
1.103617e+05 3.746129e+04 -2.494411e+04
1.024435e+05 3.394763e+04 -2.493793e+04
1.105983e+05 2.947286e+04 -2.921306e+04
1.201852e+05 3.408867e+04 -3.544479e+04
1.126257e+05 4.035037e+04 -3.272045e+04
1.123508e+05 3.057840e+04 -3.712793e+04
1.185248e+05 3.297527e+04 -2.922714e+04
1.337802e+05 7.188907e+04 -1.228505e+04
1.282581e+05 8.159388e+04 -1.367295e+04
1.247318e+05 7.488459e+04 -1.853499e+04
1.318648e+05 6.994288e+04 -2.238739e+04
1.342296e+05 7.737397e+04 -1.873570e+04
1.414220e+05 6.752739e+04 -1.638007e+04
1.416908e+05 7.541106e+04 -1.228505e+04
1.340490e+05 7.977274e+04 -8.190034e+03
1.363521e+05 8.469089e+04 -1.385641e+04
1.256552e+05 6.048277e+04 -1.639314e+04
1.258968e+05 6.836675e+04 -1.229159e+04
1.335386e+05 6.400508e+04 -1.638660e+04
1.262432e+05 6.722879e+04 -1.988760e+04
1.445066e+05 8.603618e+04 -1.399287e+04
1.423367e+05 8.040556e+04 -1.806640e+04
1.573579e+05 7.452720e+04 -1.643034e+04
1.493900e+05 7.102729e+04 -1.640520e+04
1.496587e+05 7.891097e+04 -1.231019e+04
1.499116e+05 8.295866e+04 -1.871461e+04
1.542589e+05 7.218237e+04 -2.678294e+04
1.440210e+05 6.841331e+04 -2.709356e+04
1.514970e+05 6.156005e+04 -2.972631e+04
1.575715e+05 6.652674e+04 -2.070022e+04
1.496035e+05 6.302683e+04 -2.067509e+04
1.443226e+05 5.912381e+04 -2.818004e+04
1.498832e+05 5.501850e+04 -2.496465e+04
1.417017e+05 5.951906e+04 -2.066963e+04
1.419814e+05 5.151072e+04 -2.495919e+04
1.291856e+05 6.160871e+04 -2.408517e+04
1.362120e+05 6.426292e+04 -2.419120e+04
1.355358e+05 7.479098e+04 -2.911333e+04
1.524191e+05 8.083410e+04 -2.656233e+04
1.424693e+05 7.893981e+04 -2.443106e+04
1.360508e+05 5.756626e+04 -2.928052e+04
1.338183e+05 5.599674e+04 -2.067617e+04
2.690920e+05 1.229205e+05 -1.714445e+04
2.690854e+05 1.310439e+05 -1.285834e+04
2.768190e+05 1.265872e+05 -1.702501e+04
2.632071e+05 1.280510e+05 -2.037420e+04
2.768124e+05 1.347106e+05 -1.273889e+04
2.650455e+05 1.375118e+05 -1.707559e+04
2.716622e+05 1.308132e+05 -2.156833e+04
2.694569e+05 1.226557e+05 -2.678039e+04
2.785740e+05 1.190786e+05 -2.817418e+04
2.789322e+05 1.279131e+05 -2.602741e+04
2.768190e+05 1.186874e+05 -2.119167e+04
2.845460e+05 1.223541e+05 -2.107223e+04
2.719570e+05 1.146870e+05 -2.938059e+04
2.691069e+05 1.072317e+05 -2.542279e+04
2.768265e+05 1.108430e+05 -2.533084e+04
2.690995e+05 1.150761e+05 -2.128362e+04
2.610356e+05 1.195177e+05 -1.704731e+04
2.611749e+05 1.275219e+05 -1.285834e+04
2.531184e+05 1.241191e+05 -1.276120e+04
2.535427e+05 1.265357e+05 -1.913110e+04
2.563144e+05 1.329678e+05 -1.562614e+04
2.611683e+05 1.356452e+05 -8.572227e+03
2.567861e+05 1.232008e+05 -2.297766e+04
2.618709e+05 1.219452e+05 -2.479389e+04
2.560843e+05 1.163154e+05 -2.584024e+04
2.637025e+05 1.171112e+05 -2.449603e+04
2.639346e+05 1.112877e+05 -3.043705e+04
2.610430e+05 1.116733e+05 -2.118648e+04
2.788968e+05 8.823593e+04 -4.420638e+04
2.765126e+05 7.938240e+04 -4.185056e+04
2.768413e+05 8.725429e+04 -3.777584e+04
2.696152e+05 8.541479e+04 -4.183050e+04
2.716374e+05 9.387066e+04 -3.868925e+04
2.687930e+05 8.367096e+04 -3.777584e+04
2.691217e+05 9.154285e+04 -3.370112e+04
2.845609e+05 9.086559e+04 -3.768389e+04
2.792229e+05 9.552013e+04 -3.890044e+04
2.768413e+05 9.515415e+04 -3.360917e+04
2.696652e+05 1.005067e+05 -3.499422e+04
2.767877e+05 1.025039e+05 -3.600933e+04
2.714755e+05 1.069909e+05 -3.193925e+04
2.691143e+05 9.938726e+04 -2.956195e+04
2.768339e+05 1.029986e+05 -2.947001e+04
2.622145e+05 7.937318e+04 -4.382482e+04
2.608473e+05 8.017417e+04 -3.775429e+04
2.638040e+05 8.812965e+04 -3.958837e+04
2.611760e+05 8.804606e+04 -3.367957e+04
2.553431e+05 8.680055e+04 -3.945572e+04
2.547413e+05 9.375525e+04 -3.557656e+04
2.627579e+05 9.516497e+04 -3.701582e+04
2.569476e+05 1.020941e+05 -3.179834e+04
2.531121e+05 9.248768e+04 -2.944326e+04
2.610578e+05 9.598447e+04 -2.946481e+04
2.643256e+05 1.034331e+05 -3.239349e+04
2.610504e+05 1.038289e+05 -2.532564e+04
2.666154e+05 9.972049e+04 -3.984521e+04
3.053177e+04 1.827832e+04 -1.631548e+04
3.082882e+04 2.615991e+04 -1.222821e+04
3.842747e+04 2.182558e+04 -1.629867e+04
2.863575e+04 2.618327e+04 -2.134622e+04
3.872452e+04 2.970717e+04 -1.221140e+04
2.993562e+04 3.526696e+04 -1.923406e+04
4.632316e+04 2.537284e+04 -1.628186e+04
3.645959e+04 2.733644e+04 -2.278686e+04
3.903641e+04 3.756350e+04 -8.140931e+03
3.209946e+04 4.177241e+04 -1.464982e+04
4.663505e+04 3.322917e+04 -1.221140e+04
4.347271e+04 4.134472e+04 -1.446133e+04
4.118968e+04 3.460231e+04 -1.916200e+04
6.226951e+04 3.237818e+04 -1.633167e+04
5.429633e+04 2.887551e+04 -1.630677e+04
5.460822e+04 3.673183e+04 -1.223630e+04
5.131610e+04 3.705327e+04 -2.099520e+04
4.820351e+04 1.886137e+04 -2.774865e+04
5.669939e+04 2.027046e+04 -3.019261e+04
4.929362e+04 2.752448e+04 -2.453136e+04
5.491903e+04 1.289114e+04 -2.488372e+04
4.669205e+04 1.737175e+04 -2.058855e+04
5.455015e+04 2.089223e+04 -2.057704e+04
4.106954e+04 1.302496e+04 -3.008667e+04
4.172684e+04 2.182363e+04 -2.548542e+04
3.392186e+04 1.919461e+04 -2.479036e+04
3.879635e+04 1.382449e+04 -2.060536e+04
5.754651e+04 3.082462e+04 -2.530467e+04
6.252332e+04 2.439490e+04 -2.060194e+04
4.033261e+04 3.047413e+04 -2.912059e+04
1.022195e+05 5.780014e+04 -1.230466e+04
1.006718e+05 6.568509e+04 -1.435148e+04
9.487167e+04 6.112973e+04 -1.660612e+04
1.004567e+05 5.658692e+04 -1.928638e+04
1.071341e+05 6.251048e+04 -1.884511e+04
1.098884e+05 5.343814e+04 -1.640622e+04
1.019703e+05 4.992448e+04 -1.640003e+04
9.405213e+04 4.641083e+04 -1.639385e+04
9.430137e+04 5.428648e+04 -1.229848e+04
9.276480e+04 5.407703e+04 -2.000752e+04
1.101300e+05 6.132213e+04 -1.230466e+04
1.024611e+05 6.568412e+04 -8.203108e+03
1.078024e+05 7.150453e+04 -1.537603e+04
1.177718e+05 5.696045e+04 -1.639968e+04
1.180134e+05 6.484444e+04 -1.229813e+04
1.173730e+05 6.591114e+04 -2.074041e+04
1.030534e+05 5.189394e+04 -2.587006e+04
9.635109e+04 4.648347e+04 -2.438335e+04
1.039674e+05 4.274804e+04 -2.793185e+04
1.101250e+05 4.544972e+04 -2.067516e+04
1.022069e+05 4.193606e+04 -2.066898e+04
1.200931e+05 4.909047e+04 -3.014946e+04
1.130550e+05 5.644058e+04 -2.431235e+04
1.114948e+05 4.764130e+04 -2.807018e+04
1.262146e+05 4.446610e+04 -2.497227e+04
1.180515e+05 4.895212e+04 -2.068924e+04
1.182881e+05 4.096369e+04 -2.495819e+04
1.214029e+05 5.923899e+04 -2.490828e+04
1.259349e+05 5.247443e+04 -2.068270e+04
1.044600e+05 6.031270e+04 -2.610161e+04
1.581291e+05 3.462139e+04 -3.765919e+04
1.516386e+05 3.054011e+04 -4.279340e+04
1.502273e+05 3.111361e+04 -3.765374e+04
1.544741e+05 3.979797e+04 -3.896171e+04
1.504426e+05 3.900183e+04 -3.354377e+04
1.461464e+05 3.780225e+04 -3.863147e+04
1.425408e+05 3.549406e+04 -3.353832e+04
1.500371e+05 2.322624e+04 -4.176916e+04
1.439501e+05 2.899652e+04 -4.214119e+04
1.423506e+05 2.760669e+04 -3.765374e+04
1.368858e+05 2.463083e+04 -4.247149e+04
1.383744e+05 3.201292e+04 -3.969468e+04
1.308413e+05 3.000552e+04 -3.957016e+04
1.344242e+05 2.410428e+04 -3.763966e+04
1.346143e+05 3.199165e+04 -3.352424e+04
1.515520e+05 4.590100e+04 -3.611111e+04
1.438593e+05 4.498882e+04 -3.534124e+04
1.462772e+05 5.236191e+04 -3.209969e+04
1.501629e+05 4.701017e+04 -2.925421e+04
1.422611e+05 4.350239e+04 -2.924875e+04
1.366706e+05 3.939036e+04 -3.782072e+04
1.300097e+05 4.693694e+04 -3.243330e+04
1.278554e+05 3.744842e+04 -3.670767e+04
1.343777e+05 3.998008e+04 -2.925529e+04
1.264512e+05 3.647767e+04 -2.924121e+04
1.384438e+05 5.002983e+04 -3.333746e+04
1.340980e+05 4.798841e+04 -2.496573e+04
1.420741e+05 4.391868e+04 -4.068831e+04
1.732939e+05 8.152701e+04 -1.648062e+04
1.653259e+05 7.802711e+04 -1.645548e+04
1.655947e+05 8.591078e+04 -1.236046e+04
1.675231e+05 8.869057e+04 -1.849549e+04
1.576267e+05 8.241087e+04 -1.233533e+04
1.580639e+05 8.645385e+04 -1.865442e+04
1.607508e+05 9.329388e+04 -1.401832e+04
1.735052e+05 8.943277e+04 -1.236046e+04
1.658060e+05 9.381654e+04 -8.240309e+03
1.706933e+05 9.753372e+04 -1.523718e+04
1.811520e+05 8.504565e+04 -1.647008e+04
1.813633e+05 9.295141e+04 -1.234993e+04
1.764342e+05 9.244091e+04 -1.964259e+04
1.791197e+05 8.867437e+04 -2.469291e+04
1.716690e+05 8.786400e+04 -2.390267e+04
1.837166e+05 8.418670e+04 -2.472612e+04
1.753282e+05 8.235081e+04 -2.582986e+04
1.845970e+05 7.797490e+04 -3.045450e+04
1.814003e+05 7.703452e+04 -2.075374e+04
1.895067e+05 7.254202e+04 -2.502686e+04
1.892584e+05 8.055315e+04 -2.074320e+04
1.757586e+05 7.428329e+04 -2.841624e+04
1.735074e+05 7.352655e+04 -2.075050e+04
1.816138e+05 6.903406e+04 -2.502362e+04
1.685930e+05 6.843807e+04 -3.072617e+04
1.698120e+05 7.593104e+04 -2.612882e+04
1.621484e+05 7.449003e+04 -2.538193e+04
1.655395e+05 7.002664e+04 -2.072536e+04
1.605155e+05 8.194869e+04 -2.323701e+04
1.666707e+05 8.119111e+04 -2.449146e+04
1.691113e+05 8.078615e+04 -3.122219e+04
2.160407e+05 6.036466e+04 -4.416551e+04
2.131331e+05 5.128540e+04 -4.178655e+04
2.133646e+05 5.917468e+04 -3.767983e+04
2.066251e+05 5.747323e+04 -4.178483e+04
2.087016e+05 6.614043e+04 -3.858321e+04
2.054879e+05 5.566776e+04 -3.767983e+04
2.057194e+05 6.355703e+04 -3.357311e+04
2.212695e+05 6.267434e+04 -3.769028e+04
2.164191e+05 6.752998e+04 -3.900539e+04
2.136243e+05 6.705670e+04 -3.358356e+04
1.994448e+05 5.130365e+04 -4.397601e+04
2.005415e+05 6.016841e+04 -3.967548e+04
1.975951e+05 5.215979e+04 -3.767659e+04
1.908148e+05 5.808956e+04 -4.040221e+04
1.978266e+05 6.004907e+04 -3.356986e+04
2.097780e+05 8.086423e+04 -3.211248e+04
2.072274e+05 7.316344e+04 -3.510682e+04
2.146528e+05 7.439926e+04 -3.595483e+04
2.054712e+05 7.156816e+04 -2.928945e+04
2.133760e+05 7.506783e+04 -2.929990e+04
1.936590e+05 7.479265e+04 -3.214037e+04
1.998649e+05 6.815344e+04 -3.744708e+04
2.018758e+05 7.714793e+04 -3.248480e+04
1.976130e+05 6.804953e+04 -2.929998e+04
1.973648e+05 7.606066e+04 -2.501633e+04
1.914518e+05 6.612187e+04 -3.612704e+04
1.897202e+05 6.454156e+04 -2.929674e+04
2.049343e+05 7.281097e+04 -3.996885e+04
1.735490e+04 -2.728804e+04 -4.181370e+04
2.614385e+04 -2.566133e+04 -4.421188e+04
1.956570e+04 -1.875934e+04 -3.890179e+04
2.375382e+04 -3.297836e+04 -4.175842e+04
1.593902e+04 -2.864486e+04 -3.763764e+04
2.381569e+04 -2.513794e+04 -3.763764e+04
1.600089e+04 -2.080444e+04 -3.351685e+04
2.825272e+04 -1.659740e+04 -3.916302e+04
3.176514e+04 -2.159472e+04 -3.763558e+04
2.395034e+04 -1.726122e+04 -3.351479e+04
1.037029e+04 -3.323722e+04 -4.398547e+04
7.977484e+03 -3.235852e+04 -3.772675e+04
2.422626e+03 -2.724951e+04 -4.062026e+04
1.132961e+04 -2.426398e+04 -3.984759e+04
7.781862e+01 -2.823176e+04 -3.369507e+04
8.039352e+03 -2.451810e+04 -3.360596e+04
2.505655e+04 -1.058230e+04 -3.605740e+04
1.826047e+04 -4.369704e+03 -3.346056e+04
1.862387e+04 -1.269967e+04 -3.503848e+04
2.363521e+04 -9.264158e+03 -2.922285e+04
1.537063e+04 -4.810321e+03 -2.493297e+04
1.568576e+04 -1.280738e+04 -2.922491e+04
2.379733e+03 -9.524573e+03 -3.253371e+04
-3.776001e+02 -1.960295e+04 -3.749673e+04
1.041832e+04 -1.497732e+04 -3.800804e+04
-8.790737e+02 -1.220744e+04 -2.501857e+04
-4.006275e+02 -2.021960e+04 -2.935682e+04
7.560906e+03 -1.650594e+04 -2.926771e+04
1.062327e+04 -6.078801e+03 -3.247572e+04
7.245778e+03 -8.508882e+03 -2.497577e+04
-2.276499e+05 -1.369151e+05 -3.754135e+04
-2.252345e+05 -1.383453e+05 -4.515442e+04
-2.216854e+05 -1.326494e+05 -4.098913e+04
-2.267189e+05 -1.292094e+05 -3.774798e+04
-2.328985e+05 -1.315377e+05 -3.987700e+04
-2.352687e+05 -1.324335e+05 -3.338846e+04
-2.192911e+05 -1.324024e+05 -3.712409e+04
-2.185512e+05 -1.234082e+05 -3.255395e+04
-2.205528e+05 -1.245628e+05 -3.793335e+04
-2.269100e+05 -1.279208e+05 -3.297121e+04
-2.279077e+05 -1.449036e+05 -4.169423e+04
-2.342326e+05 -1.395734e+05 -4.247525e+04
-2.355265e+05 -1.404220e+05 -3.754135e+04
-2.424135e+05 -1.452495e+05 -4.295921e+04
-2.399189e+05 -1.368455e+05 -3.986627e+04
-2.475876e+05 -1.384613e+05 -3.890406e+04
-2.435184e+05 -1.440419e+05 -3.757388e+04
-2.432606e+05 -1.360533e+05 -3.342099e+04
-2.512525e+05 -1.396732e+05 -3.345353e+04
-2.522934e+05 -1.318755e+05 -3.672323e+04
-2.424346e+05 -1.295365e+05 -3.651466e+04
-2.487978e+05 -1.215856e+05 -3.179550e+04
-2.515248e+05 -1.316501e+05 -2.915787e+04
-2.435329e+05 -1.280302e+05 -2.912534e+04
-2.398769e+05 -1.203657e+05 -3.314057e+04
-2.358887e+05 -1.244436e+05 -2.902874e+04
-2.365088e+05 -1.164538e+05 -2.466902e+04
-2.441529e+05 -1.200403e+05 -2.476562e+04
-2.318066e+05 -1.228153e+05 -3.753217e+04
-2.327046e+05 -1.132399e+05 -3.225380e+04
-2.241176e+05 -1.182180e+05 -3.512196e+04
-2.275300e+05 -1.199310e+05 -2.861148e+04
-2.412823e+05 -1.314699e+05 -4.225576e+04
-2.842890e+05 -1.463142e+05 -3.718892e+04
-2.741396e+05 -1.436735e+05 -3.749827e+04
-2.811227e+05 -1.365280e+05 -3.235654e+04
-2.754272e+05 -1.504721e+05 -3.347228e+04
-2.836181e+05 -1.461312e+05 -2.925930e+04
-2.672362e+05 -1.469130e+05 -3.351859e+04
-2.754272e+05 -1.425722e+05 -2.930561e+04
-2.673788e+05 -1.547886e+05 -3.763894e+04
-2.734738e+05 -1.578309e+05 -4.247091e+04
-2.755698e+05 -1.583476e+05 -3.759263e+04
-2.719876e+05 -1.503999e+05 -3.963543e+04
-2.794428e+05 -1.527454e+05 -3.923763e+04
-2.729888e+05 -1.348525e+05 -3.233430e+04
-2.756995e+05 -1.345490e+05 -2.500996e+04
-2.675085e+05 -1.388899e+05 -2.922294e+04
-2.661181e+05 -1.531000e+05 -4.211577e+04
-2.579400e+05 -1.513353e+05 -4.367614e+04
-2.641661e+05 -1.441309e+05 -3.851620e+04
-2.596448e+05 -1.591572e+05 -4.175930e+04
-2.595022e+05 -1.512817e+05 -3.763894e+04
-2.556786e+05 -1.420993e+05 -3.900136e+04
-2.515103e+05 -1.476618e+05 -3.760641e+04
-2.592443e+05 -1.432931e+05 -3.348606e+04
-2.654513e+05 -1.306701e+05 -3.158133e+04
-2.673640e+05 -1.375573e+05 -3.476202e+04
-2.593481e+05 -1.355823e+05 -3.556030e+04
-2.595166e+05 -1.352700e+05 -2.919040e+04
-2.700073e+05 -1.381602e+05 -4.024496e+04
7.821585e+04 3.938351e+04 -1.638148e+04
7.024268e+04 3.588084e+04 -1.635658e+04
7.055456e+04 4.373717e+04 -1.228611e+04
6.768411e+04 4.130955e+04 -2.116899e+04
6.258139e+04 4.023450e+04 -1.226121e+04
5.960488e+04 3.955028e+04 -1.915403e+04
6.214733e+04 4.690783e+04 -1.695213e+04
6.626900e+04 5.321210e+04 -1.397588e+04
7.323811e+04 4.812956e+04 -1.906809e+04
7.846509e+04 4.725916e+04 -1.228611e+04
7.080381e+04 5.161282e+04 -8.190740e+03
7.540628e+04 5.534322e+04 -1.490034e+04
8.613399e+04 4.289717e+04 -1.638766e+04
8.638323e+04 5.077282e+04 -1.229229e+04
8.462801e+04 5.074954e+04 -2.262225e+04
8.098787e+04 4.111327e+04 -2.461584e+04
8.018648e+04 3.232108e+04 -2.808811e+04
8.836141e+04 3.418767e+04 -3.005894e+04
7.846966e+04 3.140023e+04 -2.065175e+04
8.637061e+04 3.490874e+04 -2.065661e+04
8.662443e+04 2.692546e+04 -2.492688e+04
7.228570e+04 2.676687e+04 -2.925859e+04
7.352455e+04 3.565873e+04 -2.531763e+04
6.548206e+04 3.325617e+04 -2.427153e+04
7.049649e+04 2.789757e+04 -2.062684e+04
8.902936e+04 4.265149e+04 -2.535807e+04
9.428875e+04 3.842240e+04 -2.066280e+04
7.151681e+04 4.394334e+04 -2.848858e+04
1.474037e+04 1.118380e+04 -1.634910e+04
7.126898e+03 1.554340e+04 -1.226182e+04
1.503743e+04 1.906539e+04 -1.226182e+04
1.159348e+04 1.981047e+04 -1.883142e+04
7.423952e+03 2.342499e+04 -8.174550e+03
4.535942e+03 2.476063e+04 -1.465425e+04
1.413088e+04 2.709210e+04 -1.503864e+04
-6.133921e+02 1.870115e+04 -1.623992e+04
4.539820e+03 1.409507e+04 -1.930810e+04
6.615522e+03 7.485241e+03 -1.639190e+04
-1.509329e+03 3.786680e+03 -1.643470e+04
-9.979533e+02 1.184484e+04 -1.230462e+04
-4.334328e+03 1.185125e+04 -2.084358e+04
2.263607e+04 1.473106e+04 -1.633229e+04
2.293312e+04 2.261265e+04 -1.224502e+04
2.053293e+04 2.179907e+04 -2.052097e+04
2.443704e+04 5.635999e+03 -3.065440e+04
1.711105e+04 1.312906e+04 -2.476967e+04
1.477819e+04 4.286877e+03 -2.858068e+04
2.300496e+04 6.729964e+03 -2.063898e+04
2.332008e+04 -1.267097e+03 -2.493092e+04
1.505550e+04 3.186740e+03 -2.064104e+04
2.602614e+04 1.654000e+04 -2.592787e+04
3.090065e+04 1.027722e+04 -2.062217e+04
6.414155e+03 9.401310e+03 -2.607082e+04
-1.409422e+03 5.182333e+03 -2.437899e+04
6.242154e+03 -3.775473e+02 -2.862844e+04
6.930650e+03 -5.118205e+02 -2.068383e+04
8.195492e+03 1.729203e+04 -2.612407e+04
-5.196478e+03 -3.771972e+04 -4.414244e+04
-7.922585e+03 -4.741952e+04 -4.193665e+04
-7.945582e+03 -3.978584e+04 -3.790498e+04
-1.470073e+04 -4.023264e+04 -4.212474e+04
-1.270666e+04 -3.167736e+04 -3.850192e+04
-1.582225e+04 -4.329276e+04 -3.790498e+04
-1.584525e+04 -3.565908e+04 -3.387330e+04
1.595103e+01 -3.607218e+04 -3.781586e+04
-5.112658e+03 -3.047204e+04 -3.900857e+04
-7.883715e+03 -3.194542e+04 -3.378419e+04
-2.254451e+04 -4.584789e+04 -4.261201e+04
-2.280757e+04 -3.661003e+04 -3.895576e+04
-3.143798e+04 -4.102473e+04 -3.970906e+04
-2.210781e+04 -4.711163e+04 -3.844315e+04
-2.213081e+04 -3.947796e+04 -3.441148e+04
-2.841637e+04 -4.329683e+04 -3.494965e+04
-2.970244e+04 -2.249943e+04 -3.265949e+04
-2.204331e+04 -2.929811e+04 -3.698936e+04
-2.108222e+04 -2.277296e+04 -3.227475e+04
-2.584362e+04 -3.201502e+04 -2.960338e+04
-2.632206e+04 -2.400286e+04 -2.526513e+04
-1.632369e+04 -2.764692e+04 -2.953505e+04
-1.680214e+04 -1.963476e+04 -2.519680e+04
-3.266889e+04 -3.119300e+04 -3.417695e+04
-3.212918e+04 -3.583390e+04 -3.014156e+04
-1.450381e+04 -1.679027e+04 -3.155507e+04
-1.513091e+04 -2.515915e+04 -3.442071e+04
-7.565825e+03 -2.363619e+04 -3.578394e+04
-8.362161e+03 -2.393326e+04 -2.944594e+04
-1.731561e+04 -2.494901e+04 -3.939208e+04
-2.515819e+04 9.257205e+02 -1.239022e+04
-2.669726e+04 8.038601e+03 -1.583241e+04
-3.214716e+04 3.602753e+03 -1.886921e+04
-2.751040e+04 -2.729683e+03 -2.280964e+04
-2.133640e+04 3.813990e+03 -2.053977e+04
-1.775903e+04 -3.610440e+03 -1.652029e+04
-3.467811e+04 -3.442379e+03 -1.245855e+04
-2.727896e+04 -7.978540e+03 -1.658862e+04
-3.586669e+04 -3.934716e+03 -2.126422e+04
-1.724766e+04 4.447715e+03 -1.239022e+04
-2.464681e+04 8.983876e+03 -8.260145e+03
-1.937850e+04 1.386760e+04 -1.787317e+04
-9.634181e+03 8.812010e+01 -1.647749e+04
-9.122805e+03 8.146275e+03 -1.234742e+04
-1.221765e+04 5.601307e+03 -2.110368e+04
-3.095200e+04 -1.042601e+04 -2.469268e+04
-2.384402e+04 -1.615833e+04 -2.868571e+04
-2.237903e+04 -7.921831e+03 -2.518366e+04
-2.680051e+04 -1.599070e+04 -2.092688e+04
-1.728059e+04 -1.162260e+04 -2.085854e+04
-1.486075e+04 -2.652690e+03 -2.442897e+04
-1.564683e+04 -1.069144e+04 -2.755703e+04
-7.587932e+03 -8.799097e+03 -2.985883e+04
-9.319053e+03 -7.908941e+03 -2.076943e+04
-8.840607e+03 -1.592110e+04 -2.510768e+04
-7.192055e+03 -7.250651e+02 -2.496027e+04
-1.194201e+03 -4.210381e+03 -2.072663e+04
-2.305739e+04 -1.506212e+02 -2.886090e+04
-4.890019e+04 -4.965165e+04 -3.855571e+04
-4.508088e+04 -5.606157e+04 -4.312010e+04
-4.193942e+04 -4.944559e+04 -3.959862e+04
-4.975532e+04 -5.860555e+04 -3.801300e+04
-4.818722e+04 -5.128383e+04 -3.451950e+04
-4.255561e+04 -5.825630e+04 -3.951950e+04
-4.098750e+04 -5.093458e+04 -3.602600e+04
-4.494761e+04 -4.117432e+04 -3.691654e+04
-5.190002e+04 -4.382089e+04 -2.971141e+04
-4.470031e+04 -4.347165e+04 -3.121791e+04
-3.537072e+04 -5.241247e+04 -4.364156e+04
-3.678393e+04 -4.544864e+04 -3.906878e+04
-2.839338e+04 -5.093051e+04 -3.898133e+04
-3.467894e+04 -5.474938e+04 -3.951950e+04
-3.470194e+04 -4.711571e+04 -3.548783e+04
-3.624705e+04 -6.207111e+04 -4.301300e+04
-3.841474e+04 -3.965277e+04 -3.067973e+04
-2.377488e+05 -1.004741e+05 -1.594957e+04
-2.455242e+05 -9.637601e+04 -1.196218e+04
-2.376137e+05 -9.285402e+04 -1.196218e+04
-2.407473e+05 -9.579298e+04 -2.137777e+04
-2.453891e+05 -8.875590e+04 -7.974785e+03
-2.485066e+05 -9.025459e+04 -1.577238e+04
-2.400526e+05 -8.712846e+04 -1.543176e+04
-2.453930e+05 -1.040607e+05 -1.604617e+04
-2.531684e+05 -9.996256e+04 -1.205878e+04
-2.510668e+05 -9.802709e+04 -1.995659e+04
-2.253023e+05 -9.270895e+04 -1.477675e+04
-2.315255e+05 -9.659154e+04 -1.536316e+04
-2.313904e+05 -8.897143e+04 -1.137577e+04
-2.324740e+05 -8.944358e+04 -2.004968e+04
-2.479686e+05 -1.055251e+05 -2.416407e+04
-2.407590e+05 -1.044102e+05 -2.449047e+04
-2.419999e+05 -1.127527e+05 -2.887580e+04
-2.371288e+05 -1.084640e+05 -2.030929e+04
-2.447729e+05 -1.120505e+05 -2.040589e+04
-2.345968e+05 -1.075665e+05 -2.727388e+04
-2.341706e+05 -1.011376e+05 -2.338660e+04
-2.267937e+05 -1.045160e+05 -2.882940e+04
-2.281500e+05 -1.119411e+05 -2.425176e+04
-2.197913e+05 -1.074285e+05 -2.383451e+04
-2.287701e+05 -1.039513e+05 -1.989204e+04
-2.293453e+05 -9.569868e+04 -2.416702e+04
-2.225468e+05 -1.000687e+05 -1.930563e+04
-1.935066e+05 -1.197439e+05 -4.239360e+04
-1.946970e+05 -1.198702e+05 -3.628958e+04
-1.866365e+05 -1.183648e+05 -3.738845e+04
-2.018577e+05 -1.156424e+05 -3.792245e+04
-1.938791e+05 -1.111944e+05 -3.862377e+04
-2.018338e+05 -1.143829e+05 -3.171944e+04
-1.937733e+05 -1.128775e+05 -3.281831e+04
-1.857128e+05 -1.113722e+05 -3.391717e+04
-1.954369e+05 -1.288644e+05 -4.085972e+04
-2.032640e+05 -1.239290e+05 -4.135646e+04
-2.025736e+05 -1.233771e+05 -3.628958e+04
-2.109324e+05 -1.278898e+05 -3.670684e+04
-2.101925e+05 -1.188955e+05 -3.213670e+04
-2.128621e+05 -1.185599e+05 -3.874831e+04
-2.170189e+05 -1.132796e+05 -3.437274e+04
-2.092251e+05 -1.107570e+05 -3.481736e+04
-2.171567e+05 -1.050226e+05 -3.032399e+04
-2.191713e+05 -1.154183e+05 -2.819423e+04
-2.108125e+05 -1.109057e+05 -2.777698e+04
-2.096822e+05 -1.033829e+05 -3.097718e+04
-2.045892e+05 -1.070231e+05 -2.719057e+04
-2.073447e+05 -9.966331e+04 -2.266169e+04
-2.135680e+05 -1.035459e+05 -2.324810e+04
-1.953307e+05 -9.918150e+04 -3.248664e+04
-2.020330e+05 -1.069187e+05 -3.509956e+04
-1.939871e+05 -1.063398e+05 -3.424895e+04
-1.931439e+05 -9.880206e+04 -2.554222e+04
-1.974888e+05 -1.065925e+05 -2.863083e+04
-1.894283e+05 -1.050871e+05 -2.972969e+04
-2.038454e+05 -9.895472e+04 -3.005813e+04
-2.002443e+05 -9.923269e+04 -2.410195e+04
-2.189439e+05 -8.120624e+04 -1.020295e+04
-2.219262e+05 -7.322442e+04 -1.172869e+04
-2.254551e+05 -7.914820e+04 -1.439677e+04
-2.208751e+05 -8.386905e+04 -1.776751e+04
-2.169725e+05 -7.813621e+04 -1.661968e+04
-2.128557e+05 -8.494376e+04 -1.360393e+04
-2.190790e+05 -8.882636e+04 -1.419034e+04
-2.251671e+05 -8.508883e+04 -1.078936e+04
-2.267258e+05 -8.623838e+04 -1.693295e+04
-2.110333e+05 -7.768425e+04 -1.020295e+04
-2.171215e+05 -7.394672e+04 -6.801967e+03
-2.127883e+05 -7.089290e+04 -1.352815e+04
-2.057553e+05 -8.451314e+04 -1.504420e+04
-2.039329e+05 -7.725362e+04 -1.164322e+04
-1.986548e+05 -8.408252e+04 -1.648446e+04
-2.088575e+05 -7.715618e+04 -1.802613e+04
-2.132975e+05 -9.664733e+04 -2.814086e+04
-2.147222e+05 -8.851270e+04 -2.271360e+04
-2.223654e+05 -9.082417e+04 -2.192801e+04
-2.101002e+05 -9.230354e+04 -1.813281e+04
-2.163235e+05 -9.618613e+04 -1.871922e+04
-2.078128e+05 -8.610506e+04 -2.291701e+04
-2.069403e+05 -9.245709e+04 -2.576197e+04
-2.002705e+05 -8.711070e+04 -2.506835e+04
-2.029998e+05 -9.187291e+04 -1.957308e+04
-2.047184e+05 -8.094413e+04 -2.295873e+04
-2.127439e+05 -8.063423e+04 -2.249574e+04
-2.116374e+05 -8.370697e+04 -2.811808e+04
-1.653049e+05 -9.970719e+04 -3.837378e+04
-1.734650e+05 -9.665663e+04 -3.524228e+04
-1.722287e+05 -1.044824e+05 -3.938166e+04
-1.682438e+05 -9.692356e+04 -3.039870e+04
-1.645283e+05 -1.032086e+05 -3.458617e+04
-1.770229e+05 -9.579137e+04 -2.773994e+04
-1.733074e+05 -1.020764e+05 -3.192742e+04
-1.695919e+05 -1.083615e+05 -3.611489e+04
-1.575753e+05 -1.066944e+05 -3.805745e+04
-1.638232e+05 -1.091191e+05 -4.416814e+04
-1.626389e+05 -1.118472e+05 -3.958617e+04
-1.635626e+05 -1.188399e+05 -4.305745e+04
-1.717405e+05 -1.122820e+05 -4.261502e+04
-1.705156e+05 -1.153541e+05 -3.958617e+04
-1.785776e+05 -1.177795e+05 -4.403963e+04
-1.785760e+05 -1.168595e+05 -3.848731e+04
-1.849870e+05 -1.117367e+05 -4.030689e+04
-1.769087e+05 -1.107599e+05 -4.042864e+04
-1.776523e+05 -1.098668e+05 -3.501603e+04
-1.799381e+05 -9.938376e+04 -3.456651e+04
-1.872045e+05 -1.046659e+05 -3.608305e+04
-1.796251e+05 -1.056920e+05 -3.728183e+04
-1.813679e+05 -1.035818e+05 -3.082856e+04
-1.798029e+05 -1.053399e+05 -4.219175e+04
-1.756749e+05 -8.435346e+04 -2.202375e+04
-1.684119e+05 -8.449961e+04 -3.213739e+04
-1.704450e+05 -7.507255e+04 -2.718891e+04
-1.797739e+05 -7.289412e+04 -2.357370e+04
-1.778440e+05 -8.229184e+04 -2.845994e+04
-1.844540e+05 -8.322127e+04 -1.936499e+04
-1.723382e+05 -7.605900e+04 -1.843250e+04
-1.811173e+05 -7.492682e+04 -1.577375e+04
-1.743881e+05 -6.551261e+04 -1.993366e+04
-1.766501e+05 -8.947456e+04 -3.146602e+04
-1.719593e+05 -9.063851e+04 -2.621122e+04
-1.807384e+05 -8.950632e+04 -2.355247e+04
-1.830345e+05 -6.480307e+04 -1.772760e+04
-1.885715e+05 -7.062929e+04 -2.202021e+04
-1.897320e+05 -7.639238e+04 -1.452375e+04
-1.863954e+05 -6.809792e+04 -1.093250e+04
-1.915890e+05 -6.320121e+04 -1.517441e+04
-1.982462e+05 -6.731651e+04 -1.690084e+04
-1.944717e+05 -7.475304e+04 -2.150896e+04
-1.968325e+05 -7.682300e+04 -1.308348e+04
-1.915544e+05 -8.365189e+04 -1.792473e+04
-2.030032e+05 -7.402593e+04 -1.985434e+04
-1.857033e+05 -8.552125e+04 -2.846035e+04
-1.926294e+05 -9.196723e+04 -2.914682e+04
-1.828955e+05 -9.274527e+04 -3.310946e+04
-1.887989e+05 -9.101167e+04 -2.245361e+04
-1.850834e+05 -9.729672e+04 -2.664108e+04
-1.934324e+05 -8.501064e+04 -2.602871e+04
-1.958994e+05 -9.144229e+04 -2.101334e+04
-1.993286e+05 -7.903282e+04 -2.578072e+04
-1.903976e+05 -7.914676e+04 -2.684356e+04
-1.847391e+05 -7.549175e+04 -3.130452e+04
-2.895919e+05 -1.736388e+05 -4.632936e+04
-2.818204e+05 -1.613575e+05 -4.378283e+04
-2.908495e+05 -1.105361e+05 -1.419153e+04
-2.848553e+05 -9.659898e+04 -1.086658e+04
-2.827150e+05 -1.285607e+05 -2.809417e+04
-2.568623e+05 -9.176488e+04 -1.654501e+04
2.925832e+05 1.592484e+05 -9.789529e+03
2.879955e+05 1.722629e+05 -6.630013e+03
2.719841e+05 1.422084e+05 -1.670722e+04
2.871117e+05 9.087840e+04 -4.222128e+04
2.959939e+05 9.591975e+04 -4.554234e+04
2.792204e+05 7.913217e+04 -4.641309e+04
2.539744e+05 7.804961e+04 -4.247331e+04
2.658127e+05 8.340105e+04 -4.571323e+04
2.782015e+05 1.116032e+05 -3.335337e+04
-2.895124e+05 -1.418247e+05 -3.301682e+04
-2.850500e+05 -1.505520e+05 -4.180797e+04
-2.862470e+05 -1.298598e+05 -3.461845e+04
-2.573318e+05 -1.590069e+05 -4.634544e+04
-2.580747e+05 -1.260873e+05 -3.302226e+04
2.855350e+05 1.234729e+05 -2.839757e+04
2.560265e+05 1.421164e+05 -1.282475e+04
2.720155e+05 1.333708e+05 -2.793016e+04
2.549809e+05 1.091320e+05 -2.813928e+04
-1.676100e+05 -6.863539e+04 -2.192886e+04
-1.682477e+05 -9.227907e+04 -3.464319e+04
-1.298014e+05 -9.125420e+04 -4.085561e+04
-1.387325e+05 -6.168719e+04 -2.678063e+04
-1.114066e+05 -8.123955e+04 -4.042748e+04
-1.329550e+05 -1.027426e+05 -4.576227e+04
-1.748328e+05 -5.615730e+04 -2.037146e+04
-1.865688e+05 -5.778427e+04 -1.290703e+04
-1.583441e+05 -5.701244e+04 -1.899786e+04
-1.597763e+05 -4.669363e+04 -1.862677e+04
-1.632879e+05 -4.118976e+04 -8.556507e+03
-1.487119e+05 -5.291535e+04 -2.527001e+04
-1.587861e+05 -1.020304e+05 -4.269662e+04
-1.878391e+05 -9.827332e+04 -3.264961e+04
-1.790774e+05 -9.010512e+04 -3.741650e+04
-1.460956e+05 -9.550628e+04 -4.386532e+04
-1.618745e+05 -1.163430e+05 -4.680063e+04
-1.312588e+05 -4.621055e+04 -1.974730e+04
-1.340833e+05 -4.761994e+04 -2.607147e+04
-7.658307e+04 -2.796951e+04 -2.404206e+04
-5.281608e+04 -4.226595e+04 -3.639197e+04
-5.098601e+04 -5.872717e+04 -4.271641e+04
-6.937918e+04 -6.976072e+04 -4.461731e+04
-6.015122e+04 -5.706441e+04 -4.476837e+04
-3.744254e+04 -5.922967e+04 -4.557866e+04
-4.179469e+04 -5.722340e+04 -4.715570e+04
-8.555724e+04 -4.003622e+04 -2.719011e+04
-7.885554e+04 -1.289959e+04 -1.567724e+04
-7.916059e+04 -1.569666e+04 -2.232677e+04
-8.661458e+04 -4.816399e+04 -3.652776e+04
-8.157795e+04 -6.871186e+04 -4.134383e+04
-9.202565e+04 -7.065116e+04 -4.489654e+04
-1.011558e+05 -8.513294e+04 -4.611140e+04
-7.433157e+04 -6.814846e+04 -4.666560e+04
-4.157779e+04 -3.505617e+04 -3.410179e+04
-9.542829e+04 -2.796169e+04 -2.480912e+04
-1.060409e+05 -3.405357e+04 -1.915829e+04
-1.865183e+05 -4.760932e+04 -6.987047e+03
-2.063531e+05 -6.658198e+04 -1.457355e+04
-1.867848e+05 -4.653535e+04 -1.255600e+04
-1.554049e+05 -3.248171e+04 -4.501890e+03
-1.615043e+05 -3.615070e+04 -1.298846e+04
-1.089648e+05 -1.764793e+04 -1.026010e+04
-9.578766e+04 -6.155326e+03 -5.839510e+03
-7.094941e+04 -1.115674e+04 -2.412898e+04
-5.947327e+04 1.337664e+03 -1.164913e+04
-1.258161e+05 -2.011262e+04 -7.181868e+03
-1.182568e+05 -4.961852e+04 -2.631006e+04
-1.242366e+05 -4.936285e+04 -3.032255e+04
-1.357350e+05 -2.884692e+04 -8.998512e+03
2.462574e+05 6.592869e+04 -4.639715e+04
2.480647e+05 9.745444e+04 -3.304453e+04
2.243339e+05 6.278756e+04 -4.234835e+04
2.161920e+05 5.134911e+04 -4.645141e+04
2.031698e+05 5.575615e+04 -4.584505e+04
1.922823e+05 4.912900e+04 -4.224929e+04
2.169313e+05 8.248571e+04 -3.315587e+04
1.845235e+05 3.716895e+04 -4.644170e+04
1.719600e+05 4.050391e+04 -4.584812e+04
1.598637e+05 3.578063e+04 -4.235639e+04
1.855751e+05 6.951663e+04 -3.303875e+04
1.529334e+05 2.300876e+04 -4.617671e+04
1.521429e+05 2.860961e+04 -4.699015e+04
1.581560e+05 4.522297e+04 -4.266067e+04
1.536331e+05 5.391803e+04 -3.312968e+04
1.287483e+05 2.118908e+04 -4.385403e+04
1.213541e+05 8.827345e+03 -4.647317e+04
9.750830e+04 6.922780e+03 -4.222826e+04
1.082727e+05 1.303572e+04 -4.585195e+04
1.217338e+05 4.147006e+04 -3.282495e+04
8.990485e+04 -4.920207e+03 -4.642478e+04
6.516668e+04 -6.300490e+03 -4.231679e+04
7.731559e+04 -1.497940e+03 -4.581039e+04
9.002782e+04 2.659867e+04 -3.269832e+04
5.830018e+04 -1.907080e+04 -4.617153e+04
5.738038e+04 -1.349500e+04 -4.696152e+04
5.805893e+04 1.257773e+04 -3.280827e+04
6.298569e+04 3.901489e+03 -4.253859e+04
3.434273e+04 -2.120866e+04 -4.366795e+04
2.682534e+04 -3.327245e+04 -4.648439e+04
3.106198e+03 -3.537424e+04 -4.229502e+04
1.437990e+04 -2.904599e+04 -4.583751e+04
2.663862e+04 -2.172835e+03 -3.310280e+04
3.182254e+04 -1.053051e+04 -4.236175e+04
-4.930066e+03 -4.692374e+04 -4.642377e+04
-2.838070e+04 -5.080643e+04 -4.412180e+04
-5.717320e+03 -1.570496e+04 -3.273932e+04
-1.856905e+05 -1.193380e+05 -4.236035e+04
-1.757478e+05 -1.132818e+05 -4.609314e+04
-1.951398e+05 -1.283010e+05 -4.517138e+04
-2.118946e+05 -1.277595e+05 -4.236647e+04
-2.205895e+05 -1.317140e+05 -4.468863e+04
-2.252872e+05 -1.453908e+05 -4.645231e+04
-2.240071e+05 -1.111258e+05 -3.171530e+04
-2.502543e+05 -1.461949e+05 -4.177982e+04
-2.425293e+05 -1.468993e+05 -4.707854e+04
-2.536629e+05 -1.472045e+05 -4.555883e+04
-2.525881e+05 -1.357579e+05 -4.170488e+04
-2.475778e+05 -8.117922e+04 -1.217926e+04
-2.332095e+05 -8.210329e+04 -1.570712e+04
-2.573160e+05 -9.772333e+04 -2.663979e+04
-2.501162e+05 -1.133875e+05 -2.779378e+04
-2.207528e+05 -6.567543e+04 -9.644412e+03
-2.214420e+05 -9.814441e+04 -2.601674e+04
-2.273945e+05 -5.741794e+04 -7.230931e+03
-2.130377e+05 -6.375926e+04 -1.719226e+04
-1.996784e+05 -9.385926e+04 -2.798812e+04
-1.975633e+05 -8.317307e+04 -3.094313e+04
-4.276670e+04 2.333962e+03 -1.821596e+04
-2.633889e+04 1.633141e+04 -1.067607e+04
-3.235082e+04 -1.775362e+04 -2.820950e+04
-4.267248e+04 -5.032775e+03 -2.825034e+04
-1.031511e+04 1.677565e+04 -1.600672e+04
6.517030e+03 3.083511e+04 -1.201225e+04
-3.871706e+03 3.026191e+04 -1.642834e+04
2.138757e+04 3.183748e+04 -1.730608e+04
-9.644245e+02 -2.821774e+03 -2.775505e+04
-1.028409e+04 4.661252e+03 -2.931635e+04
3.698069e+04 4.713240e+04 -1.060463e+04
3.234728e+04 1.157233e+04 -2.845256e+04
2.079589e+04 2.377026e+04 -2.799194e+04
3.330353e+04 5.906535e+04 -7.994775e+03
5.108605e+04 4.525763e+04 -1.722036e+04
6.410816e+04 2.564923e+04 -2.810823e+04
6.762040e+04 6.194215e+04 -1.172858e+04
8.347362e+04 5.960005e+04 -1.761090e+04
1.023262e+05 7.403648e+04 -1.008333e+04
9.622687e+04 3.889660e+04 -2.959916e+04
9.840362e+04 8.725920e+04 -7.410189e+03
1.183235e+05 7.244503e+04 -1.512084e+04
1.292610e+05 9.004881e+04 -1.036572e+04
1.521133e+05 9.136609e+04 -1.510401e+04
1.275741e+05 5.444075e+04 -2.779645e+04
1.599647e+05 6.696328e+04 -2.878577e+04
1.516782e+05 8.887235e+04 -2.438743e+04
1.606479e+05 1.024468e+05 -1.120314e+04
1.530122e+05 1.108814e+05 -8.111032e+03
1.771261e+05 1.038262e+05 -1.473903e+04
1.702126e+05 1.053052e+05 -1.842335e+04
1.940865e+05 1.186937e+05 -9.600430e+03
1.923046e+05 8.081955e+04 -2.742433e+04
1.904413e+05 1.299296e+05 -6.519572e+03
2.162410e+05 1.155298e+05 -1.502090e+04
2.245452e+05 1.270368e+05 -1.104226e+04
2.471100e+05 1.305705e+05 -1.607696e+04
2.231013e+05 9.626441e+04 -2.875100e+04
2.474535e+05 1.272193e+05 -2.548590e+04
4.552724e+04 1.755310e+04 -3.431331e+04
6.183166e+04 2.439334e+04 -3.515957e+04
2.974666e+04 9.899221e+03 -3.573420e+04
7.142548e+03 2.392551e+03 -3.527256e+04
7.412264e+04 2.471156e+04 -3.724782e+04
-3.335771e+04 -2.454384e+04 -3.817600e+04
-2.102507e+04 -1.687830e+04 -3.524046e+04
-2.526761e+05 -1.139782e+05 -3.468258e+04
-2.400758e+05 -1.137640e+05 -3.653588e+04
2.051145e+05 8.367134e+04 -3.675795e+04
2.206929e+05 9.486908e+04 -3.631771e+04
2.531080e+05 1.074960e+05 -3.421568e+04
1.734227e+05 7.302644e+04 -3.522325e+04
1.532424e+05 5.888810e+04 -3.740516e+04
1.251421e+05 5.393063e+04 -3.460786e+04
-4.016331e+03 -3.215417e+03 -3.445413e+04
-2.231365e+05 -9.889308e+04 -3.258310e+04
-2.085798e+05 -9.259610e+04 -3.205548e+04
-1.977854e+05 -9.257692e+04 -3.409307e+04
-1.127960e+03 -1.814572e+05 0.000000e+00
-3.623044e+04 -1.830439e+05 0.000000e+00
-1.967753e+04 -1.540812e+05 -2.715467e+04
-1.149088e+04 -1.776245e+05 -2.801834e+04
1.655215e+04 -1.882549e+05 -2.490160e+04
-2.346663e+02 -2.026621e+05 -2.473822e+04
-4.704870e+04 -1.686952e+05 -2.391123e+04
1.507898e+03 -1.867090e+05 -5.000000e+04
-2.905722e+04 -1.982695e+05 -2.633814e+04
4.379323e+03 -1.563016e+05 -5.000000e+04
1.358708e+04 -1.636745e+05 -2.533049e+04
-2.780264e+04 -1.745422e+05 -5.000000e+04
-2.389493e+04 -1.479776e+05 0.000000e+00
-4.007590e+04 -1.293670e+05 -2.456501e+04
-1.042562e+04 -1.145137e+05 -2.470107e+04
-2.323734e+04 -1.352864e+05 -5.000000e+04
8.354522e+03 -1.362308e+05 -2.556724e+04
-1.825435e+05 -2.095705e+05 0.000000e+00
-1.957390e+05 -1.964312e+05 -2.560559e+04
-2.066299e+05 -1.802082e+05 0.000000e+00
-1.658735e+05 -1.855553e+05 -2.212876e+04
-1.620099e+05 -1.718467e+05 0.000000e+00
-1.885222e+05 -1.446356e+05 0.000000e+00
-1.584150e+05 -1.579035e+05 -1.693846e+04
-1.452588e+05 -1.577182e+05 -5.000000e+04
-1.338842e+05 -1.701257e+05 -2.600625e+04
9.630708e+04 -5.159042e+04 0.000000e+00
6.805042e+04 -3.163741e+04 0.000000e+00
9.978255e+04 -1.761209e+04 0.000000e+00
8.889354e+04 -3.441109e+04 -1.860677e+04
-1.307545e+05 -1.842458e+05 0.000000e+00
-1.486168e+05 -2.094642e+05 0.000000e+00
-1.309242e+05 -1.998763e+05 -2.476030e+04
-1.663900e+05 -2.169151e+05 -2.456060e+04
1.309988e+05 -9.965142e+04 -5.000000e+04
1.529342e+05 -1.205674e+05 -5.000000e+04
1.533697e+05 -9.835552e+04 -2.507272e+04
1.311413e+05 -1.163606e+05 -2.640834e+04
1.062158e+05 -9.522394e+04 -2.469926e+04
9.965452e+04 -1.132342e+05 -5.000000e+04
1.514908e+05 -1.202100e+05 0.000000e+00
1.652281e+05 -1.263157e+05 -2.454820e+04
1.383034e+05 -1.435857e+05 -2.508744e+04
1.196355e+05 -1.457921e+05 0.000000e+00
1.053897e+05 -1.332899e+05 -2.384401e+04
1.235267e+05 -1.050397e+05 0.000000e+00
1.811023e+05 -1.002169e+05 0.000000e+00
1.905252e+05 -8.906785e+04 -2.520903e+04
1.958226e+05 -1.247323e+05 -2.519850e+04
2.076942e+05 -1.114705e+05 -5.000000e+04
2.235991e+05 -1.054275e+05 -2.512058e+04
2.097709e+05 -1.488215e+05 -5.000000e+04
2.243787e+05 -1.404027e+05 -2.507883e+04
2.107803e+05 -1.163755e+05 0.000000e+00
-1.532454e+04 -2.107821e+05 -5.000000e+04
-4.755199e+03 -2.271640e+05 -2.360156e+04
1.662803e+04 -2.114951e+05 -5.000000e+04
-1.697737e+04 -2.116279e+05 0.000000e+00
1.657722e+04 -2.114673e+05 0.000000e+00
3.111407e+04 -2.117977e+05 -2.580723e+04
2.406367e+05 -2.004094e+05 0.000000e+00
2.730117e+05 -2.003685e+05 -2.521785e+04
2.503662e+05 -2.239484e+05 -2.507553e+04
2.504495e+05 -1.849249e+05 -2.508493e+04
2.704022e+05 -1.828984e+05 0.000000e+00
2.529791e+05 -1.549260e+05 -2.506286e+04
2.777779e+05 -1.660568e+05 -2.514332e+04
2.408306e+05 -1.989031e+05 -5.000000e+04
2.703239e+05 -1.810600e+05 -5.000000e+04
2.406549e+05 -1.645452e+05 -5.000000e+04
2.242210e+05 -1.741080e+05 -2.501331e+04
2.778750e+05 -1.322964e+05 -2.510287e+04
2.705459e+05 -1.156917e+05 0.000000e+00
2.529703e+05 -1.214379e+05 -2.510211e+04
2.777566e+05 -9.843234e+04 -2.511929e+04
2.703826e+05 -1.468747e+05 -5.000000e+04
2.705175e+05 -1.492446e+05 0.000000e+00
-1.160487e+05 -2.110006e+05 0.000000e+00
-1.029018e+05 -1.904913e+05 -2.501632e+04
-8.524787e+04 -1.643145e+05 -5.000000e+04
-7.677463e+04 -1.737554e+05 -2.346463e+04
-1.032825e+05 -1.577524e+05 -2.525865e+04
-8.449341e+04 -2.048828e+05 -5.000000e+04
-1.164948e+05 -2.123864e+05 -5.000000e+04
-1.002977e+05 -2.180747e+05 -2.490035e+04
-1.158772e+05 -1.798829e+05 -5.000000e+04
2.535097e+05 -2.703111e+05 -5.000000e+04
2.719493e+05 -2.696894e+05 -3.453763e+04
2.541465e+05 -2.518674e+05 -2.501695e+04
2.375506e+05 -2.767926e+05 -2.477049e+04
2.535454e+05 -2.705286e+05 0.000000e+00
2.016604e+05 -2.778973e+05 -2.471035e+04
2.173941e+05 -2.703004e+05 0.000000e+00
2.175752e+05 -2.701459e+05 -5.000000e+04
2.252963e+05 -2.525230e+05 -2.496740e+04
-1.833187e+05 -2.705862e+05 0.000000e+00
-1.886989e+05 -2.518300e+05 -2.502860e+04
-1.671953e+05 -2.723436e+05 -2.508253e+04
-2.012139e+05 -2.773097e+05 -2.496354e+04
-2.173900e+05 -2.702636e+05 0.000000e+00
-2.247004e+05 -2.500623e+05 -2.500301e+04
-1.832524e+05 -2.702226e+05 -5.000000e+04
-2.171764e+05 -2.700903e+05 -5.000000e+04
9.265337e+04 -1.205714e+05 0.000000e+00
1.509936e+05 -2.108833e+05 0.000000e+00
1.334137e+05 -2.410421e+05 0.000000e+00
1.242578e+05 -2.293296e+05 -2.507861e+04
1.520557e+05 -2.254537e+05 -2.506902e+04
1.516597e+05 -2.095877e+05 -5.000000e+04
1.353564e+05 -1.975221e+05 -2.507739e+04
1.655423e+05 -1.940843e+05 -2.529537e+04
1.784667e+05 -2.253060e+05 -2.507412e+04
1.581084e+05 -2.524047e+05 -2.497510e+04
1.335117e+05 -2.408767e+05 -5.000000e+04
9.928943e+04 -1.829074e+05 -5.000000e+04
8.873972e+04 -1.675528e+05 -2.391192e+04
1.059412e+05 -1.972273e+05 -2.501044e+04
1.180571e+05 -1.661224e+05 -2.638919e+04
1.345147e+05 -1.806275e+05 0.000000e+00
1.580514e+05 -1.631789e+05 -2.509678e+04
1.536207e+05 -1.476517e+05 -5.000000e+04
1.277974e+05 -1.342280e+05 -5.000000e+04
1.319169e+05 -1.740827e+05 -5.000000e+04
9.839410e+04 -1.499788e+05 -5.000000e+04
1.834350e+05 -2.705710e+05 0.000000e+00
1.914099e+05 -2.534636e+05 -2.499074e+04
2.704106e+05 -1.505843e+04 0.000000e+00
2.774079e+05 3.434389e+03 -2.489849e+04
2.673339e+05 -8.773255e+03 -5.000000e+04
2.513451e+05 -1.841127e+04 -2.482321e+04
2.770968e+05 -3.054299e+04 -2.526552e+04
2.538439e+05 1.646114e+04 -2.189142e+04
2.698436e+05 -2.167987e+05 0.000000e+00
2.772737e+05 -2.345731e+05 -2.522433e+04
2.716612e+05 -2.457270e+05 0.000000e+00
2.722384e+05 -2.694888e+05 -1.543937e+04
2.716315e+05 -2.450115e+05 -5.000000e+04
1.512781e+05 -1.521233e+05 0.000000e+00
-2.374457e+05 -2.761580e+05 -2.483929e+04
-2.534618e+05 -2.703605e+05 0.000000e+00
-2.545869e+05 -2.509781e+05 -2.493914e+04
-2.723446e+05 -2.691875e+05 -1.535089e+04
-2.722053e+05 -2.691584e+05 -3.443633e+04
-2.533403e+05 -2.697207e+05 -5.000000e+04
1.245850e+05 -7.060436e+04 0.000000e+00
1.332749e+05 -8.023427e+04 -2.324855e+04
9.450035e+04 -8.584248e+04 0.000000e+00
7.927705e+04 -1.084516e+05 -2.324020e+04
7.145792e+04 -9.248022e+04 -5.000000e+04
2.399703e+05 -3.147499e+04 0.000000e+00
2.209642e+05 -1.670684e+03 -2.391065e+04
2.394289e+05 2.469077e+03 0.000000e+00
1.030132e+05 -7.848433e+04 -5.000000e+04
2.683402e+05 -4.355119e+04 -5.000000e+04
2.516771e+05 -5.289256e+04 -2.516011e+04
2.773953e+05 -6.449955e+04 -2.517203e+04
2.704824e+05 -4.861876e+04 0.000000e+00
-8.333281e+04 -2.706014e+05 0.000000e+00
-9.207022e+04 -2.531554e+05 -2.509660e+04
-6.791807e+04 -2.781267e+05 -2.498543e+04
-1.012810e+05 -2.780696e+05 -2.518053e+04
-8.333267e+04 -2.705165e+05 -5.000000e+04
-1.166574e+05 -2.705809e+05 0.000000e+00
-1.345333e+05 -2.778809e+05 -2.510760e+04
-1.234974e+05 -2.547490e+05 -2.508606e+04
2.671284e+05 2.588542e+04 -5.000000e+04
2.788674e+05 3.879871e+04 -2.782150e+04
2.702163e+05 1.859918e+04 0.000000e+00
2.598251e+05 5.274410e+04 -1.443777e+04
2.705232e+05 -8.215557e+04 0.000000e+00
2.524920e+05 -8.727189e+04 -2.516477e+04
2.697644e+05 -7.840924e+04 -5.000000e+04
2.702406e+05 -1.127215e+05 -5.000000e+04
1.505399e+04 -1.512482e+05 0.000000e+00
4.237287e+04 -1.404981e+05 -2.305172e+04
4.593392e+04 -1.721985e+05 -2.493025e+04
3.300855e+04 -1.817951e+05 0.000000e+00
-5.000003e+04 -2.706038e+05 0.000000e+00
-1.666668e+04 -2.706045e+05 0.000000e+00
-3.451753e+04 -2.782437e+05 -2.475436e+04
-2.379971e+04 -2.541926e+05 -2.489308e+04
-1.382970e+03 -2.786241e+05 -2.474145e+04
-4.998371e+04 -2.705598e+05 -5.000000e+04
-1.664547e+04 -2.705812e+05 -5.000000e+04
1.679250e+05 -2.777208e+05 -2.472949e+04
1.500394e+05 -2.705880e+05 -5.000000e+04
1.354112e+05 -2.707330e+05 -2.485734e+04
1.834560e+05 -2.705510e+05 -5.000000e+04
-1.166537e+05 -2.702626e+05 -5.000000e+04
-1.499502e+05 -2.699433e+05 -5.000000e+04
-1.499785e+05 -2.705725e+05 0.000000e+00
-1.506011e+05 -2.445713e+05 -2.513243e+04
-2.712152e+05 -2.432763e+05 -5.000000e+04
-2.367263e+05 -2.365676e+05 -5.000000e+04
-2.782427e+05 -2.355271e+05 -2.488253e+04
-2.688207e+05 -2.132343e+05 -5.000000e+04
-2.547528e+05 -2.220509e+05 -2.437755e+04
1.734823e+05 -1.761961e+05 0.000000e+00
-2.714022e+05 -2.455434e+05 0.000000e+00
-2.697020e+05 -2.163632e+05 0.000000e+00
6.607732e+04 -1.699400e+05 -5.000000e+04
7.328769e+04 -1.425852e+05 -2.378613e+04
6.821971e+04 -1.278644e+05 -5.000000e+04
5.339095e+04 -1.154582e+05 -2.679060e+04
4.930457e+04 -1.528020e+05 0.000000e+00
3.205580e+04 -1.186027e+05 0.000000e+00
6.453650e+04 -1.296228e+05 0.000000e+00
2.222244e+04 -1.045799e+05 -2.577882e+04
1.165880e+05 -2.104462e+05 -5.000000e+04
-5.734291e+04 -2.540461e+05 -2.505094e+04
1.666666e+04 -2.706093e+05 0.000000e+00
7.112016e+03 -2.558482e+05 -2.514518e+04
3.116491e+04 -2.714470e+05 -2.476847e+04
1.667265e+04 -2.705944e+05 -5.000000e+04
-1.000874e+05 -2.401943e+05 -5.000000e+04
-7.745978e+04 -2.305613e+05 -2.514360e+04
-6.373500e+04 -2.039300e+05 -2.437881e+04
-6.666652e+04 -2.410994e+05 0.000000e+00
-4.164779e+04 -2.269232e+05 -2.505439e+04
-8.308257e+04 -2.115574e+05 0.000000e+00
-9.994686e+04 -2.410165e+05 0.000000e+00
-1.219344e+01 -2.410794e+05 0.000000e+00
3.333252e+04 -2.410737e+05 0.000000e+00
4.998822e+04 -2.114764e+05 0.000000e+00
5.726984e+04 -2.268729e+05 -2.502330e+04
2.790825e+04 -2.391879e+05 -2.579927e+04
3.330534e+04 -2.407272e+05 -5.000000e+04
5.732924e+04 -2.579585e+05 -2.312021e+04
6.658207e+04 -2.404427e+05 -5.000000e+04
1.669500e+05 -2.410552e+05 0.000000e+00
1.854838e+05 -2.116625e+05 0.000000e+00
-2.156376e+05 -1.753692e+05 -2.320173e+04
-2.184082e+05 -1.515076e+05 0.000000e+00
-1.930286e+05 -1.547226e+05 -1.765952e+04
-2.132956e+05 -1.234854e+05 0.000000e+00
-1.729191e+05 -1.335848e+05 -1.149900e+04
-1.331240e+05 -2.384168e+05 -5.000000e+04
-1.255553e+05 -2.271391e+05 -2.470146e+04
-1.665345e+05 -2.379459e+05 -5.000000e+04
2.402611e+05 -1.298132e+05 -5.000000e+04
-1.773229e+05 -1.715891e+05 -5.000000e+04
-2.417079e+05 -1.671682e+05 0.000000e+00
-2.389084e+05 -1.714052e+05 -1.737374e+04
-2.087235e+05 -1.844916e+05 -5.000000e+04
-8.234313e+04 -1.286439e+05 -5.000000e+04
-6.959956e+04 -1.408224e+05 -2.572112e+04
-6.187967e+04 -1.004286e+05 -1.625013e+04
-8.872180e+04 -1.232420e+05 -2.341423e+04
-1.268370e+05 -1.527462e+05 0.000000e+00
-1.378888e+05 -1.344763e+05 -1.867941e+04
-1.220359e+05 -1.166210e+05 0.000000e+00
2.407065e+05 -1.328038e+05 0.000000e+00
2.406211e+05 -1.666795e+05 0.000000e+00
8.301136e+04 -2.088577e+05 -5.000000e+04
8.914013e+04 -2.338764e+05 -2.524856e+04
8.335602e+04 -2.114559e+05 0.000000e+00
6.984671e+04 -1.966242e+05 -2.413222e+04
1.168490e+05 -2.113350e+05 0.000000e+00
2.698536e+05 -2.154441e+05 -5.000000e+04
-5.478612e+04 -5.387074e+04 0.000000e+00
-5.803807e+04 -8.831512e+04 0.000000e+00
-8.643485e+04 -6.796516e+04 0.000000e+00
-5.616645e+04 -7.652524e+04 -1.390502e+04
-2.657830e+04 -7.407519e+04 0.000000e+00
-3.093421e+04 -9.017128e+04 -2.019511e+04
1.797830e+05 -1.353865e+05 0.000000e+00
1.797642e+05 -1.312012e+05 -5.000000e+04
1.918135e+05 -1.605931e+05 -2.504158e+04
1.682902e+05 -9.215220e+04 -5.000000e+04
1.685878e+05 8.623105e+03 0.000000e+00
2.054331e+05 -1.274461e+04 0.000000e+00
1.872104e+05 -1.890433e+04 -2.407493e+04
1.935853e+05 2.045792e+04 -1.515064e+04
1.530846e+05 -4.903165e+03 -1.742956e+04
-1.136614e+05 -1.430797e+05 -5.000000e+04
-2.816982e+04 -1.090032e+05 0.000000e+00
-6.537635e+03 -7.533645e+04 -1.856862e+04
1.923280e+03 -9.429386e+04 0.000000e+00
1.208316e+04 -8.634018e+04 -5.000000e+04
6.660873e+04 -1.820041e+05 0.000000e+00
8.279600e+04 -1.527411e+05 0.000000e+00
2.206651e+05 -3.550840e+04 -2.484444e+04
2.344321e+05 -2.332594e+04 -5.000000e+04
2.114218e+05 -1.847116e+05 -5.000000e+04
1.978809e+05 -1.970344e+05 -2.503345e+04
2.263905e+05 -2.050759e+05 -2.504269e+04
2.106161e+05 -1.863062e+05 0.000000e+00
2.094120e+05 -1.518273e+05 0.000000e+00
1.692433e+05 -5.215425e+04 -5.000000e+04
1.631741e+05 -7.033343e+04 -2.224903e+04
1.889930e+05 -5.240835e+04 -2.494185e+04
1.792755e+05 -6.625919e+04 0.000000e+00
2.107482e+05 -8.214993e+04 0.000000e+00
2.221670e+05 -7.042321e+04 -2.512522e+04
2.047150e+05 -7.479501e+04 -5.000000e+04
2.076807e+05 -4.767530e+04 0.000000e+00
2.369604e+05 -5.935915e+04 -5.000000e+04
2.022626e+05 -2.471224e+03 -5.000000e+04
2.021236e+05 -3.790545e+04 -5.000000e+04
1.671999e+05 -2.408484e+05 -5.000000e+04
1.000059e+05 -2.410721e+05 0.000000e+00
1.085515e+05 -2.619813e+05 -2.517212e+04
9.996636e+04 -2.407251e+05 -5.000000e+04
1.753310e+05 -1.735624e+05 -5.000000e+04
1.355234e+05 -6.535637e+04 -5.000000e+04
1.479387e+05 -4.336949e+04 -2.491056e+04
1.523990e+05 -8.594911e+04 0.000000e+00
1.142789e+05 -5.719071e+04 -2.427391e+04
-1.997696e+05 -2.255802e+05 -2.490058e+04
-2.127967e+05 -2.139641e+05 0.000000e+00
-1.849476e+05 -2.073158e+05 -5.000000e+04
-2.258923e+05 -2.072508e+05 -2.475997e+04
2.150293e+05 -2.148637e+05 0.000000e+00
2.099623e+05 -2.271694e+05 -2.505958e+04
2.152706e+05 -2.139064e+05 -5.000000e+04
-1.498537e+05 -9.616716e+04 0.000000e+00
-1.545775e+05 -1.312408e+05 0.000000e+00
2.698114e+05 5.244290e+04 0.000000e+00
2.824025e+05 6.418653e+04 -1.587840e+04
-9.372611e+04 -1.381363e+05 0.000000e+00
2.392008e+05 -9.486308e+04 -5.000000e+04
2.409101e+05 -9.896015e+04 0.000000e+00
3.328026e+04 -8.037219e+04 0.000000e+00
5.530377e+04 -4.650233e+04 -1.756454e+04
5.283021e+04 -8.516451e+04 -2.453548e+04
2.453316e+04 -6.007369e+04 -1.778753e+04
4.359147e+04 -7.229631e+04 -5.000000e+04
7.510719e+04 -5.827078e+04 -5.000000e+04
6.491741e+04 -6.585683e+04 0.000000e+00
8.344190e+04 -7.163759e+04 -2.439022e+04
-6.657056e+04 -2.400942e+05 -5.000000e+04
7.175175e+04 2.502106e+03 0.000000e+00
1.067013e+05 -4.430302e+04 -5.000000e+04
1.704956e+05 -1.654707e+04 -5.000000e+04
1.281544e+05 -3.814720e+04 0.000000e+00
1.667361e+05 -3.010034e+04 0.000000e+00
1.384964e+05 -3.041923e+04 -5.000000e+04
1.193818e+05 -1.642088e+04 -1.543523e+04
2.386515e+05 3.676331e+04 0.000000e+00
-2.561385e+05 -1.897913e+05 -1.874394e+04
-2.781321e+05 -1.947118e+05 -2.202316e+04
-2.384250e+05 -1.989979e+05 -5.000000e+04
-2.370078e+05 -2.375011e+05 0.000000e+00
-1.486091e+05 -1.993140e+05 -5.000000e+04
-1.942701e+04 -1.003958e+05 -5.000000e+04
8.382152e+03 -1.208441e+05 -5.000000e+04
2.404984e+05 -6.523979e+04 0.000000e+00
-5.975279e+04 -1.238672e+05 0.000000e+00
-5.093213e+04 -1.144587e+05 -5.000000e+04
-5.019246e+04 -2.121193e+05 0.000000e+00
-1.663834e+05 -2.406437e+05 0.000000e+00
-3.335063e+04 -2.411053e+05 0.000000e+00
-3.301093e+04 -2.407386e+05 -5.000000e+04
-5.476646e+04 -1.490994e+05 -5.000000e+04
-6.620555e+04 -1.875656e+05 0.000000e+00
-6.342065e+04 -1.590285e+05 0.000000e+00
-6.240840e+02 -1.247302e+05 0.000000e+00
-9.772626e+04 -1.777647e+05 0.000000e+00
4.792683e+03 -5.985741e+04 0.000000e+00
-1.996871e+05 -2.401723e+05 -5.000000e+04
-1.997464e+05 -2.407939e+05 0.000000e+00
2.004881e+05 -2.410327e+05 0.000000e+00
2.008459e+05 -2.406203e+05 -5.000000e+04
2.054307e+05 2.204063e+04 0.000000e+00
2.282901e+05 3.421786e+04 -1.598490e+04
2.346799e+05 1.161348e+04 -5.000000e+04
3.993550e+04 -1.066247e+05 -5.000000e+04
1.640076e+02 -2.409963e+05 -5.000000e+04
-2.704614e+05 -1.827514e+05 0.000000e+00
-2.397458e+05 -1.999074e+05 0.000000e+00
8.332853e+04 -2.705696e+05 -5.000000e+04
8.623310e+04 -2.720452e+05 -2.627593e+04
1.166750e+05 -2.705777e+05 -5.000000e+04
1.166683e+05 -2.706036e+05 0.000000e+00
8.333338e+04 -2.706093e+05 0.000000e+00
-4.806518e+04 -2.089452e+05 -5.000000e+04
-5.982129e+04 -1.804100e+05 -5.000000e+04
4.941224e+04 -2.085773e+05 -5.000000e+04
3.621543e+04 -1.425562e+05 -5.000000e+04
2.957306e+04 -1.794815e+05 -5.000000e+04
2.376623e+05 -2.375322e+05 0.000000e+00
2.376968e+05 -2.368957e+05 -5.000000e+04
4.999624e+04 -2.705545e+05 -5.000000e+04
5.000001e+04 -2.705990e+05 0.000000e+00
6.348476e+04 -1.002404e+05 0.000000e+00
-1.817679e+05 -1.101830e+05 0.000000e+00
1.500201e+05 -2.705942e+05 0.000000e+00
6.666718e+04 -2.410691e+05 0.000000e+00
-2.129521e+05 -2.143459e+05 -5.000000e+04
-8.995751e+04 -1.024391e+05 0.000000e+00
1.329166e+05 -4.397197e+03 0.000000e+00
1.508402e+05 -5.785602e+04 0.000000e+00
1.864427e+05 -2.108687e+05 -5.000000e+04
2.691045e+05 8.666440e+04 0.000000e+00
2.374772e+05 7.149260e+04 0.000000e+00
1.004406e+05 -1.812391e+05 0.000000e+00
-1.331407e+05 -2.407697e+05 0.000000e+00
1.359769e+05 3.034208e+04 0.000000e+00
2.041404e+05 5.734268e+04 0.000000e+00
1.699456e+05 4.373926e+04 0.000000e+00
3.640586e+04 -4.574771e+04 0.000000e+00
4.010241e+04 -1.158471e+04 0.000000e+00
1.035822e+05 1.651075e+04 0.000000e+00
-2.316833e+04 -3.976812e+04 0.000000e+00
8.461253e+03 -2.567177e+04 0.000000e+00
-2.429051e+05 -1.363480e+05 0.000000e+00
-2.711384e+05 -1.499904e+05 0.000000e+00
-2.844104e+05 -2.029915e+05 -5.000000e+04
-2.683137e+05 -1.958248e+05 -5.000000e+04
-2.850778e+05 -1.947821e+05 -3.777089e+04
-2.738569e+05 -1.838435e+05 -3.396086e+04
-2.883534e+05 -1.815654e+05 -2.976098e+04
-2.854237e+05 -2.034964e+05 -3.534570e+04
-2.686757e+05 -1.175792e+05 -4.196282e+03
-2.698956e+05 -1.008230e+05 0.000000e+00
-2.854704e+05 -1.077574e+05 0.000000e+00
-2.709407e+05 -1.175644e+05 0.000000e+00
-2.873075e+05 -1.238059e+05 -6.927771e+03
2.845328e+05 1.455438e+05 0.000000e+00
2.889827e+05 7.006275e+04 -3.155902e+04
2.918045e+05 8.901494e+04 -2.506094e+04
2.839034e+05 5.020429e+04 -5.000000e+04
2.800246e+05 5.936310e+04 -3.511901e+04
2.774124e+05 7.906513e+04 -2.248814e+04
-2.861913e+05 -1.707648e+05 -1.837443e+04
-2.769378e+05 -1.686851e+05 -2.623704e+04
-2.725041e+05 -1.613088e+05 -1.700605e+04
-2.683597e+05 -1.453067e+05 -1.318920e+04
-2.842900e+05 -1.410163e+05 -7.359957e+03
-2.850813e+05 -1.559520e+05 -1.528268e+04
-2.715779e+05 -1.313569e+05 -9.811711e+03
2.800761e+05 1.113202e+05 -8.687806e+03
2.844336e+05 1.266551e+05 -5.712333e+03
2.814421e+05 9.764823e+04 -1.643825e+04
-1.437932e+05 -1.108380e+05 -2.607714e+04
-1.243916e+05 -1.156700e+05 -2.981718e+04
-1.350901e+05 -1.024025e+05 -1.964085e+04
-1.147475e+05 -1.045662e+05 -2.578792e+04
-1.515547e+05 -9.906925e+04 -1.468505e+04
-1.446559e+05 -7.741728e+04 -7.599945e+03
-1.461784e+05 -5.474608e+04 -3.016807e+03
-1.602018e+05 -6.121374e+04 -3.052420e+03
-1.460059e+05 -6.194844e+04 0.000000e+00
-1.215478e+05 -7.850114e+04 -9.021269e+03
-1.353328e+05 -9.150523e+04 -1.248448e+04
-1.221899e+05 -9.398596e+04 -1.959216e+04
-1.181078e+05 -8.205408e+04 0.000000e+00
-1.389038e+05 -1.270815e+05 -3.428254e+04
-1.577952e+05 -1.211244e+05 -2.745858e+04
-1.683372e+05 -1.039480e+05 -1.571170e+04
-1.713246e+05 -9.193942e+04 -1.044836e+04
-1.641762e+05 -7.795582e+04 -5.658664e+03
-1.776605e+05 -7.602645e+04 0.000000e+00
-1.329802e+05 -6.601397e+04 -7.588434e+03
-1.801375e+05 -8.216447e+04 -6.834645e+03
-1.738075e+05 -6.577929e+04 -3.384459e+03
-4.710430e+04 -5.035952e+04 -1.616135e+04
-5.936972e+04 -5.635937e+04 -1.515358e+04
-4.793746e+04 -6.446086e+04 -2.426732e+04
-6.403216e+04 -6.741326e+04 -2.439353e+04
-7.023128e+04 -6.273870e+04 -1.645982e+04
-7.326490e+04 -4.663849e+04 -8.926757e+03
-8.272069e+04 -3.377063e+04 0.000000e+00
-6.627564e+04 -2.648467e+04 -4.399506e+03
-8.828569e+04 -2.586333e+04 -2.615720e+03
-5.563391e+04 -3.907819e+04 -7.607232e+03
-4.978243e+04 -7.823894e+04 -3.086683e+04
-6.705506e+04 -8.204665e+04 -3.118103e+04
-8.966340e+04 -4.943719e+04 -9.773140e+03
-8.786049e+04 -6.700138e+04 -1.205886e+04
-7.521693e+04 -7.365551e+04 -2.241691e+04
-1.599650e+05 -5.188307e+04 0.000000e+00
-1.916134e+05 -6.596607e+04 0.000000e+00
-1.757923e+05 -5.892208e+04 0.000000e+00
-9.668029e+04 -2.370619e+04 0.000000e+00
-1.033949e+05 -3.427812e+04 -2.945476e+03
-8.085923e+04 -1.666220e+04 0.000000e+00
-1.021263e+05 -1.019727e+05 -3.101500e+04
-9.370590e+04 -8.749349e+04 -2.178652e+04
-1.082237e+05 -8.934159e+04 -1.968532e+04
-1.193516e+05 -6.097685e+04 -9.161498e+03
-1.195288e+05 -3.799123e+04 -2.363860e+03
-1.312841e+05 -4.822090e+04 -3.176109e+03
-1.143608e+05 -4.786306e+04 0.000000e+00
-1.014210e+05 -7.689772e+04 -1.114412e+04
-1.036534e+05 -5.912037e+04 -6.551599e+03
-8.554382e+04 -7.772258e+04 -2.116864e+04
-6.855941e+04 -9.676630e+04 -3.216602e+04
-8.979057e+04 -9.779548e+04 -3.057813e+04
-1.283214e+05 -3.779639e+04 0.000000e+00
-1.125004e+05 -3.075241e+04 0.000000e+00
-1.441440e+05 -4.483909e+04 0.000000e+00
2.481041e+05 6.645200e+04 -2.289567e+04
2.507491e+05 4.793105e+04 -3.171512e+04
2.652162e+05 5.707611e+04 -3.154449e+04
2.740782e+05 5.128012e+04 -4.147029e+04
2.629197e+05 7.476302e+04 -2.250868e+04
2.517143e+05 3.595652e+04 -5.000000e+04
2.674676e+05 4.297035e+04 -5.000000e+04
2.319692e+05 4.192380e+04 -3.366757e+04
2.460158e+05 3.074525e+04 -3.523855e+04
2.354900e+05 2.882055e+04 -5.000000e+04
2.156647e+05 4.937531e+04 -2.380614e+04
2.341316e+05 5.755902e+04 -2.300188e+04
2.193046e+05 3.171159e+04 -3.658657e+04
2.197367e+05 2.180671e+04 -5.000000e+04
1.978867e+05 4.492533e+04 -2.307744e+04
2.009911e+05 2.881549e+04 -3.169035e+04
2.146426e+05 1.678797e+04 -3.466333e+04
1.824908e+05 3.970191e+04 -2.321563e+04
2.035280e+05 1.476436e+04 -5.000000e+04
1.822606e+05 1.697176e+04 -3.330229e+04
1.877747e+05 7.750519e+03 -5.000000e+04
1.655793e+05 2.654722e+04 -2.196206e+04
1.671228e+05 1.018498e+04 -3.242403e+04
1.813308e+05 7.522220e+02 -3.464230e+04
1.718912e+05 7.125974e+02 -5.000000e+04
1.487000e+05 1.728283e+04 -2.382923e+04
1.476142e+05 6.558310e+01 -3.373389e+04
1.561378e+05 -6.301240e+03 -5.000000e+04
1.153658e+05 4.949448e+03 -2.257569e+04
1.310587e+05 -3.509111e+03 -3.201081e+04
1.314371e+05 1.077752e+04 -2.407865e+04
1.160589e+05 -1.361295e+04 -3.158444e+04
1.243849e+05 -2.025116e+04 -5.000000e+04
1.401383e+05 -1.323732e+04 -5.000000e+04
1.024928e+05 -1.988925e+04 -3.569963e+04
1.084874e+05 -2.719305e+04 -5.000000e+04
9.794905e+04 -7.738841e+02 -2.454980e+04
8.709338e+04 -1.121225e+04 -2.440115e+04
8.675880e+04 -2.860054e+04 -3.564819e+04
9.273405e+04 -3.420689e+04 -5.000000e+04
4.938196e+04 -2.226184e+04 -2.224744e+04
6.891819e+04 -3.137103e+04 -3.277342e+04
6.895035e+04 -1.821936e+04 -2.437813e+04
7.693698e+04 -4.119077e+04 -5.000000e+04
6.118364e+04 -4.820461e+04 -5.000000e+04
5.203508e+04 -4.083735e+04 -3.361491e+04
4.542578e+04 -5.521737e+04 -5.000000e+04
2.240883e+04 -3.718163e+04 -2.472116e+04
2.233446e+04 -5.496585e+04 -3.418895e+04
3.672693e+04 -4.652056e+04 -3.315065e+04
2.967244e+04 -6.223121e+04 -5.000000e+04
3.711887e+04 -3.217739e+04 -2.559784e+04
1.391829e+04 -6.925315e+04 -5.000000e+04
3.863909e+03 -4.490496e+04 -2.357774e+04
-1.411515e+04 -5.069118e+04 -2.321651e+04
-8.223708e+03 -6.946624e+04 -3.602191e+04
4.974935e+03 -6.103251e+04 -3.235006e+04
-1.835050e+03 -7.626699e+04 -5.000000e+04
-2.358526e+04 -6.204833e+04 -2.710656e+04
-2.173072e+04 -7.491036e+04 -3.484386e+04
-3.479876e+04 -7.026727e+04 -2.945226e+04
-1.759014e+04 -8.329479e+04 -5.000000e+04
-3.486881e+04 -8.506377e+04 -3.642169e+04
-3.334347e+04 -9.030863e+04 -5.000000e+04
-4.959939e+04 -9.014339e+04 -3.692813e+04
-4.909604e+04 -9.734006e+04 -5.000000e+04
-6.484937e+04 -1.043539e+05 -5.000000e+04
-8.176563e+04 -1.046812e+05 -3.769124e+04
-8.055487e+04 -1.114465e+05 -5.000000e+04
-9.883624e+04 -1.145251e+05 -3.554400e+04
-9.630821e+04 -1.184604e+05 -5.000000e+04
-1.119674e+05 -1.256782e+05 -5.000000e+04
-1.277207e+05 -1.326921e+05 -5.000000e+04
-1.435194e+05 -1.400113e+05 -5.000000e+04
-1.594268e+05 -1.369789e+05 -3.408176e+04
-1.592727e+05 -1.470252e+05 -5.000000e+04
-1.746665e+05 -1.356672e+05 -3.137995e+04
-1.878441e+05 -1.284713e+05 -2.278356e+04
-1.852056e+05 -1.429470e+05 -3.206676e+04
-2.005439e+05 -1.340307e+05 -2.343611e+04
-1.664172e+05 -1.511599e+05 -3.089106e+04
-1.946351e+05 -1.523978e+05 -3.585173e+04
-1.753048e+05 -1.539607e+05 -5.000000e+04
-1.910581e+05 -1.609745e+05 -5.000000e+04
-1.732820e+05 -1.233084e+05 -2.482147e+04
-2.253750e+05 -1.558104e+05 -2.973123e+04
-2.078601e+05 -1.595716e+05 -3.425568e+04
-2.131467e+05 -1.436841e+05 -2.481620e+04
-2.243265e+05 -1.682190e+05 -3.829341e+04
-2.067584e+05 -1.674257e+05 -5.000000e+04
-2.225117e+05 -1.744396e+05 -5.000000e+04
-2.379488e+05 -1.667735e+05 -3.328695e+04
-2.371483e+05 -1.523832e+05 -2.552608e+04
-2.373625e+05 -1.816927e+05 -5.000000e+04
-2.540907e+05 -1.601529e+05 -2.202492e+04
-2.501097e+05 -1.753638e+05 -3.536540e+04
-2.531159e+05 -1.887066e+05 -5.000000e+04
-2.598057e+05 -1.831184e+05 -3.217375e+04
-2.662030e+05 -1.690420e+05 -2.609368e+04
-2.366304e+05 -1.024288e+05 -4.063999e+03
-2.388883e+05 -8.695830e+04 0.000000e+00
-2.547094e+05 -9.400229e+04 0.000000e+00
-2.405682e+05 -1.039229e+05 0.000000e+00
-2.556409e+05 -1.113440e+05 -5.223918e+03
-2.232405e+05 -8.002666e+04 0.000000e+00
-2.092726e+05 -9.005965e+04 0.000000e+00
-2.194834e+05 -9.940566e+04 -5.656272e+03
-2.098348e+05 -8.750009e+04 -4.208170e+03
-2.074194e+05 -7.298267e+04 0.000000e+00
-1.946523e+05 -8.390523e+04 -4.522275e+03
-4.936471e+04 -2.173683e+04 -5.380587e+03
-4.921622e+04 -2.576238e+03 0.000000e+00
-6.503728e+04 -9.620227e+03 0.000000e+00
-5.107679e+04 -1.968668e+04 0.000000e+00
-1.757498e+04 1.151372e+04 0.000000e+00
-3.339603e+04 4.469727e+03 0.000000e+00
-1.603249e+04 -5.184575e+00 -3.209176e+03
-1.943642e+04 -5.594748e+03 0.000000e+00
-3.248591e+04 -7.975349e+03 -3.822581e+03
-1.752956e+03 1.855555e+04 0.000000e+00
1.243023e+04 9.118483e+03 -3.911106e+03
1.406810e+04 2.559954e+04 0.000000e+00
1.220762e+04 8.488914e+03 0.000000e+00
-3.571035e+03 4.457657e+03 -4.715523e+03
2.988866e+04 3.264465e+04 0.000000e+00
4.475420e+04 2.380649e+04 -3.982852e+03
4.570971e+04 3.968864e+04 0.000000e+00
4.384872e+04 2.257914e+04 0.000000e+00
2.923437e+04 1.834190e+04 -4.731864e+03
7.854064e+04 4.050080e+04 -3.607300e+03
7.735597e+04 5.377621e+04 0.000000e+00
6.153491e+04 4.673223e+04 0.000000e+00
7.549911e+04 3.666631e+04 0.000000e+00
6.075261e+04 2.899763e+04 -4.824528e+03
9.320073e+04 6.080993e+04 0.000000e+00
1.071886e+05 5.073375e+04 0.000000e+00
9.095444e+04 4.526159e+04 -5.438574e+03
1.093903e+05 5.313380e+04 -3.783779e+03
1.090218e+05 6.785392e+04 0.000000e+00
1.412829e+05 6.829968e+04 -3.686748e+03
1.408507e+05 8.188067e+04 0.000000e+00
1.250296e+05 7.483668e+04 0.000000e+00
1.392043e+05 6.469927e+04 0.000000e+00
1.251281e+05 5.745924e+04 -4.784466e+03
1.530111e+05 7.346581e+04 -5.174299e+03
1.725152e+05 7.749791e+04 -4.103383e+03
1.570308e+05 8.881909e+04 0.000000e+00
1.715645e+05 7.857610e+04 0.000000e+00
1.728518e+05 9.586308e+04 0.000000e+00
1.892410e+05 1.027685e+05 0.000000e+00
2.043428e+05 9.238700e+04 0.000000e+00
1.882497e+05 8.482860e+04 -4.978325e+03
2.050620e+05 1.098125e+05 0.000000e+00
2.051196e+05 9.629679e+04 -3.647027e+03
2.212443e+05 1.168936e+05 0.000000e+00
2.169409e+05 1.018624e+05 -5.120005e+03
2.358452e+05 1.081425e+05 -4.147785e+03
2.367073e+05 1.065491e+05 0.000000e+00
2.370653e+05 1.239376e+05 0.000000e+00
2.528336e+05 1.312644e+05 0.000000e+00
2.682438e+05 1.212029e+05 0.000000e+00
2.497092e+05 1.156364e+05 -5.094229e+03
2.688757e+05 1.225654e+05 -4.058679e+03
2.686547e+05 1.383084e+05 0.000000e+00
4.697262e+04 -6.279182e+03 -1.365947e+04
2.746188e+04 -1.754434e+03 -7.499164e+03
3.122521e+04 -1.744631e+04 -1.555787e+04
6.032926e+04 -1.976644e+04 -1.008101e+04
4.321352e+04 7.557522e+03 -9.164528e+03
5.858584e+04 1.270886e+04 -8.658081e+03
6.368062e+04 -4.487541e+03 -1.589767e+04
7.754638e+04 4.755826e+03 -1.576920e+04
9.268174e+04 -4.893781e+03 -1.012223e+04
1.090614e+05 2.206709e+04 -1.286067e+04
9.253374e+04 1.175497e+04 -1.493460e+04
7.447480e+04 2.196774e+04 -7.201029e+03
9.265617e+04 3.060564e+04 -6.878020e+03
-2.012001e+04 -3.856156e+04 -1.651306e+04
-4.016262e+04 -3.533889e+04 -1.100929e+04
-3.279934e+04 -4.703561e+04 -1.756611e+04
-2.362087e+04 -2.115909e+04 -6.029065e+03
-4.487343e+04 -3.672634e+04 -3.361413e+03
-2.389315e+05 -1.365092e+05 -1.312339e+04
-2.429270e+05 -1.183330e+05 -8.654686e+03
-2.564186e+05 -1.275819e+05 -9.115435e+03
-2.565332e+05 -1.412251e+05 -1.590502e+04
2.358965e+05 7.656823e+04 -1.393604e+04
2.197454e+05 6.529718e+04 -1.721171e+04
2.203315e+05 8.401508e+04 -6.158695e+03
2.514772e+05 8.162750e+04 -1.683307e+04
2.510766e+05 9.768831e+04 -7.343921e+03
2.343649e+05 9.198863e+04 -9.514477e+03
2.664184e+05 9.047139e+04 -1.522018e+04
2.507277e+05 7.147703e+04 -9.403854e+03
2.013555e+05 7.882426e+04 -7.587400e+03
1.848476e+05 6.802666e+04 -8.534070e+03
2.041730e+05 6.243299e+04 -1.328818e+04
2.648107e+05 1.037763e+05 -1.049273e+04
1.867415e+05 5.199392e+04 -1.772856e+04
1.715614e+05 4.887491e+04 -1.418691e+04
1.700034e+05 6.317360e+04 -9.899151e+03
1.548311e+05 5.554795e+04 -6.261320e+03
1.565418e+05 4.124363e+04 -1.563107e+04
1.243393e+05 8.978895e+03 -9.633713e+03
1.262938e+05 2.461581e+04 -1.570506e+04
1.211874e+05 3.981595e+04 -8.551465e+03
1.409031e+05 3.508981e+04 -1.299266e+04
1.069879e+05 3.682588e+04 -9.398133e+03
1.373345e+05 5.114002e+04 -7.660899e+03
1.558774e+05 2.476665e+04 -9.409644e+03
2.072644e+05 4.353359e+04 -1.351310e+04
2.943279e+04 -3.312550e+04 -1.286345e+04
1.278756e+04 -2.376825e+04 -1.260597e+04
-1.745754e+03 -1.148666e+04 -6.752156e+03
-6.082315e+03 -2.920427e+04 -1.199225e+04
1.182517e+04 -6.096988e+03 -9.251442e+03
-2.079344e+05 -1.182241e+05 -1.298204e+04
-2.199720e+05 -1.308650e+05 -1.661541e+04
-2.239207e+05 -1.489853e+05 -1.448779e+04
-2.265826e+05 -1.159834e+05 -9.154411e+03
-2.695386e+05 -1.807411e+05 -1.704530e+04
-6.186504e+03 -4.764529e+04 -1.331866e+04
6.842820e+03 -4.509275e+04 -9.800019e+03
-3.510956e+04 -6.483272e+04 -1.279826e+04
-2.012338e+05 -1.038200e+05 -1.096721e+04
-2.343598e+05 -1.179781e+05 -3.325107e+03
-1.789359e+05 -1.093675e+05 -1.878973e+04
-1.894407e+05 -1.155900e+05 -1.556387e+04
-1.832168e+05 -9.862504e+04 -8.084617e+03
-2.003767e+05 -1.107741e+05 -4.387164e+03
-1.588100e+05 -1.190010e+05 -1.447295e+04
-2.836849e+05 -1.896562e+05 -4.360152e+04
-2.841568e+05 -1.942867e+05 -5.000000e+04
-2.922052e+05 -1.978700e+05 -5.000000e+04
-2.911554e+05 -1.931260e+05 -4.539593e+04
-2.923177e+05 -1.874204e+05 -4.088820e+04
-2.909854e+05 -1.981556e+05 -4.369302e+04
-2.848005e+05 -1.055827e+05 -3.483310e+03
-2.849478e+05 -9.938667e+04 0.000000e+00
-2.927352e+05 -1.028538e+05 0.000000e+00
-2.926880e+05 -1.128935e+05 -5.147681e+03
2.922664e+05 1.573653e+05 0.000000e+00
2.937941e+05 7.354765e+04 -4.075394e+04
2.938550e+05 8.201644e+04 -3.513910e+04
2.919517e+05 6.229645e+04 -5.000000e+04
2.880908e+05 6.864489e+04 -4.289010e+04
2.858350e+05 7.730765e+04 -3.755062e+04
-2.931681e+05 -1.789160e+05 -3.753228e+04
-2.935501e+05 -1.717980e+05 -3.261314e+04
-2.866846e+05 -1.733303e+05 -3.665425e+04
-2.917711e+05 -1.677038e+05 -2.643797e+04
-2.838194e+05 -1.617182e+05 -2.514099e+04
-2.855850e+05 -1.669262e+05 -3.080397e+04
-2.837299e+05 -1.533008e+05 -2.374319e+04
-2.931718e+05 -1.520777e+05 -2.257194e+04
-2.917063e+05 -1.585784e+05 -2.550814e+04
-2.935754e+05 -1.202623e+05 -9.324374e+03
-2.933043e+05 -1.255913e+05 -1.270361e+04
-2.853542e+05 -1.225571e+05 -1.106129e+04
-2.858575e+05 -1.383551e+05 -1.773250e+04
-2.921499e+05 -1.348073e+05 -1.304610e+04
-2.925928e+05 -1.451585e+05 -1.780443e+04
-2.830938e+05 -1.304037e+05 -1.306533e+04
2.912502e+05 1.416242e+05 -8.806342e+03
2.896136e+05 1.242530e+05 -1.357371e+04
2.908330e+05 1.327648e+05 -1.119784e+04
2.943935e+05 9.049233e+04 -3.300232e+04
2.956353e+05 9.757664e+04 -3.139154e+04
2.897169e+05 9.558454e+04 -3.006260e+04
2.907138e+05 1.092288e+05 -2.008515e+04
2.899717e+05 1.025228e+05 -2.683694e+04
-1.305819e+05 -9.949005e+04 -2.915788e+04
-1.375272e+05 -1.029985e+05 -3.179957e+04
-1.470772e+05 -9.893385e+04 -2.962631e+04
-1.413101e+05 -9.628029e+04 -2.692987e+04
-1.502334e+05 -9.475540e+04 -2.324883e+04
-1.473320e+05 -8.350887e+04 -1.854412e+04
-1.479562e+05 -6.897607e+04 -1.226468e+04
-1.541411e+05 -7.470462e+04 -1.396102e+04
-1.380710e+05 -8.519157e+04 -2.047700e+04
-1.363602e+05 -9.143970e+04 -2.590817e+04
-1.426171e+05 -9.128796e+04 -2.099931e+04
-1.452168e+05 -1.062430e+05 -3.391838e+04
-1.527220e+05 -1.052512e+05 -2.979441e+04
-1.572457e+05 -9.696483e+04 -2.535117e+04
-1.616190e+05 -9.143187e+04 -1.820942e+04
-1.563200e+05 -8.426559e+04 -1.698819e+04
-1.407330e+05 -7.711520e+04 -1.784136e+04
-1.672030e+05 -8.211544e+04 -1.429614e+04
-1.637082e+05 -7.278988e+04 -1.185130e+04
-5.821422e+04 -5.183410e+04 -2.438380e+04
-6.020473e+04 -5.842060e+04 -2.854456e+04
-6.720555e+04 -6.044795e+04 -2.913160e+04
-6.487678e+04 -5.498179e+04 -2.352690e+04
-7.087125e+04 -5.846691e+04 -2.401679e+04
-7.116118e+04 -5.060097e+04 -2.007013e+04
-6.759470e+04 -4.040872e+04 -1.574008e+04
-7.616288e+04 -4.162322e+04 -1.572075e+04
-6.272122e+04 -4.621283e+04 -1.837032e+04
-5.971838e+04 -6.653257e+04 -3.212115e+04
-6.836325e+04 -6.920376e+04 -3.298083e+04
-7.931960e+04 -5.169695e+04 -1.813425e+04
-7.377283e+04 -6.413231e+04 -2.736338e+04
-7.740470e+04 -6.053942e+04 -2.052539e+04
-1.590654e+05 -6.571207e+04 -9.755942e+03
-1.595247e+05 -5.301279e+04 -5.539984e+03
-1.658876e+05 -5.643281e+04 -5.401349e+03
-1.670845e+05 -6.435827e+04 -8.650962e+03
-1.727388e+05 -5.795357e+04 -5.528247e+03
-1.745866e+05 -6.662152e+04 -8.412237e+03
-1.662578e+05 -5.247512e+04 -2.881941e+03
-1.804723e+05 -5.994021e+04 -4.719197e+03
-1.735414e+05 -5.559153e+04 -3.124441e+03
-8.080911e+04 -2.045370e+04 -6.398262e+03
-9.033255e+04 -2.004611e+04 -4.765433e+03
-8.078894e+04 -3.119721e+04 -9.731130e+03
-9.032974e+04 -3.345799e+04 -1.027630e+04
-9.607655e+04 -1.807370e+04 -2.405841e+03
-9.729649e+04 -2.531128e+04 -6.051294e+03
-8.660133e+04 -1.495705e+04 -3.249135e+03
-1.295252e+05 -8.944377e+04 -2.532960e+04
-1.306943e+05 -8.233035e+04 -1.823311e+04
-1.218856e+05 -7.542852e+04 -1.857881e+04
-1.238334e+05 -8.393040e+04 -2.469505e+04
-1.199266e+05 -9.008800e+04 -2.967676e+04
-1.329549e+05 -7.440595e+04 -1.834567e+04
-1.276673e+05 -6.943905e+04 -1.814307e+04
-1.347983e+05 -6.228894e+04 -1.347707e+04
-1.115057e+05 -9.117605e+04 -3.121037e+04
-1.099867e+05 -8.005161e+04 -2.684508e+04
-1.163891e+05 -8.259324e+04 -2.450590e+04
-1.203075e+05 -6.684589e+04 -1.938136e+04
-1.197857e+05 -5.498034e+04 -1.267435e+04
-1.267624e+05 -6.114455e+04 -1.498307e+04
-1.116656e+05 -7.541580e+04 -1.856111e+04
-1.128306e+05 -6.530873e+04 -1.742345e+04
-9.261787e+04 -5.669624e+04 -1.966527e+04
-8.591962e+04 -5.246273e+04 -1.986483e+04
-9.178308e+04 -4.589490e+04 -1.525156e+04
-8.536232e+04 -6.067292e+04 -2.050898e+04
-8.123011e+04 -6.600467e+04 -2.659589e+04
-8.618225e+04 -7.042049e+04 -2.801348e+04
-9.012353e+04 -6.709093e+04 -2.204477e+04
-8.091434e+04 -7.650617e+04 -3.182381e+04
-9.881358e+04 -4.947741e+04 -1.348950e+04
-9.803201e+04 -8.486166e+04 -3.264572e+04
-9.543070e+04 -7.573623e+04 -2.496883e+04
-1.025916e+05 -7.902784e+04 -2.771990e+04
-1.040807e+05 -7.569627e+04 -2.156675e+04
-9.811798e+04 -6.906142e+04 -1.884586e+04
-1.053696e+05 -6.535392e+04 -1.933248e+04
-9.809882e+04 -6.049228e+04 -1.746949e+04
-1.059404e+05 -5.531275e+04 -1.382194e+04
-9.066814e+04 -7.260854e+04 -2.678166e+04
-8.636782e+04 -7.948077e+04 -2.871472e+04
-9.188525e+04 -8.107268e+04 -3.234056e+04
-1.105848e+05 -2.589658e+04 -3.444005e+03
-1.118015e+05 -3.146043e+04 -5.341501e+03
-1.047087e+05 -2.724017e+04 -5.033952e+03
-1.050354e+05 -4.004755e+04 -9.834015e+03
-1.183458e+05 -4.331164e+04 -9.512727e+03
-1.193020e+05 -3.204788e+04 -4.260398e+03
-1.253363e+05 -3.694982e+04 -5.133944e+03
-1.118023e+05 -4.498283e+04 -8.447460e+03
-1.256275e+05 -3.096913e+04 -2.540952e+03
-1.165352e+05 -2.811287e+04 -2.388235e+03
-1.448173e+05 -5.929979e+04 -1.052134e+04
-1.461598e+05 -4.602413e+04 -4.945059e+03
-1.524248e+05 -5.036406e+04 -5.503204e+03
-1.390367e+05 -5.332851e+04 -9.207190e+03
-1.534775e+05 -4.546690e+04 -3.061035e+03
-1.309776e+05 -5.267417e+04 -1.020000e+04
-1.321343e+05 -4.056374e+04 -5.622012e+03
-1.384553e+05 -4.428999e+04 -5.576887e+03
-1.375864e+05 -3.953497e+04 -2.997321e+03
-1.449487e+05 -4.271019e+04 -2.841028e+03
2.817858e+05 6.385185e+04 -4.278137e+04
2.839034e+05 5.871312e+04 -5.000000e+04
2.758551e+05 5.512979e+04 -5.000000e+04
2.753757e+05 5.952914e+04 -4.414135e+04
2.730624e+05 6.637602e+04 -3.906491e+04
2.580567e+05 6.206574e+04 -3.839846e+04
2.599007e+05 5.491351e+04 -4.353606e+04
2.672198e+05 5.946870e+04 -4.199026e+04
2.713769e+05 5.598649e+04 -4.621687e+04
2.668353e+05 6.795118e+04 -3.566287e+04
2.597606e+05 4.800590e+04 -5.000000e+04
2.676372e+05 5.151282e+04 -5.000000e+04
2.434323e+05 5.693236e+04 -3.625628e+04
2.434457e+05 4.664122e+04 -4.175873e+04
2.526073e+05 5.134823e+04 -4.181861e+04
2.518839e+05 4.449898e+04 -5.000000e+04
2.440072e+05 4.099206e+04 -5.000000e+04
2.409477e+05 3.821902e+04 -4.306494e+04
2.339402e+05 4.538055e+04 -4.295440e+04
2.358951e+05 3.742408e+04 -5.000000e+04
2.268523e+05 4.906984e+04 -3.923654e+04
2.351463e+05 5.234393e+04 -3.720365e+04
2.280184e+05 3.391716e+04 -5.000000e+04
2.269484e+05 4.046042e+04 -4.288998e+04
2.188865e+05 3.752207e+04 -4.377246e+04
2.201417e+05 3.041024e+04 -5.000000e+04
2.122651e+05 2.690332e+04 -5.000000e+04
2.125351e+05 3.295729e+04 -4.434749e+04
2.108114e+05 3.969889e+04 -3.951532e+04
2.023117e+05 3.948829e+04 -3.826854e+04
2.025331e+05 3.191485e+04 -4.189357e+04
2.106143e+05 2.570352e+04 -4.227232e+04
1.934028e+05 3.600896e+04 -3.627578e+04
2.041608e+05 2.338215e+04 -5.000000e+04
1.944683e+05 2.647040e+04 -4.272710e+04
1.962841e+05 1.987523e+04 -5.000000e+04
1.755714e+05 2.656693e+04 -3.738343e+04
1.783723e+05 1.847656e+04 -4.327313e+04
1.867480e+05 2.177104e+04 -4.184463e+04
1.884074e+05 1.636831e+04 -5.000000e+04
1.805307e+05 1.286139e+04 -5.000000e+04
1.692999e+05 2.178589e+04 -3.887589e+04
1.702375e+05 1.537315e+04 -4.211743e+04
1.776281e+05 1.079421e+04 -4.211081e+04
1.725890e+05 9.342430e+03 -5.000000e+04
1.621361e+05 1.805197e+04 -3.854159e+04
1.635582e+05 1.086678e+04 -4.316537e+04
1.647123e+05 5.835511e+03 -5.000000e+04
1.547419e+05 7.029795e+03 -4.062539e+04
1.428853e+05 1.113750e+04 -3.829429e+04
1.451850e+05 3.173772e+03 -4.332241e+04
1.568356e+05 2.328592e+03 -5.000000e+04
1.489590e+05 -1.178327e+03 -5.000000e+04
1.262920e+05 4.950368e+03 -3.753060e+04
1.360263e+05 7.273996e+03 -3.911256e+04
1.356951e+05 1.335531e+03 -4.251739e+04
1.296581e+05 -2.599855e+03 -4.307862e+04
1.330825e+05 -8.153286e+03 -5.000000e+04
1.409592e+05 -4.646367e+03 -5.000000e+04
1.225020e+05 -7.112895e+03 -4.217069e+04
1.123360e+05 -2.422927e+03 -3.865488e+04
1.131015e+05 -1.215360e+04 -4.211406e+04
1.252058e+05 -1.166020e+04 -5.000000e+04
1.173292e+05 -1.516712e+04 -5.000000e+04
1.093804e+05 -1.863807e+04 -5.000000e+04
1.061108e+05 -1.361572e+04 -4.446832e+04
1.004982e+05 -1.086719e+04 -3.909428e+04
1.031547e+05 -5.100593e+03 -3.630636e+04
1.004232e+05 -1.703366e+04 -4.424517e+04
1.015037e+05 -2.214499e+04 -5.000000e+04
8.256432e+04 -2.488777e+04 -4.374915e+04
9.089160e+04 -1.971675e+04 -4.163105e+04
8.012501e+04 -1.684208e+04 -3.880638e+04
9.362707e+04 -2.565191e+04 -5.000000e+04
8.575041e+04 -2.915883e+04 -5.000000e+04
6.513957e+04 -2.309319e+04 -3.904163e+04
7.336300e+04 -2.081424e+04 -3.958288e+04
7.302994e+04 -2.677623e+04 -4.294804e+04
7.785187e+04 -3.265077e+04 -5.000000e+04
6.997520e+04 -3.615769e+04 -5.000000e+04
6.679289e+04 -3.055850e+04 -4.311153e+04
5.939646e+04 -3.480255e+04 -4.214544e+04
6.209853e+04 -3.966461e+04 -5.000000e+04
5.422186e+04 -4.317152e+04 -5.000000e+04
5.054883e+04 -3.862763e+04 -4.346820e+04
4.805290e+04 -3.034208e+04 -3.803195e+04
4.634294e+04 -4.667791e+04 -5.000000e+04
3.245724e+04 -3.707096e+04 -3.717723e+04
3.520704e+04 -4.465439e+04 -4.328247e+04
4.118652e+04 -4.083807e+04 -4.275144e+04
3.846627e+04 -5.018483e+04 -5.000000e+04
4.159213e+04 -3.500385e+04 -3.946919e+04
1.808648e+04 -4.445948e+04 -3.918572e+04
1.936211e+04 -5.264964e+04 -4.336729e+04
2.807962e+04 -4.895212e+04 -4.269035e+04
3.058960e+04 -5.369174e+04 -5.000000e+04
2.271293e+04 -5.719866e+04 -5.000000e+04
1.483585e+04 -6.070963e+04 -5.000000e+04
9.791777e+03 -4.823322e+04 -3.718230e+04
6.139407e+02 -5.111784e+04 -3.633531e+04
3.932611e+03 -5.825220e+04 -4.334635e+04
9.924287e+03 -5.471894e+04 -4.207587e+04
6.959182e+03 -6.421655e+04 -5.000000e+04
-1.408673e+04 -5.854102e+04 -3.897851e+04
-1.156482e+04 -6.675738e+04 -4.418396e+04
-4.741181e+03 -6.186475e+04 -4.324136e+04
-9.174864e+02 -6.772347e+04 -5.000000e+04
-8.794155e+03 -7.123039e+04 -5.000000e+04
-2.582027e+04 -6.675022e+04 -3.947086e+04
-1.920288e+04 -6.375853e+04 -4.084501e+04
-1.936859e+04 -6.969060e+04 -4.363693e+04
-1.667170e+04 -7.474429e+04 -5.000000e+04
-2.454837e+04 -7.825121e+04 -5.000000e+04
-2.557797e+04 -7.459783e+04 -4.352918e+04
-5.484414e+04 -7.311451e+04 -3.778100e+04
-4.845716e+04 -7.783322e+04 -4.127129e+04
-4.802664e+04 -7.072153e+04 -3.779368e+04
-5.754234e+04 -8.263265e+04 -3.980005e+04
-3.443271e+04 -7.646916e+04 -4.304737e+04
-3.242504e+04 -8.175813e+04 -5.000000e+04
-4.030170e+04 -8.526505e+04 -5.000000e+04
-4.171978e+04 -8.389265e+04 -4.422301e+04
-4.157927e+04 -7.498589e+04 -4.128076e+04
-5.519999e+04 -8.913506e+04 -4.336219e+04
-5.012256e+04 -8.435303e+04 -4.247776e+04
-4.817799e+04 -8.878076e+04 -5.000000e+04
-4.555633e+04 -8.370785e+04 -3.795677e+04
-5.605465e+04 -9.228768e+04 -5.000000e+04
-7.333841e+04 -8.706327e+04 -4.173201e+04
-6.605020e+04 -8.486422e+04 -4.086829e+04
-7.207396e+04 -7.792437e+04 -3.624687e+04
-7.845018e+04 -8.429355e+04 -3.740155e+04
-8.984635e+04 -8.860145e+04 -3.675735e+04
-8.312344e+04 -8.803721e+04 -3.442647e+04
-7.385109e+04 -9.568936e+04 -4.191806e+04
-8.440797e+04 -9.517841e+04 -4.012711e+04
-9.305715e+04 -9.812679e+04 -3.995515e+04
-6.440289e+04 -9.056108e+04 -4.369640e+04
-6.393132e+04 -9.579460e+04 -5.000000e+04
-7.180799e+04 -9.930152e+04 -5.000000e+04
-7.966074e+04 -1.028478e+05 -5.000000e+04
-8.153064e+04 -9.915551e+04 -4.437770e+04
-8.778943e+04 -1.032631e+05 -4.282156e+04
-8.753741e+04 -1.063548e+05 -5.000000e+04
-1.285123e+05 -1.068798e+05 -3.747699e+04
-1.222267e+05 -1.034483e+05 -3.512417e+04
-1.117959e+05 -1.053603e+05 -3.788231e+04
-1.169206e+05 -1.107672e+05 -4.016442e+04
-1.238599e+05 -1.145519e+05 -4.215586e+04
-1.174372e+05 -9.788021e+04 -3.423439e+04
-1.053078e+05 -1.035656e+05 -4.103587e+04
-1.021787e+05 -9.403968e+04 -3.540461e+04
-1.098403e+05 -9.778768e+04 -3.671518e+04
-9.982252e+04 -9.995072e+04 -4.235312e+04
-9.738587e+04 -1.059661e+05 -4.313362e+04
-1.041692e+05 -1.111115e+05 -4.409578e+04
-9.541408e+04 -1.098617e+05 -5.000000e+04
-1.032907e+05 -1.133686e+05 -5.000000e+04
-1.111203e+05 -1.169775e+05 -5.000000e+04
-1.189970e+05 -1.204845e+05 -5.000000e+04
-1.309698e+05 -1.194663e+05 -4.171452e+04
-1.426412e+05 -1.149372e+05 -3.844869e+04
-1.400325e+05 -1.238082e+05 -4.350743e+04
-1.491632e+05 -1.206318e+05 -4.081043e+04
-1.268737e+05 -1.239914e+05 -5.000000e+04
-1.347503e+05 -1.274983e+05 -5.000000e+04
-1.426497e+05 -1.311579e+05 -5.000000e+04
-1.503497e+05 -1.287507e+05 -4.118408e+04
-1.505263e+05 -1.346648e+05 -5.000000e+04
-1.597781e+05 -1.314323e+05 -4.215408e+04
-1.674054e+05 -1.288541e+05 -3.967700e+04
-1.669108e+05 -1.365743e+05 -4.252643e+04
-1.584030e+05 -1.381718e+05 -5.000000e+04
-1.662797e+05 -1.416787e+05 -5.000000e+04
-1.886464e+05 -1.329408e+05 -3.601794e+04
-1.817292e+05 -1.313287e+05 -3.601699e+04
-1.748743e+05 -1.348882e+05 -4.126182e+04
-1.802391e+05 -1.380849e+05 -4.134599e+04
-1.706370e+05 -1.436351e+05 -4.071716e+04
-1.821724e+05 -1.486533e+05 -5.000000e+04
-1.869404e+05 -1.425230e+05 -4.177737e+04
-1.742957e+05 -1.451464e+05 -5.000000e+04
-1.739493e+05 -1.293071e+05 -3.782912e+04
-1.936641e+05 -1.458156e+05 -4.375577e+04
-1.900490e+05 -1.521603e+05 -5.000000e+04
-1.979257e+05 -1.556672e+05 -5.000000e+04
-1.994763e+05 -1.496874e+05 -4.381464e+04
-2.002919e+05 -1.413927e+05 -3.682389e+04
-2.138638e+05 -1.503995e+05 -4.061588e+04
-2.074906e+05 -1.463687e+05 -3.963210e+04
-2.055107e+05 -1.544243e+05 -4.301515e+04
-2.153123e+05 -1.579181e+05 -4.178144e+04
-2.057758e+05 -1.588928e+05 -5.000000e+04
-2.136525e+05 -1.623997e+05 -5.000000e+04
-2.237375e+05 -1.601937e+05 -4.332281e+04
-2.315288e+05 -1.595110e+05 -4.154387e+04
-2.298704e+05 -1.658849e+05 -4.511808e+04
-2.215292e+05 -1.659066e+05 -5.000000e+04
-2.294059e+05 -1.694135e+05 -5.000000e+04
-2.373802e+05 -1.568880e+05 -3.744403e+04
-2.377042e+05 -1.645970e+05 -4.280233e+04
-2.368313e+05 -1.730401e+05 -5.000000e+04
-2.459044e+05 -1.623188e+05 -3.908885e+04
-2.440624e+05 -1.693247e+05 -4.405181e+04
-2.447079e+05 -1.765470e+05 -5.000000e+04
-2.761085e+05 -1.907033e+05 -5.000000e+04
-2.771299e+05 -1.847854e+05 -4.368408e+04
-2.704623e+05 -1.791494e+05 -4.196991e+04
-2.680602e+05 -1.871200e+05 -5.000000e+04
-2.786511e+05 -1.767427e+05 -3.968018e+04
-2.715103e+05 -1.713870e+05 -3.693792e+04
-2.508748e+05 -1.725658e+05 -4.292416e+04
-2.597055e+05 -1.704800e+05 -3.922727e+04
-2.585749e+05 -1.767009e+05 -4.444428e+04
-2.525846e+05 -1.800540e+05 -5.000000e+04
-2.604613e+05 -1.835609e+05 -5.000000e+04
-2.646371e+05 -1.719784e+05 -3.593456e+04
-2.624865e+05 -1.802111e+05 -4.165875e+04
-2.701382e+05 -9.981256e+04 -3.617309e+03
-2.693730e+05 -9.245233e+04 0.000000e+00
-2.771604e+05 -9.591950e+04 0.000000e+00
-2.537999e+05 -9.162182e+04 -3.407382e+03
-2.538694e+05 -8.551997e+04 0.000000e+00
-2.617799e+05 -8.904197e+04 0.000000e+00
-2.620109e+05 -9.855043e+04 -4.578469e+03
-2.389811e+05 -8.574853e+04 -3.437828e+03
-2.380483e+05 -7.847599e+04 0.000000e+00
-2.459589e+05 -8.199798e+04 0.000000e+00
-2.308724e+05 -8.442679e+04 -4.154060e+03
-2.302244e+05 -7.501017e+04 0.000000e+00
-2.243393e+05 -7.783313e+04 -3.281702e+03
-2.223139e+05 -7.148817e+04 0.000000e+00
-1.985898e+05 -6.093588e+04 0.000000e+00
-1.881505e+05 -5.921480e+04 -2.370377e+03
-1.906793e+05 -5.741388e+04 0.000000e+00
-1.914950e+05 -6.935117e+04 -5.440608e+03
-2.080677e+05 -7.061289e+04 -3.255885e+03
-2.064928e+05 -6.444418e+04 0.000000e+00
-2.144034e+05 -6.796618e+04 0.000000e+00
-2.002702e+05 -7.002305e+04 -3.639244e+03
-1.669446e+05 -4.685039e+04 0.000000e+00
-1.661216e+05 -4.791657e+04 -1.710332e+03
-1.610039e+05 -4.508942e+04 -1.510513e+03
-1.827688e+05 -5.389189e+04 0.000000e+00
-1.737043e+05 -5.169931e+04 -1.517197e+03
-1.748582e+05 -5.036990e+04 0.000000e+00
-1.590340e+05 -4.332840e+04 0.000000e+00
-1.353017e+05 -3.276306e+04 0.000000e+00
-1.366263e+05 -3.443615e+04 -1.801941e+03
-1.317409e+05 -3.112414e+04 -1.364469e+03
-1.273912e+05 -2.924107e+04 0.000000e+00
-1.435266e+05 -3.822505e+04 -1.478016e+03
-1.432130e+05 -3.628441e+04 0.000000e+00
-1.511235e+05 -3.980640e+04 0.000000e+00
-1.036601e+05 -1.867397e+04 0.000000e+00
-1.063235e+05 -2.236905e+04 -2.079609e+03
-1.011999e+05 -1.739384e+04 -1.299291e+03
-9.574956e+04 -1.515198e+04 0.000000e+00
-1.194806e+05 -2.571907e+04 0.000000e+00
-1.119926e+05 -2.447551e+04 -1.424276e+03
-1.115701e+05 -2.219708e+04 0.000000e+00
-7.278198e+04 -1.311740e+04 -3.471708e+03
-7.992850e+04 -8.107989e+03 0.000000e+00
-8.233912e+04 -1.205264e+04 -1.867235e+03
-8.783903e+04 -1.162998e+04 0.000000e+00
-6.428525e+04 -1.001984e+04 -4.314223e+03
-6.410699e+04 -1.065007e+03 0.000000e+00
-7.201752e+04 -4.587002e+03 0.000000e+00
-4.963240e+04 -8.773263e+02 -3.871669e+03
-4.828593e+04 5.978982e+03 0.000000e+00
-5.619646e+04 2.456988e+03 0.000000e+00
-3.246531e+04 1.302396e+04 0.000000e+00
-4.037584e+04 9.501965e+03 0.000000e+00
-3.182960e+04 7.512891e+03 -3.226635e+03
-4.044672e+04 2.279676e+03 -3.652479e+03
-1.664425e+04 2.006795e+04 0.000000e+00
-2.455478e+04 1.654595e+04 0.000000e+00
-1.779665e+04 1.272037e+04 -3.694960e+03
-8.733242e+03 2.358886e+04 0.000000e+00
-6.677989e+01 2.003896e+04 -3.699812e+03
-8.227129e+02 2.711086e+04 0.000000e+00
-9.684066e+03 1.400108e+04 -4.716394e+03
7.087817e+03 3.063285e+04 0.000000e+00
1.439335e+04 2.856616e+04 -3.441105e+03
1.499835e+04 3.415485e+04 0.000000e+00
2.290862e+04 3.767741e+04 0.000000e+00
3.165731e+04 3.421513e+04 -3.695925e+03
3.081915e+04 4.119940e+04 0.000000e+00
2.261865e+04 2.907317e+04 -5.158290e+03
3.872968e+04 4.472139e+04 0.000000e+00
4.600414e+04 4.248306e+04 -3.569454e+03
4.664021e+04 4.824339e+04 0.000000e+00
6.245144e+04 4.903300e+04 -3.482335e+03
6.246334e+04 5.528718e+04 0.000000e+00
5.455281e+04 5.176518e+04 0.000000e+00
5.399128e+04 4.147889e+04 -5.182461e+03
7.729019e+04 5.491618e+04 -3.691540e+03
7.828440e+04 6.233117e+04 0.000000e+00
7.037387e+04 5.880917e+04 0.000000e+00
8.553590e+04 5.604430e+04 -4.727108e+03
8.620678e+04 6.584802e+04 0.000000e+00
9.489733e+04 6.247405e+04 -3.491182e+03
9.411731e+04 6.937002e+04 0.000000e+00
1.020278e+05 7.289201e+04 0.000000e+00
1.094329e+05 7.068696e+04 -3.549859e+03
1.099384e+05 7.641401e+04 0.000000e+00
1.257603e+05 7.719781e+04 -3.464487e+03
1.258528e+05 8.342738e+04 0.000000e+00
1.179423e+05 7.990539e+04 0.000000e+00
1.173839e+05 6.977172e+04 -5.134595e+03
1.405072e+05 8.309692e+04 -3.662558e+03
1.416739e+05 9.047137e+04 0.000000e+00
1.337634e+05 8.694938e+04 0.000000e+00
1.485775e+05 8.434963e+04 -4.716839e+03
1.573861e+05 9.116237e+04 -3.471311e+03
1.497639e+05 9.394058e+04 0.000000e+00
1.576744e+05 9.746258e+04 0.000000e+00
1.724048e+05 9.688889e+04 -3.678879e+03
1.734955e+05 1.045066e+05 0.000000e+00
1.655850e+05 1.009846e+05 0.000000e+00
1.808816e+05 9.812686e+04 -4.631776e+03
1.816901e+05 1.079593e+05 0.000000e+00
1.896006e+05 1.114813e+05 0.000000e+00
1.892961e+05 1.052588e+05 -3.442390e+03
2.054217e+05 1.185253e+05 0.000000e+00
1.975111e+05 1.150033e+05 0.000000e+00
2.041079e+05 1.111714e+05 -3.702064e+03
2.135128e+05 1.220658e+05 0.000000e+00
2.121715e+05 1.124387e+05 -4.775584e+03
2.214660e+05 1.194371e+05 -3.659581e+03
2.214233e+05 1.255878e+05 0.000000e+00
2.293338e+05 1.291098e+05 0.000000e+00
2.365096e+05 1.268733e+05 -3.631688e+03
2.372444e+05 1.326318e+05 0.000000e+00
2.443032e+05 1.259038e+05 -5.477913e+03
2.451285e+05 1.362952e+05 0.000000e+00
2.538963e+05 1.325153e+05 -3.919182e+03
2.530390e+05 1.398172e+05 0.000000e+00
2.767991e+05 1.504789e+05 0.000000e+00
2.855294e+05 1.464885e+05 -3.611590e+03
2.845328e+05 1.539221e+05 0.000000e+00
2.764715e+05 1.396309e+05 -5.448884e+03
2.683978e+05 1.408339e+05 -3.692241e+03
2.688601e+05 1.468612e+05 0.000000e+00
2.609496e+05 1.433392e+05 0.000000e+00
6.723731e+04 -1.676436e+04 -3.398386e+04
5.766850e+04 -1.949575e+04 -3.307140e+04
4.841503e+04 -1.394964e+04 -2.889857e+04
5.808365e+04 -1.213444e+04 -3.004911e+04
6.583717e+04 -7.907724e+03 -3.062948e+04
4.782776e+04 -2.267149e+04 -3.243253e+04
4.123962e+04 -1.670798e+04 -3.033099e+04
4.726538e+04 -5.017257e+03 -2.419638e+04
3.677354e+04 -3.624702e+03 -2.040631e+04
4.009181e+04 -1.025809e+04 -2.563032e+04
5.505349e+04 -1.185010e+04 -2.169403e+04
4.511207e+04 2.466843e+03 -2.051130e+04
5.361276e+04 2.407519e+03 -2.233592e+04
5.675087e+04 -4.621767e+03 -2.603890e+04
6.400645e+04 8.504326e+02 -2.480128e+04
9.631558e+04 6.124617e+02 -3.449063e+04
9.153767e+04 -5.035588e+03 -3.502486e+04
8.169226e+04 -1.031655e+03 -3.057720e+04
8.938612e+04 2.678308e+03 -3.045899e+04
8.339365e+04 -9.780634e+03 -3.547850e+04
9.565576e+04 7.308793e+03 -2.963297e+04
7.292375e+04 -5.146714e+03 -2.910699e+04
7.217958e+04 3.210400e+03 -2.615380e+04
7.741857e+04 7.567145e+03 -2.587468e+04
6.933542e+04 1.091859e+04 -1.962966e+04
8.629083e+04 2.088045e+03 -2.263665e+04
9.297926e+04 1.469759e+04 -2.559528e+04
8.615897e+04 1.005676e+04 -2.512114e+04
7.807429e+04 1.411562e+04 -2.172482e+04
8.534479e+04 1.832021e+04 -2.215020e+04
-6.114341e+04 -2.342319e+04 -1.103368e+04
-7.174162e+04 -2.294290e+04 -7.778247e+03
-6.406316e+04 -3.200369e+04 -1.413864e+04
-5.750980e+04 -3.853353e+04 -1.719067e+04
-5.615996e+04 -2.901708e+04 -1.240376e+04
-5.149671e+04 -3.475668e+04 -1.764599e+04
-6.604154e+04 -1.766455e+04 -7.734709e+03
-5.073057e+04 -2.077562e+04 -1.171712e+04
-5.200663e+04 -1.015314e+04 -5.971365e+03
-5.864079e+04 -1.587389e+04 -7.976660e+03
-4.174899e+04 -1.516912e+04 -1.016836e+04
-3.853733e+04 -2.934921e+04 -1.852463e+04
-4.802503e+04 -2.846090e+04 -1.544615e+04
-4.344373e+04 -3.486637e+04 -1.989029e+04
-3.942593e+04 -2.261776e+04 -1.303572e+04
-4.979835e+04 -2.957201e+04 -1.016845e+04
-2.692756e+05 -1.143994e+05 -1.014384e+04
-2.703211e+05 -1.073274e+05 -7.226474e+03
-2.777577e+05 -1.112658e+05 -5.715408e+03
-2.768543e+05 -1.197621e+05 -1.153911e+04
-2.771634e+05 -1.267691e+05 -1.499903e+04
-2.708790e+05 -1.222347e+05 -1.372846e+04
-2.697419e+05 -1.290658e+05 -1.705696e+04
-2.627291e+05 -1.060900e+05 -8.054012e+03
-2.625729e+05 -1.114438e+05 -1.146526e+04
-2.540411e+05 -1.097186e+05 -1.033382e+04
-2.540507e+05 -1.234296e+05 -1.728483e+04
-2.557711e+05 -1.161853e+05 -1.468583e+04
-2.627113e+05 -1.201192e+05 -1.274058e+04
-2.619384e+05 -1.304205e+05 -1.829504e+04
2.412543e+05 7.150636e+04 -2.877038e+04
2.426267e+05 6.541118e+04 -3.454519e+04
2.513266e+05 6.682510e+04 -3.271469e+04
2.494627e+05 7.617971e+04 -2.946532e+04
2.259184e+05 6.368417e+04 -2.896341e+04
2.355398e+05 6.180191e+04 -3.303803e+04
2.337520e+05 6.930125e+04 -2.882732e+04
2.271801e+05 7.265965e+04 -2.445202e+04
2.363985e+05 7.909309e+04 -2.433869e+04
2.271002e+05 8.145683e+04 -2.089438e+04
2.359971e+05 8.690015e+04 -1.975795e+04
2.442809e+05 8.784268e+04 -2.111600e+04
2.445682e+05 8.007734e+04 -2.636545e+04
2.529333e+05 8.428107e+04 -2.545595e+04
2.433321e+05 7.564816e+04 -2.130735e+04
2.035184e+05 1.039694e+05 -7.126009e+03
1.961876e+05 1.001583e+05 -5.712066e+03
2.044053e+05 9.710211e+04 -9.963093e+03
1.969611e+05 9.170312e+04 -1.110404e+04
2.108224e+05 1.053217e+05 -8.177596e+03
2.109239e+05 9.974991e+04 -1.146272e+04
2.188545e+05 1.027293e+05 -1.019505e+04
2.122898e+05 7.940776e+04 -1.739998e+04
2.205564e+05 8.756306e+04 -1.631536e+04
2.114402e+05 9.103244e+04 -1.171837e+04
2.199376e+05 9.582694e+04 -1.247789e+04
1.940760e+05 8.274421e+04 -1.311732e+04
2.024285e+05 8.826126e+04 -1.304033e+04
2.035776e+05 8.127046e+04 -1.638459e+04
2.264815e+05 1.125622e+05 -7.158755e+03
2.281204e+05 1.044241e+05 -1.175389e+04
2.360180e+05 1.103847e+05 -1.022613e+04
2.350828e+05 1.186854e+05 -6.994164e+03
2.427496e+05 1.190453e+05 -8.561277e+03
2.428615e+05 1.132710e+05 -1.177238e+04
2.509136e+05 1.155601e+05 -1.058331e+04
2.429138e+05 9.675552e+04 -1.863189e+04
2.352860e+05 9.508846e+04 -1.710876e+04
2.342402e+05 1.018837e+05 -1.370224e+04
2.429294e+05 1.045510e+05 -1.222633e+04
2.268618e+05 9.588582e+04 -1.461846e+04
2.521053e+05 9.854161e+04 -1.690100e+04
2.507440e+05 1.080665e+05 -1.403348e+04
1.779220e+05 4.472992e+04 -3.061099e+04
1.856803e+05 4.136165e+04 -3.306468e+04
1.854032e+05 4.867930e+04 -2.986050e+04
1.776470e+05 3.432353e+04 -3.193037e+04
1.704050e+05 4.115514e+04 -2.903296e+04
1.867776e+05 5.613700e+04 -2.650626e+04
1.800482e+05 5.196522e+04 -2.697953e+04
1.729514e+05 4.986667e+04 -2.482308e+04
1.710822e+05 5.838076e+04 -2.096870e+04
1.631357e+05 5.265350e+04 -2.185115e+04
1.646581e+05 4.622673e+04 -2.638641e+04
1.793506e+05 5.824759e+04 -2.283826e+04
1.301745e+05 1.168789e+04 -3.401104e+04
1.203067e+05 1.059215e+04 -3.317566e+04
1.116637e+05 1.402157e+04 -2.857219e+04
1.212105e+05 1.655551e+04 -2.992501e+04
1.140270e+05 4.775416e+03 -3.329888e+04
1.288450e+05 2.046047e+04 -3.051963e+04
1.035826e+05 9.889694e+03 -2.831588e+04
1.018232e+05 1.757954e+04 -2.372581e+04
1.101750e+05 2.300788e+04 -2.372815e+04
1.005973e+05 2.602466e+04 -2.043780e+04
1.183272e+05 1.646377e+04 -2.142241e+04
1.197707e+05 2.368190e+04 -2.587313e+04
1.167850e+05 3.042210e+04 -2.232714e+04
1.270568e+05 2.917598e+04 -2.482244e+04
1.092837e+05 3.133946e+04 -1.928742e+04
1.409025e+05 6.906308e+04 -9.961164e+03
1.400562e+05 7.589237e+04 -7.100935e+03
1.326718e+05 7.213169e+04 -5.701213e+03
1.334713e+05 6.376227e+04 -1.105843e+04
1.474534e+05 7.165766e+04 -1.141289e+04
1.554212e+05 7.445764e+04 -1.007322e+04
1.473455e+05 7.717211e+04 -8.144464e+03
1.575382e+05 5.868562e+04 -1.628332e+04
1.562275e+05 6.763922e+04 -1.230900e+04
1.476510e+05 6.295064e+04 -1.173622e+04
1.487634e+05 5.353659e+04 -1.783067e+04
1.399632e+05 5.331574e+04 -1.634196e+04
1.388725e+05 6.029421e+04 -1.302343e+04
1.305536e+05 5.493465e+04 -1.310599e+04
2.744845e+05 1.179613e+05 -1.474858e+04
2.821774e+05 1.133723e+05 -1.734736e+04
2.815760e+05 1.221445e+05 -1.427221e+04
2.760929e+05 1.254078e+05 -1.186913e+04
2.825983e+05 1.298623e+05 -1.144084e+04
2.754025e+05 1.320039e+05 -8.600904e+03
2.724957e+05 1.089345e+05 -1.742610e+04
2.689159e+05 1.230301e+05 -1.033695e+04
2.674413e+05 1.323848e+05 -6.979217e+03
2.590138e+05 1.258218e+05 -8.253541e+03
2.597279e+05 1.164111e+05 -1.136765e+04
2.670869e+05 1.138678e+05 -1.370969e+04
2.586058e+05 1.089152e+05 -1.515818e+04
2.652153e+05 1.074538e+05 -1.870875e+04
2.726140e+05 8.527325e+04 -2.890047e+04
2.753495e+05 7.524057e+04 -3.425899e+04
2.795988e+05 8.247764e+04 -3.372948e+04
2.827777e+05 9.136355e+04 -2.776729e+04
2.828677e+05 9.977937e+04 -2.495435e+04
2.761229e+05 9.408190e+04 -2.610987e+04
2.749769e+05 1.021059e+05 -2.151917e+04
2.668688e+05 7.643723e+04 -3.298848e+04
2.654407e+05 8.355436e+04 -2.941001e+04
2.575827e+05 7.797276e+04 -3.038408e+04
2.598689e+05 8.724662e+04 -2.662320e+04
2.678858e+05 9.280087e+04 -2.516437e+04
2.583519e+05 9.430814e+04 -2.229575e+04
2.661367e+05 1.001839e+05 -2.156463e+04
2.736665e+05 9.001112e+04 -2.132915e+04
3.637453e+04 2.801511e+04 -7.787129e+03
4.561939e+04 2.356157e+04 -1.016966e+04
4.467528e+04 3.419728e+04 -6.818131e+03
3.648980e+04 2.147576e+04 -1.144238e+04
6.254113e+04 3.194730e+04 -1.007979e+04
5.288524e+04 3.401993e+04 -8.178576e+03
5.372177e+04 2.723161e+04 -1.114624e+04
4.521260e+04 1.065411e+04 -1.719123e+04
4.399838e+04 1.717706e+04 -1.466743e+04
3.751528e+04 1.310932e+04 -1.327021e+04
5.340819e+04 9.283370e+03 -1.804477e+04
5.171084e+04 1.870182e+04 -1.406488e+04
6.118254e+04 1.655551e+04 -1.703111e+04
5.928763e+04 2.423834e+04 -1.359702e+04
1.010138e+05 5.755548e+04 -7.440684e+03
1.091011e+05 5.188294e+04 -1.014101e+04
1.084340e+05 6.259119e+04 -6.718553e+03
9.848934e+04 4.847153e+04 -1.015434e+04
1.164142e+05 6.236898e+04 -8.094003e+03
1.172236e+05 5.548005e+04 -1.117828e+04
1.252717e+05 6.140010e+04 -1.017011e+04
1.150223e+05 4.680134e+04 -1.428548e+04
1.170404e+05 3.883694e+04 -1.844458e+04
1.246594e+05 4.503719e+04 -1.702332e+04
1.005340e+05 4.145345e+04 -1.305658e+04
1.085480e+05 3.903161e+04 -1.728684e+04
1.072784e+05 4.543107e+04 -1.471930e+04
1.228107e+05 5.246688e+04 -1.367382e+04
1.629622e+05 3.618194e+04 -2.715118e+04
1.540550e+05 3.057153e+04 -2.969829e+04
1.634466e+05 2.591578e+04 -3.351946e+04
1.543451e+05 2.333057e+04 -3.408197e+04
1.449768e+05 2.718734e+04 -2.993395e+04
1.462075e+05 1.827079e+04 -3.507358e+04
1.359878e+05 2.332656e+04 -2.882810e+04
1.574693e+05 4.384679e+04 -2.471429e+04
1.513830e+05 3.820838e+04 -2.548517e+04
1.482240e+05 4.513227e+04 -2.205680e+04
1.315356e+05 3.860336e+04 -2.034320e+04
1.356579e+05 3.170852e+04 -2.567281e+04
1.421475e+05 3.694743e+04 -2.391357e+04
1.405910e+05 4.527663e+04 -1.870881e+04
1.507194e+05 3.063034e+04 -2.128560e+04
1.647201e+05 7.600084e+04 -1.150758e+04
1.727977e+05 8.171546e+04 -1.019537e+04
1.640741e+05 8.514250e+04 -5.714590e+03
1.717793e+05 8.909522e+04 -7.343353e+03
1.799824e+05 9.028249e+04 -8.086944e+03
1.810146e+05 8.331551e+04 -1.140823e+04
1.886713e+05 8.926938e+04 -1.025138e+04
1.863165e+05 8.022377e+04 -1.389068e+04
1.778629e+05 7.466532e+04 -1.373883e+04
1.887000e+05 7.179696e+04 -1.654928e+04
1.716543e+05 6.665261e+04 -1.744398e+04
1.704053e+05 7.336665e+04 -1.393397e+04
1.632014e+05 6.749620e+04 -1.469044e+04
1.799917e+05 6.489881e+04 -1.824625e+04
1.794019e+05 7.756165e+04 -8.363347e+03
2.095806e+05 5.571107e+04 -3.049586e+04
2.201005e+05 5.312959e+04 -3.306966e+04
2.179288e+05 6.154538e+04 -2.985362e+04
2.107734e+05 4.673545e+04 -3.399995e+04
2.010241e+05 4.627339e+04 -3.308782e+04
2.009143e+05 5.512596e+04 -2.870751e+04
1.929059e+05 5.034035e+04 -2.910750e+04
2.188878e+05 6.978633e+04 -2.629877e+04
2.121902e+05 6.521920e+04 -2.668238e+04
2.113310e+05 7.212902e+04 -2.237081e+04
1.958603e+05 6.762566e+04 -2.193802e+04
2.052429e+05 6.336783e+04 -2.433095e+04
2.031797e+05 7.253291e+04 -2.030574e+04
1.949621e+05 5.880528e+04 -2.464962e+04
2.058323e+05 5.436426e+04 -2.309343e+04
1.876696e+04 -2.870597e+04 -3.050376e+04
2.003321e+04 -3.752669e+04 -3.388317e+04
2.607663e+04 -3.193190e+04 -3.420872e+04
3.596188e+04 -2.962626e+04 -3.497614e+04
2.716340e+04 -2.586999e+04 -3.083333e+04
3.564984e+04 -2.202717e+04 -3.027430e+04
1.146462e+04 -3.217607e+04 -2.829714e+04
3.284931e+04 -1.390209e+04 -2.448084e+04
2.200286e+04 -1.237124e+04 -2.218175e+04
2.525055e+04 -1.895018e+04 -2.591902e+04
2.475833e+04 -2.676241e+04 -2.359837e+04
1.567009e+04 -2.228426e+04 -2.334991e+04
4.176859e+03 -1.824094e+04 -1.983294e+04
6.019663e+03 -2.499120e+04 -2.577398e+04
1.400596e+04 -1.197873e+04 -1.912384e+04
-2.141271e+05 -1.426778e+05 -3.420938e+04
-2.211737e+05 -1.483058e+05 -3.580927e+04
-2.300689e+05 -1.446452e+05 -3.275086e+04
-2.234410e+05 -1.391069e+05 -3.066637e+04
-2.167403e+05 -1.329440e+05 -3.035450e+04
-2.294931e+05 -1.526905e+05 -3.778712e+04
-2.372510e+05 -1.492281e+05 -3.446539e+04
-2.372815e+05 -1.422482e+05 -3.071113e+04
-2.443986e+05 -1.464986e+05 -2.935117e+04
-2.365487e+05 -1.353435e+05 -2.369506e+04
-2.384105e+05 -1.252521e+05 -2.160433e+04
-2.465694e+05 -1.291507e+05 -1.934923e+04
-2.458500e+05 -1.389381e+05 -2.574144e+04
-2.207106e+05 -1.252651e+05 -2.556358e+04
-2.267148e+05 -1.314645e+05 -2.600738e+04
-2.282362e+05 -1.421813e+05 -2.468630e+04
-2.296384e+05 -1.243021e+05 -2.205858e+04
-2.789821e+05 -1.617813e+05 -3.240536e+04
-2.777593e+05 -1.571700e+05 -2.645322e+04
-2.682553e+05 -1.553382e+05 -2.409713e+04
-2.734155e+05 -1.583773e+05 -3.014883e+04
-2.675535e+05 -1.460302e+05 -2.374591e+04
-2.783814e+05 -1.431578e+05 -2.024175e+04
-2.759655e+05 -1.500553e+05 -2.473434e+04
-2.722534e+05 -1.641352e+05 -3.444848e+04
-2.702435e+05 -1.374559e+05 -2.025966e+04
-2.540092e+05 -1.474304e+05 -2.881778e+04
-2.613307e+05 -1.541903e+05 -2.981908e+04
-2.512155e+05 -1.564022e+05 -3.283282e+04
-2.590261e+05 -1.618946e+05 -3.512489e+04
-2.650113e+05 -1.636140e+05 -3.359938e+04
-2.681304e+05 -1.603182e+05 -3.027345e+04
-2.623177e+05 -1.371768e+05 -2.249581e+04
-2.606100e+05 -1.442275e+05 -2.606235e+04
-2.536236e+05 -1.384585e+05 -2.453840e+04
-2.710385e+05 -1.627472e+05 -2.481711e+04
7.886518e+04 4.010289e+04 -1.005625e+04
7.714441e+04 4.756538e+04 -7.117182e+03
6.951238e+04 4.393335e+04 -5.669544e+03
7.002947e+04 3.555720e+04 -1.082310e+04
8.459796e+04 4.868287e+04 -8.174888e+03
8.553205e+04 4.236628e+04 -1.137922e+04
9.097245e+04 4.699786e+04 -1.096452e+04
7.787020e+04 2.178526e+04 -1.608045e+04
7.554042e+04 3.164096e+04 -1.292930e+04
6.759029e+04 2.608638e+04 -1.393676e+04
8.600647e+04 2.595909e+04 -1.753251e+04
9.388269e+04 3.244577e+04 -1.641803e+04
8.407343e+04 3.328122e+04 -1.365265e+04
9.193313e+04 3.970889e+04 -1.304424e+04
8.098063e+04 3.250459e+04 -8.443934e+03
4.525563e+03 1.345191e+04 -8.011535e+03
1.388293e+04 9.380438e+03 -1.002647e+04
1.405446e+04 2.081364e+04 -5.588171e+03
4.696623e+03 5.756668e+03 -1.136033e+04
2.117134e+04 2.073705e+04 -8.468091e+03
2.225490e+04 1.366565e+04 -1.107144e+04
2.928704e+04 1.983690e+04 -1.012929e+04
3.015076e+04 3.074622e+03 -1.662992e+04
2.038570e+04 4.653687e+03 -1.392448e+04
2.228241e+04 -3.558876e+03 -1.821367e+04
2.958185e+04 1.141342e+04 -1.205308e+04
1.217008e+04 2.954086e+03 -1.470392e+04
5.336371e+03 -1.252864e+03 -1.355819e+04
1.347853e+04 -3.649069e+03 -1.719528e+04
-6.180034e+03 -3.955511e+04 -3.005965e+04
1.494103e+03 -4.256757e+04 -3.412705e+04
1.799130e+03 -3.485484e+04 -2.754769e+04
-1.537168e+04 -4.259137e+04 -2.996378e+04
-1.363015e+04 -5.205823e+04 -3.326347e+04
-6.909247e+03 -4.596390e+04 -3.357737e+04
-2.112729e+04 -4.590115e+04 -3.143417e+04
-1.888416e+04 -3.521666e+04 -2.596578e+04
-2.863383e+04 -3.416520e+04 -2.147940e+04
-2.381488e+04 -4.003934e+04 -2.706792e+04
-1.925313e+04 -2.868976e+04 -2.021665e+04
-1.103007e+04 -2.430627e+04 -2.138792e+04
-9.589120e+03 -3.299826e+04 -2.338634e+04
-2.120234e+03 -2.707123e+04 -2.371967e+04
-1.148130e+04 -4.059284e+04 -2.355173e+04
-1.788524e+04 5.616895e+03 -6.971686e+03
-2.460191e+04 3.110896e+03 -5.239759e+03
-1.603695e+04 -1.711430e+03 -9.532106e+03
-2.581596e+04 -4.554003e+03 -9.616713e+03
-3.296697e+04 -1.036248e+03 -6.734797e+03
-3.312075e+04 -9.813019e+03 -1.040121e+04
-1.058389e+04 6.774389e+03 -7.962233e+03
-9.690268e+03 1.488384e+02 -1.120129e+04
-2.787767e+03 5.326581e+03 -1.034465e+04
-3.025047e+04 -1.686345e+04 -1.339170e+04
-2.216269e+04 -1.069108e+04 -1.120681e+04
-1.881891e+04 -1.966499e+04 -1.561395e+04
-1.193816e+04 -8.996895e+03 -1.340714e+04
-1.017029e+04 -1.637735e+04 -1.745410e+04
-1.707943e+03 -1.016619e+04 -1.640977e+04
-3.624163e+03 -2.408973e+03 -1.276375e+04
-1.460438e+04 -9.431823e+03 -7.618210e+03
-5.339707e+04 -5.889834e+04 -2.911533e+04
-5.083213e+04 -5.109861e+04 -2.632825e+04
-4.389551e+04 -4.924428e+04 -2.633918e+04
-4.521852e+04 -5.672657e+04 -3.025169e+04
-4.870684e+04 -4.169616e+04 -2.084287e+04
-4.549584e+04 -6.367909e+04 -3.453931e+04
-2.447517e+04 -5.875264e+04 -3.639797e+04
-3.179044e+04 -6.295191e+04 -3.722364e+04
-3.856700e+04 -6.063748e+04 -3.367217e+04
-3.240754e+04 -5.615531e+04 -3.247821e+04
-2.587084e+04 -5.120906e+04 -3.074025e+04
-3.940972e+04 -6.920967e+04 -3.762392e+04
-3.006746e+04 -4.355751e+04 -2.602249e+04
-4.088705e+04 -4.235026e+04 -2.417353e+04
-3.579977e+04 -4.903308e+04 -2.782357e+04
-3.790178e+04 -5.749548e+04 -2.469290e+04
-2.368455e+05 -1.015897e+05 -1.020710e+04
-2.387614e+05 -9.333460e+04 -7.080154e+03
-2.465278e+05 -9.704256e+04 -5.544848e+03
-2.460133e+05 -1.052081e+05 -1.075851e+04
-2.305222e+05 -9.200148e+04 -7.655334e+03
-2.287540e+05 -1.008265e+05 -1.209285e+04
-2.216505e+05 -9.503720e+04 -1.054361e+04
-2.397366e+05 -1.177567e+05 -1.646877e+04
-2.410350e+05 -1.089411e+05 -1.325391e+04
-2.482882e+05 -1.137928e+05 -1.393557e+04
-2.308878e+05 -1.170503e+05 -1.743698e+04
-2.243890e+05 -1.097157e+05 -1.601729e+04
-2.336584e+05 -1.094773e+05 -1.418258e+04
-2.174043e+05 -1.048296e+05 -1.575579e+04
-2.362518e+05 -1.102147e+05 -9.498287e+03
-1.868338e+05 -1.246108e+05 -3.164145e+04
-1.946972e+05 -1.272015e+05 -3.231309e+04
-2.032105e+05 -1.234397e+05 -2.829551e+04
-1.964636e+05 -1.216211e+05 -2.700848e+04
-2.004544e+05 -1.321516e+05 -3.348402e+04
-1.893881e+05 -1.182761e+05 -2.887684e+04
-2.101675e+05 -1.286055e+05 -2.837676e+04
-2.127393e+05 -1.211744e+05 -2.346358e+04
-2.059635e+05 -1.147916e+05 -2.259031e+04
-2.156476e+05 -1.134632e+05 -1.951901e+04
-2.098198e+05 -1.083064e+05 -1.972878e+04
-2.004196e+05 -1.083643e+05 -2.175230e+04
-2.055067e+05 -1.017029e+05 -1.722021e+04
-1.894452e+05 -1.122288e+05 -2.635880e+04
-1.959519e+05 -1.154046e+05 -2.344421e+04
-1.966134e+05 -1.000772e+05 -1.836476e+04
-1.907250e+05 -1.069679e+05 -2.046531e+04
-2.000708e+05 -1.126405e+05 -1.675704e+04
-2.168191e+05 -9.023666e+04 -1.068193e+04
-2.116567e+05 -8.604934e+04 -9.929093e+03
-2.179914e+05 -8.297469e+04 -5.870937e+03
-2.098048e+05 -7.844108e+04 -6.031735e+03
-2.043080e+05 -8.508535e+04 -9.931452e+03
-2.091174e+05 -9.399158e+04 -1.230195e+04
-1.636738e+05 -9.991299e+04 -2.469025e+04
-1.598383e+05 -1.076312e+05 -2.861913e+04
-1.654038e+05 -1.147634e+05 -3.295874e+04
-1.690384e+05 -1.073798e+05 -2.640325e+04
-1.719049e+05 -9.904352e+04 -2.405047e+04
-1.563637e+05 -1.176333e+05 -3.546931e+04
-1.642975e+05 -1.230830e+05 -3.750021e+04
-1.816787e+05 -1.176108e+05 -2.971979e+04
-1.720240e+05 -1.212421e+05 -3.460846e+04
-1.738296e+05 -1.142413e+05 -3.068706e+04
-1.823128e+05 -1.104422e+05 -2.630836e+04
-1.756770e+05 -1.077912e+05 -2.870043e+04
-1.780774e+05 -1.026773e+05 -2.343258e+04
-1.713234e+05 -8.722067e+04 -1.710014e+04
-1.784290e+05 -8.955535e+04 -1.655850e+04
-1.742817e+05 -9.286075e+04 -2.019552e+04
-1.744957e+05 -8.092583e+04 -1.527749e+04
-1.808958e+05 -8.315712e+04 -1.416011e+04
-1.784404e+05 -7.414208e+04 -9.088130e+03
-1.870878e+05 -7.661699e+04 -9.695609e+03
-1.957111e+05 -7.675904e+04 -8.149391e+03
-1.893420e+05 -8.341690e+04 -1.240545e+04
-1.966750e+05 -8.417977e+04 -1.142520e+04
-1.923823e+05 -9.253084e+04 -1.437402e+04
-1.867050e+05 -9.901558e+04 -1.874670e+04
-1.796388e+05 -9.610601e+04 -1.895783e+04
-1.852542e+05 -8.999022e+04 -1.383861e+04
-1.795234e+05 -8.954153e+04 -1.117599e+04
-2.854828e+05 -1.821083e+05 -3.979503e+04
-2.794092e+05 -1.703567e+05 -3.449500e+04
-2.866015e+05 -1.142762e+05 -7.403398e+03
-2.779864e+05 -1.020960e+05 -4.227631e+03
-2.776060e+05 -1.349385e+05 -1.687534e+04
-2.554649e+05 -1.003937e+05 -6.808494e+03
2.928362e+05 1.493170e+05 -4.544265e+03
2.843973e+05 1.369144e+05 -7.093931e+03
2.872233e+05 8.518134e+04 -3.256311e+04
2.799733e+05 7.151126e+04 -3.917400e+04
2.728112e+05 6.662468e+04 -3.284146e+04
2.592219e+05 7.084105e+04 -3.411461e+04
2.818568e+05 1.065064e+05 -2.285097e+04
-2.863483e+05 -1.462813e+05 -2.116241e+04
-2.533079e+05 -1.643774e+05 -3.855292e+04
-2.566628e+05 -1.713780e+05 -3.253791e+04
-2.665877e+05 -1.337437e+05 -1.395044e+04
-2.552504e+05 -1.317067e+05 -2.110097e+04
2.903559e+05 1.182234e+05 -1.862546e+04
2.614092e+05 1.354520e+05 -4.582596e+03
2.720107e+05 1.365210e+05 -3.087024e+03
2.594944e+05 1.024811e+05 -1.893637e+04
-1.677207e+05 -9.384321e+04 -2.162013e+04
-1.703093e+05 -7.422189e+04 -1.189436e+04
-1.251956e+05 -9.558041e+04 -3.151344e+04
-1.402275e+05 -6.796075e+04 -1.474647e+04
-1.336355e+05 -7.585223e+04 -1.229091e+04
-1.055566e+05 -8.603586e+04 -3.116662e+04
-1.155635e+05 -9.473335e+04 -2.577135e+04
-1.358697e+05 -1.114969e+05 -3.580361e+04
-1.836573e+05 -6.594358e+04 -6.291109e+03
-1.528618e+05 -6.003183e+04 -9.001404e+03
-1.648163e+05 -6.777169e+04 -6.621243e+03
-1.595068e+05 -4.974138e+04 -2.964469e+03
-1.423826e+05 -6.615485e+04 -9.133800e+03
-1.497736e+05 -1.136286e+05 -3.540348e+04
-1.853220e+05 -1.037950e+05 -2.415959e+04
-1.584964e+05 -1.247393e+05 -4.114298e+04
-1.250625e+05 -4.675697e+04 -8.659927e+03
-1.358831e+05 -5.639122e+04 -7.273672e+03
-7.277134e+04 -3.297817e+04 -1.267681e+04
-5.548902e+04 -4.517128e+04 -2.194040e+04
-5.600881e+04 -4.652938e+04 -1.561955e+04
-5.275032e+04 -6.581312e+04 -3.423194e+04
-6.261701e+04 -7.561457e+04 -3.614203e+04
-5.273926e+04 -5.545247e+04 -2.176538e+04
-3.186878e+04 -6.980220e+04 -4.074427e+04
-4.395983e+04 -6.963607e+04 -3.156449e+04
-8.359540e+04 -4.298879e+04 -1.371691e+04
-7.630890e+04 -1.660876e+04 -5.648328e+03
-7.498166e+04 -7.111346e+04 -3.064681e+04
-9.618054e+04 -9.071324e+04 -3.817704e+04
-7.004267e+04 -7.371046e+04 -2.931758e+04
-3.590719e+04 -3.658196e+04 -2.263756e+04
-4.202326e+04 -4.270240e+04 -1.778809e+04
-9.710939e+04 -3.716312e+04 -9.163749e+03
-1.802074e+05 -5.621350e+04 -2.190775e+03
-2.031042e+05 -7.741947e+04 -5.890606e+03
-1.810254e+05 -6.148602e+04 -2.173529e+03
-1.524688e+05 -4.346843e+04 -1.410636e+03
-1.015461e+05 -2.185895e+04 -3.162906e+03
-9.066943e+04 -1.394961e+04 -1.355269e+03
-5.746537e+04 -4.188687e+03 -3.620316e+03
-1.230136e+05 -2.664692e+04 -1.106877e+03
-9.822988e+04 -2.645377e+04 -3.334029e+03
-1.120129e+05 -5.516973e+04 -1.498754e+04
-1.307743e+05 -3.616094e+04 -2.955798e+03
2.503270e+05 5.985951e+04 -3.888387e+04
2.540085e+05 7.673477e+04 -2.383140e+04
2.506981e+05 9.189328e+04 -2.313669e+04
2.279223e+05 5.658326e+04 -3.426167e+04
2.194904e+05 4.444802e+04 -3.802083e+04
1.931337e+05 4.354133e+04 -3.437006e+04
2.198141e+05 7.702695e+04 -2.045857e+04
1.851276e+05 2.973822e+04 -3.782641e+04
1.682483e+05 3.161982e+04 -3.382525e+04
1.880313e+05 6.295002e+04 -2.084423e+04
1.552778e+05 1.495249e+04 -3.911196e+04
1.605375e+05 1.981920e+04 -2.973591e+04
1.550578e+05 5.071656e+04 -2.096446e+04
1.373850e+05 1.690967e+04 -3.310039e+04
1.427331e+05 1.193698e+04 -3.024026e+04
1.206794e+05 2.741378e+02 -3.857606e+04
1.047394e+05 2.235328e+03 -3.277047e+04
1.263220e+05 6.271804e+03 -2.980387e+04
1.238252e+05 3.632679e+04 -2.132018e+04
1.360430e+05 2.676957e+04 -2.074682e+04
9.251220e+04 -1.286171e+04 -3.971828e+04
9.889551e+04 -2.260288e+04 -4.194391e+04
7.458808e+04 -1.146059e+04 -3.328255e+04
8.068521e+04 -1.662494e+04 -3.085379e+04
9.334673e+04 2.199034e+04 -2.007116e+04
5.729759e+04 -2.745778e+04 -3.705193e+04
6.077750e+04 8.007912e+03 -2.098757e+04
7.299229e+04 -2.050523e+03 -2.152505e+04
4.216381e+04 -2.528882e+04 -3.509100e+04
2.642426e+04 -4.170666e+04 -3.902692e+04
1.071491e+04 -4.053586e+04 -3.280933e+04
3.921759e+04 -3.761966e+04 -3.328849e+04
2.907618e+04 -6.102179e+03 -2.116812e+04
-5.502145e+03 -5.571189e+04 -3.879281e+04
2.908971e+03 -6.415692e+04 -4.119059e+04
-2.051412e+04 -5.381963e+04 -3.604190e+04
-3.916373e+03 -1.970846e+04 -2.037149e+04
-2.048776e+04 -6.669580e+04 -3.488168e+04
-3.036101e+04 -7.556504e+04 -3.717416e+04
-1.794126e+05 -1.243607e+05 -3.430024e+04
-1.652700e+05 -1.259623e+05 -3.208122e+04
-1.942040e+05 -1.364364e+05 -3.875874e+04
-1.802859e+05 -1.281738e+05 -2.962075e+04
-2.080385e+05 -1.359029e+05 -3.288300e+04
-2.229872e+05 -1.534033e+05 -4.111246e+04
-2.219782e+05 -1.184388e+05 -2.024229e+04
-2.306433e+05 -1.605478e+05 -3.585701e+04
-2.441830e+05 -1.535653e+05 -3.476541e+04
-2.484616e+05 -1.649901e+05 -3.310370e+04
-2.508474e+05 -1.438211e+05 -2.061417e+04
-2.468829e+05 -8.803611e+04 -4.128752e+03
-2.246376e+05 -8.544635e+04 -6.204207e+03
-2.471321e+05 -1.198337e+05 -1.840214e+04
-2.156551e+05 -7.476237e+04 -3.040028e+03
-2.133985e+05 -9.937417e+04 -1.517119e+04
-2.004469e+05 -9.248564e+04 -1.259225e+04
-4.212542e+04 -6.212484e+03 -6.252143e+03
-2.552134e+04 1.053924e+04 -4.167017e+03
-2.941108e+04 -2.587153e+04 -1.636225e+04
-3.560702e+03 1.218182e+04 -7.081852e+03
7.348495e+03 2.310795e+04 -4.285963e+03
1.133827e+03 1.255930e+04 -4.361989e+03
2.845920e+04 2.657469e+04 -7.168950e+03
2.203017e+04 2.088088e+04 -4.842668e+03
6.769260e+03 -9.053902e+03 -1.794069e+04
6.662029e+02 2.740442e+02 -8.698068e+03
3.903960e+04 3.716384e+04 -4.331466e+03
3.306943e+04 2.682510e+04 -4.323008e+03
3.842544e+04 5.216238e+03 -1.803653e+04
6.062632e+04 4.002787e+04 -6.883380e+03
4.902269e+04 3.817007e+04 -2.952829e+03
6.866195e+04 1.999181e+04 -1.834190e+04
6.394115e+04 2.404410e+04 -9.354263e+03
6.937684e+04 5.263060e+04 -4.216372e+03
9.298478e+04 5.346692e+04 -6.736050e+03
1.025625e+05 6.551483e+04 -4.220923e+03
1.021489e+05 3.404741e+04 -1.799853e+04
1.125891e+05 6.639160e+04 -2.902228e+03
1.239546e+05 6.840015e+04 -6.811352e+03
1.326313e+05 8.081379e+04 -4.207110e+03
1.548605e+05 8.251660e+04 -6.961431e+03
1.331011e+05 4.755427e+04 -1.759698e+04
1.319570e+05 5.842776e+04 -8.081071e+03
1.646388e+05 6.122963e+04 -1.841551e+04
1.640366e+05 6.687081e+04 -9.944664e+03
1.643384e+05 9.468345e+04 -4.264416e+03
1.873170e+05 9.647960e+04 -6.779176e+03
1.961096e+05 1.089108e+05 -4.222971e+03
1.955005e+05 8.609008e+04 -8.152936e+03
1.962419e+05 7.555432e+04 -1.768364e+04
2.182275e+05 1.105459e+05 -7.131553e+03
2.296062e+05 1.212452e+05 -4.799533e+03
2.399445e+05 1.225317e+05 -3.108466e+03
2.504245e+05 1.243303e+05 -7.541340e+03
2.286529e+05 1.163800e+05 -3.026198e+03
2.287900e+05 8.940689e+04 -1.821016e+04
2.279935e+05 9.558201e+04 -9.581359e+03
2.556854e+05 1.249969e+05 -4.473205e+03
4.852337e+04 5.896320e+03 -1.385999e+04
3.746728e+04 2.598626e+02 -1.353608e+04
2.224105e+04 -1.256120e+04 -1.516828e+04
1.013239e+05 3.012000e+04 -1.304441e+04
2.071802e+05 7.606636e+04 -1.266661e+04
2.282309e+05 8.490971e+04 -1.312381e+04
1.746948e+05 6.170158e+04 -1.433592e+04
1.599604e+05 5.072452e+04 -1.507826e+04
1.488599e+05 4.512944e+04 -1.517767e+04
1.170010e+05 3.042391e+04 -1.546110e+04
1.316515e+05 4.235038e+04 -1.317189e+04
5.642649e+03 -1.312118e+04 -1.280024e+04
-2.186367e+05 -1.106304e+05 -1.234372e+04
3.469886e+05 2.073847e+05 -7.407605e+04
3.433849e+05 1.692343e+05 -7.182181e+04
3.577346e+05 1.835409e+05 -8.762601e+04
3.759273e+05 1.923420e+05 -7.090359e+04
3.733466e+05 1.544178e+05 -7.844967e+04
3.780080e+05 1.899830e+05 -9.705035e+04
3.719652e+05 2.206219e+05 -1.141026e+05
3.797832e+05 2.208933e+05 -8.916727e+04
4.000000e+05 2.086968e+05 -7.809735e+04
3.592370e+04 -3.328767e+05 -1.111177e+05
3.620065e+03 -3.274225e+05 -1.109617e+05
2.348705e+03 -3.334736e+05 -1.389765e+05
1.061208e+04 -3.588363e+05 -1.185829e+05
8.212558e+04 -3.357512e+05 -1.111367e+05
9.160786e+04 -3.546434e+05 -1.415828e+05
9.145980e+04 -3.777382e+05 -1.235979e+05
6.754657e+04 -3.426098e+05 -1.387508e+05
1.597899e+04 -3.324891e+05 -9.401645e+04
-1.006169e+04 -3.692422e+05 -1.107090e+05
-1.739270e+04 -3.767091e+05 -1.412505e+05
-3.080390e+04 -3.420946e+05 -1.385016e+05
2.410447e+03 3.238717e+05 -1.181704e+05
-1.480417e+03 3.381956e+05 -1.451295e+05
-1.553984e+04 3.611755e+05 -1.385151e+05
1.438680e+04 3.508951e+05 -1.129276e+05
2.268770e+04 3.286893e+05 -9.796533e+04
1.769597e+04 3.730252e+05 -8.810107e+04
4.755026e+04 3.352984e+05 -9.413021e+04
4.264783e+04 3.686864e+05 -1.147418e+05
1.813426e+04 3.808687e+05 -1.312880e+05
1.676343e+04 3.550546e+05 -1.382719e+05
3.620762e+04 3.302988e+05 -1.261333e+05
-3.334864e+05 -3.964356e+04 -1.147117e+05
-3.128816e+05 -5.139789e+04 -1.400256e+05
-3.342114e+05 -6.604467e+04 -1.385271e+05
-3.437778e+05 -3.472975e+04 -1.397566e+05
-3.135918e+05 -4.000000e+05 -1.317406e+05
-2.959570e+05 -4.000000e+05 -1.040513e+05
-2.783180e+05 -4.000000e+05 -1.311186e+05
-2.922785e+05 -3.663308e+05 -1.120470e+05
-3.747842e+05 -4.335183e+04 -1.140735e+05
-3.605766e+05 -1.739174e+04 -1.407124e+05
-3.668116e+05 -1.162746e+04 -1.105253e+05
-3.110875e+05 -3.478260e+04 -1.600000e+05
-3.223061e+05 -1.715196e+04 -1.377793e+05
-3.407250e+05 -1.739131e+04 -1.600000e+05
-3.334917e+05 -5.813311e+03 -1.152700e+05
-3.750692e+05 -5.216883e+04 -1.408393e+05
-3.703625e+05 -3.478260e+04 -1.600000e+05
3.738592e+05 -6.523857e+04 -1.000622e+05
3.564454e+05 -8.975074e+04 -1.135536e+05
3.768438e+05 -8.704070e+04 -8.441715e+04
3.502699e+05 -7.491294e+04 -7.140831e+04
3.343035e+05 -7.150652e+04 -9.313553e+04
3.220875e+05 -6.354717e+04 -7.221292e+04
3.358049e+05 -9.909342e+04 -7.346141e+04
3.730684e+05 3.176509e+05 -1.119106e+05
3.327334e+05 3.264926e+05 -1.319996e+05
3.348139e+05 3.315065e+05 -8.758343e+04
3.560326e+05 3.440388e+05 -1.166424e+05
2.943055e+05 -3.631515e+05 -1.066484e+05
2.761242e+05 -3.397583e+05 -1.201610e+05
2.653299e+05 -3.360084e+05 -9.461238e+04
3.001321e+05 -3.366721e+05 -8.871149e+04
3.563689e+05 3.325410e+05 -7.096785e+04
3.556066e+05 3.546027e+05 -8.794982e+04
3.792098e+05 3.317802e+05 -8.365092e+04
3.786636e+05 3.522944e+05 -1.064283e+05
3.187399e+05 3.711635e+05 -1.114530e+05
3.348248e+05 3.591052e+05 -1.391455e+05
3.510995e+05 3.794351e+05 -1.118010e+05
3.749502e+05 3.718571e+05 -1.354987e+05
3.338267e+05 -1.073615e+05 -1.152767e+05
3.649323e+05 -1.139759e+05 -1.104146e+05
3.586625e+05 -8.427660e+04 -1.420267e+05
3.456479e+05 -6.465531e+04 -1.165377e+05
3.741962e+05 -5.506790e+04 -1.330278e+05
3.171386e+05 -9.463193e+04 -1.009758e+05
-6.672792e+04 1.813590e+05 -1.200000e+05
-8.565891e+04 1.856515e+05 -1.400135e+05
-5.105854e+04 1.861391e+05 -1.399401e+05
-6.713184e+04 1.611746e+05 -1.399907e+05
3.278570e+05 -6.878555e+04 -1.372964e+05
-8.695649e+04 2.814500e+05 -1.600000e+05
-1.217399e+05 2.814475e+05 -1.600000e+05
-1.016890e+05 2.670636e+05 -1.398420e+05
-1.167869e+05 2.920709e+05 -1.397617e+05
-1.043478e+05 3.110875e+05 -1.600000e+05
-1.236822e+05 3.207811e+05 -1.400268e+05
-1.391304e+05 3.110870e+05 -1.600000e+05
-1.000000e+05 3.000000e+05 -1.200000e+05
-9.390094e+04 3.220601e+05 -1.400534e+05
-3.442263e+05 -2.361964e+05 -7.335527e+04
-3.223599e+05 -1.992398e+05 -7.060111e+04
-3.000000e+05 -1.804460e+05 -8.651684e+04
-3.171634e+05 -1.948015e+05 -1.008056e+05
-3.000000e+05 -2.147012e+05 -8.619606e+04
1.308856e+05 -3.675986e+05 -9.932528e+04
1.293856e+05 -3.338816e+05 -1.153425e+05
1.537582e+05 -3.496420e+05 -1.018507e+05
1.487851e+05 -3.602879e+05 -1.393847e+05
1.679899e+05 -3.267313e+05 -1.400087e+05
1.699334e+05 -3.540207e+05 -1.351922e+05
1.247703e+05 -3.206905e+05 -1.400398e+05
1.217392e+05 -3.407249e+05 -1.600000e+05
1.565229e+05 -3.407240e+05 -1.600000e+05
1.739134e+05 -3.703622e+05 -1.600000e+05
1.212424e+05 -3.597572e+05 -1.408160e+05
1.391304e+05 -3.703625e+05 -1.600000e+05
3.000000e+05 1.526597e+05 -8.443677e+04
3.415890e+05 1.383910e+05 -7.364739e+04
3.323400e+05 1.741195e+05 -9.085603e+04
-4.000000e+05 -1.565218e+05 -1.039511e+05
-3.715290e+05 -1.832959e+05 -1.128314e+05
-4.000000e+05 -1.739132e+05 -1.317672e+05
-3.749643e+05 -1.471407e+05 -1.135003e+05
3.373624e+05 2.061598e+05 -1.147011e+05
3.459463e+05 1.744865e+05 -1.180312e+05
4.000000e+05 1.739133e+05 -7.904660e+04
3.684242e+05 1.659032e+05 -1.010909e+05
4.000000e+05 1.565220e+05 -1.067846e+05
-4.000000e+05 -2.434840e+05 -1.313903e+05
-4.000000e+05 -2.260899e+05 -1.043369e+05
-4.000000e+05 -2.608934e+05 -1.043696e+05
-3.672797e+05 -2.518703e+05 -1.094923e+05
4.000000e+05 1.913053e+05 -1.060104e+05
-3.604879e+05 1.739144e+04 -1.400508e+05
-3.460427e+05 1.016339e+02 -1.396876e+05
-3.344617e+05 3.269316e+04 -1.391531e+05
-3.524305e+05 2.198577e+04 -1.186115e+05
-3.333480e+05 3.900706e+04 -1.157325e+05
-3.346804e+05 2.600172e+04 -7.359721e+04
-3.669310e+05 4.581525e+04 -1.116967e+05
-4.000000e+05 -1.913048e+05 -1.050551e+05
2.333333e+05 3.000000e+05 -1.200000e+05
2.524548e+05 3.000000e+05 -8.548316e+04
2.388144e+05 3.306861e+05 -1.145878e+05
2.241752e+05 3.299795e+05 -9.619972e+04
2.967128e+05 -3.398590e+05 -1.600000e+05
2.939224e+05 -3.181119e+05 -1.392916e+05
2.819073e+05 -3.402520e+05 -1.443339e+05
3.149323e+05 -3.318315e+05 -1.403240e+05
3.115856e+05 -3.125047e+05 -1.600000e+05
3.138869e+05 -3.692166e+05 -1.600000e+05
2.963231e+05 -3.712052e+05 -1.403289e+05
3.356409e+05 -3.602187e+05 -1.383744e+05
3.359235e+05 -3.354735e+05 -1.600000e+05
-3.340011e+05 -1.638605e+05 -7.421897e+04
-3.732313e+05 -1.483495e+05 -8.289736e+04
-3.450361e+05 -1.275492e+05 -9.173062e+04
-3.625193e+05 -1.151566e+05 -7.063666e+04
-3.671603e+05 -1.146185e+05 -1.087542e+05
-3.454416e+05 -8.288566e+04 -9.185920e+04
-3.616010e+05 -1.661677e+05 -8.926421e+04
-3.338542e+05 -1.073533e+05 -1.143465e+05
-3.243749e+05 -1.239787e+05 -7.428276e+04
-3.189949e+05 -1.281950e+05 -9.950318e+04
3.000000e+05 -2.160932e+05 -8.528628e+04
3.000000e+05 -1.821237e+05 -8.495979e+04
3.414240e+05 -2.023918e+05 -7.293658e+04
-3.185212e+05 -3.715561e+05 -1.115296e+05
-3.341739e+05 -3.451829e+05 -1.149346e+05
-3.334307e+05 -3.617971e+05 -1.383607e+05
-3.560222e+05 -3.561916e+05 -1.234221e+05
-3.555893e+05 -3.545145e+05 -8.830204e+04
-3.509454e+05 -4.000000e+05 -1.310714e+05
-3.668364e+05 -3.211507e+05 -1.108972e+05
3.363482e+05 -1.656885e+05 -7.260982e+04
3.777618e+05 -1.880611e+05 -8.613555e+04
-3.602259e+05 -3.322067e+05 -1.378430e+05
-3.787538e+05 -3.522301e+05 -1.100812e+05
-3.735072e+05 -3.747202e+05 -1.328601e+05
-4.000000e+05 -3.509114e+05 -1.313135e+05
-3.528313e+05 -3.782928e+05 -1.025716e+05
-3.563804e+05 -3.270749e+05 -7.237917e+04
-3.744937e+05 -3.716534e+05 -7.530115e+04
-3.794959e+05 -3.262898e+05 -8.811039e+04
-3.341192e+05 -3.319064e+05 -8.761489e+04
-3.321116e+05 -3.791801e+05 -8.779127e+04
-3.328119e+05 -3.545731e+05 -6.955928e+04
2.814448e+05 1.217517e+05 -1.600000e+05
2.721149e+05 1.009770e+05 -1.398192e+05
2.814493e+05 8.695826e+04 -1.600000e+05
2.938483e+05 1.177028e+05 -1.398114e+05
3.110862e+05 1.391314e+05 -1.600000e+05
3.110875e+05 1.043478e+05 -1.600000e+05
3.262037e+05 1.328007e+05 -1.400302e+05
3.000000e+05 1.000000e+05 -1.200000e+05
3.230866e+05 9.022350e+04 -1.381124e+05
-2.086536e+05 -3.110087e+05 -1.600000e+05
-1.920169e+05 -3.208548e+05 -1.400273e+05
-2.266109e+05 -3.206496e+05 -1.400097e+05
-2.101895e+05 -3.409721e+05 -1.404253e+05
-2.086973e+05 -3.703600e+05 -1.600000e+05
-2.261010e+05 -3.665587e+05 -1.401481e+05
-1.913050e+05 -3.652722e+05 -1.401156e+05
-1.913047e+05 -3.407204e+05 -1.600000e+05
4.000000e+05 -2.959570e+05 -1.040513e+05
3.691744e+05 -3.198637e+05 -1.108978e+05
3.789013e+05 -3.265397e+05 -8.090541e+04
3.772476e+05 -2.956292e+05 -7.585012e+04
-3.668134e+05 3.211992e+05 -1.102983e+05
-3.432685e+05 3.550873e+05 -9.711484e+04
-3.299382e+05 3.335816e+05 -1.301573e+05
-3.555892e+05 3.566211e+05 -1.234234e+05
-3.228002e+05 3.666694e+05 -1.063727e+05
-3.516800e+05 3.789887e+05 -1.048857e+05
-3.509114e+05 4.000000e+05 -1.313135e+05
-3.318698e+05 3.614947e+05 -1.401738e+05
-3.749797e+05 3.742419e+05 -1.331467e+05
-3.688846e+05 3.526018e+05 -1.600000e+05
-4.000000e+05 3.509511e+05 -1.311244e+05
-3.789658e+05 3.517718e+05 -1.005524e+05
2.078524e+05 3.315087e+05 -1.204688e+05
1.747054e+05 3.317039e+05 -1.132989e+05
1.913051e+05 3.604870e+05 -1.400532e+05
1.920510e+05 3.208783e+05 -1.399961e+05
4.000000e+05 -3.509454e+05 -1.310714e+05
3.789243e+05 -3.518738e+05 -1.021923e+05
3.561493e+05 -3.560403e+05 -1.230832e+05
2.110978e+05 3.654133e+05 -1.107919e+05
2.101436e+05 3.442485e+05 -1.406113e+05
2.261110e+05 3.630729e+05 -1.401867e+05
2.261320e+05 3.407109e+05 -1.600000e+05
2.270221e+05 3.208556e+05 -1.398692e+05
2.448957e+05 3.370995e+05 -1.403530e+05
-2.086630e+05 3.110007e+05 -1.600000e+05
-2.310664e+05 3.219322e+05 -1.400495e+05
-1.930677e+05 3.207235e+05 -1.400355e+05
-2.105317e+05 3.388507e+05 -1.405289e+05
-1.913057e+05 3.407120e+05 -1.600000e+05
-1.750249e+05 3.373290e+05 -1.403414e+05
-2.086978e+05 3.703567e+05 -1.600000e+05
-1.913054e+05 3.642428e+05 -1.403651e+05
-2.260970e+05 3.604405e+05 -1.400245e+05
-3.000000e+05 1.113662e+05 -8.488258e+04
-3.312337e+05 1.084310e+05 -1.178918e+05
-3.000000e+05 1.000000e+05 -1.200000e+05
-3.259646e+05 9.346408e+04 -9.748050e+04
-3.000000e+05 7.835320e+04 -8.587430e+04
-3.361595e+05 6.181362e+04 -7.906497e+04
-3.377561e+05 9.591031e+04 -7.286092e+04
-3.655017e+05 1.109165e+05 -1.094609e+05
-3.392028e+05 1.207733e+05 -9.444728e+04
-4.000000e+05 3.509428e+05 -7.969849e+04
-4.000000e+05 3.670478e+05 -1.055410e+05
-4.000000e+05 4.000000e+05 -8.686567e+04
-3.715611e+05 3.726725e+05 -7.649034e+04
-3.359817e+05 7.683326e+04 -1.150640e+05
-3.801828e+05 8.018205e+04 -8.936576e+04
-3.683178e+05 7.773520e+04 -1.137359e+05
-3.322098e+05 2.415765e+05 -1.177086e+05
-3.388983e+05 2.105884e+05 -1.407662e+05
-3.654423e+05 2.261128e+05 -1.405622e+05
-3.441739e+05 2.448202e+05 -1.403321e+05
-3.672216e+05 2.518548e+05 -1.094983e+05
-3.603542e+05 2.611154e+05 -1.398672e+05
-3.407029e+05 2.261534e+05 -1.600000e+05
-3.207280e+05 2.273062e+05 -1.397412e+05
-3.108820e+05 2.442980e+05 -1.600000e+05
2.097713e+05 -2.508161e+05 -1.600000e+05
1.742477e+05 -2.516483e+05 -1.600000e+05
1.967387e+05 -2.607544e+05 -1.397066e+05
1.851777e+05 -2.384692e+05 -1.397130e+05
1.569819e+05 -2.222246e+05 -1.600000e+05
1.698970e+05 -2.137585e+05 -1.378873e+05
1.467752e+05 -2.399834e+05 -1.399673e+05
1.832181e+05 -2.704209e+05 -1.200000e+05
1.588828e+05 -2.613897e+05 -1.398706e+05
1.671373e+05 -2.404676e+05 -1.200000e+05
1.814487e+05 3.334333e+04 -1.200000e+05
1.573462e+05 3.379697e+04 -1.399504e+05
1.920146e+05 5.030470e+04 -1.397441e+05
1.854227e+05 1.696289e+04 -1.399499e+05
1.518070e+05 1.668938e+04 -1.200000e+05
1.557692e+05 1.985354e+02 -1.399480e+05
1.814495e+05 1.332958e+00 -1.200000e+05
1.877629e+05 -1.671051e+04 -1.398785e+05
2.407060e+05 1.333894e+05 -1.200000e+05
2.106138e+05 1.509412e+05 -1.200000e+05
2.307903e+05 1.486452e+05 -1.398665e+05
2.096087e+05 1.310571e+05 -1.391593e+05
1.809519e+05 1.342405e+05 -1.200000e+05
1.849843e+05 1.182830e+05 -1.398739e+05
1.720353e+05 1.511319e+05 -1.405766e+05
1.906560e+05 1.422105e+05 -1.600000e+05
1.922613e+05 1.050560e+05 -1.600000e+05
2.219297e+05 1.223557e+05 -1.600000e+05
2.208976e+05 1.591603e+05 -1.600000e+05
1.994103e+05 1.688926e+05 -1.418272e+05
1.725154e+04 -1.036070e+05 -1.600000e+05
3.438920e+04 -9.658719e+04 -1.399342e+05
2.521514e+02 -9.576566e+04 -1.399954e+05
1.685861e+04 -1.283492e+05 -1.399615e+05
3.786291e+03 -6.071687e+04 -1.200000e+05
-1.713703e+04 -6.501276e+04 -1.400021e+05
1.956775e+04 -7.036921e+04 -1.403252e+05
1.767944e+04 -9.199301e+04 -1.200000e+05
3.406280e+05 -2.260997e+05 -1.600000e+05
3.205762e+05 -2.269571e+05 -1.399716e+05
3.371280e+05 -2.447861e+05 -1.402264e+05
3.406531e+05 -2.109330e+05 -1.406342e+05
2.168998e+05 3.000000e+05 -8.467922e+04
2.359971e+05 3.428171e+05 -7.454718e+04
3.338185e+05 -2.090038e+05 -1.156617e+05
3.206163e+05 -1.940611e+05 -1.400627e+05
3.605462e+05 -1.913050e+05 -1.400430e+05
-4.000000e+05 -2.086959e+05 -7.789223e+04
3.670611e+05 -2.162046e+05 -1.092900e+05
3.654217e+05 -2.260963e+05 -1.400745e+05
3.697093e+05 4.972239e+04 -1.144669e+05
3.335984e+05 5.192966e+04 -9.734317e+04
3.670449e+05 1.150062e+04 -1.147272e+05
3.437616e+05 3.427904e+04 -7.461675e+04
3.224135e+05 9.228838e+03 -1.056822e+05
3.409599e+05 5.075397e+03 -7.559404e+04
4.000000e+05 -2.743449e-01 -7.840273e+04
4.000000e+05 1.739071e+04 -1.058997e+05
3.764900e+05 2.117079e+04 -7.920345e+04
3.667434e+05 -1.763918e+04 -7.739314e+04
3.801110e+05 5.638081e+04 -8.591462e+04
1.913065e+05 3.407245e+05 -1.600000e+05
2.087746e+05 3.110745e+05 -1.600000e+05
2.519030e+05 3.673831e+05 -1.094676e+05
2.610061e+05 3.736678e+05 -1.341557e+05
2.786884e+05 3.361759e+05 -1.141904e+05
2.435117e+05 3.703390e+05 -1.600000e+05
-2.783133e+05 4.000000e+05 -1.319380e+05
-2.934321e+05 3.717494e+05 -1.142246e+05
-2.606862e+05 3.636529e+05 -1.400502e+05
-2.696479e+05 3.765289e+05 -1.130476e+05
-2.782927e+05 4.000000e+05 -7.817433e+04
-2.608934e+05 4.000000e+05 -1.043696e+05
-2.503078e+05 3.736018e+05 -8.525095e+04
-2.959167e+05 4.000000e+05 -1.059368e+05
-2.802730e+05 3.322022e+05 -1.175174e+05
-2.434840e+05 4.000000e+05 -1.313903e+05
-2.415339e+05 3.692068e+05 -1.119995e+05
-2.381835e+05 -3.417701e+05 -7.293936e+04
-2.960138e+05 3.792222e+05 -7.975993e+04
-2.711975e+05 3.437097e+05 -7.541624e+04
-2.657763e+05 3.384603e+05 -9.661397e+04
-2.508367e+05 -2.098052e+05 -1.600000e+05
-2.617205e+05 -1.995112e+05 -1.397656e+05
-2.306014e+05 -2.110208e+05 -1.403978e+05
-2.336512e+05 -1.785366e+05 -1.396271e+05
-2.407559e+05 -2.004734e+05 -1.200000e+05
-2.703391e+05 -1.834566e+05 -1.200000e+05
-2.407634e+05 -1.669284e+05 -1.200000e+05
-2.203171e+05 -1.683113e+05 -1.399024e+05
-2.116430e+05 -1.853224e+05 -1.200000e+05
3.000000e+05 -8.158492e+04 -8.629336e+04
3.219226e+05 -4.947009e+04 -1.085117e+05
3.000000e+05 -3.333333e+04 -1.200000e+05
3.313148e+05 -3.333231e+04 -9.723881e+04
3.000000e+05 -4.783126e+04 -8.601673e+04
-2.434894e+05 3.703280e+05 -1.600000e+05
-2.261035e+05 3.406187e+05 -1.600000e+05
3.298189e+05 -3.366439e+04 -1.324043e+05
3.070528e+05 -5.116100e+04 -1.400322e+05
-3.612176e+05 4.783020e+04 -1.375117e+05
-3.000000e+05 -3.000000e+05 -1.200000e+05
-2.879517e+05 -2.871707e+05 -1.413367e+05
-2.666667e+05 -3.000000e+05 -1.200000e+05
-2.966969e+05 -3.188888e+05 -1.391510e+05
-3.703625e+05 3.478260e+04 -1.600000e+05
-3.407250e+05 1.739131e+04 -1.600000e+05
-3.000000e+05 3.333333e+04 -1.200000e+05
-3.273009e+05 6.264532e+03 -9.658192e+04
-3.061099e+05 5.133063e+04 -1.379100e+05
-3.128906e+05 1.698920e+04 -1.400315e+05
-3.407250e+05 5.217392e+04 -1.600000e+05
-3.334956e+05 6.660825e+04 -1.375643e+05
-1.516299e+05 -5.012916e+04 -1.200000e+05
-1.572506e+05 -3.375304e+04 -1.399606e+05
-1.561430e+05 -6.800403e+04 -1.399592e+05
-1.869642e+05 -5.077287e+04 -1.399696e+05
-1.209022e+05 -6.753631e+04 -1.200000e+05
-1.262919e+05 -5.107817e+04 -1.401547e+05
-1.286715e+05 -8.272504e+04 -1.396846e+05
-1.629182e+05 -5.203422e+04 -1.600000e+05
-3.338129e+05 -7.353552e+04 -1.144143e+05
-3.767418e+05 -7.416097e+04 -1.106245e+05
-3.507105e+05 -5.349620e+04 -7.836752e+04
-3.624461e+05 -8.061286e+04 -7.229685e+04
-3.801391e+05 -4.625842e+04 -7.998883e+04
-3.230214e+05 -8.551180e+04 -7.425627e+04
3.000000e+05 -2.519079e+05 -8.441079e+04
3.316188e+05 -2.608487e+05 -9.431703e+04
3.309663e+05 -2.255467e+05 -9.423086e+04
3.415893e+05 -2.340682e+05 -7.264356e+04
3.378363e+05 -2.998004e+05 -8.813369e+04
3.534952e+05 -3.282202e+05 -7.042442e+04
3.431805e+05 -2.720292e+05 -7.348665e+04
-3.171035e+05 -5.933462e+04 -1.008815e+05
-3.171792e+05 -9.307846e+04 -1.006490e+05
-1.192804e-02 -3.703625e+05 -1.600000e+05
-1.739131e+04 -3.407250e+05 -1.600000e+05
1.739131e+04 -3.407250e+05 -1.600000e+05
1.925465e+04 -3.597116e+05 -1.388005e+05
-1.715788e+04 -3.135962e+05 -1.400328e+05
5.093170e-11 -3.000000e+05 -1.200000e+05
1.678205e+04 -2.978420e+05 -1.398859e+05
3.333333e+04 -3.000000e+05 -1.200000e+05
-2.168998e+05 -3.000000e+05 -8.524016e+04
-3.161426e+05 -3.386353e+05 -1.405180e+05
-3.516402e+05 -3.698463e+05 -1.600000e+05
-3.106345e+05 -3.335228e+05 -1.151154e+05
-2.985549e+05 -3.358621e+05 -9.167705e+04
1.152114e+05 3.538383e+05 -7.108421e+04
6.452503e+04 3.393633e+05 -7.274229e+04
8.503423e+04 3.740278e+05 -7.644425e+04
1.043476e+05 4.000000e+05 -7.826269e+04
-2.368728e+05 3.421767e+05 -7.093288e+04
5.128374e+04 3.802302e+05 -8.761957e+04
7.077086e+04 3.697259e+05 -1.059754e+05
8.695630e+04 4.000000e+05 -1.055370e+05
1.019875e+05 3.750881e+05 -9.747176e+04
6.956517e+04 4.000000e+05 -7.816712e+04
1.925008e+05 6.969655e+04 -1.600000e+05
2.156958e+05 6.832834e+04 -1.399071e+05
1.850697e+05 8.402488e+04 -1.398364e+05
1.814413e+05 6.671985e+04 -1.200000e+05
1.629010e+05 5.225616e+04 -1.600000e+05
1.925353e+05 3.479200e+04 -1.600000e+05
2.150574e+05 3.413595e+04 -1.399492e+05
-4.000000e+05 -3.478296e+04 -7.817791e+04
2.221693e+05 5.219172e+04 -1.600000e+05
3.698233e+05 -3.516620e+05 -1.600000e+05
3.668538e+05 -3.743333e+05 -1.349354e+05
3.339762e+05 -3.338432e+05 -1.280242e+05
3.614442e+05 -3.336465e+05 -1.391463e+05
3.254252e+05 -3.695050e+05 -1.122695e+05
3.329890e+05 -3.332643e+05 -8.760612e+04
3.506638e+05 -3.796984e+05 -9.830586e+04
3.509428e+05 -4.000000e+05 -1.310687e+05
-3.556813e+05 -1.843145e+05 -7.260112e+04
-3.540734e+05 -2.168847e+05 -7.251514e+04
-3.447952e+05 -1.963980e+05 -9.193301e+04
-3.210231e+05 -2.250440e+05 -9.547693e+04
-3.787545e+05 -2.201209e+05 -7.790853e+04
-3.110859e+05 1.391326e+05 -1.600000e+05
-3.110579e+05 1.739550e+05 -1.600000e+05
-3.233292e+05 1.639917e+05 -1.400463e+05
-2.932762e+05 1.462780e+05 -1.399023e+05
-3.221542e+05 1.274918e+05 -1.400630e+05
-2.940669e+05 1.165716e+05 -1.398461e+05
-3.000000e+05 1.333333e+05 -1.200000e+05
-2.703332e+05 1.500434e+05 -1.200000e+05
-2.771208e+05 1.353076e+05 -1.398384e+05
1.452603e+05 -1.192745e+05 -1.200000e+05
1.232615e+05 -1.232305e+05 -1.400250e+05
1.312842e+05 -8.794765e+04 -1.394899e+05
1.595242e+05 -1.031568e+05 -1.414157e+05
1.802726e+05 -1.343733e+05 -1.200000e+05
1.898953e+05 -1.175542e+05 -1.402154e+05
1.585047e+05 -1.347407e+05 -1.402086e+05
-3.407250e+05 -5.217390e+04 -1.600000e+05
-3.703625e+05 -6.956522e+04 -1.600000e+05
-3.646821e+05 -9.454847e+04 -1.404049e+05
-3.220470e+05 -9.390215e+04 -1.400285e+05
1.489128e+05 3.672407e+05 -1.106477e+05
1.358801e+05 3.443190e+05 -7.293413e+04
1.212797e+05 3.784974e+05 -8.425356e+04
1.278784e+05 3.508865e+05 -1.017363e+05
9.969948e+04 3.316025e+05 -9.546730e+04
1.290565e+05 3.171476e+05 -1.007881e+05
9.902335e+04 3.456314e+05 -1.162476e+05
1.522343e+05 3.342584e+05 -9.217416e+04
1.560608e+05 3.795742e+05 -8.253486e+04
-3.720237e+05 1.453918e+05 -1.120069e+05
-3.792938e+05 1.183648e+05 -8.391317e+04
-3.438119e+05 1.303326e+05 -7.290872e+04
-3.000000e+05 1.461959e+05 -8.551437e+04
-3.391985e+05 1.548237e+05 -9.460306e+04
-3.339565e+05 1.412163e+05 -1.153001e+05
-3.000000e+05 -2.333333e+05 -1.200000e+05
-3.338687e+05 -2.088324e+05 -1.147012e+05
-3.339665e+05 -2.426826e+05 -1.146988e+05
-3.000000e+05 -2.000000e+05 -1.200000e+05
-3.207729e+05 -2.269988e+05 -1.397071e+05
-3.672035e+05 -2.175321e+05 -1.094843e+05
-3.703593e+05 2.131957e+05 -1.130003e+05
-3.604843e+05 1.913104e+05 -1.400485e+05
-3.000000e+05 -3.000000e+05 -8.477016e+04
-2.729122e+05 -3.437900e+05 -7.349320e+04
-3.000000e+05 -2.511929e+05 -8.604716e+04
-3.000000e+05 -2.666667e+05 -1.200000e+05
-8.430043e+04 3.803162e+05 -8.213260e+04
3.703326e+05 2.434887e+05 -1.600000e+05
3.702759e+05 2.782782e+05 -1.600000e+05
3.400119e+05 2.611146e+05 -1.600000e+05
3.654699e+05 2.631054e+05 -1.385664e+05
1.217387e+05 4.000000e+05 -1.050269e+05
-3.358907e+05 -2.985468e+05 -9.235232e+04
-1.407038e+05 3.305957e+05 -1.153273e+05
-1.477719e+05 3.683984e+05 -1.082917e+05
-1.609022e+05 3.324359e+05 -9.724658e+04
-1.255514e+05 3.315839e+05 -9.428058e+04
-3.668523e+05 -2.972500e+05 -1.105972e+05
-3.423466e+05 -2.699409e+05 -7.301879e+04
-3.786579e+05 -2.693409e+05 -8.696693e+04
-3.713020e+05 -3.006395e+05 -8.023679e+04
-1.043478e+05 4.000000e+05 -7.716791e+04
-3.148111e+04 3.413213e+05 -1.380918e+05
-1.739131e+04 3.407250e+05 -1.600000e+05
-1.673173e+04 3.083301e+05 -1.400825e+05
3.333333e+04 3.000000e+05 -1.200000e+05
-5.093170e-11 3.000000e+05 -1.200000e+05
1.729714e+04 3.043105e+05 -1.395358e+05
-1.153012e+05 3.783414e+05 -8.074775e+04
-1.051340e+05 3.286194e+05 -1.171896e+05
-7.355416e+04 3.338876e+05 -1.144123e+05
-7.944695e+04 3.669693e+05 -1.099233e+05
-9.119406e+04 3.312866e+05 -9.376297e+04
1.739131e+04 3.407250e+05 -1.600000e+05
-3.313969e+05 2.812035e+05 -1.122606e+05
-3.596120e+05 2.968499e+05 -1.392654e+05
-3.357603e+05 2.800658e+05 -1.400707e+05
-3.444083e+05 2.012673e+05 -7.296927e+04
-3.405625e+05 2.612639e+05 -1.600000e+05
-3.207494e+05 2.621071e+05 -1.393235e+05
-3.108038e+05 2.803634e+05 -1.600000e+05
-3.701118e+05 2.785724e+05 -1.600000e+05
-3.396399e+05 2.970686e+05 -1.600000e+05
-3.335099e+05 3.106001e+05 -1.151519e+05
-3.197132e+05 2.985546e+05 -1.398773e+05
3.703625e+05 -3.478260e+04 -1.600000e+05
3.613202e+05 -3.894760e+04 -1.225027e+05
3.407250e+05 -5.217390e+04 -1.600000e+05
4.000000e+05 -5.217391e+04 -1.600000e+05
3.703625e+05 -6.956522e+04 -1.600000e+05
4.000000e+05 -5.217364e+04 -1.061846e+05
3.688916e+05 -2.780419e+04 -1.017339e+05
3.305143e+05 -6.350596e+03 -1.122593e+05
3.561735e+05 -1.568679e+04 -1.373050e+05
4.000000e+05 -3.478251e+04 -1.323045e+05
1.194975e+05 -3.556448e+05 -7.200331e+04
1.344076e+05 -3.218111e+05 -7.183141e+04
1.429594e+05 -3.490360e+05 -7.157322e+04
1.698902e+05 -3.443638e+05 -7.316471e+04
1.560554e+05 -3.795858e+05 -8.308372e+04
8.695598e+04 3.805804e+05 -1.232832e+05
1.217360e+05 3.804611e+05 -1.265544e+05
1.411942e+05 3.338816e+05 -1.152996e+05
1.217394e+05 3.604898e+05 -1.400588e+05
1.024950e+05 3.261812e+05 -1.357719e+05
1.254341e+05 3.206211e+05 -1.400554e+05
1.000000e+05 3.000000e+05 -1.200000e+05
7.257972e+04 3.327892e+05 -1.120687e+05
-1.391203e+05 2.517627e+05 -1.600000e+05
-1.522721e+05 2.446774e+05 -1.399439e+05
-1.340574e+05 2.778466e+05 -1.397625e+05
-1.673354e+05 2.643122e+05 -1.397706e+05
-1.913275e+05 2.813276e+05 -1.600000e+05
-1.806358e+05 2.904607e+05 -1.398168e+05
-1.981112e+05 2.623432e+05 -1.398065e+05
-1.740899e+05 2.511492e+05 -1.600000e+05
-1.565308e+05 2.814213e+05 -1.600000e+05
1.335925e+05 -2.404834e+05 -1.200000e+05
1.351039e+05 -2.156964e+05 -1.406659e+05
1.523066e+05 -2.091304e+05 -1.200000e+05
1.500133e+05 -2.703494e+05 -1.200000e+05
1.364582e+05 -2.712669e+05 -1.399055e+05
1.391751e+05 -2.518024e+05 -1.600000e+05
1.179371e+05 -2.482041e+05 -1.398916e+05
2.783151e+05 4.000000e+05 -7.755495e+04
2.979876e+05 3.777206e+05 -8.374081e+04
2.560497e+05 3.785953e+05 -8.401837e+04
2.721792e+05 3.761825e+05 -1.050706e+05
2.782958e+05 4.000000e+05 -1.313051e+05
2.922841e+05 3.652527e+05 -1.123146e+05
-3.000000e+05 2.509820e+05 -8.443054e+04
2.726122e+05 3.432057e+05 -7.487261e+04
2.959312e+05 4.000000e+05 -1.042499e+05
3.407250e+05 -1.739131e+04 -1.600000e+05
3.309880e+05 -1.096248e+02 -1.400553e+05
3.000000e+05 5.093170e-11 -1.200000e+05
3.052677e+05 -1.777541e+04 -1.382726e+05
-3.668485e+05 2.972618e+05 -1.094576e+05
-3.358800e+05 2.985387e+05 -9.173160e+04
1.739128e+04 4.000000e+05 -1.059678e+05
3.055030e+05 1.722524e+04 -1.389938e+05
3.263160e+05 4.258899e+04 -1.201588e+05
3.703673e+05 1.653768e+04 -1.399338e+05
3.407250e+05 1.739131e+04 -1.600000e+05
3.110875e+05 3.478263e+04 -1.600000e+05
3.311574e+05 2.624826e+05 -9.567164e+04
3.387325e+05 2.391298e+05 -7.307637e+04
3.190193e+05 2.294205e+05 -1.005117e+05
3.567904e+05 2.399743e+05 -8.914485e+04
-3.000000e+05 2.146334e+05 -8.514391e+04
3.346069e+05 2.440722e+05 -1.160175e+05
3.680244e+05 2.531298e+05 -1.118696e+05
3.548957e+05 -4.762323e+04 -7.227394e+04
3.797702e+05 -5.541877e+04 -7.004872e+04
4.000000e+05 -6.956512e+04 -7.897213e+04
-1.166753e+05 2.703598e+05 -1.200000e+05
-1.333333e+05 3.000000e+05 -1.200000e+05
-1.179309e+05 2.483764e+05 -1.398220e+05
-1.000251e+05 2.407162e+05 -1.200000e+05
-8.584834e+04 2.477581e+05 -1.399694e+05
-6.864131e+04 2.796653e+05 -1.399679e+05
-8.333335e+04 2.703625e+05 -1.200000e+05
3.407250e+05 1.565217e+05 -1.600000e+05
3.606995e+05 1.565256e+05 -1.420574e+05
3.289364e+05 1.726515e+05 -1.382794e+05
3.000000e+05 2.531562e+05 -8.549292e+04
3.437804e+05 2.729422e+05 -7.257351e+04
3.000000e+05 2.183077e+05 -8.475557e+04
2.970461e+05 3.396469e+05 -1.600000e+05
2.968432e+05 3.596120e+05 -1.392766e+05
3.620832e+05 3.302335e+05 -1.386179e+05
3.600491e+05 2.957858e+05 -1.397599e+05
3.121208e+05 3.121779e+05 -1.600000e+05
2.985340e+05 3.197212e+05 -1.398908e+05
3.197099e+05 2.981359e+05 -1.398521e+05
3.373086e+05 3.341174e+05 -1.600000e+05
3.397006e+05 2.962351e+05 -1.600000e+05
3.106163e+05 3.335235e+05 -1.151500e+05
-3.355193e+05 2.196168e+05 -9.342345e+04
-3.410693e+05 2.338964e+05 -7.282290e+04
2.449382e+05 -2.724500e+05 -1.200000e+05
2.294817e+05 -2.549934e+05 -1.389589e+05
2.357528e+05 -2.390522e+05 -1.200000e+05
2.617888e+05 -2.630924e+05 -1.391570e+05
2.821434e+05 -2.558221e+05 -1.600000e+05
2.643396e+05 -2.809197e+05 -1.600000e+05
2.830618e+05 -2.808377e+05 -1.421087e+05
2.490525e+05 -2.461550e+05 -1.600000e+05
2.275923e+05 -2.803033e+05 -1.600000e+05
1.166667e+05 -3.000000e+05 -8.600905e+04
1.003426e+05 -3.223868e+05 -7.215268e+04
6.246921e+04 -3.396123e+05 -7.235160e+04
8.640963e+04 -3.684587e+05 -7.344209e+04
8.333333e+04 -3.000000e+05 -8.618183e+04
1.053145e+05 -3.320950e+05 -9.349295e+04
2.802760e+05 2.265523e+05 -1.600000e+05
2.903958e+05 2.461965e+05 -1.400877e+05
2.550476e+05 2.339628e+05 -1.397589e+05
2.891566e+05 2.142993e+05 -1.398124e+05
3.102167e+05 2.434140e+05 -1.600000e+05
3.205066e+05 2.270465e+05 -1.399005e+05
3.109137e+05 2.087727e+05 -1.600000e+05
3.232278e+05 1.968623e+05 -1.399776e+05
-3.799632e+05 -1.831318e+05 -8.926736e+04
-3.338440e+05 -1.750041e+05 -1.149403e+05
-3.000000e+05 2.333333e+05 -1.200000e+05
-3.824716e+05 -2.636132e+05 -1.214091e+05
-4.000000e+05 -2.783133e+05 -1.319380e+05
-4.000000e+05 -2.959167e+05 -1.059368e+05
-3.701091e+05 -2.784782e+05 -1.600000e+05
-3.658671e+05 -2.962775e+05 -1.406604e+05
-3.603532e+05 -2.610761e+05 -1.399037e+05
-4.000000e+05 -2.608696e+05 -1.600000e+05
1.220940e+05 3.351486e+04 -1.200000e+05
1.342567e+05 1.699530e+04 -1.399210e+05
1.270415e+05 5.150602e+04 -1.399317e+05
1.037156e+05 1.734290e+04 -1.600000e+05
9.220842e+04 5.073001e+04 -1.200000e+05
1.035464e+05 5.262833e+04 -1.600000e+05
9.545559e+04 7.271297e+04 -1.393703e+05
1.333832e+05 7.012216e+04 -1.600000e+05
1.237669e+05 8.824390e+04 -1.395770e+05
-2.518125e+05 3.578412e-02 -1.600000e+05
-2.518125e+05 -3.478258e+04 -1.600000e+05
-2.221750e+05 -1.739126e+04 -1.600000e+05
-2.491364e+05 -1.668294e+04 -1.397735e+05
-4.992469e+04 -9.189896e+04 -1.200000e+05
-3.381265e+04 -1.050079e+05 -1.399844e+05
-5.188215e+04 -1.270866e+05 -1.399534e+05
-7.205836e+04 -9.417829e+04 -1.388497e+05
-6.993070e+04 -1.334671e+05 -1.600000e+05
-8.617176e+04 -1.289690e+05 -1.403036e+05
-8.890813e+04 -1.044400e+05 -1.600000e+05
-1.070250e+05 -9.536118e+04 -1.403898e+05
-3.556588e+05 2.905494e+05 -7.203275e+04
-3.469777e+05 2.674482e+05 -7.244251e+04
-3.302249e+05 2.686607e+05 -9.532409e+04
-3.782941e+05 2.577676e+05 -8.678164e+04
-6.666667e+04 -3.000000e+05 -1.200000e+05
-3.989151e+04 -3.298695e+05 -1.160676e+05
-7.709312e+04 -3.291389e+05 -1.100540e+05
-6.771953e+04 -3.386031e+05 -1.393915e+05
-5.121154e+04 -3.111081e+05 -1.400521e+05
-9.541366e+04 -3.223086e+05 -1.400658e+05
-8.695652e+04 -3.407250e+05 -1.600000e+05
-6.956520e+04 -3.110875e+05 -1.600000e+05
-1.739951e+05 -2.512244e+05 -1.600000e+05
-1.510922e+05 -2.401505e+05 -1.402940e+05
-1.807113e+05 -2.331423e+05 -1.384212e+05
-1.642755e+05 -2.708560e+05 -1.398133e+05
-2.086624e+05 -2.512201e+05 -1.600000e+05
-2.087833e+05 -2.305270e+05 -1.394165e+05
-2.003871e+05 -2.615975e+05 -1.397308e+05
-1.834652e+05 -2.702411e+05 -1.200000e+05
-2.005935e+05 -2.405919e+05 -1.200000e+05
-1.673156e+05 -2.403634e+05 -1.200000e+05
-1.867618e+05 -2.103057e+05 -1.200000e+05
-1.692681e+05 -2.192499e+05 -1.403438e+05
2.785031e+05 -3.701056e+05 -1.600000e+05
2.612358e+05 -3.405695e+05 -1.600000e+05
2.620551e+05 -3.207662e+05 -1.393751e+05
2.441281e+05 -3.479123e+05 -1.400077e+05
2.639123e+05 -3.731525e+05 -1.368687e+05
-3.000000e+05 -4.478797e+04 -8.701354e+04
-5.648899e+04 3.301575e+05 -9.353592e+04
-3.386452e+04 3.563300e+05 -8.970512e+04
-6.683358e+04 3.443336e+05 -7.250894e+04
-3.340779e+04 3.406282e+05 -7.222420e+04
-2.017139e+03 3.408289e+05 -7.325496e+04
-4.252906e+04 3.297874e+05 -1.144776e+05
-1.260962e+04 3.273967e+05 -9.650545e+04
-1.220110e+04 3.625713e+05 -1.092731e+05
3.334849e+05 -3.106033e+05 -1.151403e+05
3.189174e+05 -2.970502e+05 -1.393017e+05
3.346903e+05 -2.784353e+05 -1.158535e+05
3.381236e+05 -2.801101e+05 -1.399965e+05
3.399566e+05 -2.611499e+05 -1.600000e+05
3.673922e+05 -2.609827e+05 -1.402859e+05
3.048356e+05 -2.801607e+05 -1.600000e+05
3.184792e+05 -2.616744e+05 -1.375420e+05
3.702044e+05 -2.784213e+05 -1.600000e+05
3.600141e+05 -2.963680e+05 -1.409808e+05
3.394288e+05 -2.965685e+05 -1.600000e+05
1.739133e+05 -4.000000e+05 -1.328878e+05
1.554476e+05 -3.788769e+05 -1.264482e+05
1.772624e+05 -3.696227e+05 -1.090895e+05
1.391305e+05 -4.000000e+05 -1.328014e+05
1.216150e+05 -3.805093e+05 -1.240268e+05
1.921219e+05 -3.654555e+05 -1.362847e+05
1.913209e+05 -3.407147e+05 -1.600000e+05
-3.449119e+05 -3.275422e+04 -9.232981e+04
3.804587e+05 1.933159e+05 -1.226137e+05
-3.000000e+05 -3.333333e+04 -1.200000e+05
-2.703625e+05 -1.666668e+04 -1.200000e+05
-2.703625e+05 -5.000001e+04 -1.200000e+05
-2.697253e+05 -3.442580e+04 -1.399491e+05
3.000000e+05 1.666667e+05 -1.200000e+05
3.184214e+05 1.916184e+05 -1.035507e+05
3.619856e+05 1.913044e+05 -1.403943e+05
3.333466e+05 1.433623e+05 -1.158498e+05
3.663073e+05 1.405130e+05 -1.078240e+05
-3.525063e+05 6.472880e+03 -7.226948e+04
-3.226500e+05 -1.494069e+04 -7.415809e+04
-3.544799e+05 -2.283416e+04 -6.994931e+04
1.764407e+05 1.730772e+05 -1.200000e+05
1.383955e+05 1.600380e+05 -1.398404e+05
1.648042e+05 1.960784e+05 -1.402814e+05
-3.000000e+05 -5.093170e-11 -1.200000e+05
-3.110875e+05 1.192804e-02 -1.600000e+05
-2.814500e+05 -1.739128e+04 -1.600000e+05
1.559545e+05 1.373600e+05 -1.400186e+05
1.528514e+05 1.497919e+05 -1.200000e+05
1.568241e+05 1.584895e+05 -1.600000e+05
-3.000000e+05 -6.666667e+04 -1.200000e+05
3.328461e+05 3.547582e+05 -6.956725e+04
3.321074e+05 3.791977e+05 -8.781316e+04
3.509428e+05 4.000000e+05 -7.969849e+04
3.742433e+05 3.740226e+05 -7.349271e+04
-3.478296e+04 4.000000e+05 -7.817791e+04
3.395079e+05 2.446288e+05 -1.384686e+05
3.605980e+05 2.261005e+05 -1.400354e+05
3.348847e+05 2.748623e+05 -1.156342e+05
3.213407e+05 2.628974e+05 -1.403196e+05
2.518124e+05 -3.478260e+04 -1.600000e+05
2.462200e+05 -1.673316e+04 -1.399192e+05
2.221748e+05 -1.739136e+04 -1.600000e+05
2.165925e+05 -3.373259e+04 -1.399323e+05
3.000000e+05 2.666667e+05 -1.200000e+05
3.000000e+05 2.333333e+05 -1.200000e+05
3.790898e+05 2.575510e+05 -8.283999e+04
1.378086e+05 -3.300531e+05 -9.394726e+04
1.500008e+05 -3.000000e+05 -8.494895e+04
-3.398507e+05 -2.967337e+05 -1.600000e+05
-3.214657e+05 -3.004329e+05 -1.399361e+05
-3.108427e+05 -2.803079e+05 -1.600000e+05
-3.401896e+05 -2.799659e+05 -1.405263e+05
-3.405693e+05 -2.612376e+05 -1.600000e+05
-3.207214e+05 -2.624641e+05 -1.395451e+05
-3.424114e+05 -2.451646e+05 -1.404962e+05
-3.345679e+05 -2.767801e+05 -1.151430e+05
1.333333e+05 3.000000e+05 -1.200000e+05
-3.000000e+05 1.799534e+05 -8.476603e+04
1.666667e+05 3.000000e+05 -1.200000e+05
1.166667e+05 3.000000e+05 -8.594133e+04
-4.000000e+05 -1.391305e+05 -7.717884e+04
-3.793674e+05 -9.781272e+04 -8.931605e+04
-4.000000e+05 -1.739131e+05 -7.794583e+04
-4.000000e+05 -1.217392e+05 -1.032681e+05
-4.000000e+05 -2.027767e-01 -7.871336e+04
-3.795222e+05 1.561657e+04 -8.826175e+04
-3.818683e+05 -1.145179e+04 -7.759805e+04
-4.000000e+05 -1.739198e+04 -1.058247e+05
-4.000000e+05 2.782958e+05 -1.313051e+05
-3.834645e+05 2.790485e+05 -1.069083e+05
-4.000000e+05 2.783151e+05 -7.755495e+04
-3.788733e+05 2.944187e+05 -7.462327e+04
-4.000000e+05 2.959312e+05 -1.042499e+05
-8.695749e+04 3.605416e+05 -1.402605e+05
-6.880784e+04 3.346152e+05 -1.397018e+05
-2.812132e+05 -3.313876e+05 -1.122112e+05
-6.666667e+04 3.000000e+05 -1.200000e+05
-6.956520e+04 3.110875e+05 -1.600000e+05
-5.217390e+04 3.407250e+05 -1.600000e+05
-5.189630e+04 3.031002e+05 -1.399985e+05
-8.695652e+04 3.407250e+05 -1.600000e+05
3.806520e+05 1.565247e+05 -1.242003e+05
4.000000e+05 1.391305e+05 -7.903427e+04
-5.187087e+04 3.788163e+05 -7.373221e+04
3.000000e+05 -1.151575e+05 -8.615364e+04
3.218035e+05 -2.851330e+04 -7.091513e+04
-3.000000e+05 -1.121070e+05 -8.624905e+04
-3.000000e+05 -1.462993e+05 -8.638399e+04
-3.703625e+05 1.043478e+05 -1.600000e+05
-4.000000e+05 1.043476e+05 -1.319848e+05
-4.000000e+05 8.695652e+04 -1.600000e+05
-3.626187e+05 9.163888e+04 -1.386559e+05
1.789704e+05 -3.257357e+05 -1.135121e+05
1.548674e+05 -3.200076e+05 -1.082754e+05
1.833576e+05 -3.000000e+05 -8.552419e+04
1.855042e+05 -3.330777e+05 -9.534203e+04
-3.343849e+05 1.838592e+05 -9.226214e+04
1.333333e+05 -3.000000e+05 -1.200000e+05
1.666667e+05 -3.000000e+05 -1.200000e+05
4.999999e+04 2.703625e+05 -1.200000e+05
6.666840e+04 2.407232e+05 -1.200000e+05
3.333347e+04 2.407248e+05 -1.200000e+05
5.079661e+04 2.462531e+05 -1.399138e+05
3.000000e+05 1.851968e+05 -8.521268e+04
3.000000e+05 2.000000e+05 -1.200000e+05
-2.608696e+05 -4.000000e+05 -1.600000e+05
-2.434807e+05 -4.000000e+05 -1.311432e+05
-2.260870e+05 -4.000000e+05 -1.600000e+05
-2.435096e+05 -3.703184e+05 -1.600000e+05
1.217392e+05 -4.000000e+05 -1.062233e+05
-2.814449e+05 -1.217456e+05 -1.600000e+05
-2.779998e+05 -1.347972e+05 -1.397825e+05
-2.968825e+05 -1.178670e+05 -1.399076e+05
-2.938670e+05 -1.464668e+05 -1.399023e+05
-3.000000e+05 -1.333333e+05 -1.200000e+05
-2.703649e+05 -1.500139e+05 -1.200000e+05
-3.110856e+05 -1.391325e+05 -1.600000e+05
-3.208730e+05 -1.227093e+05 -1.400212e+05
-3.206106e+05 -1.597699e+05 -1.400271e+05
-1.000000e+05 -3.000000e+05 -1.200000e+05
-8.695652e+04 -2.814499e+05 -1.600000e+05
-1.148196e+05 -2.919678e+05 -1.398042e+05
4.000000e+05 3.509428e+05 -1.310687e+05
4.000000e+05 3.316993e+05 -1.054445e+05
4.000000e+05 3.670477e+05 -1.055167e+05
-1.332277e+05 -3.262096e+05 -1.400374e+05
-1.333333e+05 -3.000000e+05 -1.200000e+05
-1.349793e+05 -2.764787e+05 -1.398236e+05
-1.166808e+05 -2.703492e+05 -1.200000e+05
-1.011441e+05 -2.661435e+05 -1.398206e+05
-3.109511e+05 -2.089044e+05 -1.600000e+05
-3.208275e+05 -1.921025e+05 -1.399165e+05
-3.424279e+05 -2.105655e+05 -1.405212e+05
-3.640691e+05 -2.261194e+05 -1.404478e+05
-3.596839e+05 -1.887405e+05 -1.402606e+05
-3.000000e+05 4.478934e+04 -8.633710e+04
1.565220e+05 -4.000000e+05 -1.067846e+05
-3.407250e+05 8.695652e+04 -1.600000e+05
-3.110875e+05 6.956524e+04 -1.600000e+05
-3.236437e+05 9.576987e+04 -1.400476e+05
-3.208773e+05 5.862538e+04 -1.055531e+05
4.000000e+05 1.391305e+05 -1.328014e+05
3.649783e+05 1.166043e+05 -1.412545e+05
3.320684e+05 1.216406e+05 -9.509925e+04
3.761856e+05 1.207396e+05 -8.905245e+04
2.918287e+05 -2.482086e+05 -1.405098e+05
2.649006e+05 -2.316417e+05 -1.393965e+05
2.419981e+05 -2.256010e+05 -1.393260e+05
2.693427e+05 -2.180746e+05 -1.200000e+05
2.697013e+05 -2.542380e+05 -1.200000e+05
-3.703625e+05 -1.192804e-02 -1.600000e+05
3.719367e+05 3.428236e+05 -1.600000e+05
3.526018e+05 3.688846e+05 -1.600000e+05
-1.453140e+05 2.944212e+05 -1.399794e+05
-1.739129e+05 3.110819e+05 -1.600000e+05
-1.573696e+05 3.208682e+05 -1.400225e+05
1.736292e+04 -1.629066e+05 -1.600000e+05
2.956429e+02 -1.573618e+05 -1.399566e+05
3.384210e+04 -1.572355e+05 -1.399872e+05
1.022084e+02 -1.220817e+05 -1.200000e+05
-1.717635e+04 -1.253253e+05 -1.399742e+05
-3.622546e+01 -1.332802e+05 -1.600000e+05
-5.000001e+04 3.000000e+05 -8.527154e+04
-1.666668e+04 3.000000e+05 -8.462542e+04
-4.693312e+04 3.734679e+05 -1.146130e+05
3.355435e+04 -3.437520e+05 -7.265180e+04
6.956517e+04 4.000000e+05 -1.321036e+05
5.130348e+04 3.663692e+05 -1.393608e+05
5.217390e+04 4.000000e+05 -1.050182e+05
6.503006e+04 3.417157e+05 -1.369920e+05
8.694464e+04 3.607207e+05 -1.416411e+05
-1.814376e+05 -3.334157e+04 -1.200000e+05
-2.221749e+05 -5.217402e+04 -1.600000e+05
-2.155883e+05 -6.843041e+04 -1.399035e+05
-1.925180e+05 -6.955861e+04 -1.600000e+05
-1.869745e+05 -8.471857e+04 -1.400256e+05
-1.813716e+05 -6.669677e+04 -1.200000e+05
1.016210e+05 -3.731118e+05 -9.626511e+04
1.072227e+05 -3.526309e+05 -1.147972e+05
5.160030e+04 -9.139062e+04 -1.200000e+05
6.863967e+04 -1.207882e+05 -1.200000e+05
5.105232e+04 -1.276860e+05 -1.401960e+05
7.036249e+04 -9.714856e+04 -1.412842e+05
4.785427e+04 -3.772454e+05 -8.579071e+04
6.993860e+04 -3.746274e+05 -1.061820e+05
6.956529e+04 -4.000000e+05 -7.847716e+04
5.217390e+04 -4.000000e+05 -1.061781e+05
6.956529e+04 -4.000000e+05 -1.322845e+05
5.168834e+04 -3.640841e+05 -1.400186e+05
8.695664e+04 -4.000000e+05 -1.053276e+05
-1.763630e+05 -1.732116e+05 -1.200000e+05
-1.691097e+05 -1.928592e+05 -1.600000e+05
-1.811701e+05 -1.560203e+05 -1.399972e+05
-1.552392e+05 -1.825193e+05 -1.399979e+05
-1.523660e+05 -2.091061e+05 -1.200000e+05
-1.562734e+05 -2.215042e+05 -1.600000e+05
-1.360395e+05 -1.792106e+05 -1.200000e+05
-1.189578e+05 -1.883279e+05 -1.405387e+05
-1.356222e+05 -2.179468e+05 -1.405460e+05
-1.393179e+05 -1.918391e+05 -1.600000e+05
4.000000e+05 -1.739130e+05 -1.320845e+05
3.640740e+05 -1.565213e+05 -1.403540e+05
3.703621e+05 -1.739132e+05 -1.600000e+05
-1.724454e+05 3.336411e+05 -1.166717e+05
-1.774976e+05 3.684179e+05 -1.092663e+05
-1.565222e+05 3.668790e+05 -1.401480e+05
-1.565218e+05 3.407247e+05 -1.600000e+05
-1.739133e+05 3.703618e+05 -1.600000e+05
-1.410217e+05 3.371165e+05 -1.403859e+05
-9.192663e+04 5.014923e+04 -1.200000e+05
-7.139512e+04 4.946100e+04 -1.403891e+05
-9.443885e+04 3.503965e+04 -1.395215e+05
-8.904520e+04 6.957604e+04 -1.392166e+05
-1.218000e+05 6.745772e+04 -1.200000e+05
-1.199218e+05 5.192716e+04 -1.395444e+05
-1.109634e+05 8.039641e+04 -1.410091e+05
3.509511e+05 4.000000e+05 -1.311244e+05
3.316994e+05 4.000000e+05 -1.054845e+05
3.134791e+05 4.000000e+05 -1.317649e+05
-8.877742e+04 8.763318e+04 -1.200000e+05
-6.533920e+04 6.458943e+04 -1.200000e+05
-3.171582e+05 -1.608526e+05 -1.008836e+05
-3.000000e+05 -1.666667e+05 -1.200000e+05
-3.338558e+05 -1.411832e+05 -1.145515e+05
8.468750e+03 3.543639e+04 -1.200000e+05
4.205451e+04 3.617214e+04 -1.425643e+05
3.264709e+04 1.695932e+04 -1.200000e+05
1.740294e+04 2.121157e+04 -1.394121e+05
-1.391304e+05 -3.110875e+05 -1.600000e+05
-1.739094e+05 -3.110849e+05 -1.600000e+05
-1.578414e+05 -3.208279e+05 -1.400320e+05
-1.446404e+05 -2.924735e+05 -1.399229e+05
-1.217394e+05 -2.814482e+05 -1.600000e+05
-1.565222e+05 -2.814260e+05 -1.600000e+05
-1.500448e+05 -2.703275e+05 -1.200000e+05
3.633380e+05 5.302257e+04 -1.405728e+05
3.324275e+05 6.572864e+04 -1.296429e+05
3.604873e+05 8.695647e+04 -1.400467e+05
3.473599e+05 7.863816e+04 -1.198373e+05
3.338792e+05 8.512209e+04 -9.855829e+04
3.297644e+05 1.110289e+05 -1.128855e+05
3.643912e+05 1.086737e+05 -1.110874e+05
4.000000e+05 -1.913043e+05 -1.600000e+05
3.703601e+05 -2.086965e+05 -1.600000e+05
3.672303e+05 8.348363e+04 -9.746482e+04
3.668260e+05 -2.972841e+05 -1.093392e+05
3.759737e+05 -2.767526e+05 -1.055827e+05
4.000000e+05 -2.783180e+05 -1.311186e+05
3.698739e+05 -2.471339e+05 -1.082473e+05
3.797998e+05 -2.553273e+05 -8.438078e+04
4.000000e+05 -2.783180e+05 -7.728612e+04
4.000000e+05 -2.609001e+05 -1.034278e+05
1.002772e+05 3.221157e+05 -7.202508e+04
8.333333e+04 3.000000e+05 -8.577214e+04
-1.922983e+05 -1.397001e+05 -1.600000e+05
-1.587543e+05 -1.352331e+05 -1.406738e+05
-1.883121e+05 -1.184571e+05 -1.401343e+05
-1.802810e+05 -1.343912e+05 -1.200000e+05
-1.519922e+05 -1.509251e+05 -1.200000e+05
-1.595968e+05 -1.598440e+05 -1.600000e+05
-1.931753e+05 -1.759999e+05 -1.600000e+05
-2.222304e+05 -1.569998e+05 -1.600000e+05
-2.106128e+05 -1.509372e+05 -1.200000e+05
2.145510e+04 4.243969e+04 -1.600000e+05
4.640342e+04 1.812701e+04 -1.600000e+05
2.435803e+05 -3.354137e+05 -1.186729e+05
2.250794e+05 -3.613160e+05 -1.400821e+05
2.058023e+05 -3.348646e+05 -1.155410e+05
2.273145e+05 -3.207104e+05 -1.397463e+05
2.454370e+05 -3.749044e+05 -1.105666e+05
2.261778e+05 -3.406891e+05 -1.600000e+05
2.442743e+05 -3.108737e+05 -1.600000e+05
2.435234e+05 -3.703245e+05 -1.600000e+05
1.500457e+05 2.703277e+05 -1.200000e+05
1.355255e+05 2.708678e+05 -1.398461e+05
1.458072e+05 2.922611e+05 -1.398894e+05
1.217520e+05 2.814458e+05 -1.600000e+05
1.565527e+05 2.814421e+05 -1.600000e+05
1.391305e+05 3.110875e+05 -1.600000e+05
1.739154e+05 3.110871e+05 -1.600000e+05
1.660193e+05 3.241916e+05 -1.400526e+05
1.775559e+05 2.908501e+05 -1.399767e+05
6.956522e+04 3.110875e+05 -1.600000e+05
6.787652e+04 2.774453e+05 -1.398604e+05
8.724172e+04 3.031236e+05 -1.384694e+05
5.187927e+04 3.039195e+05 -1.400050e+05
6.666667e+04 3.000000e+05 -1.200000e+05
5.217392e+04 3.407250e+05 -1.600000e+05
3.478263e+04 3.110875e+05 -1.600000e+05
-2.261061e+05 -3.406227e+05 -1.600000e+05
-2.431996e+05 -3.104967e+05 -1.600000e+05
-2.439786e+05 -3.417788e+05 -1.397899e+05
-2.428027e+05 -3.344249e+05 -1.152479e+05
-2.098541e+05 -3.354284e+05 -1.152870e+05
-2.623455e+05 -3.612773e+05 -1.345004e+05
-2.611384e+05 -3.400137e+05 -1.600000e+05
-3.000000e+05 -7.843103e+04 -8.654803e+04
-3.000000e+05 -1.000000e+05 -1.200000e+05
-1.925405e+05 -3.477592e+04 -1.600000e+05
-1.869872e+05 -1.671972e+04 -1.399526e+05
-2.158386e+05 -3.392090e+04 -1.399560e+05
-1.332057e+05 -6.836555e+04 -1.600000e+05
-1.624168e+05 -8.687137e+04 -1.600000e+05
3.000000e+05 -1.000000e+05 -1.200000e+05
2.694012e+05 -1.023539e+05 -1.398935e+05
2.814494e+05 -8.695656e+04 -1.600000e+05
2.936084e+05 -1.163713e+05 -1.398175e+05
2.814458e+05 -1.217394e+05 -1.600000e+05
3.110875e+05 -1.043478e+05 -1.600000e+05
3.110867e+05 -1.391294e+05 -1.600000e+05
3.253676e+05 -1.330379e+05 -1.400343e+05
3.170332e+05 -9.133788e+04 -1.400328e+05
3.333304e+05 -2.414606e+05 -1.154671e+05
3.110097e+05 -2.086514e+05 -1.600000e+05
3.703269e+05 -2.434956e+05 -1.600000e+05
3.102560e+05 -2.432305e+05 -1.600000e+05
-3.604937e+05 -1.217390e+05 -1.400556e+05
-3.395418e+05 -1.406731e+05 -1.403124e+05
-3.703625e+05 -1.391304e+05 -1.600000e+05
-3.607282e+05 -1.565255e+05 -1.411091e+05
-3.407241e+05 -1.565230e+05 -1.600000e+05
-3.407250e+05 -1.217391e+05 -1.600000e+05
3.701588e+05 3.127960e+05 -1.600000e+05
1.666666e+04 2.703625e+05 -1.200000e+05
1.670244e+04 2.462387e+05 -1.399300e+05
-5.559926e+01 2.749514e+05 -1.399050e+05
3.377556e+04 2.758920e+05 -1.399299e+05
-3.333351e+04 2.407249e+05 -1.200000e+05
-3.377766e+04 2.166174e+05 -1.399330e+05
-5.127530e+04 2.447040e+05 -1.399631e+05
-1.670624e+04 2.462545e+05 -1.399299e+05
-1.739128e+04 2.814500e+05 -1.600000e+05
-3.394123e+04 2.750869e+05 -1.399524e+05
-3.478258e+04 2.518125e+05 -1.600000e+05
4.000000e+05 -2.086956e+05 -1.317700e+05
3.652679e+05 -1.794155e+05 -1.063712e+05
-3.356069e+05 -2.626407e+05 -9.520114e+04
-1.219143e+05 -3.357408e+04 -1.200000e+05
-1.001930e+05 -3.405448e+04 -1.399926e+05
-1.268239e+05 -1.685276e+04 -1.399696e+05
-1.217393e+05 3.605889e+05 -1.400385e+05
-1.629072e+05 -1.735068e+04 -1.600000e+05
-1.333073e+05 -3.451196e+04 -1.600000e+05
-3.703381e+05 -2.435071e+05 -1.600000e+05
-3.407012e+05 -2.261537e+05 -1.600000e+05
-1.037935e+05 -5.127958e+04 -1.600000e+05
1.166778e+05 2.703522e+05 -1.200000e+05
1.003706e+05 2.734262e+05 -1.397327e+05
1.070490e+05 2.930957e+05 -1.400079e+05
8.695819e+04 2.814494e+05 -1.600000e+05
-3.335003e+05 -3.106063e+05 -1.154569e+05
-3.124309e+05 -3.118739e+05 -1.600000e+05
-2.965757e+05 -3.394874e+05 -1.600000e+05
-3.354907e+05 -3.359360e+05 -1.600000e+05
-3.140624e+05 -3.698019e+05 -1.600000e+05
-2.963608e+05 -3.598418e+05 -1.394305e+05
-3.478260e+04 3.703625e+05 -1.600000e+05
-5.217272e+04 3.605434e+05 -1.403195e+05
-3.333333e+04 3.000000e+05 -1.200000e+05
1.192804e-02 3.110875e+05 -1.600000e+05
6.214636e+04 -1.639100e+03 -1.200000e+05
6.995385e+04 -1.823326e+04 -1.402755e+05
6.127903e+04 1.706260e+04 -1.403870e+05
9.808363e+04 -3.534781e+02 -1.399903e+05
9.244576e+04 1.669520e+04 -1.200000e+05
1.037236e+05 -1.735972e+04 -1.600000e+05
9.664463e+04 -3.422826e+04 -1.398569e+05
3.000000e+05 -6.666667e+04 -1.200000e+05
2.928172e+05 -1.450631e+05 -1.399170e+05
3.110797e+05 -1.739050e+05 -1.600000e+05
3.222832e+05 -1.604083e+05 -1.400343e+05
2.814174e+05 -1.565165e+05 -1.600000e+05
2.774246e+05 -1.349855e+05 -1.398530e+05
1.043479e+05 -4.000000e+05 -7.840173e+04
5.183332e+04 -3.347063e+05 -9.279362e+04
-2.086955e+05 -4.000000e+05 -7.805483e+04
-2.248782e+05 -3.782106e+05 -7.589593e+04
-4.000000e+05 -4.000000e+05 -8.686567e+04
-2.009816e+05 -3.464930e+05 -7.144624e+04
-1.915924e+05 -3.795248e+05 -8.557627e+04
-2.145431e+05 -3.695736e+05 -1.082642e+05
-2.220482e+05 -3.332687e+05 -9.320983e+04
-2.525516e+05 -3.659789e+05 -1.076212e+05
-3.587594e+05 3.349232e+05 -1.384193e+05
-3.315354e+05 3.532353e+05 -7.215347e+04
-3.308305e+05 3.784087e+05 -8.316636e+04
-3.105892e+05 3.334987e+05 -1.154561e+05
-3.313839e+05 3.315026e+05 -8.755076e+04
-2.517651e+05 1.741627e+05 -1.600000e+05
-2.618863e+05 1.644128e+05 -1.398514e+05
-2.375078e+05 1.476872e+05 -1.399754e+05
-2.411994e+05 1.831147e+05 -1.398638e+05
-2.701484e+05 1.835158e+05 -1.200000e+05
-2.404833e+05 1.673068e+05 -1.200000e+05
-2.109893e+05 1.866002e+05 -1.200000e+05
-2.166251e+05 1.718765e+05 -1.398789e+05
-2.601500e+05 1.992778e+05 -1.398654e+05
-2.399748e+05 2.010120e+05 -1.200000e+05
1.916432e+05 -1.392421e+05 -1.600000e+05
2.075322e+05 -1.302734e+05 -1.399894e+05
1.812728e+05 -1.529496e+05 -1.420369e+05
2.094076e+05 -1.619771e+05 -1.404929e+05
2.165043e+05 -1.923956e+05 -1.600000e+05
1.945796e+05 -1.983360e+05 -1.407306e+05
2.290721e+05 -1.786306e+05 -1.369260e+05
2.212762e+05 -1.562696e+05 -1.600000e+05
1.927373e+05 -1.691461e+05 -1.600000e+05
-5.217390e+04 -3.407250e+05 -1.600000e+05
-3.478260e+04 -3.110875e+05 -1.600000e+05
-3.333333e+04 -3.000000e+05 -1.200000e+05
-4.800926e+04 -3.673198e+05 -1.137197e+05
1.192804e-02 -3.110875e+05 -1.600000e+05
-2.962112e+05 3.397541e+05 -1.600000e+05
-3.341158e+05 3.373122e+05 -1.600000e+05
-3.121527e+05 3.121569e+05 -1.600000e+05
1.922879e+05 -1.044634e+05 -1.600000e+05
2.406854e+05 -1.334049e+05 -1.200000e+05
2.109495e+05 -1.168178e+05 -1.200000e+05
2.406558e+05 -1.181428e+05 -1.398843e+05
2.219479e+05 -1.217616e+05 -1.600000e+05
2.173895e+05 -1.003515e+05 -1.398392e+05
1.217405e+05 -2.814492e+05 -1.600000e+05
1.006027e+05 -2.716673e+05 -1.397673e+05
8.695666e+04 -2.814499e+05 -1.600000e+05
1.070492e+05 -2.930983e+05 -1.400171e+05
1.043478e+05 -3.110875e+05 -1.600000e+05
1.391320e+05 -3.110860e+05 -1.600000e+05
8.713215e+04 -3.019888e+05 -1.400074e+05
1.031663e+05 -3.278569e+05 -1.373041e+05
1.000000e+05 -3.000000e+05 -1.200000e+05
-1.517811e+05 -1.669035e+04 -1.200000e+05
-9.238812e+04 -1.714012e+04 -1.200000e+05
-6.855573e+04 -1.827462e+04 -1.398051e+05
-9.907758e+04 -2.661547e+02 -1.399219e+05
3.217602e+05 -1.252938e+05 -1.023957e+05
3.338387e+05 -1.411726e+05 -1.149348e+05
3.300679e+05 -1.566286e+05 -9.413599e+04
3.465893e+05 -1.313896e+05 -7.293019e+04
3.652174e+05 -4.000000e+05 -1.600000e+05
3.440063e+05 -3.707550e+05 -1.600000e+05
3.000000e+05 -1.333333e+05 -1.200000e+05
4.000000e+05 -4.000000e+05 -1.234328e+05
3.316993e+05 -4.000000e+05 -1.054445e+05
3.670477e+05 -4.000000e+05 -1.055167e+05
-3.000000e+05 6.666667e+04 -1.200000e+05
2.518105e+05 -6.956572e+04 -1.600000e+05
2.221713e+05 -5.217555e+04 -1.600000e+05
2.450687e+05 -5.130665e+04 -1.399224e+05
2.564221e+05 -3.797787e+05 -8.194899e+04
2.724065e+05 -3.431001e+05 -7.232648e+04
2.955031e+05 -3.776866e+05 -7.995417e+04
2.612950e+05 3.405339e+05 -1.600000e+05
2.620235e+05 3.208133e+05 -1.393194e+05
2.802570e+05 3.108928e+05 -1.600000e+05
2.796220e+05 3.422785e+05 -1.398051e+05
1.925326e+05 -3.478642e+04 -1.600000e+05
-8.357612e+04 1.508238e+05 -1.200000e+05
-7.173233e+04 1.321960e+05 -1.600000e+05
-1.058482e+05 1.528594e+05 -1.394845e+05
-5.015165e+04 1.515618e+05 -1.200000e+05
-3.405481e+04 1.564252e+05 -1.399410e+05
-5.342252e+04 1.229470e+05 -1.390505e+05
-6.755128e+04 1.208632e+05 -1.200000e+05
-2.083727e+05 -1.338491e+05 -1.399894e+05
-1.924883e+05 -1.043795e+05 -1.600000e+05
-2.167768e+05 -1.003350e+05 -1.398442e+05
-2.221668e+05 -1.217954e+05 -1.600000e+05
-2.308677e+05 -1.491884e+05 -1.399808e+05
1.744974e+05 2.516749e+05 -1.600000e+05
1.831020e+05 2.306058e+05 -1.399811e+05
1.634202e+05 2.608085e+05 -1.398787e+05
1.523557e+05 2.430223e+05 -1.398978e+05
1.394002e+05 2.517162e+05 -1.600000e+05
1.589429e+05 2.210842e+05 -1.600000e+05
1.223686e+05 2.219665e+05 -1.600000e+05
1.363281e+05 2.078432e+05 -1.405686e+05
1.523936e+05 2.090487e+05 -1.200000e+05
3.519776e+04 -3.294414e+05 -1.396217e+05
6.956522e+04 -3.110875e+05 -1.600000e+05
5.217392e+04 -3.407250e+05 -1.600000e+05
6.666667e+04 -3.000000e+05 -1.200000e+05
3.478263e+04 -3.110875e+05 -1.600000e+05
-1.912490e+05 -2.813817e+05 -1.600000e+05
-1.773135e+05 -2.908704e+05 -1.400535e+05
-1.391340e+05 -2.517156e+05 -1.600000e+05
4.719253e+04 -3.671413e+05 -1.116071e+05
6.956522e+04 -3.703625e+05 -1.600000e+05
-2.814498e+05 -8.695673e+04 -1.600000e+05
-3.110872e+05 -1.043481e+05 -1.600000e+05
-2.719218e+05 -1.021961e+05 -1.398870e+05
1.242748e+05 -3.794183e+05 -7.298319e+04
1.391305e+05 -4.000000e+05 -7.903427e+04
-3.110874e+05 1.043480e+05 -1.600000e+05
-2.703563e+05 1.166779e+05 -1.200000e+05
-2.678790e+05 1.020130e+05 -1.398671e+05
-2.406206e+05 1.335584e+05 -1.200000e+05
-2.101464e+05 1.519899e+05 -1.200000e+05
-2.170855e+05 1.363632e+05 -1.401534e+05
-2.220895e+05 1.218949e+05 -1.600000e+05
-2.477723e+05 1.181769e+05 -1.398887e+05
-2.518023e+05 1.391701e+05 -1.600000e+05
1.012240e+05 2.184427e+05 -1.399645e+05
1.192337e+05 1.875420e+05 -1.406352e+05
1.047875e+05 1.924840e+05 -1.600000e+05
8.461584e+04 1.849023e+05 -1.401030e+05
1.048355e+05 1.528183e+05 -1.386181e+05
1.361063e+05 1.784566e+05 -1.200000e+05
1.415407e+05 1.913071e+05 -1.600000e+05
-1.749984e+05 -3.339028e+05 -1.150484e+05
-1.423746e+05 -3.285280e+05 -1.097638e+05
-1.565213e+05 -3.607426e+05 -1.401173e+05
1.814363e+05 -3.333667e+04 -1.200000e+05
1.869222e+05 -5.080035e+04 -1.399259e+05
-1.043478e+05 -3.703625e+05 -1.600000e+05
-6.956522e+04 -3.703625e+05 -1.600000e+05
-9.009250e+04 -3.587538e+05 -1.404526e+05
-1.760311e+05 -3.388950e+05 -1.406830e+05
3.806211e+05 -8.646493e+04 -1.270158e+05
3.110875e+05 -3.478260e+04 -1.600000e+05
4.000000e+05 2.783165e+05 -1.311048e+05
3.693498e+05 2.911410e+05 -1.109857e+05
3.827090e+05 2.786389e+05 -1.030324e+05
1.739133e+05 -4.000000e+05 -7.904660e+04
3.797961e+05 2.953003e+05 -7.972390e+04
4.000000e+05 2.783246e+05 -7.733975e+04
4.000000e+05 2.609149e+05 -1.036656e+05
4.000000e+05 2.959339e+05 -1.039968e+05
-1.475525e+05 -3.760184e+05 -1.154762e+05
-1.494092e+05 -3.795865e+05 -8.794903e+04
-1.205974e+05 -3.781942e+05 -8.778620e+04
-1.272403e+05 -3.394691e+05 -8.289008e+04
-1.166667e+05 -3.000000e+05 -8.486722e+04
-1.522466e+05 -3.342582e+05 -9.218206e+04
2.407248e+05 -6.666691e+04 -1.200000e+05
2.110844e+05 -5.000166e+04 -1.200000e+05
2.167233e+05 -6.787229e+04 -1.399022e+05
-1.075352e+05 -3.337720e+05 -1.145312e+05
-1.040281e+05 -3.412949e+05 -7.251951e+04
-1.500008e+05 -3.000000e+05 -8.550857e+04
-1.138358e+05 -3.661456e+05 -1.108371e+05
2.703625e+05 -8.333335e+04 -1.200000e+05
2.407224e+05 -1.000042e+05 -1.200000e+05
2.483006e+05 -8.412833e+04 -1.398165e+05
-3.457974e+05 1.644348e+05 -7.297314e+04
2.110407e+05 -8.336437e+04 -1.200000e+05
-3.339250e+05 1.750176e+05 -1.154436e+05
-3.720502e+05 1.798790e+05 -1.124559e+05
-3.782455e+05 1.533375e+05 -8.211592e+04
-3.307037e+05 2.069744e+05 -1.164931e+05
-3.207547e+05 1.928169e+05 -1.399631e+05
-2.221618e+05 8.697324e+04 -1.600000e+05
-1.924379e+05 1.045367e+05 -1.600000e+05
-2.157303e+05 1.025390e+05 -1.399730e+05
4.000000e+05 3.478241e+04 -1.327142e+05
4.000000e+05 -2.504888e-01 -1.321380e+05
-3.407167e+05 1.913189e+05 -1.600000e+05
-3.109527e+05 2.089091e+05 -1.600000e+05
-2.407242e+05 6.666859e+04 -1.200000e+05
-2.110626e+05 8.340592e+04 -1.200000e+05
-2.172681e+05 6.773725e+04 -1.398721e+05
-2.467052e+05 8.605956e+04 -1.399722e+05
3.000000e+05 -1.361245e+04 -8.487859e+04
-2.568158e+05 -3.789032e+05 -8.073504e+04
-2.966375e+05 -3.758289e+05 -8.203806e+04
-2.788963e+05 -3.816623e+05 -1.030636e+05
-2.783180e+05 -4.000000e+05 -7.728612e+04
1.565577e+05 -2.814212e+05 -1.600000e+05
1.552338e+05 -3.006657e+05 -1.399947e+05
1.739522e+05 -3.110541e+05 -1.600000e+05
1.785667e+05 -2.892553e+05 -1.397469e+05
1.936112e+05 -3.213701e+05 -1.399438e+05
1.913043e+05 -4.000000e+05 -1.600000e+05
1.913053e+05 -4.000000e+05 -1.060104e+05
2.086961e+05 -4.000000e+05 -1.319480e+05
2.115692e+05 -3.653898e+05 -1.079928e+05
3.106016e+05 -3.334848e+05 -1.151473e+05
2.783165e+05 -4.000000e+05 -1.311048e+05
2.775508e+05 -3.790134e+05 -9.976103e+04
-2.518121e+05 6.956560e+04 -1.600000e+05
-2.446789e+05 5.127899e+04 -1.399559e+05
-2.221742e+05 5.217469e+04 -1.600000e+05
2.783246e+05 -4.000000e+05 -7.733975e+04
2.959339e+05 -4.000000e+05 -1.039968e+05
-2.518101e+05 -1.043543e+05 -1.600000e+05
-2.488283e+05 -8.395441e+04 -1.397999e+05
-2.395634e+05 -1.174539e+05 -1.398127e+05
-2.517962e+05 -1.391836e+05 -1.600000e+05
-8.708920e+04 -1.629752e+05 -1.600000e+05
-1.029619e+05 -1.578479e+05 -1.403412e+05
-6.821240e+04 -1.572346e+05 -1.399937e+05
-1.052032e+05 -1.341138e+05 -1.600000e+05
-1.225458e+05 -1.279463e+05 -1.418791e+05
-1.034946e+05 -1.220249e+05 -1.200000e+05
-1.666667e+05 -3.000000e+05 -1.200000e+05
-2.130964e+05 -2.905062e+05 -1.400858e+05
1.040052e+05 -1.288223e+05 -1.600000e+05
1.334267e+05 -1.055185e+05 -1.600000e+05
1.051372e+05 -1.027057e+05 -1.406292e+05
8.988977e+04 -8.665093e+04 -1.200000e+05
9.887339e+04 -7.062385e+04 -1.403989e+05
8.507611e+04 -1.257450e+05 -1.395554e+05
7.967893e+04 -1.060753e+05 -1.600000e+05
1.227092e+05 -9.572852e+04 -1.200000e+05
8.343755e+04 -2.109982e+05 -1.200000e+05
8.376985e+04 -2.493856e+05 -1.397850e+05
6.782659e+04 -2.165674e+05 -1.399703e+05
1.020965e+05 -2.163452e+05 -1.399969e+05
1.007066e+05 -1.809955e+05 -1.200000e+05
8.511504e+04 -1.867807e+05 -1.400228e+05
1.186761e+05 -1.888821e+05 -1.407126e+05
8.695935e+04 -2.221764e+05 -1.600000e+05
3.000000e+05 -1.487536e+05 -8.601377e+04
3.800467e+05 -1.560897e+05 -8.452249e+04
3.734995e+05 -1.505242e+05 -1.151869e+05
2.088927e+05 -3.109439e+05 -1.600000e+05
2.164310e+05 -2.904905e+05 -1.396424e+05
1.916295e+05 -2.811636e+05 -1.600000e+05
2.777433e+05 -6.925701e+04 -1.398466e+05
2.517970e+05 -1.043510e+05 -1.600000e+05
4.000000e+05 2.434858e+05 -1.312378e+05
4.000000e+05 2.260870e+05 -1.600000e+05
4.000000e+05 2.086961e+05 -1.319480e+05
3.703603e+05 2.086965e+05 -1.600000e+05
-2.518070e+05 1.043574e+05 -1.600000e+05
3.407249e+05 -1.217391e+05 -1.600000e+05
3.604589e+05 -1.241571e+05 -1.397029e+05
3.407246e+05 -1.565217e+05 -1.600000e+05
4.000000e+05 -1.391308e+05 -1.322162e+05
4.000000e+05 -1.043482e+05 -1.328287e+05
4.000000e+05 -1.217391e+05 -1.600000e+05
3.703625e+05 -1.043478e+05 -1.600000e+05
3.703625e+05 -1.391304e+05 -1.600000e+05
4.000000e+05 -8.695671e+04 -1.067450e+05
-1.000467e+05 -2.406795e+05 -1.200000e+05
-1.025559e+05 -2.155834e+05 -1.400063e+05
-8.414038e+04 -2.482902e+05 -1.398410e+05
-1.176935e+05 -2.487175e+05 -1.398788e+05
-6.667287e+04 -2.407189e+05 -1.200000e+05
-5.144003e+04 -2.442005e+05 -1.399632e+05
-6.860110e+04 -2.792680e+05 -1.399624e+05
-8.341826e+04 -2.110141e+05 -1.200000e+05
-6.783122e+04 -2.166020e+05 -1.399425e+05
-6.956584e+04 -2.518116e+05 -1.600000e+05
-6.285728e+04 -3.509895e+04 -1.200000e+05
-4.101198e+04 -3.632351e+04 -1.411859e+05
-6.288476e+04 -5.152804e+04 -1.399408e+05
-1.035934e+05 -1.722537e+04 -1.600000e+05
-7.398682e+04 -3.493008e+04 -1.600000e+05
-6.292726e+04 -1.784473e+03 -1.200000e+05
-6.375051e+04 1.658955e+04 -1.398838e+05
2.000000e+05 -3.000000e+05 -1.200000e+05
2.161549e+05 -2.705073e+05 -1.200000e+05
-4.000000e+05 2.434821e+05 -1.320284e+05
-4.000000e+05 2.260870e+05 -1.600000e+05
-4.000000e+05 2.086959e+05 -1.328769e+05
-3.703461e+05 2.435047e+05 -1.600000e+05
-3.703611e+05 2.086986e+05 -1.600000e+05
-4.000000e+05 8.695630e+04 -1.055370e+05
-4.000000e+05 6.956517e+04 -7.816712e+04
-4.000000e+05 1.043476e+05 -7.826269e+04
-4.000000e+05 5.217390e+04 -1.050182e+05
-6.843540e+04 6.953103e+04 -1.600000e+05
-1.018147e+05 5.435733e+04 -1.600000e+05
-5.082839e+04 6.988663e+04 -1.388625e+05
-2.558300e+05 -2.821792e+05 -1.600000e+05
-2.609204e+05 -2.654776e+05 -1.398602e+05
-2.463007e+05 -2.911000e+05 -1.401683e+05
-1.220367e+05 1.034523e+05 -1.200000e+05
-1.334462e+05 1.073435e+05 -1.600000e+05
-9.631025e+04 9.645706e+04 -1.600000e+05
-1.539865e+05 1.020376e+05 -1.398763e+05
-8.075813e+04 9.482414e+04 -1.387032e+05
-2.793058e+05 6.924200e+04 -1.400000e+05
-1.322390e+05 7.171422e+04 -1.600000e+05
-1.517008e+05 8.418717e+04 -1.200000e+05
-9.931092e+04 -6.689743e+04 -1.411645e+05
-1.547381e+05 -1.067886e+05 -1.395637e+05
-1.284618e+05 -1.046147e+05 -1.600000e+05
-1.059930e+05 -7.985265e+04 -1.600000e+05
3.477409e+04 -1.925385e+05 -1.600000e+05
1.671213e+04 -1.869761e+05 -1.399217e+05
5.083222e+04 -1.869607e+05 -1.399585e+05
1.100362e+00 -1.814489e+05 -1.200000e+05
-2.516147e+02 -2.158189e+05 -1.399330e+05
-1.671078e+04 -1.869812e+05 -1.399147e+05
-5.606178e-01 -1.925376e+05 -1.600000e+05
1.669459e+04 -1.517900e+05 -1.200000e+05
1.514999e+05 1.188045e+05 -1.200000e+05
1.813494e+05 1.003411e+05 -1.200000e+05
1.574226e+05 1.042711e+05 -1.397755e+05
2.184642e+05 1.017042e+05 -1.397315e+05
2.110423e+05 1.167651e+05 -1.200000e+05
-1.759729e+05 2.273193e+05 -1.391605e+05
-1.561256e+05 2.216581e+05 -1.600000e+05
-1.519023e+05 2.102000e+05 -1.200000e+05
-1.335489e+05 2.406474e+05 -1.200000e+05
-1.371845e+05 2.151038e+05 -1.402007e+05
2.024984e+05 -3.437759e+05 -7.330090e+04
-2.221749e+05 1.739143e+04 -1.600000e+05
-2.483300e+05 1.669497e+04 -1.398124e+05
-2.158343e+05 2.268126e+02 -1.399415e+05
-2.166293e+05 3.377276e+04 -1.399511e+05
-1.814493e+05 4.204634e-01 -1.200000e+05
-1.861876e+05 1.684687e+04 -1.399586e+05
-2.110873e+05 1.666732e+04 -1.200000e+05
-2.609869e+05 -3.340767e+05 -9.388639e+04
-2.801211e+05 -3.048928e+05 -1.600000e+05
-2.638454e+05 -3.204042e+05 -1.403895e+05
-2.524548e+05 -3.000000e+05 -8.433292e+04
-1.623238e+05 -1.219119e+05 -1.600000e+05
-1.806245e+05 -1.004057e+05 -1.200000e+05
1.043478e+05 3.703625e+05 -1.600000e+05
8.695652e+04 4.000000e+05 -1.600000e+05
6.956522e+04 3.703625e+05 -1.600000e+05
2.609149e+05 -4.000000e+05 -1.036656e+05
-3.792445e+05 3.313321e+05 -8.804911e+04
-4.000000e+05 3.134791e+05 -1.317649e+05
2.721774e+05 2.450764e+05 -1.200000e+05
2.664241e+05 2.627668e+05 -1.397860e+05
3.046895e+05 2.802568e+05 -1.600000e+05
1.736247e+04 1.629098e+05 -1.600000e+05
1.695739e+04 1.854291e+05 -1.399573e+05
2.595303e+02 1.573373e+05 -1.399428e+05
3.382906e+04 1.577449e+05 -1.399140e+05
-1.744749e+04 1.628804e+05 -1.600000e+05
-1.697631e+04 1.277155e+05 -1.399152e+05
1.669189e+04 1.517604e+05 -1.200000e+05
-4.012294e+01 1.220916e+05 -1.200000e+05
1.674606e+04 1.283452e+05 -1.399160e+05
1.673436e+05 2.403391e+05 -1.200000e+05
1.172907e+05 2.472647e+05 -1.398540e+05
3.452532e+04 -7.329691e+04 -1.600000e+05
5.105660e+04 -6.798542e+04 -1.393991e+05
4.898763e+04 -4.662417e+04 -1.600000e+05
3.253538e+04 3.422848e+05 -7.236221e+04
1.634050e+04 -3.806425e+04 -1.600000e+05
2.762531e+04 -2.547388e+04 -1.200000e+05
1.913948e+05 2.814153e+05 -1.600000e+05
1.983537e+05 2.612456e+05 -1.399771e+05
1.336441e+05 2.404580e+05 -1.200000e+05
2.813977e+05 -1.912313e+05 -1.600000e+05
2.624401e+05 -1.597013e+05 -1.398274e+05
2.655373e+05 -2.005861e+05 -1.387536e+05
2.911301e+05 -1.752250e+05 -1.400385e+05
2.811598e+05 -2.256247e+05 -1.600000e+05
2.909641e+05 -2.099791e+05 -1.401423e+05
2.398861e+05 -2.011026e+05 -1.200000e+05
6.736916e+04 1.208690e+05 -1.200000e+05
6.665488e+04 1.021000e+05 -1.412220e+05
8.327290e+04 1.256966e+05 -1.396513e+05
9.614314e+04 1.065745e+05 -1.405160e+05
8.368893e+04 1.504215e+05 -1.200000e+05
5.127927e+04 1.269917e+05 -1.402112e+05
6.831509e+04 1.333790e+05 -1.600000e+05
1.043210e+05 1.292675e+05 -1.600000e+05
7.977710e+04 1.062062e+05 -1.600000e+05
3.000000e+05 1.192570e+05 -8.559800e+04
3.000000e+05 1.333333e+05 -1.200000e+05
3.447210e+05 1.043655e+05 -7.274344e+04
-2.333333e+05 -3.000000e+05 -1.200000e+05
4.000000e+05 2.956522e+05 -1.600000e+05
4.000000e+05 1.565217e+05 -1.600000e+05
3.703625e+05 1.391304e+05 -1.600000e+05
3.703623e+05 1.739131e+05 -1.600000e+05
4.000000e+05 1.217392e+05 -1.062233e+05
4.000000e+05 -6.956510e+04 -1.327924e+05
-7.210375e+04 -7.150398e+04 -1.600000e+05
-4.812357e+04 -4.941392e+04 -1.600000e+05
3.804636e+05 -2.050996e+04 -1.216698e+05
4.000000e+05 -1.739136e+04 -1.051333e+05
1.166779e+05 -2.703510e+05 -1.200000e+05
-1.356537e+05 1.799117e+05 -1.200000e+05
-1.204679e+05 1.920623e+05 -1.401710e+05
-1.541462e+05 1.888600e+05 -1.426130e+05
-1.216507e+05 2.221178e+05 -1.600000e+05
-1.028502e+05 2.150061e+05 -1.400189e+05
-1.170871e+05 2.108796e+05 -1.200000e+05
1.666707e+04 2.110867e+05 -1.200000e+05
3.408394e+04 2.152085e+05 -1.399633e+05
-8.946030e-03 2.407250e+05 -1.200000e+05
-2.799139e+02 2.166247e+05 -1.399302e+05
3.578412e-02 2.518125e+05 -1.600000e+05
1.739164e+04 2.221749e+05 -1.600000e+05
1.781825e+05 3.682656e+05 -1.083302e+05
1.922024e+05 3.294845e+05 -9.454565e+04
1.698310e+05 3.442975e+05 -7.273860e+04
1.879140e+05 3.769531e+05 -8.473147e+04
1.739125e+05 4.000000e+05 -1.328123e+05
1.533871e+05 3.646521e+05 -1.409628e+05
2.985435e+05 3.357891e+05 -9.155292e+04
3.110717e+05 1.739243e+05 -1.600000e+05
3.057636e+05 1.545943e+05 -1.400429e+05
2.814248e+05 1.565668e+05 -1.600000e+05
2.572381e+05 1.594120e+05 -1.397683e+05
2.517037e+05 1.394061e+05 -1.600000e+05
2.705390e+05 1.357716e+05 -1.398571e+05
2.387494e+05 1.191183e+05 -1.398047e+05
2.703623e+05 1.166684e+05 -1.200000e+05
3.000000e+05 -3.000000e+05 -1.200000e+05
-2.814075e+05 -1.565753e+05 -1.600000e+05
-3.110612e+05 -1.739469e+05 -1.600000e+05
-2.908174e+05 -1.774706e+05 -1.399593e+05
-2.624022e+05 -1.596168e+05 -1.398257e+05
-2.703631e+05 -1.166691e+05 -1.200000e+05
-1.666667e+05 3.000000e+05 -1.200000e+05
-1.500190e+05 2.703608e+05 -1.200000e+05
-2.700805e+05 -2.175288e+05 -1.200000e+05
-2.584381e+05 -2.337211e+05 -1.401759e+05
-2.904759e+05 -2.480383e+05 -1.395123e+05
-2.902598e+05 -2.141292e+05 -1.396810e+05
-2.802806e+05 -2.277282e+05 -1.600000e+05
1.517216e+05 -4.998078e+04 -1.200000e+05
1.275633e+05 -5.079034e+04 -1.399039e+05
1.580602e+05 -3.368620e+04 -1.398896e+05
1.577895e+05 -6.759081e+04 -1.399093e+05
1.627648e+05 -8.718804e+04 -1.600000e+05
1.868000e+05 -8.500275e+04 -1.400209e+05
-2.221826e+05 1.569972e+05 -1.600000e+05
-2.814284e+05 1.565558e+05 -1.600000e+05
1.044152e+05 2.517915e+05 -1.600000e+05
8.456998e+04 2.470316e+05 -1.399177e+05
1.000336e+05 2.406924e+05 -1.200000e+05
1.171947e+05 2.105494e+05 -1.200000e+05
-2.172516e+05 2.701469e+05 -1.200000e+05
-2.114346e+05 2.907497e+05 -1.400836e+05
-2.279411e+05 2.583393e+05 -1.382532e+05
-2.481640e+05 2.919798e+05 -1.401764e+05
-2.000000e+05 3.000000e+05 -1.200000e+05
-2.432042e+05 3.104885e+05 -1.600000e+05
2.030401e+05 3.388259e+05 -7.353033e+04
1.833430e+05 3.000000e+05 -8.530628e+04
-2.814500e+05 5.217395e+04 -1.600000e+05
-1.739527e+04 -1.629015e+05 -1.600000e+05
-3.379397e+04 -1.573047e+05 -1.399481e+05
-3.483261e+04 -1.332842e+05 -1.600000e+05
-3.333317e+04 -1.221256e+05 -1.200000e+05
2.407235e+05 1.000059e+05 -1.200000e+05
2.517930e+05 1.044037e+05 -1.600000e+05
2.457394e+05 8.640170e+04 -1.399460e+05
1.659399e+04 4.934761e+03 -1.600000e+05
4.603306e+04 -1.667543e+04 -1.600000e+05
-2.726949e+05 3.438084e+04 -1.399535e+05
4.043325e+04 1.212641e+03 -1.398883e+05
-6.666861e+04 2.407243e+05 -1.200000e+05
-5.000307e+04 2.110865e+05 -1.200000e+05
-6.782190e+04 2.165940e+05 -1.399369e+05
7.446287e+04 5.418908e+01 -1.600000e+05
3.302954e+05 -1.941125e+05 -9.502507e+04
3.778363e+05 -2.237620e+05 -8.502570e+04
-2.814499e+05 8.695668e+04 -1.600000e+05
8.707057e+04 2.221510e+05 -1.600000e+05
6.842132e+04 2.151817e+05 -1.399703e+05
1.006731e+05 1.803065e+05 -1.200000e+05
8.342089e+04 2.109782e+05 -1.200000e+05
4.000000e+05 1.739133e+05 -1.328878e+05
2.405869e+05 -1.669992e+05 -1.200000e+05
-3.507901e+05 4.000000e+05 -7.989941e+04
-3.316365e+05 4.000000e+05 -1.064081e+05
8.695652e+04 3.407250e+05 -1.600000e+05
8.333428e+04 2.703616e+05 -1.200000e+05
1.043478e+05 3.110875e+05 -1.600000e+05
2.434858e+05 -4.000000e+05 -1.312378e+05
2.608696e+05 -4.000000e+05 -1.600000e+05
2.235987e+05 3.787076e+05 -8.493379e+04
-2.407250e+05 8.946029e-03 -1.200000e+05
-2.110875e+05 -1.666666e+04 -1.200000e+05
-2.407250e+05 -3.333334e+04 -1.200000e+05
2.653398e+05 3.272273e+05 -9.475161e+04
8.689578e+04 1.626614e+05 -1.600000e+05
6.678180e+04 1.812203e+05 -1.200000e+05
5.046361e+04 1.927005e+05 -1.398241e+05
1.929111e+05 -2.221270e+05 -1.600000e+05
-3.703625e+05 1.391304e+05 -1.600000e+05
-3.407235e+05 1.565241e+05 -1.600000e+05
-3.703624e+05 1.739134e+05 -1.600000e+05
-3.604870e+05 1.565224e+05 -1.400505e+05
1.864311e+05 -2.104564e+05 -1.200000e+05
2.106795e+05 -2.342957e+05 -1.391754e+05
1.577323e+05 -1.816060e+05 -1.399536e+05
1.217392e+05 3.407250e+05 -1.600000e+05
3.407132e+05 -1.913050e+05 -1.600000e+05
-3.135757e+05 4.000000e+05 -1.326292e+05
-2.985599e+05 3.358776e+05 -9.234103e+04
-2.957747e+05 3.600646e+05 -1.398221e+05
-2.513110e+05 2.094375e+05 -1.600000e+05
-2.257104e+05 2.074062e+05 -1.396472e+05
-2.225858e+05 1.924944e+05 -1.600000e+05
-1.929213e+05 1.764379e+05 -1.600000e+05
-1.831173e+05 1.602679e+05 -1.385522e+05
-1.887029e+05 1.946640e+05 -1.395935e+05
-1.386521e+05 1.923779e+05 -1.600000e+05
-1.362356e+05 1.585850e+05 -1.407640e+05
-1.006803e+05 1.805472e+05 -1.200000e+05
-1.222048e+05 1.628265e+05 -1.600000e+05
-1.043460e+05 1.925118e+05 -1.600000e+05
-1.897711e+05 -3.312851e+05 -9.434472e+04
-1.799847e+05 -3.715300e+05 -1.124172e+05
-2.000000e+05 -3.000000e+05 -1.200000e+05
-2.110541e+05 3.736011e+05 -1.104214e+05
-2.226236e+05 3.322745e+05 -9.255879e+04
-2.220797e+05 3.791315e+05 -8.029815e+04
-2.021583e+05 3.421323e+05 -7.198785e+04
-2.168998e+05 3.000000e+05 -8.496351e+04
-2.524548e+05 3.000000e+05 -8.556874e+04
2.608950e+05 4.000000e+05 -1.043684e+05
-3.000000e+05 1.666667e+05 -1.200000e+05
-2.814489e+05 1.217405e+05 -1.600000e+05
-2.434792e+05 4.000000e+05 -7.761428e+04
1.806467e+05 -1.003827e+05 -1.200000e+05
2.221468e+05 -8.696759e+04 -1.600000e+05
-1.628063e+05 5.244889e+04 -1.600000e+05
-1.618321e+05 6.733867e+04 -1.398248e+05
-1.329924e+05 3.534148e+04 -1.600000e+05
-1.598921e+05 3.356072e+04 -1.398057e+05
-1.301386e+05 1.672136e+04 -1.398299e+05
-1.517870e+05 5.009588e+04 -1.200000e+05
3.000000e+05 3.000000e+05 -1.200000e+05
3.000000e+05 3.000000e+05 -8.447793e+04
3.367626e+05 3.001623e+05 -9.109584e+04
3.335333e+05 3.106133e+05 -1.151128e+05
-8.333335e+04 -3.000000e+05 -8.549020e+04
-8.757187e+04 -3.297365e+05 -9.586646e+04
-7.987594e+04 -3.688257e+05 -1.124832e+05
-5.217414e+04 -3.604877e+05 -1.400518e+05
-5.190450e+04 -3.353609e+05 -9.206514e+04
2.634000e+05 2.816506e+05 -1.600000e+05
2.470574e+05 2.909985e+05 -1.396881e+05
2.332708e+05 2.587898e+05 -1.402602e+05
2.179868e+05 2.694674e+05 -1.200000e+05
2.141989e+05 2.903733e+05 -1.400279e+05
2.267046e+05 2.811530e+05 -1.600000e+05
3.000000e+05 -1.666667e+05 -1.200000e+05
3.299238e+05 -1.778640e+05 -1.126319e+05
3.000000e+05 -2.000000e+05 -1.200000e+05
-1.173057e+05 -2.105179e+05 -1.200000e+05
-1.007926e+05 -1.809397e+05 -1.200000e+05
-1.198456e+05 -1.507088e+05 -1.200000e+05
-1.044221e+05 -1.924112e+05 -1.600000e+05
-8.521015e+04 -1.867355e+05 -1.399879e+05
-1.218787e+05 -1.628877e+05 -1.600000e+05
-1.376365e+05 -1.523422e+05 -1.398102e+05
-1.812382e+05 1.007184e+05 -1.200000e+05
-1.880568e+05 1.192979e+05 -1.402068e+05
-1.881220e+05 8.547489e+04 -1.398586e+05
-1.449937e+05 -1.195456e+05 -1.200000e+05
-1.353801e+05 -1.368915e+05 -1.600000e+05
-1.685408e+05 1.935929e+05 -1.600000e+05
-1.589696e+05 1.606535e+05 -1.600000e+05
-3.000000e+05 2.666667e+05 -1.200000e+05
-2.882831e+05 2.793189e+05 -1.399217e+05
-2.907371e+05 2.457723e+05 -1.390045e+05
3.795121e+05 -1.168069e+05 -8.489808e+04
6.910629e+04 -2.709858e+05 -1.399778e+05
8.333594e+04 -2.703598e+05 -1.200000e+05
1.000637e+05 -2.406636e+05 -1.200000e+05
1.043495e+05 -2.518120e+05 -1.600000e+05
-2.407102e+05 1.000354e+05 -1.200000e+05
-2.703622e+05 8.333387e+04 -1.200000e+05
2.798357e+05 7.171136e+04 -1.398565e+05
2.703615e+05 -1.166681e+05 -1.200000e+05
-3.546189e+05 3.296301e+05 -6.953870e+04
3.406083e+05 2.261158e+05 -1.600000e+05
3.407174e+05 1.913089e+05 -1.600000e+05
-1.565217e+05 -4.000000e+05 -1.600000e+05
-1.913043e+05 -4.000000e+05 -1.600000e+05
-1.739130e+05 -4.000000e+05 -1.320845e+05
-1.739132e+05 -3.703623e+05 -1.600000e+05
-4.000000e+05 -3.652174e+05 -1.600000e+05
-3.707936e+05 -3.439666e+05 -1.600000e+05
-4.000000e+05 -3.304348e+05 -1.600000e+05
4.000000e+05 -3.317213e+05 -1.054531e+05
4.000000e+05 -3.509454e+05 -7.969368e+04
3.760223e+05 -3.681469e+05 -7.834129e+04
1.045059e+05 -1.210170e+05 -1.200000e+05
1.023039e+05 -1.587893e+05 -1.401975e+05
-3.135918e+05 -4.000000e+05 -7.808599e+04
5.200886e+04 -1.629061e+05 -1.600000e+05
8.671302e+04 -1.625493e+05 -1.600000e+05
6.823534e+04 -1.332824e+05 -1.600000e+05
6.832035e+04 -1.563710e+05 -1.400208e+05
-1.391308e+05 -4.000000e+05 -1.322162e+05
-1.248695e+05 -3.587562e+05 -1.404015e+05
-3.304348e+05 -4.000000e+05 -1.600000e+05
-2.170942e+05 -2.697417e+05 -1.200000e+05
-3.478260e+04 3.110875e+05 -1.600000e+05
-5.000001e+04 2.703625e+05 -1.200000e+05
3.334809e+04 -1.814406e+05 -1.200000e+05
5.000597e+04 -2.110823e+05 -1.200000e+05
3.376595e+04 -2.166066e+05 -1.399174e+05
1.666693e+04 -2.110872e+05 -1.200000e+05
1.739133e+04 -2.221750e+05 -1.600000e+05
1.686409e+04 -2.454792e+05 -1.399461e+05
-1.737194e+04 -1.036886e+05 -1.600000e+05
-3.453622e+04 -7.453857e+04 -1.600000e+05
-1.618957e+04 -9.177187e+04 -1.200000e+05
-4.928438e+04 -7.088200e+04 -1.405809e+05
-2.333333e+05 3.000000e+05 -1.200000e+05
-2.404237e+05 3.392434e+05 -1.177312e+05
-1.942824e+05 3.309675e+05 -9.504466e+04
-2.046462e+05 3.353233e+05 -1.169705e+05
-2.703625e+05 5.000005e+04 -1.200000e+05
-2.809523e+05 -2.643236e+05 -1.600000e+05
-2.704813e+05 -2.534916e+05 -1.200000e+05
-4.000000e+05 1.391299e+05 -7.832379e+04
-4.000000e+05 1.217387e+05 -1.050269e+05
-1.523695e+05 1.517537e+05 -1.200000e+05
-1.754951e+05 1.755770e+05 -1.200000e+05
-1.511762e+05 1.380404e+05 -1.403909e+05
-1.805024e+05 1.356808e+05 -1.200000e+05
-1.918965e+05 1.401664e+05 -1.600000e+05
1.835294e+05 2.702115e+05 -1.200000e+05
-1.043478e+05 4.000000e+05 -1.309412e+05
-1.102773e+05 3.663380e+05 -1.122744e+05
-6.956532e+04 4.000000e+05 -1.312052e+05
-5.217428e+04 4.000000e+05 -1.041946e+05
6.957638e+04 2.518092e+05 -1.600000e+05
2.810004e+05 2.568382e+05 -1.600000e+05
2.702781e+05 2.165217e+05 -1.200000e+05
2.516724e+05 -1.391352e+05 -1.600000e+05
2.291231e+05 -1.519526e+05 -1.449630e+05
-4.000000e+05 2.260899e+05 -1.061280e+05
-2.800607e+05 3.049423e+05 -1.600000e+05
-2.637339e+05 3.197498e+05 -1.375059e+05
-2.259193e+05 2.811235e+05 -1.600000e+05
-2.534554e+05 2.703478e+05 -1.200000e+05
-2.559030e+05 2.821316e+05 -1.600000e+05
-2.666667e+05 3.000000e+05 -1.200000e+05
1.172793e+05 -2.105378e+05 -1.200000e+05
6.954580e+04 -1.925274e+05 -1.600000e+05
6.677838e+04 -1.813887e+05 -1.200000e+05
-3.478260e+04 -3.703625e+05 -1.600000e+05
-3.478251e+04 -4.000000e+05 -1.323045e+05
-2.504888e-01 -4.000000e+05 -1.321380e+05
-1.739130e+04 -4.000000e+05 -1.600000e+05
1.773258e+04 -3.788968e+05 -1.330441e+05
-2.407250e+05 -6.666673e+04 -1.200000e+05
-2.459451e+05 -5.105878e+04 -1.398871e+05
-2.110875e+05 -5.000008e+04 -1.200000e+05
-1.814165e+05 6.680343e+04 -1.200000e+05
-1.844090e+05 5.170260e+04 -1.399422e+05
-1.725620e+04 6.029717e+04 -1.381935e+05
-1.794565e+03 6.300706e+04 -1.200000e+05
1.924322e+04 6.309080e+04 -1.393397e+05
-1.925241e+05 6.960458e+04 -1.600000e+05
-1.666668e+04 2.703625e+05 -1.200000e+05
-2.516385e+05 -1.742897e+05 -1.600000e+05
-2.812007e+05 -1.915956e+05 -1.600000e+05
-2.222216e+05 -1.929080e+05 -1.600000e+05
-4.000000e+05 -2.782927e+05 -7.817433e+04
2.703625e+05 -5.000001e+04 -1.200000e+05
2.747253e+05 -3.394418e+04 -1.398658e+05
3.110875e+05 -6.956520e+04 -1.600000e+05
-2.086956e+05 -4.000000e+05 -1.317700e+05
3.000000e+05 -2.333333e+05 -1.200000e+05
3.000000e+05 -2.666667e+05 -1.200000e+05
-5.221061e+04 -1.629186e+05 -1.600000e+05
-5.265410e+04 -1.035926e+05 -1.600000e+05
-6.447013e+04 -6.508339e+04 -1.200000e+05
-6.757705e+04 -1.217860e+05 -1.200000e+05
-5.010989e+04 -1.517823e+05 -1.200000e+05
1.517857e+05 5.013989e+04 -1.200000e+05
1.517503e+05 8.399863e+04 -1.200000e+05
1.628996e+05 1.739508e+04 -1.600000e+05
1.332693e+05 3.483867e+04 -1.600000e+05
-8.695153e+04 2.221732e+05 -1.600000e+05
-6.959514e+04 1.925259e+05 -1.600000e+05
-8.341508e+04 2.110297e+05 -1.200000e+05
-6.958419e+04 -1.925211e+05 -1.600000e+05
-5.080541e+04 -1.869560e+05 -1.399362e+05
-5.217552e+04 -2.221729e+05 -1.600000e+05
-3.376339e+04 -2.166295e+05 -1.399222e+05
-6.677206e+04 -1.813935e+05 -1.200000e+05
-1.217391e+05 3.407250e+05 -1.600000e+05
4.970716e+04 4.758976e+04 -1.600000e+05
6.558788e+04 5.106365e+04 -1.393407e+05
4.999516e+04 7.090557e+04 -1.404615e+05
7.470282e+04 3.433032e+04 -1.600000e+05
1.199681e+05 -1.505822e+05 -1.200000e+05
1.382413e+05 -1.528002e+05 -1.393441e+05
1.217854e+05 -2.221726e+05 -1.600000e+05
1.043279e+05 -1.925291e+05 -1.600000e+05
4.000000e+05 1.043479e+05 -7.840173e+04
4.000000e+05 6.956529e+04 -7.847716e+04
-6.794452e+04 -3.442266e+05 -7.274748e+04
-8.760364e+04 -3.795344e+05 -8.622504e+04
1.043476e+05 4.000000e+05 -1.319848e+05
2.666667e+05 -3.000000e+05 -1.200000e+05
2.469147e+05 -2.911048e+05 -1.391837e+05
2.802558e+05 -3.108582e+05 -1.600000e+05
1.628606e+05 8.748829e+04 -1.600000e+05
1.337424e+05 1.060777e+05 -1.600000e+05
-1.628889e+05 1.222906e+05 -1.600000e+05
-1.628518e+05 8.745997e+04 -1.600000e+05
-3.134446e+05 4.000000e+05 -7.898989e+04
1.286991e+05 1.242719e+05 -1.410274e+05
2.115089e+05 1.853756e+05 -1.200000e+05
2.038418e+05 2.031262e+05 -1.400296e+05
2.292998e+05 2.081282e+05 -1.400783e+05
2.310906e+05 1.816960e+05 -1.396019e+05
2.407325e+05 1.669358e+05 -1.200000e+05
2.508918e+05 2.098363e+05 -1.600000e+05
2.515169e+05 1.746589e+05 -1.600000e+05
2.611973e+05 1.990795e+05 -1.396880e+05
-4.000000e+05 -1.565217e+05 -1.600000e+05
-4.000000e+05 -1.391305e+05 -1.310453e+05
-3.703625e+05 -1.739131e+05 -1.600000e+05
-4.000000e+05 -3.135757e+05 -1.326292e+05
-5.217373e+04 2.221749e+05 -1.600000e+05
-8.697097e+04 -2.221458e+05 -1.600000e+05
1.813347e+05 -6.670323e+04 -1.200000e+05
1.925062e+05 -6.958893e+04 -1.600000e+05
8.695652e+04 -3.407250e+05 -1.600000e+05
2.168998e+05 -3.000000e+05 -8.488845e+04
-3.604877e+05 1.217390e+05 -1.400447e+05
-1.833430e+05 -3.000000e+05 -8.482878e+04
2.110865e+05 5.000275e+04 -1.200000e+05
2.110794e+05 8.335525e+04 -1.200000e+05
1.218907e+05 1.630593e+05 -1.600000e+05
9.699880e+04 1.212083e+05 -1.200000e+05
1.201027e+05 1.442322e+05 -1.200000e+05
-8.422426e+04 -1.515997e+05 -1.200000e+05
2.814500e+05 -1.739128e+04 -1.600000e+05
2.703625e+05 -1.666668e+04 -1.200000e+05
2.758671e+05 -3.111231e+02 -1.399112e+05
-2.518122e+05 -6.956589e+04 -1.600000e+05
-4.000000e+05 1.217391e+05 -1.600000e+05
-4.000000e+05 2.608950e+05 -1.043684e+05
1.219124e+05 -6.653270e+04 -1.200000e+05
1.332982e+05 -6.995629e+04 -1.600000e+05
1.511500e+05 -8.320537e+04 -1.200000e+05
1.622214e+05 -1.222904e+05 -1.600000e+05
1.042102e+05 -8.901434e+04 -1.600000e+05
6.667639e+04 -2.407155e+05 -1.200000e+05
5.125116e+04 -2.450768e+05 -1.399334e+05
1.998122e+05 -2.410779e+05 -1.200000e+05
2.241904e+05 -2.236254e+05 -1.600000e+05
6.307739e+04 3.445706e+04 -1.200000e+05
-5.217390e+04 2.814500e+05 -1.600000e+05
-6.956493e+04 2.518123e+05 -1.600000e+05
-3.000000e+05 3.000000e+05 -1.200000e+05
2.814499e+05 -5.217390e+04 -1.600000e+05
2.407249e+05 -3.333336e+04 -1.200000e+05
-1.913044e+05 -4.000000e+05 -1.053793e+05
-3.358004e+04 1.218991e+05 -1.200000e+05
-3.466901e+04 9.574010e+04 -1.394428e+05
-5.103260e+04 9.162378e+04 -1.200000e+05
-3.529692e+04 1.330336e+05 -1.600000e+05
-2.146754e+05 -2.148380e+05 -1.200000e+05
-2.070388e+05 -2.057535e+05 -1.394110e+05
-2.374096e+05 -2.376319e+05 -1.200000e+05
1.213685e+05 -1.626356e+05 -1.600000e+05
8.446019e+04 -1.513578e+05 -1.200000e+05
-1.372248e+05 1.366371e+05 -1.600000e+05
-2.388113e+02 -7.351319e+04 -1.600000e+05
-4.000000e+05 -2.086963e+05 -1.317986e+05
-4.000000e+05 -1.913043e+05 -1.600000e+05
-3.703600e+05 -2.086990e+05 -1.600000e+05
-3.407192e+05 -1.913128e+05 -1.600000e+05
3.000000e+05 6.666667e+04 -1.200000e+05
3.407250e+05 8.695652e+04 -1.600000e+05
3.110875e+05 6.956522e+04 -1.600000e+05
-7.613668e+01 1.332610e+05 -1.600000e+05
-1.669369e+04 1.517701e+05 -1.200000e+05
-3.333918e+04 -1.814468e+05 -1.200000e+05
-3.478466e+04 -1.925365e+05 -1.600000e+05
-1.667215e+04 -1.518077e+05 -1.200000e+05
3.110875e+05 1.192804e-02 -1.600000e+05
5.000531e+04 2.110793e+05 -1.200000e+05
6.962598e+04 1.925356e+05 -1.600000e+05
5.204982e+04 1.629521e+05 -1.600000e+05
1.868082e+05 2.102605e+05 -1.200000e+05
2.148931e+05 2.147223e+05 -1.200000e+05
4.000000e+05 -2.608696e+05 -1.600000e+05
4.000000e+05 -2.434807e+05 -1.311432e+05
-4.000000e+05 -6.956534e+04 -7.726181e+04
-4.000000e+05 -5.217428e+04 -1.041946e+05
5.218342e+04 2.221739e+05 -1.600000e+05
3.478208e+04 1.925414e+05 -1.600000e+05
3.334440e+04 1.814321e+05 -1.200000e+05
5.217409e+04 -2.221752e+05 -1.600000e+05
6.956534e+04 -2.518125e+05 -1.600000e+05
3.478265e+04 -2.518125e+05 -1.600000e+05
1.894884e+05 -3.794406e+05 -8.246350e+04
1.391300e+05 4.000000e+05 -1.321929e+05
1.565207e+05 4.000000e+05 -1.060961e+05
1.628801e+05 -5.222121e+04 -1.600000e+05
-3.652174e+05 -4.000000e+05 -1.600000e+05
2.201688e+05 -3.792321e+05 -8.335629e+04
2.086968e+05 -4.000000e+05 -7.809735e+04
2.333333e+05 -3.000000e+05 -1.200000e+05
-5.823251e+04 3.343660e+04 -1.200000e+05
-3.685889e+04 4.414633e+04 -1.417024e+05
-2.010397e+04 3.405889e+04 -1.200000e+05
-1.494592e+04 3.726364e+04 -1.600000e+05
-3.561630e+04 9.131007e+03 -1.200000e+05
-3.374300e+04 7.316692e+04 -1.600000e+05
2.213636e+05 1.953807e+05 -1.600000e+05
-5.217390e+04 -2.814500e+05 -1.600000e+05
-3.478260e+04 -2.518125e+05 -1.600000e+05
-3.417917e+04 -2.730510e+05 -1.399299e+05
-1.669326e+04 -2.476711e+05 -1.398529e+05
-2.109946e+05 -1.167722e+05 -1.200000e+05
-2.407257e+05 -1.000021e+05 -1.200000e+05
-2.110489e+05 -8.335779e+04 -1.200000e+05
-2.221739e+05 -8.696238e+04 -1.600000e+05
-2.407143e+05 -1.334035e+05 -1.200000e+05
-2.110855e+05 5.000636e+04 -1.200000e+05
-2.518125e+05 3.478268e+04 -1.600000e+05
-2.407249e+05 3.333356e+04 -1.200000e+05
-2.769325e+05 -6.891715e+04 -1.399580e+05
-2.703625e+05 -8.333337e+04 -1.200000e+05
2.703625e+05 1.666666e+04 -1.200000e+05
2.814500e+05 1.739133e+04 -1.600000e+05
1.842942e+05 1.849257e+05 -1.600000e+05
2.407250e+05 6.666679e+04 -1.200000e+05
2.457694e+05 5.106085e+04 -1.399120e+05
2.814500e+05 5.217392e+04 -1.600000e+05
2.518111e+05 6.956978e+04 -1.600000e+05
2.407250e+05 3.333334e+04 -1.200000e+05
2.752934e+05 3.443096e+04 -1.399952e+05
2.462624e+05 1.673872e+04 -1.399299e+05
1.666671e+04 -2.703624e+05 -1.200000e+05
5.942891e+01 -2.725041e+05 -1.400009e+05
3.391747e+04 -2.795465e+05 -1.398861e+05
3.000000e+05 1.944156e+04 -8.581977e+04
4.000000e+05 3.135867e+05 -1.317279e+05
1.332662e+05 -3.485596e+04 -1.600000e+05
1.221446e+05 -3.332071e+04 -1.200000e+05
1.261624e+05 -1.696857e+04 -1.399445e+05
-2.815993e+02 1.010175e+05 -1.398962e+05
-1.754570e+04 1.034806e+05 -1.600000e+05
7.114240e+02 7.302655e+04 -1.600000e+05
-3.509077e+04 6.308215e+04 -1.200000e+05
1.395538e+05 -1.923929e+05 -1.600000e+05
1.592548e+05 -1.599965e+05 -1.600000e+05
1.355353e+05 -1.363017e+05 -1.600000e+05
2.091741e+05 2.516620e+05 -1.600000e+05
2.084812e+05 2.295803e+05 -1.403116e+05
2.009068e+05 2.403115e+05 -1.200000e+05
-2.001743e+05 2.409525e+05 -1.200000e+05
-1.860815e+05 2.114120e+05 -1.200000e+05
-2.098613e+05 2.296463e+05 -1.395098e+05
-2.370160e+05 2.377395e+05 -1.200000e+05
-2.246061e+05 2.235399e+05 -1.600000e+05
-2.575585e+05 2.313705e+05 -1.407947e+05
-2.139163e+05 2.153363e+05 -1.200000e+05
-2.695836e+05 2.170495e+05 -1.200000e+05
-2.890641e+05 2.162634e+05 -1.400889e+05
6.530300e+04 6.502199e+04 -1.200000e+05
8.856429e+04 8.799019e+04 -1.200000e+05
1.043162e+05 8.920872e+04 -1.600000e+05
1.217497e+05 6.766923e+04 -1.200000e+05
-1.713899e+04 9.241028e+04 -1.200000e+05
-1.670878e+04 1.869521e+05 -1.399195e+05
-2.611214e+05 3.399818e+05 -1.600000e+05
-2.260902e+05 -4.000000e+05 -1.041954e+05
-1.268170e+05 1.234567e+05 -1.413619e+05
-1.200009e+05 1.448847e+05 -1.200000e+05
2.703606e+05 1.500116e+05 -1.200000e+05
2.884276e+05 1.744047e+05 -1.399031e+05
-1.043482e+05 -4.000000e+05 -1.328287e+05
-8.695671e+04 -4.000000e+05 -1.067450e+05
3.000000e+05 3.333333e+04 -1.200000e+05
3.455988e+04 1.333463e+05 -1.600000e+05
3.447421e+04 9.432416e+04 -1.400150e+05
5.129669e+04 1.038117e+05 -1.600000e+05
5.063813e+04 9.150198e+04 -1.200000e+05
-1.565557e+05 -2.049774e+02 -1.399621e+05
-8.695661e+04 4.000000e+05 -1.035085e+05
-6.956534e+04 4.000000e+05 -7.726181e+04
-2.254399e+00 1.925370e+05 -1.600000e+05
4.000000e+05 -2.086955e+05 -7.805483e+04
4.000000e+05 -1.739130e+05 -7.817781e+04
-1.739126e+04 2.221750e+05 -1.600000e+05
-1.666703e+04 2.110873e+05 -1.200000e+05
-3.334608e+04 1.814327e+05 -1.200000e+05
-2.287334e+05 -2.601263e+05 -1.386183e+05
3.478260e+04 -3.703625e+05 -1.600000e+05
1.795737e+04 -3.687833e+05 -8.812060e+04
4.000000e+05 3.478241e+04 -7.876584e+04
-9.704180e+04 1.212966e+05 -1.200000e+05
-1.077788e+05 1.328964e+05 -1.600000e+05
-1.512595e+05 1.197796e+05 -1.200000e+05
1.358642e+05 1.371160e+05 -1.600000e+05
-3.110875e+05 3.478263e+04 -1.600000e+05
1.220709e+05 1.032218e+05 -1.200000e+05
1.623957e+05 1.231792e+05 -1.600000e+05
-4.000000e+05 1.739128e+04 -1.059678e+05
3.407250e+05 -8.695652e+04 -1.600000e+05
-2.387812e+04 -3.295690e+05 -9.453843e+04
-3.379836e+02 -3.432741e+05 -7.293849e+04
-3.168839e+04 -3.446283e+05 -7.315961e+04
-1.627855e+04 -3.779877e+05 -8.413366e+04
-1.666668e+04 -3.000000e+05 -8.579263e+04
1.666666e+04 -3.000000e+05 -8.614471e+04
1.739133e+04 -2.814500e+05 -1.600000e+05
3.333435e+04 -2.407240e+05 -1.200000e+05
-3.333356e+04 -2.407247e+05 -1.200000e+05
-1.666668e+04 -2.703625e+05 -1.200000e+05
-1.739128e+04 -2.814500e+05 -1.600000e+05
-2.703625e+05 1.666666e+04 -1.200000e+05
-2.814500e+05 1.739133e+04 -1.600000e+05
-2.712470e+05 -5.332189e+01 -1.399720e+05
-5.000001e+04 -3.000000e+05 -8.474845e+04
-3.110875e+05 -6.956520e+04 -1.600000e+05
-3.317213e+05 -4.000000e+05 -1.054531e+05
2.518123e+05 3.478301e+04 -1.600000e+05
3.670478e+05 4.000000e+05 -1.055410e+05
-4.000000e+05 1.565207e+05 -1.060961e+05
-4.000000e+05 1.739125e+05 -7.897374e+04
1.730660e+04 1.035753e+05 -1.600000e+05
-2.091245e+05 2.508779e+05 -1.600000e+05
2.703411e+05 1.833597e+05 -1.200000e+05
-1.926721e+05 2.163346e+05 -1.600000e+05
-1.670465e+05 2.407093e+05 -1.200000e+05
-1.814479e+05 3.334057e+04 -1.200000e+05
4.000000e+05 -2.434807e+05 -7.732264e+04
4.000000e+05 -2.260902e+05 -1.041954e+05
-1.925330e+05 3.479635e+04 -1.600000e+05
3.800488e+05 8.452789e+04 -1.228384e+05
4.000000e+05 8.695664e+04 -1.053276e+05
4.000000e+05 1.043479e+05 -1.322725e+05
3.703625e+05 1.043478e+05 -1.600000e+05
3.703625e+05 6.956522e+04 -1.600000e+05
-4.000000e+05 -5.217391e+04 -1.600000e+05
-4.000000e+05 -8.695652e+04 -1.600000e+05
-4.000000e+05 -6.956532e+04 -1.312052e+05
4.000000e+05 8.695652e+04 -1.600000e+05
4.000000e+05 5.217390e+04 -1.061781e+05
4.000000e+05 6.956529e+04 -1.322845e+05
3.315222e+05 -3.562336e+05 -7.172662e+04
3.000000e+05 -3.000000e+05 -8.495216e+04
1.391304e+05 3.703625e+05 -1.600000e+05
1.739131e+05 3.703624e+05 -1.600000e+05
1.565217e+05 4.000000e+05 -1.600000e+05
-4.000000e+05 2.434805e+05 -7.821913e+04
-1.217817e+05 -2.220064e+05 -1.600000e+05
-6.920568e+03 -3.221260e+04 -1.200000e+05
-1.332333e+05 1.279998e+02 -1.600000e+05
-5.393956e+04 1.021812e+05 -1.600000e+05
-1.214900e+05 -9.694208e+04 -1.200000e+05
1.217391e+05 -4.000000e+05 -1.600000e+05
1.043478e+05 -3.703625e+05 -1.600000e+05
-2.609001e+05 -4.000000e+05 -1.034278e+05
-1.565219e+05 -4.000000e+05 -1.050129e+05
-1.217400e+05 -4.000000e+05 -1.060289e+05
-7.382310e+04 -3.292497e+02 -1.600000e+05
-4.430786e+04 1.582690e+04 -1.600000e+05
-4.024460e+04 -5.259874e+03 -1.397303e+05
-3.703625e+05 6.956522e+04 -1.600000e+05
-4.000000e+05 6.956517e+04 -1.321036e+05
-3.407250e+05 1.217391e+05 -1.600000e+05
1.739071e+04 -4.000000e+05 -1.058997e+05
-2.258028e+05 -2.812025e+05 -1.600000e+05
2.666667e+05 3.000000e+05 -1.200000e+05
4.000000e+05 4.000000e+05 -1.234328e+05
3.652174e+05 4.000000e+05 -1.600000e+05
2.266354e+05 -3.296992e+05 -9.267576e+04
2.361812e+05 -3.404341e+05 -7.293732e+04
3.350312e+04 1.218709e+05 -1.200000e+05
-2.804064e+05 2.276411e+05 -1.600000e+05
-2.810007e+05 2.642963e+05 -1.600000e+05
1.500000e+05 3.000000e+05 -8.490709e+04
1.217391e+05 4.000000e+05 -1.600000e+05
3.407250e+05 1.217391e+05 -1.600000e+05
-9.211726e+04 1.647165e+04 -1.200000e+05
-3.478251e+04 -4.000000e+05 -7.840466e+04
-1.739136e+04 -4.000000e+05 -1.051333e+05
-5.155161e+04 -3.797859e+05 -8.308184e+04
-3.407250e+05 -8.695652e+04 -1.600000e+05
-8.766557e+04 -8.871354e+04 -1.200000e+05
1.759013e+05 -1.932094e+05 -1.600000e+05
4.000000e+05 -1.565219e+05 -1.050129e+05
-4.674469e+04 4.717801e+04 -1.600000e+05
-3.479134e+04 1.925342e+05 -1.600000e+05
-5.241611e+04 1.628044e+05 -1.600000e+05
-2.236169e+05 -2.243894e+05 -1.600000e+05
-2.461845e+05 -2.491030e+05 -1.600000e+05
1.162984e-01 1.814449e+05 -1.200000e+05
3.478299e+04 2.518124e+05 -1.600000e+05
-3.771702e+05 2.230297e+05 -8.215915e+04
-4.000000e+05 1.913041e+05 -1.065393e+05
-4.000000e+05 2.086956e+05 -7.903935e+04
-3.749988e+05 1.882927e+05 -8.577981e+04
-3.805005e+05 1.112707e+04 -1.205518e+05
-3.000000e+05 -1.645535e+04 -9.277711e+04
-6.956522e+04 3.703625e+05 -1.600000e+05
-1.043447e+05 2.518111e+05 -1.600000e+05
2.518124e+05 5.964020e-02 -1.600000e+05
2.407250e+05 -8.946030e-03 -1.200000e+05
2.110872e+05 -1.666677e+04 -1.200000e+05
2.166170e+05 -2.795613e+02 -1.399298e+05
-5.000007e+04 -2.703624e+05 -1.200000e+05
-8.333415e+04 -2.703617e+05 -1.200000e+05
3.000000e+05 8.592966e+04 -8.638607e+04
4.000000e+05 -1.913044e+05 -1.053793e+05
3.000000e+05 5.284011e+04 -8.613807e+04
3.464585e+05 6.715925e+04 -7.271629e+04
3.134780e+05 -4.000000e+05 -7.817779e+04
4.000000e+05 1.217391e+05 -1.600000e+05
4.000000e+05 1.739130e+04 -1.600000e+05
4.000000e+05 5.217391e+04 -1.600000e+05
3.703625e+05 3.478260e+04 -1.600000e+05
-2.981212e+05 3.197306e+05 -1.398553e+05
-1.518075e+05 1.667630e+04 -1.200000e+05
4.000000e+05 4.000000e+05 -8.686567e+04
-1.925376e+05 1.777278e+00 -1.600000e+05
2.260899e+05 4.000000e+05 -1.061280e+05
2.434821e+05 4.000000e+05 -1.320284e+05
2.542116e+05 2.696315e+05 -1.200000e+05
4.000000e+05 4.000000e+05 -1.600000e+05
4.000000e+05 3.652174e+05 -1.600000e+05
3.578412e-02 -2.518125e+05 -1.600000e+05
2.876365e+05 2.865307e+05 -1.412457e+05
2.110874e+05 1.666680e+04 -1.200000e+05
2.221748e+05 1.739188e+04 -1.600000e+05
1.925372e+05 3.578412e-02 -1.600000e+05
-3.670500e+05 -4.000000e+05 -1.055289e+05
-3.509454e+05 -4.000000e+05 -7.969368e+04
-2.784452e+05 -3.702094e+05 -1.600000e+05
4.000000e+05 -3.135918e+05 -1.317406e+05
4.000000e+05 -2.956522e+05 -1.600000e+05
3.698395e+05 -3.139056e+05 -1.600000e+05
2.812025e+05 1.915060e+05 -1.600000e+05
5.124273e+04 -1.037893e+05 -1.600000e+05
2.000000e+05 3.000000e+05 -1.200000e+05
2.240193e+05 2.251482e+05 -1.600000e+05
2.386626e+05 2.363198e+05 -1.200000e+05
2.407898e+05 2.003752e+05 -1.200000e+05
-2.011307e+04 -4.446669e+04 -1.600000e+05
-4.000000e+05 -4.000000e+05 -1.234328e+05
-4.000000e+05 -4.000000e+05 -1.600000e+05
-1.335913e+05 3.407183e+05 -7.238928e+04
-3.668768e+05 4.000000e+05 -1.057445e+05
-5.217364e+04 -4.000000e+05 -1.061846e+05
-1.043478e+05 3.703625e+05 -1.600000e+05
-6.956510e+04 -4.000000e+05 -1.327924e+05
-4.000000e+05 -2.260870e+05 -1.600000e+05
-3.108783e+05 -2.442943e+05 -1.600000e+05
-4.000000e+05 1.565217e+05 -1.600000e+05
-4.000000e+05 1.913043e+05 -1.600000e+05
-4.000000e+05 1.739125e+05 -1.328123e+05
4.999999e+04 3.000000e+05 -8.471311e+04
4.000000e+05 2.260908e+05 -1.042234e+05
3.304348e+05 4.000000e+05 -1.600000e+05
3.149676e+05 3.689234e+05 -1.600000e+05
3.135864e+05 4.000000e+05 -7.813504e+04
-4.000000e+05 1.391300e+05 -1.321929e+05
-1.924702e+05 -2.164953e+05 -1.600000e+05
2.439741e+05 3.110784e+05 -1.600000e+05
-1.739130e+05 -4.000000e+05 -7.817781e+04
2.086964e+05 3.703618e+05 -1.600000e+05
1.628972e+05 -1.739832e+04 -1.600000e+05
-6.956512e+04 -4.000000e+05 -7.897213e+04
5.217392e+04 -2.814500e+05 -1.600000e+05
-1.508586e+05 -8.349865e+04 -1.200000e+05
4.000000e+05 -3.478251e+04 -7.840466e+04
-4.000000e+05 -3.668768e+05 -1.057445e+05
-1.690384e+05 -3.385152e+05 -7.319118e+04
2.434866e+05 -4.000000e+05 -7.734211e+04
4.000000e+05 -4.000000e+05 -8.686567e+04
4.000000e+05 -3.670500e+05 -1.055289e+05
1.739136e+04 2.814500e+05 -1.600000e+05
3.407250e+05 5.217392e+04 -1.600000e+05
4.000000e+05 1.913043e+05 -1.600000e+05
4.000000e+05 2.434866e+05 -7.734211e+04
4.000000e+05 -3.652174e+05 -1.600000e+05
4.000000e+05 -4.000000e+05 -1.600000e+05
3.509509e+05 -4.000000e+05 -7.963625e+04
-4.000000e+05 -3.316365e+05 -1.064081e+05
-4.000000e+05 -3.507901e+05 -7.989941e+04
1.520094e+05 -1.508946e+05 -1.200000e+05
-1.565217e+05 -3.407250e+05 -1.600000e+05
1.949498e+05 2.217035e+05 -1.600000e+05
3.454874e+04 -1.333352e+05 -1.600000e+05
-1.666764e+04 -2.110866e+05 -1.200000e+05
-2.027767e-01 4.000000e+05 -1.326510e+05
-1.739198e+04 4.000000e+05 -1.058247e+05
1.739125e+05 4.000000e+05 -7.897374e+04
3.304348e+05 -4.000000e+05 -1.600000e+05
-1.500024e+05 3.000000e+05 -8.606426e+04
-1.166668e+05 3.000000e+05 -8.578173e+04
-1.217392e+05 4.000000e+05 -1.032681e+05
-1.739133e+04 -2.221749e+05 -1.600000e+05
-1.511983e+05 3.727426e+05 -8.122951e+04
-1.391305e+05 4.000000e+05 -7.717884e+04
2.703402e+05 -1.500283e+05 -1.200000e+05
2.701121e+05 -1.836189e+05 -1.200000e+05
4.000000e+05 -1.391308e+05 -7.830540e+04
2.105393e+05 -1.508628e+05 -1.200000e+05
1.762750e+05 -1.732352e+05 -1.200000e+05
2.471474e+05 2.481104e+05 -1.600000e+05
2.221335e+05 8.707651e+04 -1.600000e+05
-8.946030e-03 -2.407249e+05 -1.200000e+05
2.703625e+05 8.333340e+04 -1.200000e+05
-4.000000e+05 -2.027767e-01 -1.326510e+05
-3.794732e+05 4.876318e+04 -8.590550e+04
-1.739131e+05 4.000000e+05 -7.794583e+04
-1.839042e+05 3.789151e+05 -8.628957e+04
-9.159874e+04 -5.103990e+04 -1.200000e+05
1.035442e+05 -5.266037e+04 -1.600000e+05
7.050818e+04 -4.975400e+04 -1.396366e+05
-3.000000e+05 2.000000e+05 -1.200000e+05
7.142504e+04 -7.202240e+04 -1.600000e+05
6.311818e+04 -3.648682e+04 -1.200000e+05
1.518076e+05 -1.666127e+04 -1.200000e+05
1.221596e+05 8.203509e+00 -1.200000e+05
3.370689e+04 -1.218708e+05 -1.200000e+05
-4.495844e+04 -2.005379e+04 -1.600000e+05
-2.732645e+03 2.040062e+03 -1.200000e+05
3.016163e+05 5.182234e+04 -1.399813e+05
-3.360833e+04 -1.918727e+04 -1.200000e+05
-1.455995e+04 -7.859039e+03 -1.600000e+05
3.514643e+04 7.364943e+04 -1.600000e+05
1.655387e+04 9.202214e+04 -1.200000e+05
3.357138e+04 5.792340e+04 -1.200000e+05
2.112808e+05 -1.855209e+05 -1.200000e+05
2.137804e+05 -2.152534e+05 -1.200000e+05
-2.713276e+05 2.458780e+05 -1.200000e+05
-2.466066e+05 2.488025e+05 -1.600000e+05
3.763012e+04 -6.196175e+04 -1.200000e+05
1.360566e+05 -1.791983e+05 -1.200000e+05
-1.833577e+05 3.000000e+05 -8.599783e+04
-1.668645e+05 3.387158e+05 -7.183004e+04
-1.033893e+05 1.773219e+04 -1.600000e+05
-3.478294e+04 4.000000e+05 -1.319148e+05
5.000041e+04 -2.703621e+05 -1.200000e+05
-2.027767e-01 4.000000e+05 -7.871336e+04
-1.728791e+04 3.789349e+05 -8.761958e+04
3.703625e+05 -1.192804e-02 -1.600000e+05
2.524548e+05 -3.000000e+05 -8.558700e+04
-2.782756e+05 3.702575e+05 -1.600000e+05
-2.608696e+05 4.000000e+05 -1.600000e+05
2.511896e+05 -1.739815e+05 -1.600000e+05
2.511825e+05 -2.086180e+05 -1.600000e+05
3.478268e+04 4.000000e+05 -1.321333e+05
3.478241e+04 -4.000000e+05 -1.327142e+05
5.217391e+04 -4.000000e+05 -1.600000e+05
-1.192804e-02 3.703625e+05 -1.600000e+05
1.739130e+04 4.000000e+05 -1.600000e+05
-1.739130e+04 4.000000e+05 -1.600000e+05
-8.333335e+04 3.000000e+05 -8.470919e+04
1.666666e+04 3.000000e+05 -8.526502e+04
-1.005962e+05 3.405312e+05 -7.213588e+04
-1.391305e+05 4.000000e+05 -1.310453e+05
4.999999e+04 -3.000000e+05 -8.648301e+04
-2.956522e+05 -4.000000e+05 -1.600000e+05
-1.628849e+05 1.743838e+04 -1.600000e+05
-4.000000e+05 -2.956522e+05 -1.600000e+05
-3.692617e+05 -3.137214e+05 -1.600000e+05
2.785793e+05 3.701048e+05 -1.600000e+05
-2.907342e+05 1.782526e+05 -1.400120e+05
4.000000e+05 -3.304348e+05 -1.600000e+05
2.260908e+05 -4.000000e+05 -1.042234e+05
1.565217e+05 -4.000000e+05 -1.600000e+05
1.043479e+05 -4.000000e+05 -1.322725e+05
-2.458556e+05 -2.715864e+05 -1.200000e+05
-8.695652e+04 -4.000000e+05 -1.600000e+05
-5.217391e+04 -4.000000e+05 -1.600000e+05
-4.000000e+05 -1.739130e+04 -1.600000e+05
-2.812403e+05 1.916038e+05 -1.600000e+05
-4.000000e+05 -3.134446e+05 -7.898989e+04
-7.321749e+04 3.467081e+04 -1.600000e+05
-1.217391e+05 -3.407250e+05 -1.600000e+05
2.703625e+05 4.999999e+04 -1.200000e+05
-1.043521e+05 -2.518031e+05 -1.600000e+05
-3.000000e+05 3.000000e+05 -8.477016e+04
-3.127913e+05 3.701674e+05 -1.600000e+05
1.565219e+05 3.407249e+05 -1.600000e+05
-5.001073e+04 -2.110783e+05 -1.200000e+05
4.000000e+05 -1.739130e+04 -1.600000e+05
7.465876e+04 -3.420486e+04 -1.600000e+05
4.000000e+05 -2.260870e+05 -1.600000e+05
-8.753426e+04 1.627475e+05 -1.600000e+05
7.151040e+04 7.210100e+04 -1.600000e+05
3.135867e+05 -4.000000e+05 -1.317279e+05
3.269261e+05 -3.790358e+05 -8.093179e+04
-3.288125e+04 -5.736945e+04 -1.200000e+05
-4.000000e+05 4.000000e+05 -1.234328e+05
-4.000000e+05 3.135864e+05 -7.813504e+04
-4.000000e+05 3.652174e+05 -1.600000e+05
-4.000000e+05 3.478268e+04 -1.321333e+05
-3.428234e+05 3.719368e+05 -1.600000e+05
-2.086959e+05 4.000000e+05 -7.789223e+04
-4.000000e+05 -2.434792e+05 -7.761428e+04
-4.000000e+05 2.956522e+05 -1.600000e+05
-4.000000e+05 3.316994e+05 -1.054845e+05
4.000000e+05 -3.135918e+05 -7.808599e+04
-2.260899e+05 4.000000e+05 -1.043369e+05
-1.739132e+05 4.000000e+05 -1.317672e+05
-1.913043e+05 4.000000e+05 -1.600000e+05
3.478268e+04 4.000000e+05 -7.839736e+04
2.956522e+05 4.000000e+05 -1.600000e+05
2.608696e+05 4.000000e+05 -1.600000e+05
-1.043478e+05 -3.110875e+05 -1.600000e+05
4.000000e+05 -8.695652e+04 -1.600000e+05
1.913043e+05 4.000000e+05 -1.600000e+05
2.086959e+05 4.000000e+05 -1.328769e+05
1.913041e+05 4.000000e+05 -1.065393e+05
8.695652e+04 -4.000000e+05 -1.600000e+05
-3.000000e+05 1.141988e+04 -8.705230e+04
-4.000000e+05 3.478268e+04 -7.839736e+04
-4.000000e+05 -3.478294e+04 -1.319148e+05
3.478241e+04 -4.000000e+05 -7.876584e+04
-2.108745e+05 1.171893e+05 -1.200000e+05
5.032255e+04 -1.516091e+05 -1.200000e+05
-1.043482e+05 -4.000000e+05 -7.903479e+04
-1.217391e+05 -4.000000e+05 -1.600000e+05
-1.391304e+05 -3.703625e+05 -1.600000e+05
3.478260e+04 3.703625e+05 -1.600000e+05
4.000000e+05 3.134780e+05 -7.817779e+04
1.739130e+04 -4.000000e+05 -1.600000e+05
2.260870e+05 -4.000000e+05 -1.600000e+05
2.087026e+05 -3.703575e+05 -1.600000e+05
-1.336153e+05 -2.404688e+05 -1.200000e+05
-1.391308e+05 -4.000000e+05 -7.830540e+04
5.014456e+04 1.515474e+05 -1.200000e+05
4.000000e+05 -1.043482e+05 -7.903479e+04
-2.260870e+05 4.000000e+05 -1.600000e+05
6.646888e+04 -6.469548e+04 -1.200000e+05
-1.221191e+05 -4.681457e+01 -1.200000e+05
2.434805e+05 4.000000e+05 -7.821913e+04
9.247961e+04 -1.710911e+04 -1.200000e+05
1.391299e+05 4.000000e+05 -7.832379e+04
5.217411e+04 2.814499e+05 -1.600000e+05
2.086956e+05 4.000000e+05 -7.903935e+04
4.000000e+05 -1.565217e+05 -1.600000e+05
-3.652174e+05 4.000000e+05 -1.600000e+05
2.956522e+05 -4.000000e+05 -1.600000e+05
-4.000000e+05 3.304348e+05 -1.600000e+05
-4.000000e+05 4.000000e+05 -1.600000e+05
-2.814500e+05 -5.217392e+04 -1.600000e+05
4.000000e+05 -1.217400e+05 -1.060289e+05
4.000000e+05 2.608696e+05 -1.600000e+05
-4.000000e+05 2.608696e+05 -1.600000e+05
9.260403e+04 -5.030090e+04 -1.200000e+05
-1.833728e+05 2.703714e+05 -1.200000e+05
-3.304348e+05 4.000000e+05 -1.600000e+05
-3.689240e+05 3.149676e+05 -1.600000e+05
-2.956522e+05 4.000000e+05 -1.600000e+05
-4.000000e+05 -1.043478e+05 -1.309412e+05
-3.703625e+05 -1.043478e+05 -1.600000e+05
2.260870e+05 4.000000e+05 -1.600000e+05
5.217391e+04 4.000000e+05 -1.600000e+05
-4.000000e+05 -1.217391e+05 -1.600000e+05
-1.391304e+05 3.703625e+05 -1.600000e+05
-1.217391e+05 4.000000e+05 -1.600000e+05
4.000000e+05 3.509509e+05 -7.963625e+04
-2.434807e+05 -4.000000e+05 -7.732264e+04
-4.000000e+05 -8.695661e+04 -1.035085e+05
-4.000000e+05 -1.043478e+05 -7.716791e+04
-1.221008e+05 3.339944e+04 -1.200000e+05
-2.743449e-01 -4.000000e+05 -7.840273e+04
-1.565218e+05 4.000000e+05 -1.039511e+05
-2.086963e+05 4.000000e+05 -1.317986e+05
1.332699e+05 -3.614196e+00 -1.600000e+05
-5.217391e+04 4.000000e+05 -1.600000e+05
-1.913048e+05 4.000000e+05 -1.050551e+05
4.000000e+05 3.304348e+05 -1.600000e+05
-4.000000e+05 5.217391e+04 -1.600000e+05
-1.565217e+05 4.000000e+05 -1.600000e+05
-4.000000e+05 1.739130e+04 -1.600000e+05
-8.695652e+04 4.000000e+05 -1.600000e+05
-3.111799e+05 -1.959942e+05 -6.030056e+04
-3.170005e+05 -1.783045e+05 -6.210948e+04
-3.000000e+05 -1.865973e+05 -6.825842e+04
-3.000000e+05 -2.037249e+05 -6.809803e+04
-3.219266e+05 -1.966655e+05 -5.515028e+04
3.232293e+05 7.077393e+04 -6.135814e+04
3.000000e+05 8.015914e+04 -6.819304e+04
3.000000e+05 6.361436e+04 -6.806904e+04
-3.055900e+05 -1.943714e+05 -5.515028e+04
-3.085003e+05 -1.855266e+05 -5.605474e+04
-3.000000e+05 -1.896729e+05 -5.912921e+04
-3.000000e+05 -1.982367e+05 -5.904901e+04
-3.109633e+05 -1.947071e+05 -5.257514e+04
3.116146e+05 7.258128e+04 -5.567907e+04
3.000000e+05 7.727388e+04 -5.909652e+04
3.000000e+05 6.900149e+04 -5.903452e+04
-4.984134e+04 -1.328278e+05 -7.145072e+04
-4.661626e+04 -1.322487e+05 -9.820777e+04
-7.642015e+04 -1.369342e+05 -8.704055e+04
-5.738848e+04 -1.033664e+05 -7.867261e+04
-7.407840e+04 -8.400687e+04 -9.969035e+04
-9.013807e+04 -1.094746e+05 -1.008375e+05
-4.114473e+04 -8.463528e+04 -9.870187e+04
-2.788140e+04 -1.016690e+05 -7.277979e+04
-6.500303e+04 -7.747102e+04 -7.955362e+04
-8.594192e+04 -1.117368e+05 -7.850455e+04
-3.553777e+03 1.280877e+05 -9.606006e+04
9.435813e+03 1.490613e+05 -9.909745e+04
1.144320e+04 1.675356e+05 -7.106654e+04
3.083390e+04 1.726903e+05 -9.502730e+04
2.183659e+04 1.332393e+05 -7.462671e+04
4.237848e+04 1.631515e+05 -7.147391e+04
4.552238e+04 1.447999e+05 -9.668413e+04
-7.702884e+03 1.729984e+05 -9.372177e+04
-7.102704e+03 1.503351e+05 -7.424545e+04
-5.875085e+04 1.716785e+05 -9.749148e+04
-8.637323e+04 1.996521e+05 -9.739988e+04
-8.373660e+04 1.697583e+05 -9.396229e+04
-6.147941e+04 1.616130e+05 -7.264920e+04
-7.132042e+04 1.913218e+05 -7.298831e+04
-9.974302e+04 1.942955e+05 -7.454515e+04
-1.156815e+05 1.716368e+05 -9.438142e+04
-2.922303e+04 7.562003e+04 -9.532595e+04
-5.639723e+04 7.129943e+04 -9.749760e+04
-2.818414e+04 3.987773e+04 -9.839545e+04
-4.430639e+04 4.738169e+04 -7.644888e+04
-7.034400e+04 4.968212e+04 -7.714806e+04
-5.469721e+04 2.352117e+04 -9.770696e+04
-8.175158e+04 2.354301e+04 -9.402235e+04
-6.444309e+04 4.769492e+04 -1.009269e+05
-1.618247e+05 1.691328e+05 -7.444489e+04
-1.900362e+05 1.542003e+05 -7.255754e+04
-1.868838e+05 1.772183e+05 -9.620752e+04
-1.697996e+05 1.580259e+05 -9.752445e+04
-1.652734e+05 1.356719e+05 -8.434063e+04
-1.400535e+05 1.513606e+05 -9.528679e+04
-1.984872e+05 1.500111e+05 -9.503711e+04
-6.802565e+04 -2.538757e+05 -7.001583e+04
-3.730752e+04 -2.288629e+05 -7.363208e+04
-2.316598e+05 1.695203e+05 -9.674301e+04
-2.095630e+05 1.678106e+05 -7.470729e+04
-2.091560e+05 1.894933e+05 -9.513659e+04
-2.303317e+05 1.828702e+05 -7.510486e+04
-2.330430e+05 2.055965e+05 -9.656370e+04
-2.206915e+05 2.042456e+05 -7.312949e+04
-1.911295e+05 1.935688e+05 -7.236795e+04
-2.227414e+05 1.417978e+05 -7.400978e+04
-1.329503e+05 1.566659e+05 -7.196415e+04
2.750464e+05 9.487455e+03 -8.118222e+04
2.786104e+05 4.803863e+04 -7.390624e+04
-1.432436e+05 -3.516387e+04 -5.345481e+04
-1.300081e+05 -6.709921e+03 -7.628614e+04
-1.200000e+05 -2.000000e+04 -5.500000e+04
-1.263516e+05 -3.262044e+04 -8.068174e+04
2.463986e+05 2.645777e+04 -7.045737e+04
2.539188e+05 4.734131e+04 -9.726990e+04
2.762660e+05 3.567647e+04 -9.579593e+04
2.770765e+05 7.247586e+04 -7.949356e+04
2.502566e+05 7.950115e+04 -7.780810e+04
2.042584e+05 -1.269125e+05 -9.630521e+04
2.225681e+05 -1.061228e+05 -1.007918e+05
2.224038e+05 -7.443956e+04 -9.872617e+04
8.508265e+04 -3.755790e+04 -7.552578e+04
1.078077e+05 -2.480986e+04 -9.775435e+04
8.184687e+04 -4.221420e+04 -1.012524e+05
8.120271e+04 -5.762096e+03 -7.914451e+04
1.003610e+05 9.120250e+03 -9.932834e+04
5.113857e+04 -1.443844e+04 -7.737630e+04
4.720003e+04 1.591846e+04 -8.310111e+04
1.076897e+05 -2.681623e+03 -8.215031e+04
-4.437697e+04 1.983685e+05 -9.519713e+04
-7.907886e+04 2.206851e+05 -7.355041e+04
-2.513800e+05 2.685180e+05 -8.133802e+04
-2.618522e+05 2.420042e+05 -7.343598e+04
-2.725610e+05 2.746076e+05 -7.043319e+04
1.327504e+05 -7.643219e+04 -7.499263e+04
1.596242e+05 -5.896069e+04 -7.374799e+04
1.339133e+05 -4.799123e+04 -9.540528e+04
1.197841e+05 -3.678300e+04 -7.355791e+04
1.027332e+05 -6.440092e+04 -7.253830e+04
2.613272e+04 -2.981174e+04 -8.025762e+04
2.030155e+05 -2.670839e+05 -9.697982e+04
1.853355e+05 -2.372378e+05 -9.707372e+04
2.693834e+05 2.340414e+05 -9.853727e+04
1.511588e+05 -2.499532e+05 -7.160934e+04
2.111945e+05 1.606852e+05 -9.841843e+04
2.300175e+05 1.414217e+05 -7.850086e+04
2.076008e+05 1.788638e+05 -7.300857e+04
1.902012e+05 1.515447e+05 -7.336787e+04
1.584660e+05 1.663443e+05 -8.925881e+04
1.879268e+05 1.821711e+05 -9.450373e+04
1.723584e+05 1.360683e+05 -9.237276e+04
2.080036e+05 1.320788e+05 -9.839471e+04
-2.010683e+04 2.566535e+05 -9.809033e+04
3.017525e+03 2.704095e+05 -8.145942e+04
-2.660656e+04 2.507035e+05 -7.429162e+04
1.086080e+04 2.304735e+05 -7.613719e+04
1.684760e+04 2.525853e+05 -9.950528e+04
2.802463e+04 2.269031e+05 -9.742462e+04
3.081541e+04 2.502630e+05 -7.552887e+04
-6.242280e+03 2.279021e+05 -9.897828e+04
-1.567110e+04 2.173041e+05 -7.530697e+04
1.380679e+04 2.017688e+05 -9.514046e+04
1.594247e+05 -1.003780e+05 -7.527715e+04
1.931139e+05 -8.827719e+04 -8.545237e+04
1.452075e+05 -1.010705e+05 -9.787325e+04
1.311172e+05 -7.989530e+04 -9.975367e+04
1.598878e+05 -7.300828e+04 -9.711691e+04
1.912523e+05 -5.657873e+04 -9.916232e+04
1.611279e+05 -3.677895e+04 -9.736143e+04
1.670764e+05 -1.263583e+05 -8.829763e+04
-1.770127e+05 -1.168408e+05 -7.608258e+04
-1.849836e+05 -1.085013e+05 -9.983722e+04
-1.704556e+05 -8.350220e+04 -7.255919e+04
-1.585425e+05 -1.041289e+05 -9.509108e+04
-1.300999e+05 -1.119555e+05 -7.695839e+04
-1.378552e+05 -8.415118e+04 -7.914264e+04
-1.271977e+05 -1.086196e+05 -9.807750e+04
-1.545210e+05 -1.397286e+05 -8.025771e+04
-1.809410e+05 -1.403860e+05 -9.400064e+04
-1.570287e+05 -7.732649e+04 -9.779419e+04
-1.882416e+05 -8.072667e+04 -9.516936e+04
2.336563e+05 1.043597e+05 -7.354194e+04
2.575215e+05 1.112453e+05 -9.507000e+04
2.409158e+05 9.696689e+04 -9.439485e+04
2.558733e+05 8.155042e+04 -9.969855e+04
2.250762e+05 8.443677e+04 -9.583060e+04
1.677961e+05 -2.657230e+05 -9.471695e+04
1.338963e+05 -2.689681e+05 -8.668665e+04
2.235159e+05 1.116718e+05 -9.733997e+04
1.052007e+05 -2.669546e+05 -7.134916e+04
-6.884996e+04 1.056094e+05 -9.380005e+04
-5.348544e+04 1.326286e+05 -7.261462e+04
-4.557920e+04 1.069970e+05 -6.845777e+04
-6.032435e+04 8.056331e+04 -7.353657e+04
-3.746547e+04 1.091518e+05 -9.270788e+04
-5.661838e+04 -1.719838e+05 -7.413122e+04
-2.867096e+04 -1.563492e+05 -7.708482e+04
-3.434588e+04 -1.962067e+05 -7.349206e+04
-6.945118e+03 -1.770652e+05 -7.138094e+04
-6.285347e+04 -2.142866e+05 -7.456586e+04
-9.801192e+04 1.502378e+05 -1.003110e+05
-9.713976e+04 1.652534e+05 -7.223033e+04
1.900584e+04 -1.744638e+05 -9.428423e+04
1.261732e+04 -1.388506e+05 -9.554458e+04
-3.495462e+03 -1.593089e+05 -9.331204e+04
1.860146e+04 -1.634312e+05 -7.145642e+04
-1.139217e+05 1.378321e+05 -8.503857e+04
-1.250734e+05 2.007519e+05 -9.593281e+04
-1.259204e+05 1.878237e+05 -7.130273e+04
-1.499273e+05 1.786719e+05 -9.712639e+04
2.628218e+05 -7.177298e+04 -7.393917e+04
2.705255e+05 -4.769257e+04 -8.959708e+04
2.497404e+05 -7.363771e+04 -9.822062e+04
2.472975e+05 -4.831533e+04 -9.199123e+04
2.216056e+05 -3.822693e+04 -8.968339e+04
2.273808e+05 -6.955762e+04 -7.431013e+04
2.480450e+05 -1.614306e+04 -7.360221e+04
2.528415e+05 -1.750459e+04 -9.751659e+04
-8.548549e+04 7.334583e+04 -8.635329e+04
-1.104977e+05 1.037465e+05 -9.636168e+04
-1.144029e+05 6.883198e+04 -8.366849e+04
-1.664631e+05 2.333709e+05 -9.887064e+04
-1.746473e+05 2.003483e+05 -9.461871e+04
-9.993462e+04 5.156941e+04 -9.847351e+04
-6.595061e+04 -2.482172e+05 -9.487724e+04
-1.330272e+05 8.834832e+04 -7.214682e+04
-1.003306e+05 1.018751e+05 -7.179591e+04
-1.395463e+05 5.351704e+04 -9.966850e+04
-1.307441e+05 2.679119e+04 -8.739709e+04
1.440294e+05 -2.189171e+05 -7.385114e+04
-1.110663e+05 -2.578782e+05 -7.266770e+04
-8.828873e+04 -2.376461e+05 -7.874155e+04
-9.412822e+04 -2.718860e+05 -8.914974e+04
-5.742000e+04 -2.774263e+05 -9.135115e+04
-1.069311e+05 -2.464863e+05 -9.780856e+04
-1.301619e+05 -2.701979e+05 -9.779082e+04
-2.103991e+05 2.209461e+05 -9.528279e+04
-1.555317e+05 1.946645e+05 -7.379519e+04
6.098393e+04 -2.521415e+05 -9.700763e+04
8.949923e+04 -2.346604e+05 -7.240518e+04
8.516415e+04 -2.264905e+05 -9.734659e+04
5.344867e+04 -2.236901e+05 -6.980991e+04
-2.495255e+05 -1.827031e+04 -7.386998e+04
-2.167751e+05 -3.655385e+03 -7.404212e+04
-2.250359e+05 -3.198414e+04 -6.689797e+04
-2.262778e+05 -3.453446e+04 -9.230039e+04
-2.752541e+05 2.651399e+05 -9.711909e+04
-2.330590e+05 -6.510373e+04 -9.726058e+04
-2.012196e+05 -5.749354e+04 -9.598765e+04
-1.949268e+05 -2.535437e+04 -9.584939e+04
-1.600494e+05 -2.923557e+04 -8.410743e+04
-1.979112e+05 -3.504879e+04 -7.139722e+04
-1.858294e+05 -9.945930e+03 -7.297416e+04
-1.763568e+05 -5.279268e+04 -7.370834e+04
-5.442582e+04 1.426506e+04 -7.479872e+04
-3.140239e+04 7.909102e+04 -7.057028e+04
-1.378912e+04 4.706891e+04 -7.513652e+04
1.077725e+05 -2.075509e+05 -9.434747e+04
1.280943e+05 -1.901486e+05 -9.665517e+04
8.778950e+04 -1.931550e+05 -9.822367e+04
8.908205e+04 -1.673411e+05 -9.854528e+04
5.515905e+04 -1.838393e+05 -9.891633e+04
7.999892e+04 -1.958666e+05 -7.388796e+04
5.147195e+04 -2.178289e+05 -9.387776e+04
2.629693e+05 1.973655e+05 -7.221024e+04
2.518513e+05 1.848377e+05 -9.497010e+04
2.604683e+05 1.630982e+05 -7.292885e+04
2.357122e+05 1.797922e+05 -7.547741e+04
2.301044e+05 2.087825e+05 -7.540509e+04
1.079451e+05 -1.713484e+05 -7.448242e+04
1.185064e+05 -1.988583e+05 -7.012499e+04
1.916431e+05 2.505238e+05 -7.173400e+04
1.579246e+05 2.513072e+05 -7.344049e+04
1.691965e+05 2.757822e+05 -7.978988e+04
1.903260e+05 2.608898e+05 -9.772113e+04
2.040857e+05 2.734532e+05 -7.796054e+04
1.356157e+05 2.712837e+05 -7.279688e+04
1.551658e+05 2.602376e+05 -9.745305e+04
8.128493e+04 -7.284074e+04 -9.896304e+04
5.873907e+04 -5.281915e+04 -9.759574e+04
5.708748e+04 -7.629584e+04 -9.424853e+04
2.946412e+04 -7.222793e+04 -9.661208e+04
5.195472e+04 -5.428169e+04 -7.475491e+04
7.813648e+04 -5.941959e+04 -7.975842e+04
7.334709e+04 -8.030475e+04 -7.328279e+04
7.736069e+04 -1.093720e+05 -9.724771e+04
3.937411e+04 -8.340576e+04 -7.116927e+04
1.151803e+05 -2.382777e+05 -9.123103e+04
1.480343e+05 -2.339156e+05 -9.628301e+04
2.502864e+05 1.217529e+04 -9.625981e+04
1.965118e+05 -1.240610e+05 -7.137198e+04
1.963997e+05 -1.651517e+05 -6.823032e+04
2.137557e+05 -2.061126e+05 -7.452036e+04
1.951306e+05 -1.709995e+05 -9.538539e+04
1.776663e+05 -1.904832e+05 -7.331437e+04
1.756582e+05 -1.534926e+05 -8.082893e+04
2.216099e+05 -1.771786e+05 -7.181648e+04
1.658683e+05 -2.036028e+05 -9.659954e+04
1.468086e+05 -1.803948e+05 -7.375588e+04
1.559822e+05 -1.752563e+05 -9.803885e+04
1.269772e+05 -1.579683e+05 -9.761045e+04
1.397469e+05 1.351853e+05 -7.454855e+04
1.338960e+05 1.712118e+05 -7.769706e+04
1.402236e+05 1.978354e+05 -8.273616e+04
1.712205e+05 2.057813e+05 -7.928376e+04
1.981415e+05 1.061449e+05 -1.008179e+05
1.985740e+05 1.175644e+05 -7.485419e+04
2.033031e+05 -2.328013e+05 -7.489926e+04
2.074422e+05 -2.212469e+05 -9.940364e+04
1.945166e+05 -2.032913e+05 -9.709070e+04
2.284765e+05 5.876953e+04 -9.772187e+04
1.992715e+05 7.506923e+04 -9.859273e+04
2.217938e+05 3.750707e+04 -7.600769e+04
2.449337e+05 5.277310e+04 -7.684000e+04
2.279060e+05 2.857840e+04 -9.742775e+04
2.002336e+05 4.822426e+04 -9.705833e+04
2.215516e+05 6.457766e+04 -7.218263e+04
-1.371186e+05 2.752884e+05 -7.970821e+04
-1.242500e+05 2.586196e+05 -9.726721e+04
-1.524368e+05 2.478592e+05 -7.624876e+04
-1.240407e+05 2.486484e+05 -7.245506e+04
-1.033042e+05 2.751050e+05 -7.974556e+04
2.443269e+05 2.503028e+05 -9.735869e+04
-1.607590e+05 2.625414e+05 -9.881203e+04
1.332884e+05 -7.976875e+03 -9.852850e+04
5.658069e+04 -2.701548e+04 -9.771102e+04
-1.194270e+05 -2.050761e+05 -7.243432e+04
-1.415995e+05 -2.255281e+05 -7.268289e+04
-1.447230e+05 -1.901652e+05 -7.502938e+04
-1.709278e+05 -2.278125e+05 -7.317057e+04
-1.860087e+05 -2.071477e+05 -8.357796e+04
2.625019e+05 2.314400e+05 -7.357844e+04
-1.800061e+05 -1.675052e+05 -7.727175e+04
-1.297434e+05 -1.943295e+05 -9.745120e+04
-1.066317e+05 -1.868790e+05 -7.983855e+04
-1.292146e+05 -1.570406e+05 -8.425810e+04
-1.571520e+05 -1.732200e+05 -9.924403e+04
-1.633003e+05 -2.073844e+05 -9.696996e+04
-1.137222e+05 -2.298135e+05 -7.546619e+04
-9.245030e+04 -2.160897e+05 -7.153800e+04
-7.590913e+04 -2.212818e+05 -9.818740e+04
-1.028005e+05 -2.127033e+05 -9.582556e+04
-7.942831e+04 -1.894979e+05 -8.567578e+04
-2.277454e+05 -2.039081e+05 -7.168212e+04
-2.192849e+05 -1.749218e+05 -7.528736e+04
-2.321537e+05 -1.790823e+05 -9.578821e+04
-2.499021e+05 -1.864668e+05 -7.369125e+04
-2.522007e+05 -1.584916e+05 -7.574484e+04
-2.208800e+05 -2.066565e+05 -9.647019e+04
1.441521e+05 1.376653e+05 -9.910515e+04
1.422969e+05 1.137071e+05 -9.636384e+04
1.308906e+05 9.127702e+04 -7.141505e+04
1.139922e+05 1.272589e+05 -8.819499e+04
1.363669e+05 8.561463e+04 -9.519304e+04
1.629448e+05 1.045259e+05 -7.268128e+04
9.856378e+04 2.690647e+05 -9.620648e+04
1.032738e+05 2.718693e+05 -7.198685e+04
7.118866e+04 2.724245e+05 -8.153710e+04
5.481656e+04 2.575941e+05 -9.862793e+04
8.901774e+04 2.359645e+05 -9.584086e+04
1.413238e+05 -1.500944e+05 -7.641195e+04
1.759924e+05 -2.175596e+05 -7.545857e+04
1.155777e+04 1.508188e+04 -7.502715e+04
1.279171e+04 4.866727e+04 -7.364856e+04
1.029403e+04 7.722876e+04 -7.335600e+04
4.623725e+04 4.690158e+04 -7.391957e+04
4.219776e+04 4.850989e+04 -9.826811e+04
-1.388334e+05 1.192819e+05 -9.646062e+04
-1.326762e+05 1.208430e+05 -7.164780e+04
-8.727047e+04 1.344447e+05 -7.825866e+04
3.532804e+04 1.977656e+05 -7.252680e+04
4.206111e+04 2.257964e+05 -7.141201e+04
5.955800e+04 2.494142e+05 -7.290493e+04
7.015138e+04 2.198226e+05 -7.330354e+04
2.260247e+05 1.906843e+05 -9.868817e+04
2.480492e+05 1.609569e+05 -9.793646e+04
2.766452e+05 1.739088e+05 -9.269882e+04
2.624778e+05 2.065120e+05 -9.767003e+04
-1.236693e+04 2.002687e+05 -9.793741e+04
5.747525e+03 1.942192e+05 -7.251524e+04
-6.191320e+04 2.477232e+05 -7.421991e+04
-9.001672e+04 2.591235e+05 -9.820296e+04
-9.359142e+04 2.490623e+05 -7.415953e+04
-7.158113e+04 2.750719e+05 -8.007151e+04
-5.540103e+04 2.601446e+05 -9.658368e+04
-2.492537e+05 3.715928e+04 -7.416547e+04
-2.320463e+05 6.425943e+04 -9.555214e+04
-2.208848e+05 3.099086e+04 -8.402868e+04
-2.504574e+05 3.424295e+04 -9.882544e+04
1.986179e+05 2.158565e+05 -7.180368e+04
2.035138e+05 2.102757e+05 -9.735973e+04
1.760824e+05 2.320630e+05 -9.263654e+04
1.295182e+05 1.538843e+05 -9.575171e+04
-2.696935e+05 2.214400e+05 -9.678868e+04
-2.597925e+05 1.900125e+05 -9.820716e+04
-2.786232e+05 1.953738e+05 -7.924144e+04
-1.045819e+05 -2.888145e+04 -5.436600e+04
-1.220311e+05 9.031803e+03 -5.330028e+04
-9.421015e+04 -5.838534e+03 -7.476429e+04
-2.555114e+05 2.054735e+05 -7.402268e+04
-2.550293e+05 1.743340e+05 -7.483523e+04
-5.388956e+04 -1.813897e+04 -7.325722e+04
-7.727671e+04 -3.019629e+04 -8.930157e+04
-1.040085e+05 -4.480720e+04 -7.652650e+04
-1.039647e+05 -1.834439e+04 -9.825693e+04
-1.106211e+05 1.235515e+04 -9.182585e+04
-1.024887e+05 3.734975e+04 -7.186734e+04
-2.537893e+05 -1.471653e+05 -9.425957e+04
-2.826562e+05 -1.647398e+05 -7.665486e+04
-1.448541e+05 -2.433718e+05 -9.513945e+04
-1.657325e+05 -2.688532e+05 -9.678897e+04
-1.270250e+05 -2.220141e+05 -9.874803e+04
-2.403751e+05 -2.493452e+05 -7.028933e+04
-2.604639e+05 -2.290522e+05 -9.708604e+04
-2.506749e+05 -2.144503e+05 -7.418974e+04
-2.315124e+05 -2.300304e+05 -8.536811e+04
-2.064407e+05 -2.262614e+05 -7.293178e+04
-2.081729e+05 -2.349154e+05 -9.890705e+04
-2.192760e+05 -2.515502e+05 -8.419962e+04
-2.421497e+05 -2.612149e+05 -9.543002e+04
-1.355492e+05 2.313684e+05 -9.546803e+04
-1.055542e+05 2.299674e+05 -9.667090e+04
-1.518230e+05 2.203238e+05 -7.611338e+04
-2.727668e+05 2.376914e+04 -9.012714e+04
-2.579804e+05 -1.981700e+04 -9.790439e+04
-2.489676e+05 8.810312e+03 -7.705859e+04
-2.772180e+05 -3.281655e+03 -8.940121e+04
2.231609e+05 2.426421e+05 -7.303676e+04
2.125654e+05 2.398323e+05 -9.557754e+04
2.278822e+05 2.739335e+05 -9.692047e+04
2.400792e+05 2.639010e+05 -7.265665e+04
4.611845e+04 -1.827580e+05 -7.449977e+04
2.014600e+04 -2.029778e+05 -9.647262e+04
2.358532e+04 -1.959449e+05 -7.030958e+04
1.848131e+04 -2.235535e+05 -7.151200e+04
-1.032095e+05 -1.311858e+05 -7.424611e+04
1.655423e+05 -2.715112e+05 -7.034682e+04
1.245660e+05 -2.464633e+05 -6.940462e+04
1.767548e+05 -2.442497e+05 -7.224831e+04
-1.023285e+03 -1.469929e+05 -6.890737e+04
-1.165863e+04 -1.282238e+05 -8.270822e+04
2.371269e+04 -1.266979e+05 -7.488814e+04
-4.244394e+04 -2.214962e+05 -9.779786e+04
-5.339033e+04 -1.954841e+05 -9.890707e+04
-6.490423e+03 -2.352594e+05 -7.689758e+04
-2.083319e+05 2.308155e+05 -7.189667e+04
1.711740e+05 1.002971e+05 -9.614025e+04
1.975645e+05 8.751831e+04 -7.655903e+04
-2.759845e+05 1.017468e+05 -7.676071e+04
-2.609189e+05 9.098358e+04 -9.961561e+04
-2.488158e+05 8.775025e+04 -7.516215e+04
-2.678861e+05 6.090226e+04 -8.566181e+04
-2.612003e+05 1.239834e+05 -9.749758e+04
1.062876e+05 -5.928024e+04 -9.700468e+04
1.031109e+05 -8.807583e+04 -8.776835e+04
-1.962645e+05 9.198605e+03 -9.671215e+04
1.146282e+05 -1.159643e+05 -9.827725e+04
8.617061e+04 -1.087932e+05 -7.209022e+04
1.226906e+05 -1.064004e+05 -7.355231e+04
-1.367654e+05 -9.184077e+03 -9.923606e+04
1.737016e+04 3.179702e+04 -9.681746e+04
-7.263324e+03 1.644836e+04 -9.630727e+04
-5.823254e+03 -1.386781e+04 -9.485476e+04
2.629290e+04 -1.552717e+03 -9.902576e+04
-2.285643e+04 1.008320e+04 -7.328969e+04
1.933652e+05 5.083248e+04 -7.281704e+04
1.697925e+05 6.738841e+04 -9.634611e+04
-2.027880e+05 -1.961131e+05 -7.115264e+04
2.746911e+05 -2.051379e+05 -7.968731e+04
-2.207624e+05 2.457000e+05 -9.642193e+04
-2.362803e+05 2.247316e+05 -7.400048e+04
-2.266615e+05 2.571301e+05 -7.251029e+04
-1.961876e+05 2.570099e+05 -9.566177e+04
-2.478093e+05 2.399603e+05 -9.786867e+04
-2.327028e+05 2.721327e+05 -9.676146e+04
7.066071e+04 2.670515e+04 -9.775492e+04
7.503950e+04 5.262059e+04 -9.788513e+04
6.706702e+04 7.498415e+04 -9.438419e+04
9.838819e+04 6.637153e+04 -7.373638e+04
7.581894e+04 5.109584e+04 -7.172323e+04
-1.826495e+05 2.287006e+05 -8.040783e+04
-1.354169e+05 -5.711109e+04 -8.495153e+04
-2.577120e+05 -1.904149e+05 -9.641461e+04
-2.772819e+05 -1.987318e+05 -7.870272e+04
-1.697368e+05 -5.554434e+04 -9.574906e+04
-1.157867e+05 -5.102265e+04 -9.975447e+04
-1.677299e+05 -3.422629e+03 -9.305646e+04
-1.640755e+05 3.097041e+04 -8.833196e+04
2.362998e+05 2.223358e+05 -9.660970e+04
6.968804e+04 1.673503e+05 -9.608952e+04
6.649085e+04 1.540637e+05 -7.122945e+04
-6.156128e+04 -5.524737e+04 -9.809424e+04
-6.505531e+04 -7.330541e+03 -9.793813e+04
-4.153541e+04 -3.262004e+04 -9.635925e+04
-8.711234e+04 -5.671665e+04 -8.936297e+04
-2.267201e+05 -1.019181e+03 -9.781348e+04
-2.338714e+04 -1.815109e+05 -9.665098e+04
7.226182e+04 -1.486848e+05 -8.416536e+04
5.345061e+04 -1.266488e+05 -7.189115e+04
4.049551e+04 -1.513345e+05 -8.542173e+04
4.308770e+04 -1.246847e+05 -9.829331e+04
1.037855e+05 -1.373433e+05 -8.050926e+04
2.628824e+05 -2.358850e+05 -9.814252e+04
2.407127e+05 -2.167891e+05 -9.598290e+04
2.214592e+05 -2.410262e+05 -9.693886e+04
2.346617e+05 -2.424307e+05 -7.368567e+04
2.440038e+05 -2.632970e+05 -9.272125e+04
2.220410e+05 -2.695027e+05 -7.331205e+04
-2.615849e+04 -2.441433e+04 -7.315431e+04
-1.303173e+04 -4.496363e+04 -7.285806e+04
6.388665e+02 -3.369586e+04 -7.234183e+04
-7.080551e+03 -4.215810e+04 -9.449388e+04
-4.107142e+04 -5.451495e+04 -7.598216e+04
-1.814771e+05 2.605096e+05 -7.393463e+04
-1.598465e+05 1.045866e+05 -7.165728e+04
-1.703173e+05 1.027492e+05 -9.581163e+04
-2.029731e+05 -2.725162e+05 -9.568071e+04
-1.942188e+05 -2.615599e+05 -7.396869e+04
-1.888042e+05 1.939337e+04 -7.229305e+04
-2.322710e+05 -2.747780e+05 -7.364443e+04
-2.299504e+04 -7.149017e+04 -8.320161e+04
-2.171138e+05 -1.531473e+05 -9.812335e+04
1.092872e+05 1.942612e+05 -9.616265e+04
1.033843e+05 1.634445e+05 -9.775359e+04
-2.782902e+05 -2.821514e+04 -7.224879e+04
-1.630454e+05 -2.610248e+05 -7.168462e+04
-1.368903e+05 -2.681215e+05 -7.352687e+04
-1.821743e+05 -2.430287e+05 -9.703951e+04
2.233207e+05 -1.957723e+05 -9.701225e+04
-3.075290e+04 1.727722e+03 -9.661286e+04
-2.355870e+03 -2.030982e+05 -7.512499e+04
-1.118074e+04 -2.201877e+05 -9.835587e+04
-1.144409e+05 2.203122e+05 -7.274813e+04
4.727922e+04 2.007085e+05 -9.641424e+04
5.749422e+04 2.282379e+05 -9.688983e+04
8.944432e+04 1.397164e+05 -7.341747e+04
6.732865e+04 1.903469e+05 -7.346164e+04
8.709639e+04 1.731181e+05 -7.484081e+04
5.826702e+04 1.242504e+05 -7.245243e+04
4.172312e+04 1.209677e+05 -9.586759e+04
-1.763455e+04 1.820570e+05 -7.204543e+04
-3.306197e+04 1.542866e+05 -9.406064e+04
-1.701365e+04 1.248908e+05 -7.342542e+04
7.708590e+04 2.267390e+04 -7.324564e+04
1.047610e+05 2.063567e+05 -7.324089e+04
1.195968e+05 2.455377e+05 -7.488593e+04
8.846140e+04 2.477226e+05 -7.217812e+04
1.319053e+05 2.303049e+05 -9.696556e+04
-2.477345e+05 1.203156e+05 -7.165025e+04
-2.611792e+05 1.461792e+05 -7.670115e+04
-2.315472e+05 1.364313e+05 -9.696630e+04
-2.637389e+05 1.598803e+05 -1.000347e+05
7.640441e+04 1.373713e+05 -9.807636e+04
7.897662e+04 1.971498e+05 -9.686007e+04
2.651311e+05 -2.343449e+05 -7.196879e+04
2.597468e+05 -1.909572e+05 -9.789666e+04
2.469537e+05 -1.989307e+05 -7.291645e+04
-2.696691e+05 -2.336538e+05 -7.252434e+04
2.762640e+05 -1.305496e+05 -9.003080e+04
2.588072e+05 -1.419544e+05 -7.258769e+04
2.612609e+05 -1.061375e+05 -7.215198e+04
2.688587e+05 -1.619542e+05 -9.764643e+04
2.499731e+05 -1.350337e+05 -9.569567e+04
2.540062e+05 -1.030969e+05 -9.694378e+04
2.261722e+05 -9.627567e+04 -7.629388e+04
2.307609e+05 -1.246212e+05 -7.307788e+04
-3.094166e+04 1.559219e+05 -6.915759e+04
-4.323327e+04 1.883071e+05 -7.120032e+04
-2.017991e+05 -9.555999e+04 -7.282621e+04
-1.980750e+05 -6.696768e+04 -7.154483e+04
-2.226609e+05 -6.300781e+04 -7.106638e+04
-2.225647e+05 -8.684154e+04 -8.983657e+04
-3.520446e+04 -2.644267e+05 -7.270619e+04
-1.292996e+03 -2.650259e+05 -7.370808e+04
-1.206698e+03 -2.633879e+05 -9.914135e+04
-3.042496e+04 -2.521861e+05 -9.730213e+04
3.477884e+04 2.750859e+05 -8.346669e+04
2.825344e+04 -2.505797e+05 -7.336959e+04
2.011343e+04 -2.349859e+05 -9.713607e+04
2.711449e+05 2.715336e+05 -8.576911e+04
1.900084e+05 -2.266311e+04 -9.734860e+04
1.950735e+05 -5.068579e+04 -7.477926e+04
2.185569e+05 -1.498503e+05 -8.288655e+04
-6.888911e+04 -4.578414e+04 -7.318988e+04
-1.073107e+05 -8.116425e+04 -8.222058e+04
1.619954e+05 -5.779285e+02 -8.184962e+04
7.084861e+03 6.641727e+04 -9.854080e+04
1.381397e+05 -1.263592e+05 -8.530491e+04
1.098627e+05 1.630754e+05 -7.209864e+04
-1.507764e+05 -6.323440e+04 -7.238359e+04
4.044502e+04 7.915652e+04 -8.576252e+04
6.553853e+04 8.344927e+04 -7.113978e+04
3.828890e+04 1.036326e+05 -7.180178e+04
6.743902e+04 1.063176e+05 -9.428597e+04
2.352714e+05 -1.679007e+05 -9.357722e+04
2.678220e+05 -1.704459e+05 -7.361367e+04
1.450397e+05 2.239877e+05 -7.353997e+04
2.651239e+05 1.314064e+05 -7.171045e+04
-2.475720e+05 -8.204318e+04 -7.249299e+04
-2.475816e+05 -1.234403e+05 -6.873140e+04
-2.604895e+05 -1.170762e+05 -9.014743e+04
-2.271388e+05 -1.147651e+05 -8.053743e+04
-2.098399e+05 -1.131719e+05 -9.664512e+04
-2.138707e+05 -1.392894e+05 -7.651712e+04
-9.318650e+04 -1.614532e+05 -7.241971e+04
-6.304135e+04 -1.647904e+05 -9.779418e+04
-1.022708e+05 -1.638198e+05 -9.680752e+04
-8.695992e+03 1.006527e+05 -8.880318e+04
2.343354e+04 9.939543e+04 -9.558947e+04
1.940365e+05 -2.671996e+05 -7.339443e+04
1.188479e+04 -6.457230e+04 -8.120861e+04
3.372651e+03 -1.055080e+05 -9.683476e+04
1.596702e+05 6.894241e+04 -7.350516e+04
4.565554e+04 -1.014349e+05 -8.441471e+04
1.036767e+05 7.154557e+04 -9.783693e+04
9.625584e+04 9.892708e+04 -7.987196e+04
-2.001654e+05 1.190117e+05 -9.669312e+04
-1.907235e+05 8.639253e+04 -7.637026e+04
-2.015149e+05 8.440948e+04 -9.939899e+04
-1.412450e+05 8.600032e+04 -9.628254e+04
-1.615072e+05 7.150958e+04 -7.570778e+04
-1.917772e+05 1.199601e+05 -7.209610e+04
-1.708415e+05 6.776129e+04 -9.890600e+04
-1.323994e+05 -7.548129e+04 -1.015491e+05
-1.949609e+05 -1.832128e+05 -9.767063e+04
1.258845e+05 2.647897e+05 -9.797992e+04
2.942400e+04 -2.657812e+05 -9.896626e+04
2.714703e+05 1.411342e+05 -9.706793e+04
-1.887438e+05 5.454043e+04 -7.112221e+04
-1.966953e+05 4.871768e+04 -9.628096e+04
-2.176543e+05 6.887802e+04 -7.463750e+04
-2.307967e+05 1.024994e+05 -9.720288e+04
-2.197722e+05 1.040766e+05 -7.375612e+04
2.712906e+05 1.021528e+05 -7.297259e+04
1.991407e+05 1.579963e+04 -9.705365e+04
-7.169230e+04 2.299223e+05 -9.700124e+04
-2.715100e+05 -2.708652e+05 -8.387334e+04
1.022624e+05 4.141061e+04 -9.579173e+04
1.042368e+05 3.251163e+04 -7.222643e+04
-2.485330e+05 -4.472246e+04 -7.222798e+04
1.650599e+05 -2.909410e+04 -6.981254e+04
9.961278e+03 -9.957105e+04 -7.295342e+04
-2.616681e+05 -5.565280e+04 -9.301135e+04
-2.655467e+05 -8.978921e+04 -9.433439e+04
2.010252e+05 -1.542298e+04 -7.467969e+04
2.189481e+05 6.934317e+03 -7.293627e+04
1.522754e+05 2.981972e+04 -7.476152e+04
-1.387439e+05 5.396599e+04 -7.214608e+04
1.307165e+05 1.566065e+04 -7.187541e+04
1.281253e+05 5.159568e+04 -7.424701e+04
1.381355e+05 5.499085e+04 -9.822836e+04
2.242489e+05 -6.084642e+03 -9.752042e+04
1.371742e+05 -1.256735e+04 -7.633374e+04
5.872667e+04 -2.603733e+05 -7.243810e+04
1.891301e+05 1.550292e+04 -7.796159e+04
-3.791717e+04 2.294275e+05 -9.675008e+04
-4.662272e+04 2.212246e+05 -7.217922e+04
9.470001e+04 -2.640144e+05 -9.378129e+04
1.322291e+05 2.398912e+04 -9.586757e+04
-6.550852e+04 1.393787e+05 -9.796921e+04
1.687874e+05 3.646060e+04 -9.708346e+04
-2.928072e+05 -1.776407e+05 -6.068686e+04
-2.761463e+05 -1.742836e+05 -6.420179e+04
-2.886520e+05 -1.914050e+05 -6.486154e+04
-2.732157e+05 -1.912552e+05 -6.212841e+04
-2.911134e+05 -2.147786e+05 -5.899761e+04
2.913771e+05 5.913647e+04 -5.981501e+04
2.876053e+05 7.297670e+04 -6.496702e+04
2.770036e+05 5.958868e+04 -6.291383e+04
2.750109e+05 7.273934e+04 -5.829245e+04
2.864962e+05 8.944904e+04 -6.433560e+04
2.929733e+05 7.132974e+04 -7.803441e+04
2.620084e+05 7.176395e+04 -6.460095e+04
2.559855e+05 5.583533e+04 -6.380492e+04
2.417063e+05 4.779893e+04 -6.318686e+04
2.396322e+05 3.817713e+04 -5.752295e+04
2.297887e+05 4.042350e+04 -6.237120e+04
2.305945e+05 5.466968e+04 -6.151573e+04
2.315453e+05 5.041603e+04 -7.011608e+04
2.132219e+05 3.785116e+04 -6.244192e+04
2.008291e+05 3.992636e+04 -5.958582e+04
1.984046e+05 2.304710e+04 -6.466573e+04
1.796093e+05 1.777970e+04 -6.397275e+04
2.123210e+05 2.039196e+04 -6.176946e+04
1.581046e+05 1.981473e+04 -6.257579e+04
1.454617e+05 1.423119e+04 -6.031588e+04
1.504595e+05 2.974742e+03 -6.487480e+04
1.648774e+05 6.590254e+03 -6.070231e+04
1.848895e+05 2.512332e+03 -5.762114e+04
1.401404e+05 -3.209081e+03 -6.082608e+04
1.346797e+05 7.072488e+03 -6.091229e+04
1.499198e+05 -1.105199e+04 -6.208584e+04
1.187007e+05 4.682885e+03 -6.048854e+04
1.243538e+05 -1.091273e+04 -6.360371e+04
9.891229e+04 -7.656196e+03 -6.223518e+04
1.087069e+05 -2.642834e+03 -6.625334e+04
9.826105e+04 -2.379570e+04 -6.467219e+04
1.137081e+05 -2.193318e+04 -6.343402e+04
7.980889e+04 -1.404966e+04 -6.294055e+04
8.325749e+04 -3.013767e+04 -6.113686e+04
1.192981e+05 -1.557823e+04 -7.199946e+04
6.639065e+04 -2.376281e+04 -6.491218e+04
4.865303e+04 -2.242669e+04 -6.241608e+04
4.778954e+04 -4.246471e+04 -6.390025e+04
6.966878e+04 -3.901812e+04 -6.099436e+04
3.977574e+04 -3.285511e+04 -5.927806e+04
3.225894e+04 -5.544523e+04 -6.243517e+04
2.391863e+04 -4.080102e+04 -6.467235e+04
1.014198e+04 -4.182397e+04 -6.168880e+04
1.849843e+03 -5.000612e+04 -6.343212e+04
1.466468e+04 -5.845934e+04 -6.508843e+04
-4.512651e+03 -6.589729e+04 -6.514578e+04
2.750328e+04 -7.040115e+04 -6.305959e+04
1.410245e+04 -4.355052e+04 -7.247127e+04
-1.460339e+04 -5.433199e+04 -6.159820e+04
3.976678e+03 -3.199194e+04 -5.774432e+04
-1.995671e+04 -7.088443e+04 -6.682773e+04
-3.860993e+04 -7.252695e+04 -6.513415e+04
-2.798525e+04 -6.137184e+04 -6.350646e+04
-4.312827e+04 -6.532728e+04 -5.933609e+04
-6.305031e+03 -8.426944e+04 -6.534411e+04
-3.712417e+04 -8.761607e+04 -6.312150e+04
-2.022516e+04 -8.370494e+04 -5.956705e+04
-5.546515e+04 -7.796643e+04 -6.524165e+04
-5.861715e+04 -6.024153e+04 -6.404613e+04
-5.285939e+04 -9.271139e+04 -6.264957e+04
-6.726114e+04 -9.501293e+04 -6.259322e+04
-7.405864e+04 -8.372588e+04 -6.242167e+04
-4.545718e+04 -1.009427e+05 -6.497012e+04
-7.928262e+04 -1.041505e+05 -6.505826e+04
-9.158627e+04 -8.772117e+04 -6.612844e+04
-1.095532e+05 -9.583836e+04 -6.320410e+04
-1.011114e+05 -1.090063e+05 -6.629293e+04
-1.001334e+05 -7.404924e+04 -5.908131e+04
-1.068915e+05 -1.161000e+05 -5.644320e+04
-1.185971e+05 -1.125331e+05 -6.211369e+04
-1.238051e+05 -9.484346e+04 -6.582473e+04
-1.376340e+05 -1.149670e+05 -6.391137e+04
-1.471482e+05 -1.340132e+05 -6.278400e+04
-1.339234e+05 -1.391939e+05 -6.660805e+04
-1.628525e+05 -1.357285e+05 -6.308899e+04
-1.540527e+05 -1.221427e+05 -6.398579e+04
-1.718483e+05 -1.242283e+05 -6.144906e+04
-1.744641e+05 -1.364037e+05 -6.906986e+04
-1.748264e+05 -1.522395e+05 -6.439682e+04
-1.875466e+05 -1.367086e+05 -6.536846e+04
-1.814986e+05 -1.143122e+05 -5.784801e+04
-2.073927e+05 -1.413922e+05 -6.242334e+04
-1.944084e+05 -1.530264e+05 -6.217347e+04
-2.278639e+05 -1.678468e+05 -6.077756e+04
-2.091287e+05 -1.641149e+05 -6.445062e+04
-2.276968e+05 -1.559235e+05 -6.246783e+04
-2.402611e+05 -1.770089e+05 -6.061520e+04
-2.607377e+05 -1.664334e+05 -6.144361e+04
-2.451358e+05 -1.639267e+05 -6.456728e+04
-2.592296e+05 -1.798378e+05 -6.268912e+04
-2.584698e+05 -1.979802e+05 -6.220267e+04
-2.679277e+05 -1.602893e+05 -6.541150e+04
-2.850644e+05 -1.891098e+05 -5.746054e+04
-2.870222e+05 -1.814407e+05 -5.667253e+04
-2.953866e+05 -1.844167e+05 -5.418571e+04
-2.932350e+05 -1.901941e+05 -5.695641e+04
-2.955567e+05 -2.037636e+05 -5.449881e+04
2.935052e+05 7.319479e+04 -5.761626e+04
2.950744e+05 6.628159e+04 -5.439668e+04
2.848283e+05 7.098433e+04 -5.655251e+04
2.874832e+05 6.495019e+04 -5.586393e+04
2.933463e+05 8.149169e+04 -5.721393e+04
2.963739e+05 7.267018e+04 -6.414652e+04
2.802143e+05 6.091128e+04 -5.473115e+04
2.778126e+05 6.771944e+04 -5.449761e+04
2.714485e+05 6.778068e+04 -5.292071e+04
2.723588e+05 6.038369e+04 -5.576908e+04
2.650525e+05 6.665992e+04 -5.636588e+04
2.633318e+05 5.880583e+04 -5.772650e+04
2.537464e+05 5.521189e+04 -5.557671e+04
2.477750e+05 4.893952e+04 -5.558617e+04
2.399670e+05 4.722393e+04 -5.554034e+04
2.328422e+05 4.290008e+04 -5.514377e+04
2.379484e+05 4.233103e+04 -5.303740e+04
2.349925e+05 5.162794e+04 -5.608387e+04
2.315663e+05 5.583873e+04 -5.366159e+04
2.347293e+05 4.775581e+04 -5.950858e+04
2.243974e+05 3.976204e+04 -5.635058e+04
2.163640e+05 3.671674e+04 -5.534151e+04
2.086283e+05 3.633649e+04 -5.558234e+04
2.032351e+05 3.560349e+04 -5.406089e+04
2.023411e+05 2.797590e+04 -5.689944e+04
1.923577e+05 2.387573e+04 -5.708725e+04
2.095735e+05 2.693108e+04 -5.607302e+04
1.842274e+05 2.047656e+04 -5.604987e+04
1.746291e+05 1.765677e+04 -5.696066e+04
1.652587e+05 1.924370e+04 -5.553621e+04
1.570590e+05 1.607921e+04 -5.510459e+04
1.617172e+05 1.058601e+04 -5.509830e+04
1.681151e+05 1.210409e+04 -5.402665e+04
1.783898e+05 1.065612e+04 -5.404153e+04
1.550619e+05 6.351755e+03 -5.686499e+04
1.515020e+05 1.152509e+04 -5.532552e+04
1.448160e+05 1.053399e+04 -5.470077e+04
1.457135e+05 4.465837e+03 -5.687421e+04
1.376821e+05 4.161821e+03 -5.498339e+04
1.403227e+05 1.661049e+02 -5.417496e+04
1.460992e+05 -2.829303e+03 -5.607236e+04
1.307033e+05 3.234998e+03 -5.485265e+04
1.347819e+05 -2.487585e+03 -5.509387e+04
1.273276e+05 -7.374619e+03 -5.677857e+04
1.240487e+05 7.486563e+02 -5.626476e+04
1.153738e+05 -1.652678e+03 -5.465718e+04
1.178820e+05 -7.712465e+03 -5.653104e+04
1.045415e+05 -9.060734e+03 -5.581985e+04
1.093892e+05 -4.945371e+03 -5.725442e+04
1.055610e+05 -1.578392e+04 -5.787758e+04
1.138089e+05 -1.522206e+04 -5.738060e+04
9.708538e+04 -1.212594e+04 -5.669829e+04
9.701560e+04 -2.047658e+04 -5.613381e+04
8.995575e+04 -2.496551e+04 -5.548305e+04
8.864776e+04 -1.773691e+04 -5.718764e+04
8.107641e+04 -1.762264e+04 -5.480226e+04
8.227601e+04 -2.467874e+04 -5.539862e+04
7.447904e+04 -2.419806e+04 -5.732340e+04
6.591177e+04 -2.574675e+04 -5.665207e+04
6.753235e+04 -3.238183e+04 -5.569017e+04
7.504907e+04 -3.165457e+04 -5.484974e+04
7.624107e+04 -1.368587e+04 -5.375657e+04
5.891943e+04 -3.639654e+04 -5.710268e+04
5.781139e+04 -2.722374e+04 -5.779785e+04
4.726261e+04 -3.019210e+04 -5.525681e+04
4.732735e+04 -3.894897e+04 -5.650907e+04
4.360430e+04 -3.570518e+04 -5.308980e+04
3.970696e+04 -4.673089e+04 -5.634523e+04
3.843866e+04 -3.945997e+04 -5.474643e+04
3.192671e+04 -5.164943e+04 -5.548236e+04
2.372130e+04 -5.232311e+04 -5.713780e+04
3.045830e+04 -4.253964e+04 -5.752983e+04
2.075780e+04 -4.657522e+04 -5.563109e+04
8.426070e+03 -5.189667e+04 -5.660970e+04
1.365234e+04 -4.521133e+04 -5.530245e+04
1.406626e+04 -5.535691e+04 -5.645545e+04
4.654772e+03 -6.072206e+04 -5.794005e+04
2.115423e+04 -6.057645e+04 -5.658969e+04
1.600909e+04 -4.769741e+04 -6.030995e+04
6.765865e+02 -5.441609e+04 -5.662465e+04
1.012210e+04 -4.144443e+04 -5.370146e+04
-3.676896e+03 -6.377119e+04 -5.646004e+04
-1.142805e+04 -6.548685e+04 -5.818906e+04
-7.105318e+03 -5.837538e+04 -5.651117e+04
-1.690795e+04 -6.067153e+04 -5.639246e+04
-3.096596e+04 -6.674776e+04 -5.673454e+04
-2.834004e+04 -7.263741e+04 -5.980237e+04
-1.849871e+04 -6.981303e+04 -5.817772e+04
-2.213591e+04 -6.439280e+04 -5.679939e+04
-1.175262e+04 -7.481763e+04 -5.746491e+04
-2.671204e+04 -7.867095e+04 -5.676384e+04
-1.940622e+04 -7.553268e+04 -5.433081e+04
-3.627347e+04 -7.624754e+04 -5.741020e+04
-3.801196e+04 -7.074405e+04 -5.492874e+04
-4.534426e+04 -7.174407e+04 -5.385791e+04
-4.308069e+04 -7.563633e+04 -5.707661e+04
-3.479695e+04 -8.143089e+04 -5.518940e+04
-4.388636e+04 -8.287949e+04 -5.746444e+04
-5.119589e+04 -7.868076e+04 -5.728248e+04
-5.322025e+04 -7.011436e+04 -5.646670e+04
-5.111644e+04 -8.662538e+04 -5.557682e+04
-5.902292e+04 -8.947282e+04 -5.717622e+04
-6.191098e+04 -8.260999e+04 -5.722129e+04
-4.698863e+04 -9.014361e+04 -5.742843e+04
-6.645827e+04 -9.227862e+04 -5.550291e+04
-7.323183e+04 -9.356048e+04 -5.539447e+04
-6.950662e+04 -8.696932e+04 -5.574107e+04
-7.735539e+04 -8.766198e+04 -5.540644e+04
-7.776898e+04 -9.851418e+04 -5.732918e+04
-8.359424e+04 -9.046802e+04 -5.818931e+04
-9.256300e+04 -9.447738e+04 -5.638130e+04
-8.829498e+04 -1.020523e+05 -5.739942e+04
-8.884992e+04 -8.423079e+04 -5.477414e+04
-9.676448e+04 -1.054648e+05 -5.814459e+04
-1.011985e+05 -9.738914e+04 -5.750881e+04
-1.093586e+05 -1.015447e+05 -5.566692e+04
-1.061765e+05 -1.075487e+05 -5.772975e+04
-1.133938e+05 -1.105676e+05 -5.563308e+04
-1.082627e+05 -1.114584e+05 -5.259427e+04
-1.166631e+05 -1.021917e+05 -5.727628e+04
-1.215992e+05 -1.127597e+05 -5.554478e+04
-1.297512e+05 -1.152447e+05 -5.680002e+04
-1.415091e+05 -1.188012e+05 -5.666700e+04
-1.454360e+05 -1.292056e+05 -5.502856e+04
-1.382650e+05 -1.303487e+05 -5.735255e+04
-1.569982e+05 -1.244457e+05 -5.651774e+04
-1.535604e+05 -1.323917e+05 -5.662538e+04
-1.487021e+05 -1.230765e+05 -5.654947e+04
-1.611348e+05 -1.343037e+05 -5.496966e+04
-1.639220e+05 -1.277467e+05 -5.540069e+04
-1.710713e+05 -1.287962e+05 -5.430071e+04
-1.676465e+05 -1.343232e+05 -5.577765e+04
-1.726701e+05 -1.350579e+05 -5.936108e+04
-1.729307e+05 -1.435189e+05 -5.711631e+04
-1.793372e+05 -1.370541e+05 -5.747301e+04
-1.763214e+05 -1.244724e+05 -5.363149e+04
-1.888546e+05 -1.394837e+05 -5.721940e+04
-1.839706e+05 -1.474643e+05 -5.697077e+04
-1.966916e+05 -1.438658e+05 -5.663011e+04
-2.071954e+05 -1.456727e+05 -5.574456e+04
-1.929096e+05 -1.491614e+05 -5.581736e+04
-2.004584e+05 -1.507881e+05 -5.538775e+04
-2.177324e+05 -1.618978e+05 -5.666551e+04
-2.062898e+05 -1.563300e+05 -5.737262e+04
-2.179071e+05 -1.516210e+05 -5.695824e+04
-2.253641e+05 -1.646542e+05 -5.434715e+04
-2.316241e+05 -1.649698e+05 -5.515738e+04
-2.254617e+05 -1.584911e+05 -5.544439e+04
-2.319998e+05 -1.576834e+05 -5.508731e+04
-2.364218e+05 -1.701703e+05 -5.529773e+04
-2.473376e+05 -1.665048e+05 -5.599576e+04
-2.455147e+05 -1.724054e+05 -5.602740e+04
-2.385722e+05 -1.635121e+05 -5.745424e+04
-2.427931e+05 -1.563644e+05 -5.397495e+04
-2.795773e+05 -1.791018e+05 -5.548215e+04
-2.774234e+05 -1.858024e+05 -5.625446e+04
-2.699898e+05 -1.853504e+05 -5.535017e+04
-2.699096e+05 -1.771141e+05 -5.753408e+04
-2.537722e+05 -1.760580e+05 -5.684847e+04
-2.551875e+05 -1.686851e+05 -5.604789e+04
-2.630802e+05 -1.713438e+05 -5.444248e+04
-2.623122e+05 -1.772716e+05 -5.574273e+04
-2.631134e+05 -1.876956e+05 -5.593237e+04
-2.674855e+05 -1.692093e+05 -5.703835e+04
-2.905522e+05 -1.762739e+05 -5.371748e+04
2.838614e+05 5.887589e+04 -5.706346e+04
-1.323772e+05 -1.089734e+05 -5.370312e+04
2.474770e+05 5.425911e+04 -5.744504e+04
1.950462e+05 1.698634e+04 -5.386290e+04
1.509520e+05 1.626236e+04 -5.550519e+04
1.209869e+05 5.947748e+03 -5.338857e+04
5.634652e+04 -2.197425e+04 -5.384812e+04
2.633171e+04 -3.704475e+04 -5.466625e+04
-2.586694e+05 -1.627262e+05 -5.338531e+04
-1.481507e+05 -7.537184e+04 -2.375000e+04
-1.535932e+05 -6.594520e+04 -1.750000e+04
-1.469639e+05 -6.299366e+04 -1.750000e+04
-1.415215e+05 -7.242030e+04 -2.375000e+04
-8.185809e+04 -4.585646e+04 -2.375000e+04
-1.590357e+05 -5.651856e+04 -1.125000e+04
-9.392983e+04 -3.938136e+04 -1.750000e+04
-9.274304e+04 -2.700318e+04 -1.125000e+04
-8.730057e+04 -3.642982e+04 -1.750000e+04
-9.937230e+04 -2.995472e+04 -1.125000e+04
-1.282629e+05 -6.651722e+04 -2.375000e+04
-1.348922e+05 -6.946876e+04 -2.375000e+04
-1.337054e+05 -5.709058e+04 -1.750000e+04
-1.216337e+05 -6.356569e+04 -2.375000e+04
-1.204469e+05 -5.118751e+04 -1.750000e+04
-1.150044e+05 -6.061415e+04 -2.375000e+04
-1.270761e+05 -5.413905e+04 -1.750000e+04
-9.511662e+04 -5.175954e+04 -2.375000e+04
-8.848736e+04 -4.880800e+04 -2.375000e+04
-1.071884e+05 -4.528443e+04 -1.750000e+04
-1.005591e+05 -4.233290e+04 -1.750000e+04
-1.017459e+05 -5.471107e+04 -2.375000e+04
-1.083751e+05 -5.766261e+04 -2.375000e+04
-1.126308e+05 -3.585779e+04 -1.125000e+04
-1.060016e+05 -3.290626e+04 -1.125000e+04
-1.192601e+05 -3.880933e+04 -1.125000e+04
-1.138176e+05 -4.823597e+04 -1.750000e+04
-1.258894e+05 -4.176087e+04 -1.125000e+04
-1.524064e+05 -5.356702e+04 -1.125000e+04
-1.457771e+05 -5.061548e+04 -1.125000e+04
-1.403347e+05 -6.004212e+04 -1.750000e+04
-1.391479e+05 -4.766394e+04 -1.125000e+04
-1.325186e+05 -4.471241e+04 -1.125000e+04
CELLS 20 100
4  8715 1595 1527 1529
4  8715 1528 1309 1529
4  8714 8429 1477 1529
4  8427 8429 1309 1477
4  1241 8427 1243 1477
4  8427 8714 8429 1477
4  8429 1309 1477 1529
4  1482 1483 8714 1477
4  1482 1647 8714 1483
4  1595 8714 1648 1483
4  8715 8714 1595 1529
4  8427 1482 8714 1477
4  8714 1477 1483 1529
4  8714 1647 1648 1483
4  8715 1527 1528 1529
4  8427 1309 1243 1477
4  8715 8429 8714 1529
4  8715 1309 8429 1529
4  1241 1482 8427 1477
4  1595 8714 1483 1529
CELL_TYPES 20
10
10
10
10
10
10
10
10
10
10
10
10
10
10
10
10
10
10
10
10
CELL_DATA 20
SCALARS total_strain double 6
LOOKUP_TABLE default
-3.485398e-07 -2.918452e-07 1.506399e-05 3.027005e-07 -2.281581e-06 -4.606391e-06
-8.806451e-07 -4.524776e-07 -1.388943e-06 -1.779977e-07 -2.956883e-06 5.755601e-06
-2.323892e-06 -1.834134e-07 -2.176924e-05 -1.059335e-07 -6.443561e-07 -2.591395e-06
-1.809039e-06 -1.129230e-06 2.625845e-05 -6.598011e-07 -3.715519e-06 5.265114e-06
-2.870552e-07 6.685496e-07 -8.774759e-06 3.601311e-07 2.591939e-06 6.145556e-06
-2.534169e-06 -3.555243e-07 1.962230e-05 -3.866634e-07 4.946537e-06 -9.031971e-07
-8.491117e-07 -7.462968e-07 1.100449e-05 -4.678766e-08 -3.541468e-06 6.116659e-06
-9.838275e-07 5.732848e-08 -1.589742e-06 -2.928064e-07 7.439174e-06 3.483051e-06
-8.601247e-07 1.025683e-07 4.401285e-06 -3.715074e-07 9.757230e-06 -1.770058e-06
-4.472388e-07 -2.305667e-07 3.647941e-06 1.234853e-08 -2.667522e-06 -8.075931e-06
-2.939845e-07 -1.373497e-06 2.152488e-05 1.064501e-07 -2.570154e-06 -5.426518e-06
-2.439242e-06 7.204573e-09 1.324198e-05 -6.705269e-07 7.430828e-06 -1.122164e-06
-9.843465e-07 -1.660920e-07 -6.214022e-06 -5.086848e-07 -1.363624e-06 3.415640e-06
-4.480027e-07 3.847101e-07 8.660135e-06 7.338822e-09 6.231935e-06 -8.463900e-06
7.514852e-07 -6.268007e-07 -1.477227e-05 2.097023e-07 -7.020151e-06 5.495329e-07
-2.756910e-07 -2.944420e-07 1.256292e-05 4.716041e-07 -3.457350e-06 5.645799e-06
-3.213966e-06 -2.175534e-06 2.372459e-05 -1.444883e-06 -2.231904e-06 -4.337558e-06
-8.630681e-07 -1.963384e-06 1.559640e-05 -1.771188e-07 -1.643567e-06 6.319307e-06
-9.799320e-07 7.335734e-07 4.123154e-06 4.748519e-07 6.394265e-06 -8.395739e-07
-2.458570e-07 -4.303287e-08 -1.728246e-06 -1.892258e-07 -5.613062e-06 -4.021442e-06
SCALARS stress double 6
LOOKUP_TABLE default
-1.416125e+09 -1.216119e+09 -1.374497e+09 3.196517e+04 -2.409350e+05 -4.864349e+05
-1.416948e+09 -1.216903e+09 -1.377002e+09 -1.879656e+04 -3.122469e+05 6.077915e+05
-1.470114e+09 -1.269888e+09 -1.432168e+09 -1.118657e+04 -6.804400e+04 -2.736513e+05
-1.460111e+09 -1.260039e+09 -1.417147e+09 -6.967499e+04 -3.923588e+05 5.559960e+05
-1.418465e+09 -1.218365e+09 -1.379362e+09 3.802985e+04 2.737087e+05 6.489707e+05
-1.497946e+09 -1.297716e+09 -1.455606e+09 -4.083165e+04 5.223544e+05 -9.537762e+04
-1.430987e+09 -1.230976e+09 -1.389735e+09 -4.940777e+03 -3.739790e+05 6.459192e+05
-1.426095e+09 -1.225985e+09 -1.386159e+09 -3.092036e+04 7.855768e+05 3.678102e+05
-1.425806e+09 -1.225704e+09 -1.385250e+09 -3.923118e+04 1.030363e+06 -1.869181e+05
-1.425793e+09 -1.225770e+09 -1.385360e+09 1.304004e+03 -2.816903e+05 -8.528183e+05
-1.453340e+09 -1.253454e+09 -1.411036e+09 1.124113e+04 -2.714083e+05 -5.730403e+05
-1.455297e+09 -1.255039e+09 -1.413641e+09 -7.080764e+04 7.846954e+05 -1.185005e+05
-1.426312e+09 -1.226225e+09 -1.386864e+09 -5.371712e+04 -1.439987e+05 3.606916e+05
-1.425541e+09 -1.225453e+09 -1.384579e+09 7.749796e+02 6.580924e+05 -8.937878e+05
-1.417310e+09 -1.217455e+09 -1.378949e+09 2.214456e+04 -7.413279e+05 5.803068e+04
-1.417552e+09 -1.217554e+09 -1.376196e+09 4.980139e+04 -3.650962e+05 5.961963e+05
-1.496620e+09 -1.296511e+09 -1.453775e+09 -1.525797e+05 -2.356891e+05 -4.580461e+05
-1.459157e+09 -1.259273e+09 -1.417419e+09 -1.870375e+04 -1.735607e+05 6.673188e+05
-1.417989e+09 -1.217809e+09 -1.377451e+09 5.014436e+04 6.752344e+05 -8.865901e+04
-1.425994e+09 -1.225973e+09 -1.386151e+09 -1.998224e+04 -5.927394e+05 -4.246643e+05
